p wcnf 155 677 1000000
1000000 1 0
1000000 2 -31 0
1000000 31 -111 -1 0
1000000 14 -32 0
1000000 32 -115 -116 -1 0
1000000 15 -33 0
1000000 33 -110 -118 -1 0
1000000 20 -34 0
1000000 34 -113 -119 -1 0
1000000 3 -35 0
1000000 35 -117 -1 0
1000000 5 -36 0
1000000 36 -120 -114 -1 0
1000000 9 -37 0
1000000 37 -121 -1 0
1000000 11 -38 0
1000000 38 -112 -2 0
1000000 16 -39 0
1000000 39 -123 -124 -2 0
1000000 5 -40 0
1000000 40 -125 -2 0
1000000 6 -41 0
1000000 41 -126 -128 -2 0
1000000 7 -42 0
1000000 42 -129 -131 -2 0
1000000 8 -43 0
1000000 43 -134 -133 -2 0
1000000 9 -44 0
1000000 44 -122 -135 -2 0
1000000 10 -45 0
1000000 45 -127 -132 -2 0
1000000 15 -46 0
1000000 46 -139 -137 -130 -11 0
1000000 21 -47 0
1000000 47 -111 -140 -138 -11 0
1000000 18 -48 0
1000000 48 -110 -112 -143 -12 0
1000000 25 -49 0
1000000 49 -118 -115 -113 -12 0
1000000 19 -50 0
1000000 50 -142 -120 -116 -13 0
1000000 24 -51 0
1000000 51 -121 -136 -13 0
1000000 16 -52 0
1000000 52 -117 -14 0
1000000 21 -53 0
1000000 53 -114 -14 0
1000000 26 -54 0
1000000 54 -141 -122 -14 0
1000000 18 -55 0
1000000 55 -119 -15 0
1000000 20 -56 0
1000000 56 -124 -15 0
1000000 28 -57 0
1000000 57 -125 -128 -126 -15 0
1000000 19 -58 0
1000000 58 -134 -133 -131 -16 0
1000000 25 -59 0
1000000 59 -127 -123 -138 -16 0
1000000 19 -60 0
1000000 60 -132 -17 0
1000000 21 -61 0
1000000 61 -140 -135 -129 -17 0
1000000 27 -62 0
1000000 62 -141 -137 -17 0
1000000 19 -63 0
1000000 63 -139 -18 0
1000000 21 -64 0
1000000 64 -130 -18 0
1000000 23 -65 0
1000000 65 -113 -136 -143 -18 0
1000000 25 -66 0
1000000 66 -115 -111 -18 0
1000000 20 -67 0
1000000 67 -110 -117 -142 -19 0
1000000 21 -68 0
1000000 68 -114 -118 -116 -19 0
1000000 29 -69 0
1000000 69 -120 -19 0
1000000 22 -70 0
1000000 70 -119 -20 0
1000000 25 -71 0
1000000 71 -126 -122 -123 -20 0
1000000 19 -72 0
1000000 72 -112 -3 0
1000000 20 -73 0
1000000 73 -121 -3 0
1000000 4 -74 0
1000000 74 -125 -3 0
1000000 5 -75 0
1000000 75 -131 -128 -124 -3 0
1000000 22 -76 0
1000000 76 -129 -21 0
1000000 23 -77 0
1000000 77 -133 -132 -136 -21 0
1000000 25 -78 0
1000000 78 -127 -21 0
1000000 23 -79 0
1000000 79 -130 -139 -22 0
1000000 29 -80 0
1000000 80 -135 -22 0
1000000 24 -81 0
1000000 81 -110 -134 -137 -23 0
1000000 25 -82 0
1000000 82 -138 -23 0
1000000 26 -83 0
1000000 83 -142 -112 -114 -24 0
1000000 30 -84 0
1000000 84 -118 -111 -140 -24 0
1000000 26 -85 0
1000000 85 -113 -25 0
1000000 30 -86 0
1000000 86 -120 -115 -116 -25 0
1000000 28 -87 0
1000000 87 -143 -27 0
1000000 6 -88 0
1000000 88 -141 -119 -4 0
1000000 7 -89 0
1000000 89 -125 -128 -126 -4 0
1000000 11 -90 0
1000000 90 -131 -127 -117 -5 0
1000000 6 -91 0
1000000 91 -129 -122 -134 -5 0
1000000 11 -92 0
1000000 92 -136 -132 -121 -6 0
1000000 13 -93 0
1000000 93 -133 -135 -6 0
1000000 13 -94 0
1000000 94 -130 -139 -7 0
1000000 16 -95 0
1000000 95 -124 -7 0
1000000 17 -96 0
1000000 96 -137 -140 -111 -7 0
1000000 18 -97 0
1000000 97 -143 -142 -123 -7 0
1000000 22 -98 0
1000000 98 -112 -114 -7 0
1000000 11 -99 0
1000000 99 -138 -8 0
1000000 18 -100 0
1000000 100 -116 -117 -8 0
1000000 21 -101 0
1000000 101 -119 -110 -8 0
1000000 27 -102 0
1000000 102 -113 -8 0
1000000 16 -103 0
1000000 103 -122 -123 -115 -9 0
1000000 19 -104 0
1000000 104 -127 -125 -128 -9 0
1000000 30 -105 0
1000000 105 -120 -141 -9 0
1000000 10 -106 0
1000000 106 -124 -129 -9 0
1000000 11 -107 0
1000000 107 -132 -130 -10 0
1000000 12 -108 0
1000000 108 -121 -10 0
1000000 13 -109 0
1000000 109 -126 -10 0
1000000 1 0
1000000 -2 31 0
1000000 -3 35 0
1000000 -4 74 0
1000000 -5 75 40 36 0
1000000 -6 91 88 41 0
1000000 -7 42 89 0
1000000 -8 43 0
1000000 -9 44 37 0
1000000 -10 45 106 0
1000000 -11 38 99 90 92 107 0
1000000 -12 108 0
1000000 -13 109 94 93 0
1000000 -14 32 0
1000000 -15 33 46 0
1000000 -16 39 103 52 95 0
1000000 -17 96 0
1000000 -18 100 48 97 55 0
1000000 -19 104 58 50 63 60 72 0
1000000 -20 34 56 67 73 0
1000000 -21 64 47 61 53 68 101 0
1000000 -22 76 70 98 0
1000000 -23 65 79 77 0
1000000 -24 81 51 0
1000000 -25 82 59 78 71 66 49 0
1000000 -26 83 54 85 0
1000000 -27 102 62 0
1000000 -28 57 87 0
1000000 -29 69 80 0
1000000 -30 86 105 84 0
1000000 110 155 0
1000000 111 148 0
1000000 112 152 0
1000000 113 146 0
1000000 114 147 0
1000000 115 150 0
1000000 116 154 0
1000000 117 150 0
1000000 118 154 0
1000000 119 155 0
1000000 120 146 0
1000000 121 153 0
1000000 122 153 0
1000000 123 148 0
1000000 124 150 0
1000000 125 153 0
1000000 126 144 0
1000000 127 148 0
1000000 128 149 0
1000000 129 147 0
1000000 130 152 0
1000000 131 151 0
1000000 132 154 0
1000000 133 155 0
1000000 134 147 0
1000000 135 152 0
1000000 136 145 0
1000000 137 151 0
1000000 138 149 0
1000000 139 145 0
1000000 140 144 0
1000000 141 146 0
1000000 142 149 0
1000000 143 144 0
1000000 -110 -155 0
1000000 -111 -148 0
1000000 -112 -152 0
1000000 -113 -146 0
1000000 -114 -147 0
1000000 -115 -150 0
1000000 -116 -154 0
1000000 -117 -150 0
1000000 -118 -154 0
1000000 -119 -155 0
1000000 -120 -146 0
1000000 -121 -153 0
1000000 -122 -153 0
1000000 -123 -148 0
1000000 -124 -150 0
1000000 -125 -153 0
1000000 -126 -144 0
1000000 -127 -148 0
1000000 -128 -149 0
1000000 -129 -147 0
1000000 -130 -152 0
1000000 -131 -151 0
1000000 -132 -154 0
1000000 -133 -155 0
1000000 -134 -147 0
1000000 -135 -152 0
1000000 -136 -145 0
1000000 -137 -151 0
1000000 -138 -149 0
1000000 -139 -145 0
1000000 -140 -144 0
1000000 -141 -146 0
1000000 -142 -149 0
1000000 -143 -144 0
7900 -144 0
7000 -145 0
11700 -146 0
6900 -147 0
11700 -148 0
10400 -149 0
7000 -150 0
10400 -151 0
7000 -152 0
6900 -153 0
7000 -154 0
7400 -155 0
2000 110 0
1400 111 0
2900 112 0
3500 113 0
1900 114 0
1900 115 0
1400 116 0
1900 117 0
3500 118 0
3500 119 0
2000 120 0
3500 121 0
1400 122 0
1100 123 0
2000 124 0
2000 125 0
1200 126 0
1200 127 0
1900 128 0
1600 129 0
1900 130 0
3500 131 0
1600 132 0
1600 133 0
1100 134 0
2000 135 0
2900 136 0
1900 137 0
1600 138 0
1300 139 0
2900 140 0
1600 141 0
1400 142 0
2900 143 0
11520 -31 0
43095 -35 0
3528 -74 0
20195 75 40 -36 0
20195 75 -40 36 0
33322 75 -40 -36 0
8655 -75 40 36 0
25821 -75 40 -36 0
25821 -75 -40 36 0
36978 -75 -40 -36 0
23320 91 88 -41 0
37895 91 -88 41 0
46057 91 -88 -41 0
55385 -91 88 41 0
56551 -91 88 -41 0
57280 -91 -88 41 0
57688 -91 -88 -41 0
330 42 -89 0
4950 -42 89 0
5181 -42 -89 0
960 -43 0
720 44 -37 0
2880 -44 37 0
3456 -44 -37 0
2880 45 -106 0
6720 -45 106 0
7584 -45 -106 0
39780 38 99 90 92 -107 0
7956 38 99 90 -92 107 0
42962 38 99 90 -92 -107 0
56355 38 99 -90 92 107 0
62322 38 99 -90 92 -107 0
57548 38 99 -90 -92 107 0
62799 38 99 -90 -92 -107 0
21216 38 -99 90 92 107 0
48266 38 -99 90 92 -107 0
26626 38 -99 90 -92 107 0
50430 38 -99 90 -92 -107 0
59537 38 -99 -90 92 107 0
63595 38 -99 -90 92 -107 0
60349 38 -99 -90 -92 107 0
63920 38 -99 -90 -92 -107 0
16575 -38 99 90 92 107 0
46410 -38 99 90 92 -107 0
22542 -38 99 90 -92 107 0
48797 -38 99 90 -92 -107 0
58841 -38 99 -90 92 107 0
63316 -38 99 -90 92 -107 0
59736 -38 99 -90 -92 107 0
63675 -38 99 -90 -92 -107 0
32487 -38 -99 90 92 107 0
52775 -38 -99 90 92 -107 0
36545 -38 -99 90 -92 107 0
54398 -38 -99 90 -92 -107 0
61228 -38 -99 -90 92 107 0
64271 -38 -99 -90 92 -107 0
61837 -38 -99 -90 -92 107 0
64515 -38 -99 -90 -92 -107 0
1890 -108 0
54145 109 94 -93 0
41405 109 -94 93 0
60356 109 -94 -93 0
38220 -109 94 93 0
59878 -109 94 -93 0
54782 -109 -94 93 0
62362 -109 -94 -93 0
22950 -32 0
51930 33 -46 0
37505 -33 46 0
55680 -33 -46 0
2880 39 103 52 -95 0
7680 39 103 -52 95 0
8256 39 103 -52 -95 0
192 39 -103 52 95 0
3014 39 -103 52 -95 0
7718 39 -103 -52 95 0
8283 39 -103 -52 -95 0
480 -39 103 52 95 0
3216 -39 103 52 -95 0
7776 -39 103 -52 95 0
8323 -39 103 -52 -95 0
662 -39 -103 52 95 0
3344 -39 -103 52 -95 0
7812 -39 -103 -52 95 0
8349 -39 -103 -52 -95 0
25680 -96 0
2880 100 48 97 -55 0
3360 100 48 -97 55 0
5232 100 48 -97 -55 0
1920 100 -48 97 55 0
4224 100 -48 97 -55 0
4608 100 -48 -97 55 0
6106 100 -48 -97 -55 0
4320 -100 48 97 55 0
5904 -100 48 97 -55 0
6168 -100 48 -97 55 0
7198 -100 48 -97 -55 0
5376 -100 -48 97 55 0
6643 -100 -48 97 -55 0
6854 -100 -48 -97 55 0
7678 -100 -48 -97 -55 0
5830 104 58 50 63 60 -72 0
37895 104 58 50 63 -60 72 0
39936 104 58 50 63 -60 -72 0
40810 104 58 50 -63 60 72 0
42559 104 58 50 -63 60 -72 0
52178 104 58 50 -63 -60 72 0
52791 104 58 50 -63 -60 -72 0
32065 104 58 -50 63 60 72 0
34688 104 58 -50 63 60 -72 0
49118 104 58 -50 63 -60 72 0
50036 104 58 -50 63 -60 -72 0
50430 104 58 -50 -63 60 72 0
51217 104 58 -50 -63 60 -72 0
55545 104 58 -50 -63 -60 72 0
55821 104 58 -50 -63 -60 -72 0
55385 104 -58 50 63 60 72 0
55676 104 -58 50 63 60 -72 0
57280 104 -58 50 63 -60 72 0
57382 104 -58 50 63 -60 -72 0
57425 104 -58 50 -63 60 72 0
57513 104 -58 50 -63 60 -72 0
57994 104 -58 50 -63 -60 72 0
58025 104 -58 50 -63 -60 -72 0
56988 104 -58 -50 63 60 72 0
57119 104 -58 -50 63 60 -72 0
57841 104 -58 -50 63 -60 72 0
57887 104 -58 -50 63 -60 -72 0
57906 104 -58 -50 -63 60 72 0
57946 104 -58 -50 -63 60 -72 0
58162 104 -58 -50 -63 -60 72 0
58176 104 -58 -50 -63 -60 -72 0
55385 -104 58 50 63 60 72 0
55676 -104 58 50 63 60 -72 0
57280 -104 58 50 63 -60 72 0
57382 -104 58 50 63 -60 -72 0
57425 -104 58 50 -63 60 72 0
57513 -104 58 50 -63 60 -72 0
57994 -104 58 50 -63 -60 72 0
58025 -104 58 50 -63 -60 -72 0
56988 -104 58 -50 63 60 72 0
57119 -104 58 -50 63 60 -72 0
57841 -104 58 -50 63 -60 72 0
57887 -104 58 -50 63 -60 -72 0
57906 -104 58 -50 -63 60 72 0
57946 -104 58 -50 -63 60 -72 0
58162 -104 58 -50 -63 -60 72 0
58176 -104 58 -50 -63 -60 -72 0
58154 -104 -58 50 63 60 72 0
58169 -104 -58 50 63 60 -72 0
58249 -104 -58 50 63 -60 72 0
58254 -104 -58 50 63 -60 -72 0
58256 -104 -58 50 -63 60 72 0
58261 -104 -58 50 -63 60 -72 0
58285 -104 -58 50 -63 -60 72 0
58286 -104 -58 50 -63 -60 -72 0
58234 -104 -58 -50 63 60 72 0
58241 -104 -58 -50 63 60 -72 0
58277 -104 -58 -50 63 -60 72 0
58279 -104 -58 -50 63 -60 -72 0
58280 -104 -58 -50 -63 60 72 0
58282 -104 -58 -50 -63 60 -72 0
58293 -104 -58 -50 -63 -60 72 0
58294 -104 -58 -50 -63 -60 -72 0
720 34 56 67 -73 0
5472 34 56 -67 73 0
5918 34 56 -67 -73 0
2160 34 -56 67 73 0
2772 34 -56 67 -73 0
6811 34 -56 -67 73 0
7191 34 -56 -67 -73 0
3600 -34 56 67 73 0
4140 -34 56 67 -73 0
7704 -34 56 -67 73 0
8039 -34 56 -67 -73 0
5220 -34 -56 67 73 0
5679 -34 -56 67 -73 0
8708 -34 -56 -67 73 0
8993 -34 -56 -67 -73 0
10494 64 47 61 53 68 -101 0
14575 64 47 61 53 -68 101 0
22446 64 47 61 53 -68 -101 0
29150 64 47 61 -53 68 101 0
34397 64 47 61 -53 68 -101 0
36438 64 47 61 -53 -68 101 0
40373 64 47 61 -53 -68 -101 0
17490 64 47 -61 53 68 101 0
24836 64 47 -61 53 68 -101 0
27693 64 47 -61 53 -68 101 0
33202 64 47 -61 53 -68 -101 0
37895 64 47 -61 -53 68 101 0
41568 64 47 -61 -53 68 -101 0
42996 64 47 -61 -53 -68 101 0
45751 64 47 -61 -53 -68 -101 0
20405 64 -47 61 53 68 101 0
27226 64 -47 61 53 68 -101 0
29879 64 -47 61 53 -68 101 0
34995 64 -47 61 53 -68 -101 0
39353 64 -47 61 -53 68 101 0
42763 64 -47 61 -53 68 -101 0
44089 64 -47 61 -53 -68 101 0
46647 64 -47 61 -53 -68 -101 0
31774 64 -47 -61 53 68 101 0
36548 64 -47 -61 53 68 -101 0
38405 64 -47 -61 53 -68 101 0
41986 64 -47 -61 53 -68 -101 0
45037 64 -47 -61 -53 68 101 0
47424 64 -47 -61 -53 68 -101 0
48353 64 -47 -61 -53 -68 101 0
50143 64 -47 -61 -53 -68 -101 0
26235 -64 47 61 53 68 101 0
32007 -64 47 61 53 68 -101 0
34251 -64 47 61 53 -68 101 0
38580 -64 47 61 53 -68 -101 0
42268 -64 47 61 -53 68 101 0
45153 -64 47 61 -53 68 -101 0
46276 -64 47 61 -53 -68 101 0
48440 -64 47 61 -53 -68 -101 0
35855 -64 47 -61 53 68 101 0
39895 -64 47 -61 53 68 -101 0
41466 -64 47 -61 53 -68 101 0
44496 -64 47 -61 53 -68 -101 0
47077 -64 47 -61 -53 68 101 0
49097 -64 47 -61 -53 68 -101 0
49883 -64 47 -61 -53 -68 101 0
51398 -64 47 -61 -53 -68 -101 0
37458 -64 -47 61 53 68 101 0
41209 -64 -47 61 53 68 -101 0
42668 -64 -47 61 53 -68 101 0
45482 -64 -47 61 53 -68 -101 0
47879 -64 -47 61 -53 68 101 0
49755 -64 -47 61 -53 68 -101 0
50484 -64 -47 61 -53 -68 101 0
51891 -64 -47 61 -53 -68 -101 0
43710 -64 -47 -61 53 68 101 0
46337 -64 -47 -61 53 68 -101 0
47358 -64 -47 -61 53 -68 101 0
49327 -64 -47 -61 53 -68 -101 0
51005 -64 -47 -61 -53 68 101 0
52318 -64 -47 -61 -53 68 -101 0
52829 -64 -47 -61 -53 -68 101 0
53814 -64 -47 -61 -53 -68 -101 0
6996 76 70 -98 0
34980 76 -70 98 0
37778 76 -70 -98 0
46640 -76 70 98 0
48039 -76 70 -98 0
53636 -76 -70 98 0
54196 -76 -70 -98 0
13050 65 79 -77 0
32625 65 -79 77 0
39802 65 -79 -77 0
50750 -65 79 77 0
54665 -65 79 -77 0
60538 -65 -79 77 0
62691 -65 -79 -77 0
4480 81 -51 0
1120 -81 51 0
5152 -81 -51 0
7680 82 59 78 71 66 -49 0
3840 82 59 78 71 -66 49 0
8448 82 59 78 71 -66 -49 0
5280 82 59 78 -71 66 49 0
8736 82 59 78 -71 66 -49 0
7008 82 59 78 -71 -66 49 0
9082 82 59 78 -71 -66 -49 0
8160 82 59 -78 71 66 49 0
9312 82 59 -78 71 66 -49 0
8736 82 59 -78 71 -66 49 0
9427 82 59 -78 71 -66 -49 0
8952 82 59 -78 -71 66 49 0
9470 82 59 -78 -71 66 -49 0
9211 82 59 -78 -71 -66 49 0
9522 82 59 -78 -71 -66 -49 0
6240 82 -59 78 71 66 49 0
8928 82 -59 78 71 66 -49 0
7584 82 -59 78 71 -66 49 0
9197 82 -59 78 71 -66 -49 0
8088 82 -59 78 -71 66 49 0
9298 82 -59 78 -71 66 -49 0
8693 82 -59 78 -71 -66 49 0
9419 82 -59 78 -71 -66 -49 0
9096 82 -59 -78 71 66 49 0
9499 82 -59 -78 71 66 -49 0
9298 82 -59 -78 71 -66 49 0
9540 82 -59 -78 71 -66 -49 0
9373 82 -59 -78 -71 66 49 0
9555 82 -59 -78 -71 66 -49 0
9464 82 -59 -78 -71 -66 49 0
9573 82 -59 -78 -71 -66 -49 0
3840 -82 59 78 71 66 49 0
8448 -82 59 78 71 66 -49 0
6144 -82 59 78 71 -66 49 0
8909 -82 59 78 71 -66 -49 0
7008 -82 59 78 -71 66 49 0
9082 -82 59 78 -71 66 -49 0
8045 -82 59 78 -71 -66 49 0
9289 -82 59 78 -71 -66 -49 0
8736 -82 59 -78 71 66 49 0
9427 -82 59 -78 71 66 -49 0
9082 -82 59 -78 71 -66 49 0
9496 -82 59 -78 71 -66 -49 0
9211 -82 59 -78 -71 66 49 0
9522 -82 59 -78 -71 66 -49 0
9367 -82 59 -78 -71 -66 49 0
9553 -82 59 -78 -71 -66 -49 0
7584 -82 -59 78 71 66 49 0
9197 -82 -59 78 71 66 -49 0
8390 -82 -59 78 71 -66 49 0
9358 -82 -59 78 71 -66 -49 0
8693 -82 -59 78 -71 66 49 0
9419 -82 -59 78 -71 66 -49 0
9056 -82 -59 78 -71 -66 49 0
9491 -82 -59 78 -71 -66 -49 0
9298 -82 -59 -78 71 66 49 0
9540 -82 -59 -78 71 66 -49 0
9419 -82 -59 -78 71 -66 49 0
9564 -82 -59 -78 71 -66 -49 0
9464 -82 -59 -78 -71 66 49 0
9573 -82 -59 -78 -71 66 -49 0
9518 -82 -59 -78 -71 -66 49 0
9584 -82 -59 -78 -71 -66 -49 0
4800 83 54 -85 0
1440 83 -54 85 0
5520 83 -54 -85 0
3840 -83 54 85 0
6720 -83 54 -85 0
4704 -83 -54 85 0
7152 -83 -54 -85 0
60515 102 -62 0
31850 -102 62 0
62107 -102 -62 0
4950 57 -87 0
4125 -57 87 0
7838 -57 -87 0
13575 69 -80 0
2715 -69 80 0
14254 -69 -80 0
49725 86 105 -84 0
62985 86 -105 84 0
65471 86 -105 -84 0
39780 -86 105 84 0
59670 -86 105 -84 0
64974 -86 -105 84 0
65968 -86 -105 -84 0
