p wcnf 57 177 1000000
1000000 1 0
1000000 2 -15 0
1000000 15 -42 -43 -1 0
1000000 11 -16 0
1000000 16 -45 -49 -1 0
1000000 3 -17 0
1000000 17 -44 -1 0
1000000 4 -18 0
1000000 18 -43 -42 -53 -1 0
1000000 5 -19 0
1000000 19 -47 -1 0
1000000 7 -20 0
1000000 20 -46 -44 -1 0
1000000 10 -21 0
1000000 21 -46 -48 -1 0
1000000 3 -22 0
1000000 22 -50 -2 0
1000000 5 -23 0
1000000 23 -52 -2 0
1000000 13 -24 0
1000000 24 -47 -51 -12 0
1000000 12 -25 0
1000000 25 -45 -3 0
1000000 4 -26 0
1000000 26 -51 -44 -42 -3 0
1000000 7 -27 0
1000000 27 -43 -49 -50 -3 0
1000000 10 -28 0
1000000 28 -52 -3 0
1000000 6 -29 0
1000000 29 -47 -46 -4 0
1000000 10 -30 0
1000000 30 -42 -49 -52 -4 0
1000000 14 -31 0
1000000 31 -48 -5 0
1000000 7 -32 0
1000000 32 -45 -5 0
1000000 11 -33 0
1000000 33 -50 -6 0
1000000 9 -34 0
1000000 34 -51 -6 0
1000000 11 -35 0
1000000 35 -43 -7 0
1000000 13 -36 0
1000000 36 -44 -7 0
1000000 8 -37 0
1000000 37 -52 -49 -48 -7 0
1000000 9 -38 0
1000000 38 -48 -50 -42 -7 0
1000000 10 -39 0
1000000 39 -53 -8 0
1000000 12 -40 0
1000000 40 -43 -44 -49 -10 0
1000000 13 -41 0
1000000 41 -45 -10 0
1000000 1 0
1000000 -2 15 0
1000000 -3 22 17 0
1000000 -4 26 18 0
1000000 -5 23 19 0
1000000 -6 29 0
1000000 -7 32 27 20 0
1000000 -8 37 0
1000000 -9 38 34 0
1000000 -10 28 39 30 21 0
1000000 -11 35 16 33 0
1000000 -12 40 25 0
1000000 -13 36 41 24 0
1000000 -14 31 0
1000000 42 54 0
1000000 43 54 0
1000000 44 57 0
1000000 45 54 0
1000000 46 57 0
1000000 47 57 0
1000000 48 56 0
1000000 49 56 0
1000000 50 56 0
1000000 51 55 0
1000000 52 55 0
1000000 53 55 0
1000000 -42 -54 0
1000000 -43 -54 0
1000000 -44 -57 0
1000000 -45 -54 0
1000000 -46 -57 0
1000000 -47 -57 0
1000000 -48 -56 0
1000000 -49 -56 0
1000000 -50 -56 0
1000000 -51 -55 0
1000000 -52 -55 0
1000000 -53 -55 0
11300 -54 0
9000 -55 0
10400 -56 0
7700 -57 0
800 42 0
800 43 0
2100 44 0
800 45 0
2500 46 0
2100 47 0
800 48 0
2500 49 0
800 50 0
1800 51 0
800 52 0
1800 53 0
3000 -15 0
24850 22 -17 0
24850 -22 17 0
37275 -22 -17 0
20045 26 -18 0
20045 -26 18 0
21047 -26 -18 0
29820 23 -19 0
39760 -23 19 0
45724 -23 -19 0
4700 -29 0
1055 32 27 -20 0
8018 32 -27 20 0
8672 32 -27 -20 0
2110 -32 27 20 0
3060 -32 27 -20 0
9326 -32 -27 20 0
9915 -32 -27 -20 0
16380 -37 0
720 38 -34 0
8640 -38 34 0
8928 -38 -34 0
23120 28 39 30 -21 0
2890 28 39 -30 21 0
23698 28 39 -30 -21 0
3468 28 -39 30 21 0
23814 28 -39 30 -21 0
6011 28 -39 -30 21 0
24322 28 -39 -30 -21 0
20230 -28 39 30 21 0
27166 -28 39 30 -21 0
21097 -28 39 -30 21 0
27339 -28 39 -30 -21 0
21270 -28 -39 30 21 0
27374 -28 -39 30 -21 0
22033 -28 -39 -30 21 0
27527 -28 -39 -30 -21 0
7200 35 16 -33 0
2160 35 -16 33 0
8064 35 -16 -33 0
600 -35 16 33 0
7440 -35 16 -33 0
2652 -35 -16 33 0
8261 -35 -16 -33 0
27680 40 -25 0
31140 -40 25 0
33908 -40 -25 0
10080 36 41 -24 0
18900 36 -41 24 0
21420 36 -41 -24 0
6300 -36 41 24 0
13860 -36 41 -24 0
20475 -36 -41 24 0
22365 -36 -41 -24 0
2592 -31 0
