p wcnf 56 176 1000000
1000000 1 0
1000000 2 -13 0
1000000 13 -41 -39 -1 0
1000000 12 -14 0
1000000 14 -48 -40 -44 -1 0
1000000 6 -15 0
1000000 15 -49 -46 -38 -1 0
1000000 8 -16 0
1000000 16 -47 -42 -1 0
1000000 3 -17 0
1000000 17 -40 -43 -45 -2 0
1000000 5 -18 0
1000000 18 -41 -51 -2 0
1000000 6 -19 0
1000000 19 -38 -39 -46 -2 0
1000000 7 -20 0
1000000 20 -42 -49 -48 -2 0
1000000 9 -21 0
1000000 21 -45 -40 -50 -2 0
1000000 4 -22 0
1000000 22 -44 -3 0
1000000 6 -23 0
1000000 23 -39 -47 -3 0
1000000 5 -24 0
1000000 24 -42 -45 -43 -4 0
1000000 7 -25 0
1000000 25 -41 -38 -4 0
1000000 11 -26 0
1000000 26 -43 -50 -5 0
1000000 8 -27 0
1000000 27 -51 -5 0
1000000 11 -28 0
1000000 28 -46 -50 -49 -6 0
1000000 12 -29 0
1000000 29 -48 -38 -42 -6 0
1000000 9 -30 0
1000000 30 -40 -41 -43 -6 0
1000000 8 -31 0
1000000 31 -47 -44 -7 0
1000000 10 -32 0
1000000 32 -39 -7 0
1000000 9 -33 0
1000000 33 -44 -46 -8 0
1000000 10 -34 0
1000000 34 -47 -49 -8 0
1000000 11 -35 0
1000000 35 -50 -45 -51 -9 0
1000000 11 -36 0
1000000 36 -38 -10 0
1000000 12 -37 0
1000000 37 -48 -10 0
1000000 1 0
1000000 -2 13 0
1000000 -3 17 0
1000000 -4 22 0
1000000 -5 18 24 0
1000000 -6 15 23 19 0
1000000 -7 20 25 0
1000000 -8 16 27 31 0
1000000 -9 21 33 30 0
1000000 -10 32 34 0
1000000 -11 36 26 35 28 0
1000000 -12 14 29 37 0
1000000 38 53 0
1000000 39 52 0
1000000 40 52 0
1000000 41 56 0
1000000 42 55 0
1000000 43 52 0
1000000 44 54 0
1000000 45 54 0
1000000 46 56 0
1000000 47 54 0
1000000 48 56 0
1000000 49 55 0
1000000 50 55 0
1000000 51 53 0
1000000 -38 -53 0
1000000 -39 -52 0
1000000 -40 -52 0
1000000 -41 -56 0
1000000 -42 -55 0
1000000 -43 -52 0
1000000 -44 -54 0
1000000 -45 -54 0
1000000 -46 -56 0
1000000 -47 -54 0
1000000 -48 -56 0
1000000 -49 -55 0
1000000 -50 -55 0
1000000 -51 -53 0
8300 -52 0
8300 -53 0
8500 -54 0
14000 -55 0
8500 -56 0
1800 38 0
3000 39 0
2300 40 0
2900 41 0
900 42 0
700 43 0
2300 44 0
1900 45 0
900 46 0
3000 47 0
2900 48 0
2900 49 0
1900 50 0
1800 51 0
2730 -13 0
10140 -17 0
28080 -22 0
18120 18 -24 0
6040 -18 24 0
20536 -18 -24 0
25935 15 23 -19 0
3276 15 -23 19 0
26099 15 -23 -19 0
4095 -15 23 19 0
26140 -15 23 -19 0
6880 -15 -23 19 0
26279 -15 -23 -19 0
10570 20 -25 0
6040 -20 25 0
14496 -20 -25 0
23200 16 27 -31 0
11020 16 -27 31 0
25404 16 -27 -31 0
26100 -16 27 31 0
28420 -16 27 -31 0
27202 -16 -27 31 0
28640 -16 -27 -31 0
20280 21 33 -30 0
1690 21 -33 30 0
20956 21 -33 -30 0
23660 -21 33 30 0
29744 -21 33 -30 0
24167 -21 -33 30 0
29947 -21 -33 -30 0
638 32 -34 0
3828 -32 34 0
4389 -32 -34 0
12080 36 26 35 -28 0
19630 36 26 -35 28 0
23858 36 26 -35 -28 0
16610 36 -26 35 28 0
22046 36 -26 35 -28 0
25444 36 -26 -35 28 0
27346 36 -26 -35 -28 0
28690 -36 26 35 28 0
29294 -36 26 35 -28 0
29671 -36 26 -35 28 0
29883 -36 26 -35 -28 0
29520 -36 -26 35 28 0
29792 -36 -26 35 -28 0
29962 -36 -26 -35 28 0
30057 -36 -26 -35 -28 0
2730 14 29 -37 0
2730 14 -29 37 0
5187 14 -29 -37 0
6825 -14 29 37 0
8872 -14 29 -37 0
8872 -14 -29 37 0
10715 -14 -29 -37 0
