p wcnf 57 171 1000000
1000000 1 0
1000000 2 -15 0
1000000 15 -44 -1 0
1000000 11 -16 0
1000000 16 -42 -1 0
1000000 3 -17 0
1000000 17 -43 -52 -49 -1 0
1000000 6 -18 0
1000000 18 -47 -1 0
1000000 7 -19 0
1000000 19 -45 -1 0
1000000 8 -20 0
1000000 20 -42 -45 -44 -2 0
1000000 9 -21 0
1000000 21 -47 -43 -48 -2 0
1000000 10 -22 0
1000000 22 -46 -51 -2 0
1000000 12 -23 0
1000000 23 -43 -50 -42 -11 0
1000000 14 -24 0
1000000 24 -46 -50 -11 0
1000000 4 -25 0
1000000 25 -49 -3 0
1000000 5 -26 0
1000000 26 -51 -44 -3 0
1000000 7 -27 0
1000000 27 -45 -46 -3 0
1000000 5 -28 0
1000000 28 -53 -4 0
1000000 6 -29 0
1000000 29 -53 -50 -4 0
1000000 9 -30 0
1000000 30 -49 -43 -52 -4 0
1000000 10 -31 0
1000000 31 -52 -42 -46 -4 0
1000000 6 -32 0
1000000 32 -51 -5 0
1000000 11 -33 0
1000000 33 -48 -6 0
1000000 12 -34 0
1000000 34 -44 -53 -6 0
1000000 13 -35 0
1000000 35 -49 -47 -7 0
1000000 8 -36 0
1000000 36 -47 -7 0
1000000 11 -37 0
1000000 37 -45 -50 -8 0
1000000 14 -38 0
1000000 38 -52 -8 0
1000000 9 -39 0
1000000 39 -42 -44 -8 0
1000000 10 -40 0
1000000 40 -51 -8 0
1000000 13 -41 0
1000000 41 -48 -47 -10 0
1000000 1 0
1000000 -2 15 0
1000000 -3 17 0
1000000 -4 25 0
1000000 -5 28 26 0
1000000 -6 32 18 29 0
1000000 -7 19 27 0
1000000 -8 20 36 0
1000000 -9 21 39 30 0
1000000 -10 40 31 22 0
1000000 -11 16 37 33 0
1000000 -12 23 34 0
1000000 -13 35 41 0
1000000 -14 24 38 0
1000000 42 56 0
1000000 43 55 0
1000000 44 56 0
1000000 45 56 0
1000000 46 57 0
1000000 47 54 0
1000000 48 55 0
1000000 49 54 0
1000000 50 55 0
1000000 51 54 0
1000000 52 57 0
1000000 53 57 0
1000000 -42 -56 0
1000000 -43 -55 0
1000000 -44 -56 0
1000000 -45 -56 0
1000000 -46 -57 0
1000000 -47 -54 0
1000000 -48 -55 0
1000000 -49 -54 0
1000000 -50 -55 0
1000000 -51 -54 0
1000000 -52 -57 0
1000000 -53 -57 0
12200 -54 0
12200 -55 0
14600 -56 0
11700 -57 0
900 42 0
1500 43 0
1800 44 0
1000 45 0
1000 46 0
900 47 0
900 48 0
1500 49 0
2700 50 0
1800 51 0
1500 52 0
1500 53 0
19980 -15 0
1305 -17 0
37170 -25 0
6760 28 -26 0
1560 -28 26 0
7306 -28 -26 0
21735 32 18 -29 0
9315 32 -18 29 0
27790 32 -18 -29 0
43470 -32 18 29 0
49990 -32 18 -29 0
46264 -32 -18 29 0
51807 -32 -18 -29 0
1740 19 -27 0
4785 -19 27 0
5568 -19 -27 0
26550 20 -36 0
10620 -20 36 0
31860 -20 -36 0
22290 21 39 -30 0
14860 21 -39 30 0
32692 21 -39 -30 0
11145 -21 39 30 0
30092 -21 39 -30 0
23776 -21 -39 30 0
38933 -21 -39 -30 0
2600 40 31 -22 0
1560 40 -31 22 0
3770 40 -31 -22 0
8320 -40 31 22 0
8840 -40 31 -22 0
8632 -40 -31 22 0
9074 -40 -31 -22 0
35520 16 37 -33 0
28860 16 -37 33 0
41292 16 -37 -33 0
11100 -16 37 33 0
37740 -16 37 -33 0
32745 -16 -37 33 0
42069 -16 -37 -33 0
3952 23 -34 0
2080 -23 34 0
5242 -23 -34 0
25830 35 -41 0
37310 -35 41 0
46350 -35 -41 0
4160 24 -38 0
3640 -24 38 0
6344 -24 -38 0
