p wcnf 74 244 1000000
1000000 1 0
1000000 2 -17 0
1000000 17 -57 -55 -1 0
1000000 11 -18 0
1000000 18 -56 -52 -1 0
1000000 15 -19 0
1000000 19 -54 -58 -1 0
1000000 3 -20 0
1000000 20 -53 -61 -63 -1 0
1000000 4 -21 0
1000000 21 -60 -66 -1 0
1000000 6 -22 0
1000000 22 -67 -53 -54 -1 0
1000000 4 -23 0
1000000 23 -62 -65 -2 0
1000000 6 -24 0
1000000 24 -68 -59 -2 0
1000000 8 -25 0
1000000 25 -60 -57 -64 -2 0
1000000 10 -26 0
1000000 26 -56 -58 -2 0
1000000 12 -27 0
1000000 27 -55 -11 0
1000000 16 -28 0
1000000 28 -67 -65 -66 -11 0
1000000 13 -29 0
1000000 29 -59 -12 0
1000000 15 -30 0
1000000 30 -52 -14 0
1000000 5 -31 0
1000000 31 -61 -64 -63 -3 0
1000000 7 -32 0
1000000 32 -62 -3 0
1000000 8 -33 0
1000000 33 -52 -57 -68 -3 0
1000000 5 -34 0
1000000 34 -62 -59 -53 -4 0
1000000 7 -35 0
1000000 35 -61 -56 -4 0
1000000 11 -36 0
1000000 36 -58 -64 -5 0
1000000 12 -37 0
1000000 37 -63 -55 -54 -5 0
1000000 9 -38 0
1000000 38 -67 -52 -55 -5 0
1000000 11 -39 0
1000000 39 -53 -60 -6 0
1000000 7 -40 0
1000000 40 -66 -6 0
1000000 8 -41 0
1000000 41 -68 -54 -65 -6 0
1000000 10 -42 0
1000000 42 -57 -6 0
1000000 15 -43 0
1000000 43 -56 -61 -63 -7 0
1000000 16 -44 0
1000000 44 -60 -7 0
1000000 8 -45 0
1000000 45 -64 -59 -65 -7 0
1000000 11 -46 0
1000000 46 -68 -54 -66 -8 0
1000000 12 -47 0
1000000 47 -53 -55 -8 0
1000000 13 -48 0
1000000 48 -67 -8 0
1000000 13 -49 0
1000000 49 -52 -57 -9 0
1000000 14 -50 0
1000000 50 -56 -9 0
1000000 12 -51 0
1000000 51 -62 -60 -64 -10 0
1000000 1 0
1000000 -2 17 0
1000000 -3 20 0
1000000 -4 21 23 0
1000000 -5 31 34 0
1000000 -6 24 22 0
1000000 -7 32 40 35 0
1000000 -8 25 45 33 41 0
1000000 -9 38 0
1000000 -10 42 26 0
1000000 -11 18 36 39 46 0
1000000 -12 37 47 27 51 0
1000000 -13 49 29 48 0
1000000 -14 50 0
1000000 -15 30 19 43 0
1000000 -16 44 28 0
1000000 52 73 0
1000000 53 69 0
1000000 54 71 0
1000000 55 69 0
1000000 56 73 0
1000000 57 73 0
1000000 58 69 0
1000000 59 70 0
1000000 60 72 0
1000000 61 70 0
1000000 62 71 0
1000000 63 71 0
1000000 64 74 0
1000000 65 70 0
1000000 66 74 0
1000000 67 74 0
1000000 68 72 0
1000000 -52 -73 0
1000000 -53 -69 0
1000000 -54 -71 0
1000000 -55 -69 0
1000000 -56 -73 0
1000000 -57 -73 0
1000000 -58 -69 0
1000000 -59 -70 0
1000000 -60 -72 0
1000000 -61 -70 0
1000000 -62 -71 0
1000000 -63 -71 0
1000000 -64 -74 0
1000000 -65 -70 0
1000000 -66 -74 0
1000000 -67 -74 0
1000000 -68 -72 0
11000 -69 0
11000 -70 0
9400 -71 0
11300 -72 0
11300 -73 0
11000 -74 0
2300 52 0
3100 53 0
2300 54 0
1200 55 0
2300 56 0
1600 57 0
2500 58 0
3100 59 0
2500 60 0
2500 61 0
3100 62 0
1600 63 0
2300 64 0
1200 65 0
1600 66 0
2300 67 0
2500 68 0
37375 -17 0
2580 -20 0
1935 21 -23 0
4128 -21 23 0
5444 -21 -23 0
3150 31 -34 0
3780 -31 34 0
6552 -31 -34 0
21920 24 -22 0
24660 -24 22 0
26852 -24 -22 0
6960 32 40 -35 0
7424 32 -40 35 0
12157 32 -40 -35 0
9280 -32 40 35 0
13456 -32 40 -35 0
13734 -32 -40 35 0
16574 -32 -40 -35 0
8120 25 45 33 -41 0
19720 25 45 -33 41 0
20938 25 45 -33 -41 0
17400 25 -45 33 41 0
19430 25 -45 33 -41 0
22330 25 -45 -33 41 0
22634 25 -45 -33 -41 0
20880 -25 45 33 41 0
21692 -25 45 33 -41 0
22852 -25 45 -33 41 0
22974 -25 45 -33 -41 0
22620 -25 -45 33 41 0
22823 -25 -45 33 -41 0
23113 -25 -45 -33 41 0
23143 -25 -45 -33 -41 0
65070 -38 0
10440 42 -26 0
6960 -42 26 0
14268 -42 -26 0
7605 18 36 39 -46 0
5070 18 36 -39 46 0
10394 18 36 -39 -46 0
845 18 -36 39 46 0
8070 18 -36 39 -46 0
5662 18 -36 -39 46 0
10719 18 -36 -39 -46 0
3042 -18 36 39 46 0
9278 -18 36 39 -46 0
7199 -18 36 -39 46 0
11565 -18 36 -39 -46 0
3735 -18 -36 39 46 0
9659 -18 -36 39 -46 0
7684 -18 -36 -39 46 0
11831 -18 -36 -39 -46 0
8140 37 47 27 -51 0
8140 37 47 -27 51 0
11803 37 47 -27 -51 0
7400 37 -47 27 51 0
11470 37 -47 27 -51 0
11470 37 -47 -27 51 0
13302 37 -47 -27 -51 0
13320 -37 47 27 51 0
14134 -37 47 27 -51 0
14134 -37 47 -27 51 0
14500 -37 47 -27 -51 0
14060 -37 -47 27 51 0
14467 -37 -47 27 -51 0
14467 -37 -47 -27 51 0
14650 -37 -47 -27 -51 0
39765 49 29 -48 0
54225 49 -29 48 0
64166 49 -29 -48 0
39765 -49 29 48 0
57659 -49 29 -48 0
64166 -49 -29 48 0
68640 -49 -29 -48 0
2270 -50 0
3030 30 19 -43 0
10100 30 -19 43 0
11615 30 -19 -43 0
19190 -30 19 43 0
19341 -30 19 -43 0
19695 -30 -19 43 0
19771 -30 -19 -43 0
16240 44 -28 0
2320 -44 28 0
16936 -44 -28 0
