p wcnf 70 244 1000000
1000000 1 0
1000000 2 -16 0
1000000 16 -55 -49 -53 -1 0
1000000 4 -17 0
1000000 17 -52 -50 -1 0
1000000 6 -18 0
1000000 18 -51 -1 0
1000000 8 -19 0
1000000 19 -57 -58 -1 0
1000000 9 -20 0
1000000 20 -56 -1 0
1000000 3 -21 0
1000000 21 -49 -60 -61 -2 0
1000000 7 -22 0
1000000 22 -54 -63 -2 0
1000000 9 -23 0
1000000 23 -62 -2 0
1000000 12 -24 0
1000000 24 -56 -51 -55 -11 0
1000000 15 -25 0
1000000 25 -52 -50 -59 -11 0
1000000 14 -26 0
1000000 26 -64 -13 0
1000000 7 -27 0
1000000 27 -54 -3 0
1000000 9 -28 0
1000000 28 -58 -64 -53 -3 0
1000000 10 -29 0
1000000 29 -60 -61 -3 0
1000000 12 -30 0
1000000 30 -49 -59 -62 -4 0
1000000 13 -31 0
1000000 31 -50 -52 -4 0
1000000 5 -32 0
1000000 32 -51 -4 0
1000000 6 -33 0
1000000 33 -63 -53 -4 0
1000000 13 -34 0
1000000 34 -59 -60 -61 -5 0
1000000 8 -35 0
1000000 35 -58 -63 -64 -5 0
1000000 9 -36 0
1000000 36 -57 -5 0
1000000 11 -37 0
1000000 37 -54 -6 0
1000000 15 -38 0
1000000 38 -56 -6 0
1000000 8 -39 0
1000000 39 -57 -49 -6 0
1000000 10 -40 0
1000000 40 -52 -55 -6 0
1000000 11 -41 0
1000000 41 -54 -53 -7 0
1000000 8 -42 0
1000000 42 -62 -7 0
1000000 10 -43 0
1000000 43 -61 -59 -55 -7 0
1000000 9 -44 0
1000000 44 -50 -8 0
1000000 10 -45 0
1000000 45 -56 -62 -58 -8 0
1000000 11 -46 0
1000000 46 -51 -49 -9 0
1000000 12 -47 0
1000000 47 -60 -64 -9 0
1000000 14 -48 0
1000000 48 -50 -52 -63 -9 0
1000000 1 0
1000000 -2 16 0
1000000 -3 21 0
1000000 -4 17 0
1000000 -5 32 0
1000000 -6 33 18 0
1000000 -7 27 22 0
1000000 -8 19 39 42 35 0
1000000 -9 36 44 23 20 28 0
1000000 -10 29 40 45 43 0
1000000 -11 37 46 41 0
1000000 -12 47 30 24 0
1000000 -13 34 31 0
1000000 -14 48 26 0
1000000 -15 38 25 0
1000000 49 69 0
1000000 50 66 0
1000000 51 65 0
1000000 52 68 0
1000000 53 68 0
1000000 54 66 0
1000000 55 66 0
1000000 56 69 0
1000000 57 65 0
1000000 58 65 0
1000000 59 70 0
1000000 60 67 0
1000000 61 70 0
1000000 62 67 0
1000000 63 68 0
1000000 64 67 0
1000000 -49 -69 0
1000000 -50 -66 0
1000000 -51 -65 0
1000000 -52 -68 0
1000000 -53 -68 0
1000000 -54 -66 0
1000000 -55 -66 0
1000000 -56 -69 0
1000000 -57 -65 0
1000000 -58 -65 0
1000000 -59 -70 0
1000000 -60 -67 0
1000000 -61 -70 0
1000000 -62 -67 0
1000000 -63 -68 0
1000000 -64 -67 0
14000 -65 0
13700 -66 0
12800 -67 0
14000 -68 0
13700 -69 0
15300 -70 0
2700 49 0
3100 50 0
3100 51 0
3100 52 0
1400 53 0
500 54 0
2700 55 0
2700 56 0
2700 57 0
700 58 0
2000 59 0
2000 60 0
2000 61 0
2700 62 0
700 63 0
700 64 0
1176 -16 0
8190 -21 0
1358 -17 0
73080 -32 0
3136 33 -18 0
3920 -33 18 0
5802 -33 -18 0
64480 27 -22 0
32240 -27 22 0
70928 -27 -22 0
13580 19 39 42 -35 0
6790 19 39 -42 35 0
19012 19 39 -42 -35 0
3395 19 -39 42 35 0
16296 19 -39 42 -35 0
9846 19 -39 -42 35 0
21456 19 -39 -42 -35 0
1358 -19 39 42 35 0
14666 -19 39 42 -35 0
8012 -19 39 -42 35 0
19990 -19 39 -42 -35 0
4685 -19 -39 42 35 0
17328 -19 -39 42 -35 0
11007 -19 -39 -42 35 0
22385 -19 -39 -42 -35 0
25802 36 44 23 20 -28 0
23765 36 44 23 -20 28 0
40536 36 44 23 -20 -28 0
44135 36 44 -23 20 28 0
53166 36 44 -23 20 -28 0
52453 36 44 -23 -20 28 0
58323 36 44 -23 -20 -28 0
20370 36 -44 23 20 28 0
38431 36 -44 23 20 -28 0
37006 36 -44 23 -20 28 0
48745 36 -44 23 -20 -28 0
51264 36 -44 -23 20 28 0
57586 36 -44 -23 20 -28 0
57087 36 -44 -23 -20 28 0
61196 36 -44 -23 -20 -28 0
20370 -36 44 23 20 28 0
38431 -36 44 23 20 -28 0
37006 -36 44 23 -20 28 0
48745 -36 44 23 -20 -28 0
51264 -36 44 -23 20 28 0
57586 -36 44 -23 20 -28 0
57087 -36 44 -23 -20 28 0
61196 -36 44 -23 -20 -28 0
34629 -36 -44 23 20 28 0
47272 -36 -44 23 20 -28 0
46274 -36 -44 23 -20 28 0
54492 -36 -44 23 -20 -28 0
56255 -36 -44 -23 20 28 0
60680 -36 -44 -23 20 -28 0
60331 -36 -44 -23 -20 28 0
63207 -36 -44 -23 -20 -28 0
1250 29 40 45 -43 0
53125 29 40 -45 43 0
53312 29 40 -45 -43 0
21875 29 -40 45 43 0
22688 29 -40 45 -43 0
56406 29 -40 -45 43 0
56528 29 -40 -45 -43 0
11250 -29 40 45 43 0
12275 -29 40 45 -43 0
54812 -29 40 -45 43 0
54966 -29 40 -45 -43 0
29188 -29 -40 45 43 0
29854 -29 -40 45 -43 0
57503 -29 -40 -45 43 0
57603 -29 -40 -45 -43 0
28210 37 46 -41 0
60450 37 -46 41 0
67502 37 -46 -41 0
8060 -37 46 41 0
33449 -37 46 -41 0
62465 -37 -46 41 0
68812 -37 -46 -41 0
60450 47 30 -24 0
56420 47 -30 24 0
74555 47 -30 -24 0
68510 -47 30 24 0
77577 -47 30 -24 0
76973 -47 -30 24 0
79693 -47 -30 -24 0
28250 34 -31 0
33900 -34 31 0
45200 -34 -31 0
32480 48 -26 0
64960 -48 26 0
71456 -48 -26 0
40600 38 -25 0
44660 -38 25 0
62930 -38 -25 0
