p wcnf 73 280 1000000
1000000 1 0
1000000 2 -16 0
1000000 16 -53 -1 0
1000000 11 -17 0
1000000 17 -59 -54 -52 -1 0
1000000 12 -18 0
1000000 18 -57 -1 0
1000000 4 -19 0
1000000 19 -55 -1 0
1000000 7 -20 0
1000000 20 -56 -64 -63 -1 0
1000000 10 -21 0
1000000 21 -62 -61 -1 0
1000000 3 -22 0
1000000 22 -60 -2 0
1000000 4 -23 0
1000000 23 -56 -53 -55 -2 0
1000000 9 -24 0
1000000 24 -52 -67 -2 0
1000000 12 -25 0
1000000 25 -57 -59 -60 -11 0
1000000 13 -26 0
1000000 26 -58 -12 0
1000000 15 -27 0
1000000 27 -61 -54 -12 0
1000000 14 -28 0
1000000 28 -58 -66 -64 -13 0
1000000 15 -29 0
1000000 29 -52 -67 -14 0
1000000 14 -30 0
1000000 30 -66 -53 -3 0
1000000 5 -31 0
1000000 31 -65 -56 -3 0
1000000 6 -32 0
1000000 32 -62 -3 0
1000000 7 -33 0
1000000 33 -57 -59 -61 -3 0
1000000 8 -34 0
1000000 34 -60 -63 -3 0
1000000 5 -35 0
1000000 35 -54 -4 0
1000000 8 -36 0
1000000 36 -58 -66 -63 -4 0
1000000 7 -37 0
1000000 37 -65 -67 -64 -5 0
1000000 8 -38 0
1000000 38 -65 -5 0
1000000 12 -39 0
1000000 39 -55 -6 0
1000000 13 -40 0
1000000 40 -52 -6 0
1000000 15 -41 0
1000000 41 -54 -59 -60 -6 0
1000000 9 -42 0
1000000 42 -62 -58 -6 0
1000000 10 -43 0
1000000 43 -53 -55 -62 -7 0
1000000 12 -44 0
1000000 44 -57 -63 -8 0
1000000 9 -45 0
1000000 45 -64 -8 0
1000000 10 -46 0
1000000 46 -56 -8 0
1000000 12 -47 0
1000000 47 -65 -52 -9 0
1000000 13 -48 0
1000000 48 -66 -9 0
1000000 11 -49 0
1000000 49 -56 -55 -10 0
1000000 12 -50 0
1000000 50 -67 -10 0
1000000 14 -51 0
1000000 51 -63 -61 -62 -10 0
1000000 1 0
1000000 -2 16 0
1000000 -3 22 0
1000000 -4 23 19 0
1000000 -5 35 31 0
1000000 -6 32 0
1000000 -7 33 20 37 0
1000000 -8 36 38 34 0
1000000 -9 24 42 45 0
1000000 -10 21 46 43 0
1000000 -11 17 49 0
1000000 -12 47 39 25 44 18 50 0
1000000 -13 48 26 40 0
1000000 -14 28 51 30 0
1000000 -15 29 27 41 0
1000000 52 71 0
1000000 53 70 0
1000000 54 70 0
1000000 55 68 0
1000000 56 73 0
1000000 57 68 0
1000000 58 73 0
1000000 59 73 0
1000000 60 70 0
1000000 61 72 0
1000000 62 69 0
1000000 63 69 0
1000000 64 69 0
1000000 65 71 0
1000000 66 71 0
1000000 67 72 0
1000000 -52 -71 0
1000000 -53 -70 0
1000000 -54 -70 0
1000000 -55 -68 0
1000000 -56 -73 0
1000000 -57 -68 0
1000000 -58 -73 0
1000000 -59 -73 0
1000000 -60 -70 0
1000000 -61 -72 0
1000000 -62 -69 0
1000000 -63 -69 0
1000000 -64 -69 0
1000000 -65 -71 0
1000000 -66 -71 0
1000000 -67 -72 0
12300 -68 0
9900 -69 0
7100 -70 0
12300 -71 0
7100 -72 0
9900 -73 0
2500 52 0
2100 53 0
2500 54 0
2500 55 0
2100 56 0
2500 57 0
1800 58 0
2100 59 0
2200 60 0
2100 61 0
800 62 0
800 63 0
800 64 0
800 65 0
1700 66 0
2200 67 0
2100 -16 0
2934 -22 0
5600 23 -19 0
4200 -23 19 0
8120 -23 -19 0
48720 35 -31 0
36540 -35 31 0
56028 -35 -31 0
4512 -32 0
46400 33 20 -37 0
11600 33 -20 37 0
48720 33 -20 -37 0
10440 -33 20 37 0
48488 -33 20 -37 0
19952 -33 -20 37 0
50390 -33 -20 -37 0
50700 36 38 -34 0
43940 36 -38 34 0
61685 36 -38 -34 0
13520 -36 38 34 0
54080 -36 38 -34 0
48672 -36 -38 34 0
62868 -36 -38 -34 0
3510 24 42 -45 0
16380 24 -42 45 0
17433 24 -42 -45 0
7020 -24 42 45 0
9477 -24 42 -45 0
18486 -24 -42 45 0
19223 -24 -42 -45 0
4900 21 46 -43 0
6300 21 -46 43 0
8995 21 -46 -43 0
2520 -21 46 43 0
6538 -21 46 -43 0
7686 -21 -46 43 0
9896 -21 -46 -43 0
37700 17 -49 0
14500 -17 49 0
42775 -17 -49 0
5000 47 39 25 44 18 -50 0
7600 47 39 25 44 -18 50 0
10700 47 39 25 44 -18 -50 0
10000 47 39 25 -44 18 50 0
12500 47 39 25 -44 18 -50 0
13800 47 39 25 -44 -18 50 0
15350 47 39 25 -44 -18 -50 0
3000 47 39 -25 44 18 50 0
7250 47 39 -25 44 18 -50 0
9460 47 39 -25 44 -18 50 0
12095 47 39 -25 44 -18 -50 0
11500 47 39 -25 -44 18 50 0
13625 47 39 -25 -44 18 -50 0
14730 47 39 -25 -44 -18 50 0
16048 47 39 -25 -44 -18 -50 0
6000 47 -39 25 44 18 50 0
9500 47 -39 25 44 18 -50 0
11320 47 -39 25 44 -18 50 0
13490 47 -39 25 44 -18 -50 0
13000 47 -39 25 -44 18 50 0
14750 47 -39 25 -44 18 -50 0
15660 47 -39 25 -44 -18 50 0
16745 47 -39 25 -44 -18 -50 0
8100 47 -39 -25 44 18 50 0
11075 47 -39 -25 44 18 -50 0
12622 47 -39 -25 44 -18 50 0
14466 47 -39 -25 44 -18 -50 0
14050 47 -39 -25 -44 18 50 0
15538 47 -39 -25 -44 18 -50 0
16311 47 -39 -25 -44 -18 50 0
17233 47 -39 -25 -44 -18 -50 0
19000 -47 39 25 44 18 50 0
19250 -47 39 25 44 18 -50 0
19380 -47 39 25 44 -18 50 0
19535 -47 39 25 44 -18 -50 0
19500 -47 39 25 -44 18 50 0
19625 -47 39 25 -44 18 -50 0
19690 -47 39 25 -44 -18 50 0
19768 -47 39 25 -44 -18 -50 0
19150 -47 39 -25 44 18 50 0
19362 -47 39 -25 44 18 -50 0
19473 -47 39 -25 44 -18 50 0
19605 -47 39 -25 44 -18 -50 0
19575 -47 39 -25 -44 18 50 0
19681 -47 39 -25 -44 18 -50 0
19736 -47 39 -25 -44 -18 50 0
19802 -47 39 -25 -44 -18 -50 0
19300 -47 -39 25 44 18 50 0
19475 -47 -39 25 44 18 -50 0
19566 -47 -39 25 44 -18 50 0
19675 -47 -39 25 44 -18 -50 0
19650 -47 -39 25 -44 18 50 0
19738 -47 -39 25 -44 18 -50 0
19783 -47 -39 25 -44 -18 50 0
19837 -47 -39 25 -44 -18 -50 0
19405 -47 -39 -25 44 18 50 0
19554 -47 -39 -25 44 18 -50 0
19631 -47 -39 -25 44 -18 50 0
19723 -47 -39 -25 44 -18 -50 0
19703 -47 -39 -25 -44 18 50 0
19777 -47 -39 -25 -44 18 -50 0
19816 -47 -39 -25 -44 -18 50 0
19862 -47 -39 -25 -44 -18 -50 0
12168 48 26 -40 0
6760 48 -26 40 0
17711 48 -26 -40 0
8112 -48 26 40 0
18820 -48 26 -40 0
14061 -48 -26 40 0
23698 -48 -26 -40 0
6840 28 51 -30 0
5130 28 -51 30 0
10944 28 -51 -30 0
20520 -28 51 30 0
23256 -28 51 -30 0
22572 -28 -51 30 0
24898 -28 -51 -30 0
10140 29 27 -41 0
20280 29 -27 41 0
27378 29 -27 -41 0
12168 -29 27 41 0
20483 -29 27 -41 0
28798 -29 -27 41 0
34618 -29 -27 -41 0
