p wcnf 71 220 1000000
1000000 1 0
1000000 2 -18 0
1000000 18 -53 -1 0
1000000 11 -19 0
1000000 19 -54 -1 0
1000000 3 -20 0
1000000 20 -55 -59 -61 -1 0
1000000 12 -21 0
1000000 21 -52 -2 0
1000000 3 -22 0
1000000 22 -58 -2 0
1000000 10 -23 0
1000000 23 -57 -2 0
1000000 15 -24 0
1000000 24 -52 -60 -62 -11 0
1000000 13 -25 0
1000000 25 -56 -12 0
1000000 16 -26 0
1000000 26 -55 -57 -56 -12 0
1000000 17 -27 0
1000000 27 -63 -53 -16 0
1000000 4 -28 0
1000000 28 -65 -3 0
1000000 5 -29 0
1000000 29 -54 -3 0
1000000 6 -30 0
1000000 30 -58 -3 0
1000000 9 -31 0
1000000 31 -60 -61 -62 -3 0
1000000 15 -32 0
1000000 32 -52 -64 -65 -4 0
1000000 16 -33 0
1000000 33 -59 -54 -4 0
1000000 5 -34 0
1000000 34 -53 -66 -4 0
1000000 6 -35 0
1000000 35 -55 -64 -4 0
1000000 7 -36 0
1000000 36 -66 -4 0
1000000 8 -37 0
1000000 37 -57 -4 0
1000000 9 -38 0
1000000 38 -59 -63 -4 0
1000000 7 -39 0
1000000 39 -58 -56 -5 0
1000000 9 -40 0
1000000 40 -63 -53 -52 -5 0
1000000 11 -41 0
1000000 41 -61 -6 0
1000000 13 -42 0
1000000 42 -56 -62 -60 -6 0
1000000 11 -43 0
1000000 43 -55 -54 -65 -7 0
1000000 14 -44 0
1000000 44 -57 -7 0
1000000 17 -45 0
1000000 45 -58 -7 0
1000000 10 -46 0
1000000 46 -66 -7 0
1000000 11 -47 0
1000000 47 -60 -52 -64 -8 0
1000000 13 -48 0
1000000 48 -59 -8 0
1000000 10 -49 0
1000000 49 -61 -66 -8 0
1000000 12 -50 0
1000000 50 -63 -53 -10 0
1000000 16 -51 0
1000000 51 -62 -54 -10 0
1000000 1 0
1000000 -2 18 0
1000000 -3 20 22 0
1000000 -4 28 0
1000000 -5 34 29 0
1000000 -6 35 30 0
1000000 -7 39 36 0
1000000 -8 37 0
1000000 -9 38 31 40 0
1000000 -10 23 46 49 0
1000000 -11 41 19 43 47 0
1000000 -12 21 50 0
1000000 -13 48 42 25 0
1000000 -14 44 0
1000000 -15 24 32 0
1000000 -16 26 51 33 0
1000000 -17 45 27 0
1000000 52 71 0
1000000 53 69 0
1000000 54 69 0
1000000 55 70 0
1000000 56 67 0
1000000 57 70 0
1000000 58 71 0
1000000 59 71 0
1000000 60 68 0
1000000 61 69 0
1000000 62 68 0
1000000 63 68 0
1000000 64 67 0
1000000 65 70 0
1000000 66 67 0
1000000 -52 -71 0
1000000 -53 -69 0
1000000 -54 -69 0
1000000 -55 -70 0
1000000 -56 -67 0
1000000 -57 -70 0
1000000 -58 -71 0
1000000 -59 -71 0
1000000 -60 -68 0
1000000 -61 -69 0
1000000 -62 -68 0
1000000 -63 -68 0
1000000 -64 -67 0
1000000 -65 -70 0
1000000 -66 -67 0
8500 -67 0
8500 -68 0
8300 -69 0
11600 -70 0
12900 -71 0
1900 52 0
1900 53 0
1900 54 0
3200 55 0
2300 56 0
2000 57 0
1900 58 0
3000 59 0
3000 60 0
3000 61 0
2500 62 0
2200 63 0
3000 64 0
1900 65 0
1600 66 0
29925 -18 0
10465 20 -22 0
12880 -20 22 0
14973 -20 -22 0
18360 -28 0
11856 34 -29 0
9984 -34 29 0
18046 -34 -29 0
27560 35 -30 0
8480 -35 30 0
30528 -35 -30 0
21432 39 -36 0
5640 -39 36 0
24929 -39 -36 0
18755 -37 0
930 38 31 -40 0
372 38 -31 40 0
1283 38 -31 -40 0
5952 -38 31 40 0
6584 -38 31 -40 0
6205 -38 -31 40 0
6825 -38 -31 -40 0
13020 23 46 -49 0
9300 23 -46 49 0
15810 23 -46 -49 0
4650 -23 46 49 0
14415 -23 46 -49 0
11625 -23 -46 49 0
16507 -23 -46 -49 0
2898 41 19 43 -47 0
8050 41 19 -43 47 0
9499 41 19 -43 -47 0
322 41 -19 43 47 0
3162 41 -19 43 -47 0
8211 41 -19 -43 47 0
9631 41 -19 -43 -47 0
12880 -41 19 43 47 0
13460 -41 19 43 -47 0
14490 -41 19 -43 47 0
14780 -41 19 -43 -47 0
12944 -41 -19 43 47 0
13512 -41 -19 43 -47 0
14522 -41 -19 -43 47 0
14806 -41 -19 -43 -47 0
7068 21 -50 0
10230 -21 50 0
13411 -21 -50 0
18520 48 42 -25 0
27780 48 -42 25 0
35188 48 -42 -25 0
25465 -48 42 25 0
33799 -48 42 -25 0
37966 -48 -42 25 0
41300 -48 -42 -25 0
5400 -44 0
17160 24 -32 0
10920 -24 32 0
22074 -24 -32 0
23150 26 51 -33 0
27780 26 -51 33 0
37040 26 -51 -33 0
20835 -26 51 33 0
33568 -26 51 -33 0
36114 -26 -51 33 0
41207 -26 -51 -33 0
22185 45 -27 0
29580 -45 27 0
38454 -45 -27 0
