p wcnf 49 161 1000000
1000000 1 0
1000000 2 -14 0
1000000 14 -35 -39 -36 -1 0
1000000 11 -15 0
1000000 15 -40 -1 0
1000000 3 -16 0
1000000 16 -36 -38 -37 -1 0
1000000 5 -17 0
1000000 17 -42 -1 0
1000000 11 -18 0
1000000 18 -41 -2 0
1000000 6 -19 0
1000000 19 -35 -45 -41 -2 0
1000000 9 -20 0
1000000 20 -39 -37 -2 0
1000000 4 -21 0
1000000 21 -38 -44 -3 0
1000000 12 -22 0
1000000 22 -36 -45 -44 -4 0
1000000 7 -23 0
1000000 23 -38 -37 -4 0
1000000 8 -24 0
1000000 24 -43 -4 0
1000000 9 -25 0
1000000 25 -39 -42 -4 0
1000000 13 -26 0
1000000 26 -42 -40 -5 0
1000000 10 -27 0
1000000 27 -45 -41 -5 0
1000000 11 -28 0
1000000 28 -40 -44 -6 0
1000000 9 -29 0
1000000 29 -41 -43 -40 -6 0
1000000 11 -30 0
1000000 30 -36 -35 -7 0
1000000 12 -31 0
1000000 31 -43 -7 0
1000000 13 -32 0
1000000 32 -38 -7 0
1000000 11 -33 0
1000000 33 -43 -42 -8 0
1000000 12 -34 0
1000000 34 -35 -36 -10 0
1000000 1 0
1000000 -2 14 0
1000000 -3 16 0
1000000 -4 21 0
1000000 -5 17 0
1000000 -6 19 0
1000000 -7 23 0
1000000 -8 24 0
1000000 -9 20 29 25 0
1000000 -10 27 0
1000000 -11 18 28 15 33 30 0
1000000 -12 34 22 31 0
1000000 -13 32 26 0
1000000 35 48 0
1000000 36 49 0
1000000 37 49 0
1000000 38 49 0
1000000 39 47 0
1000000 40 46 0
1000000 41 47 0
1000000 42 47 0
1000000 43 46 0
1000000 44 48 0
1000000 45 46 0
1000000 -35 -48 0
1000000 -36 -49 0
1000000 -37 -49 0
1000000 -38 -49 0
1000000 -39 -47 0
1000000 -40 -46 0
1000000 -41 -47 0
1000000 -42 -47 0
1000000 -43 -46 0
1000000 -44 -48 0
1000000 -45 -46 0
9100 -46 0
9400 -47 0
9400 -48 0
11200 -49 0
1400 35 0
1400 36 0
800 37 0
1300 38 0
2200 39 0
1400 40 0
1400 41 0
2200 42 0
2200 43 0
1300 44 0
1800 45 0
2935 -14 0
52640 -16 0
61650 -21 0
1316 -17 0
58225 -19 0
20720 -23 0
71630 -24 0
37660 20 29 -25 0
48420 20 -29 25 0
52186 20 -29 -25 0
45730 -20 29 25 0
51379 -20 29 -25 0
52993 -20 -29 25 0
53558 -20 -29 -25 0
8220 -27 0
27135 18 28 15 33 -30 0
15075 18 28 15 -33 30 0
35426 18 28 15 -33 -30 0
27135 18 28 -15 33 30 0
42059 18 28 -15 33 -30 0
35426 18 28 -15 -33 30 0
46619 18 28 -15 -33 -30 0
1206 18 -28 15 33 30 0
27798 18 -28 15 33 -30 0
15980 18 -28 15 -33 30 0
35924 18 -28 15 -33 -30 0
27798 18 -28 -15 33 30 0
42424 18 -28 -15 33 -30 0
35924 18 -28 -15 -33 30 0
46893 18 -28 -15 -33 -30 0
24120 -18 28 15 33 30 0
40401 -18 28 15 33 -30 0
33165 -18 28 15 -33 30 0
45376 -18 28 15 -33 -30 0
40401 -18 28 -15 33 30 0
49356 -18 28 -15 33 -30 0
45376 -18 28 -15 -33 30 0
52092 -18 28 -15 -33 -30 0
24844 -18 -28 15 33 30 0
40799 -18 -28 15 33 -30 0
33708 -18 -28 15 -33 30 0
45674 -18 -28 15 -33 -30 0
40799 -18 -28 -15 33 30 0
49574 -18 -28 -15 33 -30 0
45674 -18 -28 -15 -33 30 0
52256 -18 -28 -15 -33 -30 0
26390 34 22 -31 0
18850 34 -22 31 0
38642 34 -22 -31 0
28652 -34 22 31 0
45014 -34 22 -31 0
40339 -34 -22 31 0
52610 -34 -22 -31 0
46640 32 -26 0
18656 -32 26 0
50371 -32 -26 0
