p wcnf 75 268 1000000
1000000 1 0
1000000 2 -17 0
1000000 17 -58 -57 -60 -1 0
1000000 12 -18 0
1000000 18 -54 -59 -1 0
1000000 14 -19 0
1000000 19 -56 -1 0
1000000 3 -20 0
1000000 20 -62 -67 -65 -1 0
1000000 4 -21 0
1000000 21 -53 -64 -1 0
1000000 5 -22 0
1000000 22 -54 -66 -61 -1 0
1000000 11 -23 0
1000000 23 -63 -2 0
1000000 15 -24 0
1000000 24 -58 -60 -59 -2 0
1000000 4 -25 0
1000000 25 -68 -57 -2 0
1000000 6 -26 0
1000000 26 -53 -62 -2 0
1000000 14 -27 0
1000000 27 -56 -63 -64 -11 0
1000000 15 -28 0
1000000 28 -65 -69 -12 0
1000000 14 -29 0
1000000 29 -66 -13 0
1000000 15 -30 0
1000000 30 -55 -14 0
1000000 16 -31 0
1000000 31 -68 -69 -15 0
1000000 11 -32 0
1000000 32 -55 -3 0
1000000 13 -33 0
1000000 33 -54 -67 -56 -3 0
1000000 5 -34 0
1000000 34 -59 -57 -3 0
1000000 9 -35 0
1000000 35 -62 -58 -3 0
1000000 10 -36 0
1000000 36 -61 -3 0
1000000 14 -37 0
1000000 37 -61 -67 -53 -4 0
1000000 5 -38 0
1000000 38 -55 -4 0
1000000 7 -39 0
1000000 39 -54 -60 -53 -4 0
1000000 6 -40 0
1000000 40 -64 -63 -55 -5 0
1000000 9 -41 0
1000000 41 -68 -56 -5 0
1000000 11 -42 0
1000000 42 -66 -6 0
1000000 12 -43 0
1000000 43 -69 -6 0
1000000 8 -44 0
1000000 44 -58 -6 0
1000000 12 -45 0
1000000 45 -65 -7 0
1000000 10 -46 0
1000000 46 -59 -57 -7 0
1000000 11 -47 0
1000000 47 -63 -60 -62 -8 0
1000000 14 -48 0
1000000 48 -61 -53 -68 -8 0
1000000 10 -49 0
1000000 49 -64 -8 0
1000000 12 -50 0
1000000 50 -58 -57 -69 -9 0
1000000 15 -51 0
1000000 51 -54 -66 -67 -9 0
1000000 16 -52 0
1000000 52 -65 -61 -10 0
1000000 1 0
1000000 -2 17 0
1000000 -3 20 0
1000000 -4 21 25 0
1000000 -5 22 34 38 0
1000000 -6 40 26 0
1000000 -7 39 0
1000000 -8 44 0
1000000 -9 41 35 0
1000000 -10 49 36 46 0
1000000 -11 23 47 42 32 0
1000000 -12 43 18 50 45 0
1000000 -13 33 0
1000000 -14 29 48 19 37 27 0
1000000 -15 30 24 51 28 0
1000000 -16 52 31 0
1000000 53 70 0
1000000 54 70 0
1000000 55 73 0
1000000 56 75 0
1000000 57 72 0
1000000 58 74 0
1000000 59 73 0
1000000 60 73 0
1000000 61 72 0
1000000 62 70 0
1000000 63 71 0
1000000 64 75 0
1000000 65 71 0
1000000 66 71 0
1000000 67 72 0
1000000 68 74 0
1000000 69 75 0
1000000 -53 -70 0
1000000 -54 -70 0
1000000 -55 -73 0
1000000 -56 -75 0
1000000 -57 -72 0
1000000 -58 -74 0
1000000 -59 -73 0
1000000 -60 -73 0
1000000 -61 -72 0
1000000 -62 -70 0
1000000 -63 -71 0
1000000 -64 -75 0
1000000 -65 -71 0
1000000 -66 -71 0
1000000 -67 -72 0
1000000 -68 -74 0
1000000 -69 -75 0
8400 -70 0
11300 -71 0
7400 -72 0
7300 -73 0
7400 -74 0
12600 -75 0
1400 53 0
1400 54 0
1600 55 0
1600 56 0
1400 57 0
3100 58 0
1400 59 0
1400 60 0
2800 61 0
1400 62 0
1500 63 0
1500 64 0
3100 65 0
2800 66 0
2800 67 0
3100 68 0
2800 69 0
28920 -17 0
9475 -20 0
26530 21 -25 0
24635 -21 25 0
33920 -21 -25 0
9040 22 34 -38 0
1695 22 -34 38 0
9379 22 -34 -38 0
3955 -22 34 38 0
9831 -22 34 -38 0
5057 -22 -34 38 0
10051 -22 -34 -38 0
8430 40 -26 0
11240 -40 26 0
17984 -40 -26 0
23535 -39 0
55710 -44 0
21356 41 -35 0
25290 -41 35 0
37036 -41 -35 0
23535 49 36 -46 0
13075 49 -36 46 0
30726 49 -36 -46 0
10460 -49 36 46 0
29288 -49 36 -46 0
20920 -49 -36 46 0
35041 -49 -36 -46 0
37400 23 47 42 -32 0
22000 23 47 -42 32 0
40700 23 47 -42 -32 0
24200 23 -47 42 32 0
41030 23 -47 42 -32 0
34100 23 -47 -42 32 0
42515 23 -47 -42 -32 0
30800 -23 47 42 32 0
42020 -23 47 42 -32 0
37400 -23 47 -42 32 0
43010 -23 47 -42 -32 0
38060 -23 -47 42 32 0
43109 -23 -47 42 -32 0
41030 -23 -47 -42 32 0
43554 -23 -47 -42 -32 0
2825 43 18 50 -45 0
1695 43 18 -50 45 0
4096 43 18 -50 -45 0
9040 43 -18 50 45 0
9605 43 -18 50 -45 0
9379 43 -18 -50 45 0
9859 43 -18 -50 -45 0
5650 -43 18 50 45 0
7062 -43 18 50 -45 0
6497 -43 18 -50 45 0
7698 -43 18 -50 -45 0
10170 -43 -18 50 45 0
10453 -43 -18 50 -45 0
10340 -43 -18 -50 45 0
10580 -43 -18 -50 -45 0
5230 -33 0
6780 29 48 19 37 -27 0
10735 29 48 19 -37 27 0
11074 29 48 19 -37 -27 0
2825 29 48 -19 37 27 0
7910 29 48 -19 37 -27 0
10876 29 48 -19 -37 27 0
11130 29 48 -19 -37 -27 0
3616 29 -48 19 37 27 0
8226 29 -48 19 37 -27 0
10916 29 -48 19 -37 27 0
11146 29 -48 19 -37 -27 0
5537 29 -48 -19 37 27 0
8995 29 -48 -19 37 -27 0
11012 29 -48 -19 -37 27 0
11185 29 -48 -19 -37 -27 0
9605 -29 48 19 37 27 0
10622 -29 48 19 37 -27 0
11215 -29 48 19 -37 27 0
11266 -29 48 19 -37 -27 0
10029 -29 48 -19 37 27 0
10791 -29 48 -19 37 -27 0
11236 -29 48 -19 -37 27 0
11275 -29 48 -19 -37 -27 0
10147 -29 -48 19 37 27 0
10839 -29 -48 19 37 -27 0
11242 -29 -48 19 -37 27 0
11277 -29 -48 19 -37 -27 0
10436 -29 -48 -19 37 27 0
10954 -29 -48 -19 37 -27 0
11257 -29 -48 -19 -37 27 0
11283 -29 -48 -19 -37 -27 0
886 30 24 51 -28 0
15505 30 24 -51 28 0
16081 30 24 -51 -28 0
42085 30 -24 51 28 0
42129 30 -24 51 -28 0
42860 30 -24 -51 28 0
42889 30 -24 -51 -28 0
24365 -30 24 51 28 0
24764 -30 24 51 -28 0
31342 -30 24 -51 28 0
31601 -30 24 -51 -28 0
43303 -30 -24 51 28 0
43323 -30 -24 51 -28 0
43652 -30 -24 -51 28 0
43665 -30 -24 -51 -28 0
24400 52 -31 0
19520 -52 31 0
34160 -52 -31 0
