p wcnf 57 176 1000000
1000000 1 0
1000000 2 -14 0
1000000 14 -40 -44 -1 0
1000000 13 -15 0
1000000 15 -42 -1 0
1000000 3 -16 0
1000000 16 -51 -46 -45 -1 0
1000000 11 -17 0
1000000 17 -47 -2 0
1000000 3 -18 0
1000000 18 -41 -2 0
1000000 4 -19 0
1000000 19 -40 -42 -49 -2 0
1000000 5 -20 0
1000000 20 -45 -52 -48 -2 0
1000000 6 -21 0
1000000 21 -44 -41 -46 -2 0
1000000 7 -22 0
1000000 22 -50 -2 0
1000000 9 -23 0
1000000 23 -47 -49 -2 0
1000000 5 -24 0
1000000 24 -52 -50 -51 -3 0
1000000 6 -25 0
1000000 25 -44 -48 -3 0
1000000 10 -26 0
1000000 26 -43 -46 -3 0
1000000 5 -27 0
1000000 27 -41 -4 0
1000000 6 -28 0
1000000 28 -40 -4 0
1000000 6 -29 0
1000000 29 -47 -43 -5 0
1000000 8 -30 0
1000000 30 -42 -5 0
1000000 11 -31 0
1000000 31 -51 -52 -43 -6 0
1000000 12 -32 0
1000000 32 -41 -49 -40 -6 0
1000000 8 -33 0
1000000 33 -49 -46 -43 -6 0
1000000 10 -34 0
1000000 34 -48 -6 0
1000000 11 -35 0
1000000 35 -42 -40 -47 -7 0
1000000 12 -36 0
1000000 36 -52 -42 -44 -7 0
1000000 9 -37 0
1000000 37 -50 -8 0
1000000 12 -38 0
1000000 38 -43 -48 -9 0
1000000 13 -39 0
1000000 39 -45 -10 0
1000000 1 0
1000000 -2 14 0
1000000 -3 16 18 0
1000000 -4 19 0
1000000 -5 20 24 27 0
1000000 -6 21 29 25 28 0
1000000 -7 22 0
1000000 -8 33 30 0
1000000 -9 23 37 0
1000000 -10 26 34 0
1000000 -11 35 17 31 0
1000000 -12 36 38 32 0
1000000 -13 15 39 0
1000000 40 54 0
1000000 41 57 0
1000000 42 53 0
1000000 43 56 0
1000000 44 57 0
1000000 45 57 0
1000000 46 55 0
1000000 47 54 0
1000000 48 56 0
1000000 49 56 0
1000000 50 55 0
1000000 51 55 0
1000000 52 53 0
1000000 -40 -54 0
1000000 -41 -57 0
1000000 -42 -53 0
1000000 -43 -56 0
1000000 -44 -57 0
1000000 -45 -57 0
1000000 -46 -55 0
1000000 -47 -54 0
1000000 -48 -56 0
1000000 -49 -56 0
1000000 -50 -55 0
1000000 -51 -55 0
1000000 -52 -53 0
8000 -53 0
8700 -54 0
11300 -55 0
13200 -56 0
8700 -57 0
2400 40 0
1400 41 0
1900 42 0
800 43 0
1900 44 0
1900 45 0
1900 46 0
2500 47 0
800 48 0
800 49 0
800 50 0
3100 51 0
2500 52 0
6912 -14 0
27115 16 -18 0
1595 -16 18 0
27354 -16 -18 0
18270 -19 0
11190 20 24 -27 0
13055 20 -24 27 0
20329 20 -24 -27 0
24245 -20 24 27 0
28162 -20 24 -27 0
28814 -20 -24 27 0
31360 -20 -24 -27 0
20300 21 29 25 -28 0
11600 21 29 -25 28 0
27840 21 29 -25 -28 0
1160 21 -29 25 28 0
21054 21 -29 25 -28 0
12528 21 -29 -25 28 0
28443 21 -29 -25 -28 0
22040 -21 29 25 28 0
34626 -21 29 25 -28 0
29232 -21 29 -25 28 0
39301 -21 29 -25 -28 0
22759 -21 -29 25 28 0
35093 -21 -29 25 -28 0
29807 -21 -29 -25 28 0
39675 -21 -29 -25 -28 0
1865 -22 0
38340 33 -30 0
11502 -33 30 0
42941 -33 -30 0
16240 23 -37 0
3045 -23 37 0
16849 -23 -37 0
12180 26 -34 0
18270 -26 34 0
19488 -26 -34 0
55100 35 17 -31 0
40600 35 -17 31 0
57130 35 -17 -31 0
43500 -35 17 31 0
57275 -35 17 -31 0
53650 -35 -17 31 0
57782 -35 -17 -31 0
39440 36 38 -32 0
986 36 -38 32 0
39637 36 -38 -32 0
29580 -36 38 32 0
45356 -36 38 -32 0
29974 -36 -38 32 0
45435 -36 -38 -32 0
23925 15 -39 0
3190 -15 39 0
24722 -15 -39 0
