p wcnf 55 167 1000000
1000000 1 0
1000000 2 -15 0
1000000 15 -46 -44 -48 -1 0
1000000 3 -16 0
1000000 16 -47 -45 -1 0
1000000 4 -17 0
1000000 17 -41 -1 0
1000000 6 -18 0
1000000 18 -41 -44 -51 -1 0
1000000 12 -19 0
1000000 19 -43 -2 0
1000000 8 -20 0
1000000 20 -43 -50 -46 -2 0
1000000 10 -21 0
1000000 21 -47 -42 -2 0
1000000 12 -22 0
1000000 22 -41 -43 -48 -11 0
1000000 14 -23 0
1000000 23 -50 -42 -11 0
1000000 13 -24 0
1000000 24 -51 -44 -42 -12 0
1000000 4 -25 0
1000000 25 -47 -40 -3 0
1000000 5 -26 0
1000000 26 -40 -3 0
1000000 10 -27 0
1000000 27 -45 -3 0
1000000 5 -28 0
1000000 28 -40 -4 0
1000000 6 -29 0
1000000 29 -45 -50 -46 -4 0
1000000 12 -30 0
1000000 30 -51 -5 0
1000000 6 -31 0
1000000 31 -48 -5 0
1000000 7 -32 0
1000000 32 -42 -40 -45 -5 0
1000000 10 -33 0
1000000 33 -41 -5 0
1000000 7 -34 0
1000000 34 -46 -43 -6 0
1000000 9 -35 0
1000000 35 -47 -49 -41 -6 0
1000000 11 -36 0
1000000 36 -42 -51 -43 -8 0
1000000 11 -37 0
1000000 37 -44 -10 0
1000000 12 -38 0
1000000 38 -44 -50 -10 0
1000000 13 -39 0
1000000 39 -45 -46 -10 0
1000000 1 0
1000000 -2 15 0
1000000 -3 16 0
1000000 -4 17 25 0
1000000 -5 28 26 0
1000000 -6 31 18 29 0
1000000 -7 32 34 0
1000000 -8 20 0
1000000 -9 35 0
1000000 -10 33 27 21 0
1000000 -11 36 37 0
1000000 -12 19 30 38 22 0
1000000 -13 39 24 0
1000000 -14 23 0
1000000 40 52 0
1000000 41 52 0
1000000 42 55 0
1000000 43 52 0
1000000 44 53 0
1000000 45 55 0
1000000 46 53 0
1000000 47 55 0
1000000 48 54 0
1000000 49 54 0
1000000 50 53 0
1000000 51 54 0
1000000 -40 -52 0
1000000 -41 -52 0
1000000 -42 -55 0
1000000 -43 -52 0
1000000 -44 -53 0
1000000 -45 -55 0
1000000 -46 -53 0
1000000 -47 -55 0
1000000 -48 -54 0
1000000 -49 -54 0
1000000 -50 -53 0
1000000 -51 -54 0
12000 -52 0
9300 -53 0
12100 -54 0
6700 -55 0
1500 40 0
1600 41 0
2100 42 0
1300 43 0
1500 44 0
1600 45 0
1500 46 0
1600 47 0
2300 48 0
1900 49 0
2300 50 0
2500 51 0
13140 -15 0
3115 -16 0
28665 17 -25 0
35035 -17 25 0
47934 -17 -25 0
17900 28 -26 0
32220 -28 26 0
42065 -28 -26 0
40495 31 18 -29 0
12460 31 -18 29 0
44856 31 -18 -29 0
59185 -31 18 29 0
61210 -31 18 -29 0
59808 -31 -18 29 0
61428 -31 -18 -29 0
14795 32 -34 0
9415 -32 34 0
19032 -32 -34 0
6600 -20 0
50120 -35 0
52250 33 27 -21 0
1100 33 -27 21 0
52305 33 -27 -21 0
44000 -33 27 21 0
54450 -33 27 -21 0
44220 -33 -27 21 0
54461 -33 -27 -21 0
11000 36 -37 0
6875 -36 37 0
15125 -36 -37 0
10222 19 30 38 -22 0
20175 19 30 -38 22 0
22731 19 30 -38 -22 0
6725 19 -30 38 22 0
14392 19 -30 38 -22 0
21856 19 -30 -38 22 0
23773 19 -30 -38 -22 0
20175 -19 30 38 22 0
22731 -19 30 38 -22 0
25219 -19 30 -38 22 0
25858 -19 30 -38 -22 0
21856 -19 -30 38 22 0
23773 -19 -30 38 -22 0
25639 -19 -30 -38 22 0
26118 -19 -30 -38 -22 0
48080 39 -24 0
51085 -39 24 0
58297 -39 -24 0
58310 -23 0
