p wcnf 46 139 1000000
1000000 1 0
1000000 2 -13 0
1000000 13 -33 -1 0
1000000 12 -14 0
1000000 14 -42 -39 -38 -1 0
1000000 3 -15 0
1000000 15 -35 -40 -1 0
1000000 4 -16 0
1000000 16 -41 -37 -1 0
1000000 5 -17 0
1000000 17 -41 -38 -40 -1 0
1000000 7 -18 0
1000000 18 -36 -39 -1 0
1000000 8 -19 0
1000000 19 -37 -35 -1 0
1000000 8 -20 0
1000000 20 -36 -35 -2 0
1000000 12 -21 0
1000000 21 -36 -37 -11 0
1000000 6 -22 0
1000000 22 -33 -34 -3 0
1000000 8 -23 0
1000000 23 -33 -3 0
1000000 9 -24 0
1000000 24 -34 -33 -38 -4 0
1000000 11 -25 0
1000000 25 -42 -5 0
1000000 7 -26 0
1000000 26 -38 -36 -41 -5 0
1000000 9 -27 0
1000000 27 -39 -5 0
1000000 10 -28 0
1000000 28 -42 -6 0
1000000 11 -29 0
1000000 29 -34 -35 -36 -8 0
1000000 11 -30 0
1000000 30 -37 -9 0
1000000 12 -31 0
1000000 31 -41 -33 -9 0
1000000 12 -32 0
1000000 32 -34 -42 -37 -10 0
1000000 1 0
1000000 -2 13 0
1000000 -3 15 0
1000000 -4 16 0
1000000 -5 17 0
1000000 -6 22 0
1000000 -7 26 18 0
1000000 -8 19 20 23 0
1000000 -9 27 24 0
1000000 -10 28 0
1000000 -11 29 30 25 0
1000000 -12 21 14 31 32 0
1000000 33 43 0
1000000 34 46 0
1000000 35 43 0
1000000 36 46 0
1000000 37 43 0
1000000 38 46 0
1000000 39 44 0
1000000 40 44 0
1000000 41 45 0
1000000 42 44 0
1000000 -33 -43 0
1000000 -34 -46 0
1000000 -35 -43 0
1000000 -36 -46 0
1000000 -37 -43 0
1000000 -38 -46 0
1000000 -39 -44 0
1000000 -40 -44 0
1000000 -41 -45 0
1000000 -42 -44 0
7400 -43 0
13000 -44 0
9500 -45 0
9500 -46 0
3400 33 0
2300 34 0
3800 35 0
2300 36 0
3800 37 0
3400 38 0
3800 39 0
3400 40 0
3800 41 0
3800 42 0
5250 -13 0
28215 -15 0
7980 -16 0
29575 -17 0
8575 -22 0
9100 26 -18 0
18200 -26 18 0
23660 -26 -18 0
3780 19 20 -23 0
17850 19 -20 23 0
18417 19 -20 -23 0
11550 -19 20 23 0
13251 -19 20 -23 0
19582 -19 -20 23 0
19838 -19 -20 -23 0
13200 27 -24 0
16720 -27 24 0
17380 -27 -24 0
18900 -28 0
39825 29 30 -25 0
50445 29 -30 25 0
52436 29 -30 -25 0
45135 -29 30 25 0
51109 -29 30 -25 0
52702 -29 -30 25 0
53000 -29 -30 -25 0
31350 21 14 31 -32 0
59565 21 14 -31 32 0
61132 21 14 -31 -32 0
18810 21 -14 31 32 0
40755 21 -14 31 -32 0
60505 21 -14 -31 32 0
61603 21 -14 -31 -32 0
56430 -21 14 31 32 0
59565 -21 14 31 -32 0
62387 -21 14 -31 32 0
62543 -21 14 -31 -32 0
58311 -21 -14 31 32 0
60505 -21 -14 31 -32 0
62481 -21 -14 -31 32 0
62590 -21 -14 -31 -32 0
