p wcnf 52 160 1000000
1000000 1 0
1000000 2 -14 0
1000000 14 -43 -44 -45 -1 0
1000000 4 -15 0
1000000 15 -38 -1 0
1000000 5 -16 0
1000000 16 -38 -39 -37 -1 0
1000000 6 -17 0
1000000 17 -46 -41 -1 0
1000000 7 -18 0
1000000 18 -40 -1 0
1000000 9 -19 0
1000000 19 -48 -40 -1 0
1000000 11 -20 0
1000000 20 -37 -2 0
1000000 3 -21 0
1000000 21 -41 -39 -2 0
1000000 6 -22 0
1000000 22 -48 -37 -42 -2 0
1000000 13 -23 0
1000000 23 -42 -46 -39 -12 0
1000000 5 -24 0
1000000 24 -43 -45 -46 -3 0
1000000 6 -25 0
1000000 25 -47 -3 0
1000000 7 -26 0
1000000 26 -44 -43 -48 -3 0
1000000 13 -27 0
1000000 27 -42 -41 -4 0
1000000 5 -28 0
1000000 28 -40 -47 -4 0
1000000 7 -29 0
1000000 29 -37 -41 -38 -4 0
1000000 13 -30 0
1000000 30 -38 -46 -40 -5 0
1000000 13 -31 0
1000000 31 -45 -6 0
1000000 8 -32 0
1000000 32 -39 -42 -44 -7 0
1000000 10 -33 0
1000000 33 -47 -43 -7 0
1000000 12 -34 0
1000000 34 -45 -8 0
1000000 11 -35 0
1000000 35 -48 -9 0
1000000 12 -36 0
1000000 36 -38 -47 -41 -9 0
1000000 1 0
1000000 -2 14 0
1000000 -3 21 0
1000000 -4 15 0
1000000 -5 28 16 24 0
1000000 -6 25 22 17 0
1000000 -7 18 26 29 0
1000000 -8 32 0
1000000 -9 19 0
1000000 -10 33 0
1000000 -11 20 35 0
1000000 -12 36 34 0
1000000 -13 27 30 23 31 0
1000000 37 49 0
1000000 38 52 0
1000000 39 51 0
1000000 40 50 0
1000000 41 51 0
1000000 42 52 0
1000000 43 51 0
1000000 44 49 0
1000000 45 52 0
1000000 46 50 0
1000000 47 49 0
1000000 48 50 0
1000000 -37 -49 0
1000000 -38 -52 0
1000000 -39 -51 0
1000000 -40 -50 0
1000000 -41 -51 0
1000000 -42 -52 0
1000000 -43 -51 0
1000000 -44 -49 0
1000000 -45 -52 0
1000000 -46 -50 0
1000000 -47 -49 0
1000000 -48 -50 0
12800 -49 0
9000 -50 0
9000 -51 0
8700 -52 0
800 37 0
3000 38 0
1800 39 0
1100 40 0
1800 41 0
2300 42 0
800 43 0
1100 44 0
800 45 0
800 46 0
3000 47 0
2300 48 0
4935 -14 0
23590 -21 0
40020 -15 0
15520 28 16 -24 0
21340 28 -16 24 0
28324 28 -16 -24 0
32980 -28 16 24 0
35308 -28 16 -24 0
36181 -28 -16 24 0
37229 -28 -16 -24 0
2280 25 22 -17 0
3990 25 -22 17 0
5472 25 -22 -17 0
9120 -25 22 17 0
9576 -25 22 -17 0
9918 -25 -22 17 0
10214 -25 -22 -17 0
43355 18 26 -29 0
40020 18 -26 29 0
57362 18 -26 -29 0
50025 -18 26 29 0
60864 -18 26 -29 0
60030 -18 -26 29 0
64365 -18 -26 -29 0
10275 -32 0
22480 -19 0
7535 -33 0
67745 20 -35 0
47820 -20 35 0
74918 -20 -35 0
10140 36 -34 0
7605 -36 34 0
13182 -36 -34 0
11645 27 30 23 -31 0
274 27 30 -23 31 0
11686 27 30 -23 -31 0
10960 27 -30 23 31 0
13289 27 -30 23 -31 0
11015 27 -30 -23 31 0
13297 27 -30 -23 -31 0
6165 -27 30 23 31 0
12570 -27 30 23 -31 0
6316 -27 30 -23 31 0
12592 -27 30 -23 -31 0
12193 -27 -30 23 31 0
13474 -27 -30 23 -31 0
12223 -27 -30 -23 31 0
13478 -27 -30 -23 -31 0
