p wcnf 847 3437 1000000
1000000 1 0
1000000 2 -153 0
1000000 153 -605 -601 -599 -1 0
1000000 103 -154 0
1000000 154 -602 -606 -1 0
1000000 12 -155 0
1000000 155 -600 -608 -607 -1 0
1000000 13 -156 0
1000000 156 -609 -610 -598 -1 0
1000000 15 -157 0
1000000 157 -614 -604 -1 0
1000000 6 -158 0
1000000 158 -603 -1 0
1000000 9 -159 0
1000000 159 -612 -1 0
1000000 11 -160 0
1000000 160 -618 -619 -617 -2 0
1000000 13 -161 0
1000000 161 -621 -611 -2 0
1000000 15 -162 0
1000000 162 -622 -615 -616 -2 0
1000000 16 -163 0
1000000 163 -626 -623 -2 0
1000000 18 -164 0
1000000 164 -613 -620 -2 0
1000000 3 -165 0
1000000 165 -630 -631 -624 -2 0
1000000 4 -166 0
1000000 166 -627 -2 0
1000000 31 -167 0
1000000 167 -637 -632 -629 -2 0
1000000 42 -168 0
1000000 168 -628 -625 -2 0
1000000 10 -169 0
1000000 169 -633 -2 0
1000000 97 -170 0
1000000 170 -635 -638 -2 0
1000000 12 -171 0
1000000 171 -634 -11 0
1000000 21 -172 0
1000000 172 -641 -639 -11 0
1000000 103 -173 0
1000000 173 -643 -636 -101 0
1000000 106 -174 0
1000000 174 -640 -644 -101 0
1000000 137 -175 0
1000000 175 -649 -645 -648 -101 0
1000000 106 -176 0
1000000 176 -642 -102 0
1000000 112 -177 0
1000000 177 -651 -647 -102 0
1000000 106 -178 0
1000000 178 -653 -655 -103 0
1000000 108 -179 0
1000000 179 -659 -652 -650 -103 0
1000000 144 -180 0
1000000 180 -646 -103 0
1000000 107 -181 0
1000000 181 -654 -660 -104 0
1000000 108 -182 0
1000000 182 -658 -104 0
1000000 110 -183 0
1000000 183 -665 -666 -661 -105 0
1000000 116 -184 0
1000000 184 -664 -657 -670 -105 0
1000000 108 -185 0
1000000 185 -663 -106 0
1000000 113 -186 0
1000000 186 -668 -671 -667 -106 0
1000000 109 -187 0
1000000 187 -662 -672 -107 0
1000000 111 -188 0
1000000 188 -669 -107 0
1000000 151 -189 0
1000000 189 -679 -674 -676 -107 0
1000000 115 -190 0
1000000 190 -673 -108 0
1000000 117 -191 0
1000000 191 -680 -682 -677 -108 0
1000000 111 -192 0
1000000 192 -678 -681 -675 -109 0
1000000 116 -193 0
1000000 193 -683 -689 -686 -109 0
1000000 128 -194 0
1000000 194 -687 -656 -684 -109 0
1000000 114 -195 0
1000000 195 -690 -691 -110 0
1000000 123 -196 0
1000000 196 -693 -695 -110 0
1000000 19 -197 0
1000000 197 -688 -696 -692 -12 0
1000000 25 -198 0
1000000 198 -685 -12 0
1000000 34 -199 0
1000000 199 -702 -701 -694 -12 0
1000000 80 -200 0
1000000 200 -700 -697 -12 0
1000000 112 -201 0
1000000 201 -699 -111 0
1000000 114 -202 0
1000000 202 -706 -704 -111 0
1000000 113 -203 0
1000000 203 -708 -698 -112 0
1000000 114 -204 0
1000000 204 -711 -703 -112 0
1000000 116 -205 0
1000000 205 -707 -715 -713 -113 0
1000000 124 -206 0
1000000 206 -714 -719 -710 -113 0
1000000 115 -207 0
1000000 207 -716 -718 -114 0
1000000 117 -208 0
1000000 208 -705 -114 0
1000000 117 -209 0
1000000 209 -725 -720 -724 -115 0
1000000 121 -210 0
1000000 210 -712 -717 -115 0
1000000 140 -211 0
1000000 211 -721 -115 0
1000000 118 -212 0
1000000 212 -709 -116 0
1000000 121 -213 0
1000000 213 -730 -728 -723 -116 0
1000000 135 -214 0
1000000 214 -733 -734 -726 -117 0
1000000 138 -215 0
1000000 215 -729 -117 0
1000000 119 -216 0
1000000 216 -739 -738 -722 -118 0
1000000 126 -217 0
1000000 217 -731 -118 0
1000000 122 -218 0
1000000 218 -743 -737 -742 -119 0
1000000 124 -219 0
1000000 219 -735 -736 -741 -119 0
1000000 123 -220 0
1000000 220 -727 -120 0
1000000 127 -221 0
1000000 221 -744 -120 0
1000000 15 -222 0
1000000 222 -740 -13 0
1000000 26 -223 0
1000000 223 -746 -747 -13 0
1000000 28 -224 0
1000000 224 -732 -13 0
1000000 125 -225 0
1000000 225 -751 -752 -745 -121 0
1000000 128 -226 0
1000000 226 -750 -754 -755 -121 0
1000000 127 -227 0
1000000 227 -760 -756 -753 -122 0
1000000 128 -228 0
1000000 228 -758 -761 -122 0
1000000 129 -229 0
1000000 229 -766 -759 -757 -123 0
1000000 133 -230 0
1000000 230 -768 -764 -769 -123 0
1000000 135 -231 0
1000000 231 -763 -772 -762 -123 0
1000000 125 -232 0
1000000 232 -775 -748 -771 -124 0
1000000 132 -233 0
1000000 233 -749 -124 0
1000000 126 -234 0
1000000 234 -777 -765 -767 -125 0
1000000 128 -235 0
1000000 235 -781 -776 -779 -125 0
1000000 132 -236 0
1000000 236 -770 -125 0
1000000 127 -237 0
1000000 237 -780 -784 -599 -126 0
1000000 132 -238 0
1000000 238 -783 -778 -126 0
1000000 134 -239 0
1000000 239 -773 -598 -127 0
1000000 137 -240 0
1000000 240 -774 -127 0
1000000 131 -241 0
1000000 241 -782 -128 0
1000000 135 -242 0
1000000 242 -601 -128 0
1000000 135 -243 0
1000000 243 -602 -129 0
1000000 136 -244 0
1000000 244 -608 -603 -604 -129 0
1000000 131 -245 0
1000000 245 -605 -130 0
1000000 149 -246 0
1000000 246 -611 -607 -130 0
1000000 102 -247 0
1000000 247 -609 -14 0
1000000 15 -248 0
1000000 248 -614 -600 -14 0
1000000 19 -249 0
1000000 249 -613 -612 -14 0
1000000 25 -250 0
1000000 250 -615 -618 -14 0
1000000 28 -251 0
1000000 251 -620 -610 -14 0
1000000 64 -252 0
1000000 252 -619 -606 -623 -14 0
1000000 133 -253 0
1000000 253 -621 -617 -131 0
1000000 134 -254 0
1000000 254 -627 -616 -131 0
1000000 133 -255 0
1000000 255 -625 -132 0
1000000 137 -256 0
1000000 256 -624 -629 -132 0
1000000 135 -257 0
1000000 257 -626 -133 0
1000000 141 -258 0
1000000 258 -631 -632 -622 -133 0
1000000 136 -259 0
1000000 259 -634 -639 -633 -134 0
1000000 142 -260 0
1000000 260 -630 -635 -134 0
1000000 142 -261 0
1000000 261 -636 -641 -637 -135 0
1000000 143 -262 0
1000000 262 -642 -640 -647 -135 0
1000000 147 -263 0
1000000 263 -643 -649 -628 -135 0
1000000 137 -264 0
1000000 264 -653 -652 -638 -136 0
1000000 143 -265 0
1000000 265 -645 -136 0
1000000 140 -266 0
1000000 266 -650 -655 -648 -137 0
1000000 148 -267 0
1000000 267 -651 -137 0
1000000 140 -268 0
1000000 268 -657 -654 -661 -138 0
1000000 152 -269 0
1000000 269 -658 -664 -659 -138 0
1000000 142 -270 0
1000000 270 -666 -660 -646 -139 0
1000000 143 -271 0
1000000 271 -644 -139 0
1000000 141 -272 0
1000000 272 -656 -140 0
1000000 144 -273 0
1000000 273 -668 -663 -140 0
1000000 16 -274 0
1000000 274 -665 -669 -15 0
1000000 21 -275 0
1000000 275 -667 -15 0
1000000 142 -276 0
1000000 276 -670 -141 0
1000000 144 -277 0
1000000 277 -671 -672 -141 0
1000000 147 -278 0
1000000 278 -677 -673 -662 -142 0
1000000 148 -279 0
1000000 279 -674 -142 0
1000000 150 -280 0
1000000 280 -675 -143 0
1000000 149 -281 0
1000000 281 -685 -680 -682 -144 0
1000000 147 -282 0
1000000 282 -679 -145 0
1000000 149 -283 0
1000000 283 -683 -688 -687 -145 0
1000000 148 -284 0
1000000 284 -689 -684 -146 0
1000000 149 -285 0
1000000 285 -692 -676 -693 -146 0
1000000 150 -286 0
1000000 286 -694 -686 -696 -147 0
1000000 152 -287 0
1000000 287 -691 -678 -147 0
1000000 149 -288 0
1000000 288 -690 -699 -148 0
1000000 152 -289 0
1000000 289 -698 -695 -150 0
1000000 17 -290 0
1000000 290 -702 -701 -703 -16 0
1000000 20 -291 0
1000000 291 -697 -704 -16 0
1000000 133 -292 0
1000000 292 -681 -17 0
1000000 135 -293 0
1000000 293 -705 -17 0
1000000 18 -294 0
1000000 294 -700 -17 0
1000000 26 -295 0
1000000 295 -707 -17 0
1000000 36 -296 0
1000000 296 -706 -17 0
1000000 56 -297 0
1000000 297 -708 -711 -17 0
1000000 21 -298 0
1000000 298 -709 -712 -18 0
1000000 30 -299 0
1000000 299 -710 -18 0
1000000 149 -300 0
1000000 300 -715 -19 0
1000000 23 -301 0
1000000 301 -713 -19 0
1000000 34 -302 0
1000000 302 -718 -716 -19 0
1000000 76 -303 0
1000000 303 -714 -19 0
1000000 123 -304 0
1000000 304 -720 -20 0
1000000 25 -305 0
1000000 305 -723 -717 -20 0
1000000 27 -306 0
1000000 306 -725 -722 -20 0
1000000 30 -307 0
1000000 307 -730 -724 -719 -20 0
1000000 66 -308 0
1000000 308 -729 -732 -731 -20 0
1000000 124 -309 0
1000000 309 -721 -733 -3 0
1000000 19 -310 0
1000000 310 -726 -3 0
1000000 22 -311 0
1000000 311 -737 -727 -728 -3 0
1000000 26 -312 0
1000000 312 -740 -735 -3 0
1000000 4 -313 0
1000000 313 -745 -736 -744 -3 0
1000000 33 -314 0
1000000 314 -741 -734 -3 0
1000000 5 -315 0
1000000 315 -749 -738 -746 -3 0
1000000 7 -316 0
1000000 316 -739 -3 0
1000000 67 -317 0
1000000 317 -754 -748 -752 -3 0
1000000 8 -318 0
1000000 318 -747 -3 0
1000000 26 -319 0
1000000 319 -743 -742 -21 0
1000000 35 -320 0
1000000 320 -750 -21 0
1000000 38 -321 0
1000000 321 -755 -758 -761 -21 0
1000000 40 -322 0
1000000 322 -753 -751 -764 -21 0
1000000 44 -323 0
1000000 323 -757 -21 0
1000000 139 -324 0
1000000 324 -768 -765 -762 -22 0
1000000 33 -325 0
1000000 325 -759 -22 0
1000000 35 -326 0
1000000 326 -763 -771 -769 -22 0
1000000 43 -327 0
1000000 327 -760 -756 -22 0
1000000 95 -328 0
1000000 328 -770 -774 -22 0
1000000 24 -329 0
1000000 329 -772 -767 -23 0
1000000 25 -330 0
1000000 330 -766 -777 -23 0
1000000 30 -331 0
1000000 331 -778 -775 -23 0
1000000 34 -332 0
1000000 332 -776 -784 -781 -23 0
1000000 37 -333 0
1000000 333 -599 -600 -601 -23 0
1000000 134 -334 0
1000000 334 -782 -602 -783 -24 0
1000000 31 -335 0
1000000 335 -773 -605 -607 -24 0
1000000 42 -336 0
1000000 336 -779 -24 0
1000000 62 -337 0
1000000 337 -598 -24 0
1000000 96 -338 0
1000000 338 -780 -24 0
1000000 130 -339 0
1000000 339 -612 -613 -610 -25 0
1000000 28 -340 0
1000000 340 -611 -604 -25 0
1000000 30 -341 0
1000000 341 -614 -609 -25 0
1000000 45 -342 0
1000000 342 -603 -25 0
1000000 112 -343 0
1000000 343 -615 -26 0
1000000 27 -344 0
1000000 344 -618 -608 -616 -26 0
1000000 33 -345 0
1000000 345 -619 -26 0
1000000 28 -346 0
1000000 346 -625 -624 -621 -27 0
1000000 29 -347 0
1000000 347 -620 -623 -622 -27 0
1000000 40 -348 0
1000000 348 -606 -27 0
1000000 72 -349 0
1000000 349 -627 -27 0
1000000 34 -350 0
1000000 350 -632 -628 -630 -28 0
1000000 40 -351 0
1000000 351 -629 -633 -637 -28 0
1000000 120 -352 0
1000000 352 -634 -639 -638 -29 0
1000000 37 -353 0
1000000 353 -617 -29 0
1000000 44 -354 0
1000000 354 -640 -626 -29 0
1000000 32 -355 0
1000000 355 -641 -643 -30 0
1000000 40 -356 0
1000000 356 -648 -646 -631 -30 0
1000000 44 -357 0
1000000 357 -650 -651 -642 -30 0
1000000 122 -358 0
1000000 358 -636 -4 0
1000000 5 -359 0
1000000 359 -649 -635 -653 -4 0
1000000 59 -360 0
1000000 360 -644 -4 0
1000000 7 -361 0
1000000 361 -655 -658 -656 -4 0
1000000 86 -362 0
1000000 362 -652 -4 0
1000000 34 -363 0
1000000 363 -654 -660 -31 0
1000000 35 -364 0
1000000 364 -659 -661 -31 0
1000000 115 -365 0
1000000 365 -664 -666 -645 -32 0
1000000 33 -366 0
1000000 366 -665 -663 -32 0
1000000 43 -367 0
1000000 367 -668 -662 -32 0
1000000 60 -368 0
1000000 368 -667 -32 0
1000000 68 -369 0
1000000 369 -657 -647 -32 0
1000000 39 -370 0
1000000 370 -669 -33 0
1000000 43 -371 0
1000000 371 -671 -33 0
1000000 127 -372 0
1000000 372 -674 -673 -676 -34 0
1000000 136 -373 0
1000000 373 -670 -672 -34 0
1000000 35 -374 0
1000000 374 -684 -678 -683 -34 0
1000000 37 -375 0
1000000 375 -675 -682 -34 0
1000000 47 -376 0
1000000 376 -687 -677 -689 -34 0
1000000 114 -377 0
1000000 377 -685 -681 -35 0
1000000 38 -378 0
1000000 378 -691 -679 -688 -35 0
1000000 46 -379 0
1000000 379 -694 -686 -35 0
1000000 49 -380 0
1000000 380 -692 -35 0
1000000 109 -381 0
1000000 381 -680 -697 -693 -36 0
1000000 39 -382 0
1000000 382 -695 -36 0
1000000 40 -383 0
1000000 383 -690 -36 0
1000000 99 -384 0
1000000 384 -701 -703 -704 -36 0
1000000 43 -385 0
1000000 385 -698 -702 -37 0
1000000 62 -386 0
1000000 386 -699 -37 0
1000000 92 -387 0
1000000 387 -700 -37 0
1000000 42 -388 0
1000000 388 -706 -709 -38 0
1000000 45 -389 0
1000000 389 -711 -708 -710 -38 0
1000000 57 -390 0
1000000 390 -715 -707 -712 -38 0
1000000 71 -391 0
1000000 391 -705 -38 0
1000000 45 -392 0
1000000 392 -714 -39 0
1000000 50 -393 0
1000000 393 -696 -39 0
1000000 94 -394 0
1000000 394 -713 -39 0
1000000 41 -395 0
1000000 395 -722 -720 -721 -40 0
1000000 42 -396 0
1000000 396 -717 -718 -40 0
1000000 52 -397 0
1000000 397 -716 -726 -40 0
1000000 11 -398 0
1000000 398 -727 -719 -5 0
1000000 14 -399 0
1000000 399 -725 -5 0
1000000 20 -400 0
1000000 400 -723 -732 -724 -5 0
1000000 22 -401 0
1000000 401 -733 -728 -5 0
1000000 29 -402 0
1000000 402 -731 -5 0
1000000 9 -403 0
1000000 403 -730 -737 -736 -5 0
1000000 47 -404 0
1000000 404 -735 -740 -41 0
1000000 48 -405 0
1000000 405 -741 -734 -41 0
1000000 50 -406 0
1000000 406 -738 -729 -41 0
1000000 93 -407 0
1000000 407 -745 -746 -41 0
1000000 138 -408 0
1000000 408 -739 -747 -751 -42 0
1000000 146 -409 0
1000000 409 -754 -742 -744 -42 0
1000000 48 -410 0
1000000 410 -749 -750 -743 -42 0
1000000 49 -411 0
1000000 411 -753 -42 0
1000000 55 -412 0
1000000 412 -752 -42 0
1000000 113 -413 0
1000000 413 -762 -757 -759 -43 0
1000000 48 -414 0
1000000 414 -761 -755 -43 0
1000000 51 -415 0
1000000 415 -756 -43 0
1000000 52 -416 0
1000000 416 -764 -767 -758 -43 0
1000000 58 -417 0
1000000 417 -763 -765 -771 -43 0
1000000 49 -418 0
1000000 418 -770 -769 -44 0
1000000 50 -419 0
1000000 419 -766 -748 -774 -44 0
1000000 131 -420 0
1000000 420 -760 -777 -768 -45 0
1000000 46 -421 0
1000000 421 -773 -45 0
1000000 49 -422 0
1000000 422 -781 -783 -775 -45 0
1000000 53 -423 0
1000000 423 -772 -45 0
1000000 54 -424 0
1000000 424 -782 -780 -776 -45 0
1000000 65 -425 0
1000000 425 -779 -784 -45 0
1000000 47 -426 0
1000000 426 -598 -46 0
1000000 50 -427 0
1000000 427 -603 -602 -46 0
1000000 107 -428 0
1000000 428 -599 -604 -47 0
1000000 48 -429 0
1000000 429 -778 -601 -47 0
1000000 51 -430 0
1000000 430 -605 -47 0
1000000 58 -431 0
1000000 431 -608 -609 -600 -47 0
1000000 53 -432 0
1000000 432 -606 -612 -614 -48 0
1000000 59 -433 0
1000000 433 -615 -619 -616 -48 0
1000000 51 -434 0
1000000 434 -618 -613 -49 0
1000000 55 -435 0
1000000 435 -611 -49 0
1000000 75 -436 0
1000000 436 -621 -622 -49 0
1000000 52 -437 0
1000000 437 -607 -50 0
1000000 53 -438 0
1000000 438 -623 -625 -50 0
1000000 74 -439 0
1000000 439 -626 -629 -628 -50 0
1000000 82 -440 0
1000000 440 -610 -631 -627 -50 0
1000000 41 -441 0
1000000 441 -617 -6 0
1000000 8 -442 0
1000000 442 -634 -632 -6 0
1000000 9 -443 0
1000000 443 -620 -636 -6 0
1000000 53 -444 0
1000000 444 -637 -624 -630 -51 0
1000000 57 -445 0
1000000 445 -638 -641 -51 0
1000000 101 -446 0
1000000 446 -633 -52 0
1000000 53 -447 0
1000000 447 -635 -640 -52 0
1000000 55 -448 0
1000000 448 -645 -644 -52 0
1000000 56 -449 0
1000000 449 -649 -646 -642 -52 0
1000000 55 -450 0
1000000 450 -647 -651 -53 0
1000000 58 -451 0
1000000 451 -654 -648 -652 -53 0
1000000 60 -452 0
1000000 452 -659 -653 -650 -54 0
1000000 66 -453 0
1000000 453 -639 -54 0
1000000 73 -454 0
1000000 454 -643 -657 -54 0
1000000 132 -455 0
1000000 455 -656 -661 -55 0
1000000 57 -456 0
1000000 456 -662 -658 -55 0
1000000 59 -457 0
1000000 457 -660 -55 0
1000000 70 -458 0
1000000 458 -663 -55 0
1000000 58 -459 0
1000000 459 -655 -664 -56 0
1000000 64 -460 0
1000000 460 -672 -670 -667 -56 0
1000000 111 -461 0
1000000 461 -666 -57 0
1000000 58 -462 0
1000000 462 -669 -673 -57 0
1000000 62 -463 0
1000000 463 -674 -675 -57 0
1000000 61 -464 0
1000000 464 -680 -678 -681 -58 0
1000000 65 -465 0
1000000 465 -676 -665 -58 0
1000000 110 -466 0
1000000 466 -677 -59 0
1000000 61 -467 0
1000000 467 -685 -686 -684 -59 0
1000000 62 -468 0
1000000 468 -688 -687 -683 -59 0
1000000 63 -469 0
1000000 469 -682 -693 -690 -59 0
1000000 68 -470 0
1000000 470 -671 -691 -59 0
1000000 78 -471 0
1000000 471 -679 -59 0
1000000 152 -472 0
1000000 472 -694 -696 -60 0
1000000 64 -473 0
1000000 473 -692 -60 0
1000000 65 -474 0
1000000 474 -689 -698 -60 0
1000000 14 -475 0
1000000 475 -697 -7 0
1000000 16 -476 0
1000000 476 -699 -7 0
1000000 23 -477 0
1000000 477 -703 -704 -705 -7 0
1000000 39 -478 0
1000000 478 -701 -709 -708 -7 0
1000000 100 -479 0
1000000 479 -695 -7 0
1000000 63 -480 0
1000000 480 -668 -61 0
1000000 65 -481 0
1000000 481 -710 -711 -61 0
1000000 63 -482 0
1000000 482 -713 -712 -702 -62 0
1000000 64 -483 0
1000000 483 -716 -707 -62 0
1000000 64 -484 0
1000000 484 -717 -700 -63 0
1000000 68 -485 0
1000000 485 -722 -723 -719 -63 0
1000000 121 -486 0
1000000 486 -714 -725 -718 -64 0
1000000 65 -487 0
1000000 487 -721 -724 -720 -64 0
1000000 66 -488 0
1000000 488 -728 -729 -64 0
1000000 69 -489 0
1000000 489 -706 -731 -64 0
1000000 66 -490 0
1000000 490 -727 -65 0
1000000 68 -491 0
1000000 491 -730 -715 -65 0
1000000 70 -492 0
1000000 492 -726 -732 -737 -66 0
1000000 72 -493 0
1000000 493 -735 -66 0
1000000 84 -494 0
1000000 494 -741 -740 -743 -66 0
1000000 118 -495 0
1000000 495 -736 -733 -67 0
1000000 78 -496 0
1000000 496 -734 -67 0
1000000 83 -497 0
1000000 497 -739 -746 -742 -67 0
1000000 91 -498 0
1000000 498 -738 -745 -751 -67 0
1000000 70 -499 0
1000000 499 -755 -752 -754 -68 0
1000000 75 -500 0
1000000 500 -748 -750 -68 0
1000000 79 -501 0
1000000 501 -744 -69 0
1000000 81 -502 0
1000000 502 -757 -758 -747 -69 0
1000000 71 -503 0
1000000 503 -749 -753 -70 0
1000000 74 -504 0
1000000 504 -760 -756 -70 0
1000000 88 -505 0
1000000 505 -765 -762 -70 0
1000000 11 -506 0
1000000 506 -764 -763 -767 -8 0
1000000 148 -507 0
1000000 507 -766 -769 -761 -8 0
1000000 9 -508 0
1000000 508 -771 -773 -8 0
1000000 83 -509 0
1000000 509 -772 -777 -774 -8 0
1000000 10 -510 0
1000000 510 -779 -768 -775 -8 0
1000000 72 -511 0
1000000 511 -781 -770 -71 0
1000000 74 -512 0
1000000 512 -759 -71 0
1000000 79 -513 0
1000000 513 -599 -600 -784 -71 0
1000000 142 -514 0
1000000 514 -778 -598 -72 0
1000000 74 -515 0
1000000 515 -601 -782 -776 -72 0
1000000 75 -516 0
1000000 516 -783 -72 0
1000000 81 -517 0
1000000 517 -603 -72 0
1000000 76 -518 0
1000000 518 -602 -607 -73 0
1000000 95 -519 0
1000000 519 -780 -608 -73 0
1000000 105 -520 0
1000000 520 -614 -610 -611 -74 0
1000000 77 -521 0
1000000 521 -605 -74 0
1000000 81 -522 0
1000000 522 -604 -74 0
1000000 77 -523 0
1000000 523 -609 -618 -615 -75 0
1000000 84 -524 0
1000000 524 -619 -606 -622 -75 0
1000000 91 -525 0
1000000 525 -613 -75 0
1000000 81 -526 0
1000000 526 -612 -616 -76 0
1000000 82 -527 0
1000000 527 -620 -625 -76 0
1000000 125 -528 0
1000000 528 -617 -626 -628 -77 0
1000000 83 -529 0
1000000 529 -627 -629 -624 -77 0
1000000 86 -530 0
1000000 530 -633 -631 -77 0
1000000 79 -531 0
1000000 531 -621 -634 -638 -78 0
1000000 80 -532 0
1000000 532 -641 -639 -632 -78 0
1000000 81 -533 0
1000000 533 -644 -623 -636 -79 0
1000000 83 -534 0
1000000 534 -640 -647 -642 -79 0
1000000 85 -535 0
1000000 535 -649 -637 -643 -79 0
1000000 104 -536 0
1000000 536 -645 -80 0
1000000 108 -537 0
1000000 537 -635 -80 0
1000000 87 -538 0
1000000 538 -648 -80 0
1000000 88 -539 0
1000000 539 -653 -652 -630 -80 0
1000000 92 -540 0
1000000 540 -650 -651 -80 0
1000000 98 -541 0
1000000 541 -659 -654 -656 -80 0
1000000 21 -542 0
1000000 542 -657 -9 0
1000000 22 -543 0
1000000 543 -655 -662 -9 0
1000000 10 -544 0
1000000 544 -658 -9 0
1000000 117 -545 0
1000000 545 -664 -666 -646 -81 0
1000000 83 -546 0
1000000 546 -667 -660 -81 0
1000000 87 -547 0
1000000 547 -661 -81 0
1000000 90 -548 0
1000000 548 -670 -668 -669 -81 0
1000000 85 -549 0
1000000 549 -663 -82 0
1000000 88 -550 0
1000000 550 -671 -82 0
1000000 116 -551 0
1000000 551 -672 -83 0
1000000 150 -552 0
1000000 552 -665 -83 0
1000000 89 -553 0
1000000 553 -680 -675 -681 -83 0
1000000 93 -554 0
1000000 554 -673 -676 -83 0
1000000 89 -555 0
1000000 555 -674 -685 -682 -84 0
1000000 90 -556 0
1000000 556 -683 -684 -686 -84 0
1000000 119 -557 0
1000000 557 -679 -85 0
1000000 86 -558 0
1000000 558 -691 -690 -692 -85 0
1000000 89 -559 0
1000000 559 -696 -693 -695 -85 0
1000000 94 -560 0
1000000 560 -688 -678 -677 -85 0
1000000 90 -561 0
1000000 561 -689 -86 0
1000000 93 -562 0
1000000 562 -687 -86 0
1000000 89 -563 0
1000000 563 -701 -697 -87 0
1000000 94 -564 0
1000000 564 -698 -87 0
1000000 89 -565 0
1000000 565 -704 -694 -88 0
1000000 90 -566 0
1000000 566 -700 -709 -699 -88 0
1000000 91 -567 0
1000000 567 -702 -89 0
1000000 95 -568 0
1000000 568 -708 -706 -711 -89 0
1000000 94 -569 0
1000000 569 -703 -90 0
1000000 96 -570 0
1000000 570 -707 -90 0
1000000 11 -571 0
1000000 571 -705 -713 -712 -10 0
1000000 12 -572 0
1000000 572 -719 -721 -715 -10 0
1000000 17 -573 0
1000000 573 -723 -716 -714 -10 0
1000000 95 -574 0
1000000 574 -710 -724 -91 0
1000000 98 -575 0
1000000 575 -718 -91 0
1000000 106 -576 0
1000000 576 -717 -720 -729 -92 0
1000000 95 -577 0
1000000 577 -727 -728 -732 -92 0
1000000 96 -578 0
1000000 578 -736 -722 -730 -92 0
1000000 94 -579 0
1000000 579 -725 -93 0
1000000 95 -580 0
1000000 580 -735 -726 -739 -93 0
1000000 95 -581 0
1000000 581 -741 -733 -740 -94 0
1000000 97 -582 0
1000000 582 -742 -734 -737 -94 0
1000000 96 -583 0
1000000 583 -744 -749 -745 -95 0
1000000 97 -584 0
1000000 584 -743 -95 0
1000000 106 -585 0
1000000 585 -731 -96 0
1000000 97 -586 0
1000000 586 -738 -96 0
1000000 104 -587 0
1000000 587 -754 -748 -746 -97 0
1000000 106 -588 0
1000000 588 -747 -97 0
1000000 145 -589 0
1000000 589 -755 -758 -750 -97 0
1000000 101 -590 0
1000000 590 -753 -751 -98 0
1000000 110 -591 0
1000000 591 -752 -757 -98 0
1000000 143 -592 0
1000000 592 -759 -763 -98 0
1000000 105 -593 0
1000000 593 -766 -760 -765 -99 0
1000000 100 -594 0
1000000 594 -761 -767 -99 0
1000000 105 -595 0
1000000 595 -764 -762 -100 0
1000000 124 -596 0
1000000 596 -756 -768 -770 -100 0
1000000 141 -597 0
1000000 597 -775 -771 -100 0
1000000 1 0
1000000 -2 153 0
1000000 -3 165 0
1000000 -4 166 313 0
1000000 -5 315 359 0
1000000 -6 158 0
1000000 -7 316 361 0
1000000 -8 442 318 0
1000000 -9 508 159 403 443 0
1000000 -10 544 510 169 0
1000000 -11 398 506 571 160 0
1000000 -12 155 572 171 0
1000000 -13 161 156 0
1000000 -14 475 399 0
1000000 -15 157 162 222 248 0
1000000 -16 163 476 274 0
1000000 -17 573 290 0
1000000 -18 294 164 0
1000000 -19 249 310 197 0
1000000 -20 291 400 0
1000000 -21 172 298 542 275 0
1000000 -22 543 401 311 0
1000000 -23 301 477 0
1000000 -24 329 0
1000000 -25 250 198 330 305 0
1000000 -26 223 319 312 295 0
1000000 -27 344 306 0
1000000 -28 340 251 224 346 0
1000000 -29 347 402 0
1000000 -30 331 299 341 307 0
1000000 -31 335 167 0
1000000 -32 355 0
1000000 -33 345 314 325 366 0
1000000 -34 350 363 199 302 332 0
1000000 -35 364 374 326 320 0
1000000 -36 296 0
1000000 -37 333 375 353 0
1000000 -38 321 378 0
1000000 -39 478 382 370 0
1000000 -40 351 322 348 383 356 0
1000000 -41 441 395 0
1000000 -42 388 396 168 336 0
1000000 -43 327 367 371 385 0
1000000 -44 323 357 354 0
1000000 -45 342 392 389 0
1000000 -46 421 379 0
1000000 -47 426 376 404 0
1000000 -48 414 405 429 410 0
1000000 -49 422 418 380 411 0
1000000 -50 393 427 406 419 0
1000000 -51 415 430 434 0
1000000 -52 416 397 437 0
1000000 -53 447 438 444 432 423 0
1000000 -54 424 0
1000000 -55 450 435 412 448 0
1000000 -56 297 449 0
1000000 -57 445 390 456 0
1000000 -58 451 459 462 431 417 0
1000000 -59 457 433 360 0
1000000 -60 368 452 0
1000000 -61 464 467 0
1000000 -62 386 463 337 468 0
1000000 -63 480 469 482 0
1000000 -64 473 483 484 460 252 0
1000000 -65 481 487 474 425 465 0
1000000 -66 488 308 490 453 0
1000000 -67 317 0
1000000 -68 369 470 491 485 0
1000000 -69 489 0
1000000 -70 499 458 492 0
1000000 -71 391 503 0
1000000 -72 493 349 511 0
1000000 -73 454 0
1000000 -74 439 512 504 515 0
1000000 -75 436 516 500 0
1000000 -76 303 518 0
1000000 -77 521 523 0
1000000 -78 496 471 0
1000000 -79 531 501 513 0
1000000 -80 200 532 0
1000000 -81 517 502 526 533 522 0
1000000 -82 527 440 0
1000000 -83 546 497 509 534 529 0
1000000 -84 494 524 0
1000000 -85 535 549 0
1000000 -86 558 530 362 0
1000000 -87 547 538 0
1000000 -88 505 550 539 0
1000000 -89 555 553 565 559 563 0
1000000 -90 561 548 556 566 0
1000000 -91 498 567 525 0
1000000 -92 540 387 0
1000000 -93 407 562 554 0
1000000 -94 579 560 394 564 569 0
1000000 -95 568 581 519 577 580 574 328 0
1000000 -96 338 578 583 570 0
1000000 -97 584 586 170 582 0
1000000 -98 541 575 0
1000000 -99 384 0
1000000 -100 479 594 0
1000000 -101 590 446 0
1000000 -102 247 0
1000000 -103 173 154 0
1000000 -104 536 587 0
1000000 -105 520 593 595 0
1000000 -106 588 174 176 178 585 576 0
1000000 -107 428 181 0
1000000 -108 537 185 179 182 0
1000000 -109 187 381 0
1000000 -110 591 183 466 0
1000000 -111 192 188 461 0
1000000 -112 343 177 201 0
1000000 -113 186 413 203 0
1000000 -114 202 195 377 204 0
1000000 -115 190 365 207 0
1000000 -116 205 193 184 551 0
1000000 -117 208 545 209 191 0
1000000 -118 495 212 0
1000000 -119 216 557 0
1000000 -120 352 0
1000000 -121 486 213 210 0
1000000 -122 358 218 0
1000000 -123 196 220 304 0
1000000 -124 309 219 206 596 0
1000000 -125 232 225 528 0
1000000 -126 234 217 0
1000000 -127 227 372 237 221 0
1000000 -128 226 235 194 228 0
1000000 -129 229 0
1000000 -130 339 0
1000000 -131 241 420 245 0
1000000 -132 236 455 238 233 0
1000000 -133 253 230 292 255 0
1000000 -134 254 239 334 0
1000000 -135 243 242 214 257 231 293 0
1000000 -136 373 259 244 0
1000000 -137 264 240 175 256 0
1000000 -138 215 408 0
1000000 -139 324 0
1000000 -140 266 268 211 0
1000000 -141 258 597 272 0
1000000 -142 260 276 270 261 514 0
1000000 -143 265 271 592 262 0
1000000 -144 180 277 273 0
1000000 -145 589 0
1000000 -146 409 0
1000000 -147 263 278 282 0
1000000 -148 284 507 279 267 0
1000000 -149 288 285 281 300 246 283 0
1000000 -150 280 286 552 0
1000000 -151 189 0
1000000 -152 287 289 269 472 0
1000000 598 800 0
1000000 599 800 0
1000000 600 800 0
1000000 601 822 0
1000000 602 822 0
1000000 603 842 0
1000000 604 840 0
1000000 605 821 0
1000000 606 810 0
1000000 607 792 0
1000000 608 815 0
1000000 609 788 0
1000000 610 831 0
1000000 611 833 0
1000000 612 814 0
1000000 613 832 0
1000000 614 831 0
1000000 615 847 0
1000000 616 839 0
1000000 617 847 0
1000000 618 826 0
1000000 619 788 0
1000000 620 844 0
1000000 621 831 0
1000000 622 828 0
1000000 623 816 0
1000000 624 843 0
1000000 625 804 0
1000000 626 827 0
1000000 627 816 0
1000000 628 802 0
1000000 629 845 0
1000000 630 821 0
1000000 631 808 0
1000000 632 823 0
1000000 633 841 0
1000000 634 806 0
1000000 635 834 0
1000000 636 843 0
1000000 637 816 0
1000000 638 827 0
1000000 639 836 0
1000000 640 825 0
1000000 641 813 0
1000000 642 817 0
1000000 643 817 0
1000000 644 788 0
1000000 645 828 0
1000000 646 818 0
1000000 647 799 0
1000000 648 797 0
1000000 649 846 0
1000000 650 811 0
1000000 651 845 0
1000000 652 834 0
1000000 653 837 0
1000000 654 846 0
1000000 655 814 0
1000000 656 801 0
1000000 657 837 0
1000000 658 785 0
1000000 659 840 0
1000000 660 797 0
1000000 661 835 0
1000000 662 825 0
1000000 663 810 0
1000000 664 824 0
1000000 665 806 0
1000000 666 798 0
1000000 667 829 0
1000000 668 827 0
1000000 669 797 0
1000000 670 836 0
1000000 671 789 0
1000000 672 829 0
1000000 673 805 0
1000000 674 821 0
1000000 675 847 0
1000000 676 805 0
1000000 677 817 0
1000000 678 835 0
1000000 679 845 0
1000000 680 829 0
1000000 681 823 0
1000000 682 799 0
1000000 683 803 0
1000000 684 842 0
1000000 685 826 0
1000000 686 814 0
1000000 687 790 0
1000000 688 813 0
1000000 689 792 0
1000000 690 842 0
1000000 691 838 0
1000000 692 818 0
1000000 693 812 0
1000000 694 793 0
1000000 695 830 0
1000000 696 837 0
1000000 697 796 0
1000000 698 795 0
1000000 699 818 0
1000000 700 822 0
1000000 701 841 0
1000000 702 799 0
1000000 703 844 0
1000000 704 841 0
1000000 705 807 0
1000000 706 793 0
1000000 707 790 0
1000000 708 834 0
1000000 709 836 0
1000000 710 820 0
1000000 711 835 0
1000000 712 810 0
1000000 713 809 0
1000000 714 803 0
1000000 715 825 0
1000000 716 787 0
1000000 717 833 0
1000000 718 802 0
1000000 719 838 0
1000000 720 790 0
1000000 721 806 0
1000000 722 801 0
1000000 723 823 0
1000000 724 789 0
1000000 725 820 0
1000000 726 801 0
1000000 727 846 0
1000000 728 838 0
1000000 729 804 0
1000000 730 794 0
1000000 731 798 0
1000000 732 830 0
1000000 733 796 0
1000000 734 815 0
1000000 735 815 0
1000000 736 832 0
1000000 737 807 0
1000000 738 809 0
1000000 739 785 0
1000000 740 802 0
1000000 741 803 0
1000000 742 805 0
1000000 743 794 0
1000000 744 813 0
1000000 745 840 0
1000000 746 793 0
1000000 747 794 0
1000000 748 844 0
1000000 749 828 0
1000000 750 804 0
1000000 751 798 0
1000000 752 796 0
1000000 753 843 0
1000000 754 787 0
1000000 755 839 0
1000000 756 830 0
1000000 757 832 0
1000000 758 807 0
1000000 759 826 0
1000000 760 791 0
1000000 761 787 0
1000000 762 833 0
1000000 763 808 0
1000000 764 811 0
1000000 765 824 0
1000000 766 795 0
1000000 767 792 0
1000000 768 811 0
1000000 769 791 0
1000000 770 820 0
1000000 771 819 0
1000000 772 812 0
1000000 773 809 0
1000000 774 839 0
1000000 775 824 0
1000000 776 786 0
1000000 777 808 0
1000000 778 791 0
1000000 779 785 0
1000000 780 789 0
1000000 781 812 0
1000000 782 819 0
1000000 783 786 0
1000000 784 795 0
1000000 -598 -800 0
1000000 -599 -800 0
1000000 -600 -800 0
1000000 -601 -822 0
1000000 -602 -822 0
1000000 -603 -842 0
1000000 -604 -840 0
1000000 -605 -821 0
1000000 -606 -810 0
1000000 -607 -792 0
1000000 -608 -815 0
1000000 -609 -788 0
1000000 -610 -831 0
1000000 -611 -833 0
1000000 -612 -814 0
1000000 -613 -832 0
1000000 -614 -831 0
1000000 -615 -847 0
1000000 -616 -839 0
1000000 -617 -847 0
1000000 -618 -826 0
1000000 -619 -788 0
1000000 -620 -844 0
1000000 -621 -831 0
1000000 -622 -828 0
1000000 -623 -816 0
1000000 -624 -843 0
1000000 -625 -804 0
1000000 -626 -827 0
1000000 -627 -816 0
1000000 -628 -802 0
1000000 -629 -845 0
1000000 -630 -821 0
1000000 -631 -808 0
1000000 -632 -823 0
1000000 -633 -841 0
1000000 -634 -806 0
1000000 -635 -834 0
1000000 -636 -843 0
1000000 -637 -816 0
1000000 -638 -827 0
1000000 -639 -836 0
1000000 -640 -825 0
1000000 -641 -813 0
1000000 -642 -817 0
1000000 -643 -817 0
1000000 -644 -788 0
1000000 -645 -828 0
1000000 -646 -818 0
1000000 -647 -799 0
1000000 -648 -797 0
1000000 -649 -846 0
1000000 -650 -811 0
1000000 -651 -845 0
1000000 -652 -834 0
1000000 -653 -837 0
1000000 -654 -846 0
1000000 -655 -814 0
1000000 -656 -801 0
1000000 -657 -837 0
1000000 -658 -785 0
1000000 -659 -840 0
1000000 -660 -797 0
1000000 -661 -835 0
1000000 -662 -825 0
1000000 -663 -810 0
1000000 -664 -824 0
1000000 -665 -806 0
1000000 -666 -798 0
1000000 -667 -829 0
1000000 -668 -827 0
1000000 -669 -797 0
1000000 -670 -836 0
1000000 -671 -789 0
1000000 -672 -829 0
1000000 -673 -805 0
1000000 -674 -821 0
1000000 -675 -847 0
1000000 -676 -805 0
1000000 -677 -817 0
1000000 -678 -835 0
1000000 -679 -845 0
1000000 -680 -829 0
1000000 -681 -823 0
1000000 -682 -799 0
1000000 -683 -803 0
1000000 -684 -842 0
1000000 -685 -826 0
1000000 -686 -814 0
1000000 -687 -790 0
1000000 -688 -813 0
1000000 -689 -792 0
1000000 -690 -842 0
1000000 -691 -838 0
1000000 -692 -818 0
1000000 -693 -812 0
1000000 -694 -793 0
1000000 -695 -830 0
1000000 -696 -837 0
1000000 -697 -796 0
1000000 -698 -795 0
1000000 -699 -818 0
1000000 -700 -822 0
1000000 -701 -841 0
1000000 -702 -799 0
1000000 -703 -844 0
1000000 -704 -841 0
1000000 -705 -807 0
1000000 -706 -793 0
1000000 -707 -790 0
1000000 -708 -834 0
1000000 -709 -836 0
1000000 -710 -820 0
1000000 -711 -835 0
1000000 -712 -810 0
1000000 -713 -809 0
1000000 -714 -803 0
1000000 -715 -825 0
1000000 -716 -787 0
1000000 -717 -833 0
1000000 -718 -802 0
1000000 -719 -838 0
1000000 -720 -790 0
1000000 -721 -806 0
1000000 -722 -801 0
1000000 -723 -823 0
1000000 -724 -789 0
1000000 -725 -820 0
1000000 -726 -801 0
1000000 -727 -846 0
1000000 -728 -838 0
1000000 -729 -804 0
1000000 -730 -794 0
1000000 -731 -798 0
1000000 -732 -830 0
1000000 -733 -796 0
1000000 -734 -815 0
1000000 -735 -815 0
1000000 -736 -832 0
1000000 -737 -807 0
1000000 -738 -809 0
1000000 -739 -785 0
1000000 -740 -802 0
1000000 -741 -803 0
1000000 -742 -805 0
1000000 -743 -794 0
1000000 -744 -813 0
1000000 -745 -840 0
1000000 -746 -793 0
1000000 -747 -794 0
1000000 -748 -844 0
1000000 -749 -828 0
1000000 -750 -804 0
1000000 -751 -798 0
1000000 -752 -796 0
1000000 -753 -843 0
1000000 -754 -787 0
1000000 -755 -839 0
1000000 -756 -830 0
1000000 -757 -832 0
1000000 -758 -807 0
1000000 -759 -826 0
1000000 -760 -791 0
1000000 -761 -787 0
1000000 -762 -833 0
1000000 -763 -808 0
1000000 -764 -811 0
1000000 -765 -824 0
1000000 -766 -795 0
1000000 -767 -792 0
1000000 -768 -811 0
1000000 -769 -791 0
1000000 -770 -820 0
1000000 -771 -819 0
1000000 -772 -812 0
1000000 -773 -809 0
1000000 -774 -839 0
1000000 -775 -824 0
1000000 -776 -786 0
1000000 -777 -808 0
1000000 -778 -791 0
1000000 -779 -785 0
1000000 -780 -789 0
1000000 -781 -812 0
1000000 -782 -819 0
1000000 -783 -786 0
1000000 -784 -795 0
7300 -785 0
14100 -786 0
9900 -787 0
8900 -788 0
14100 -789 0
10000 -790 0
15200 -791 0
7300 -792 0
7300 -793 0
8700 -794 0
9900 -795 0
9900 -796 0
10000 -797 0
7300 -798 0
10000 -799 0
7300 -800 0
14100 -801 0
8700 -802 0
10800 -803 0
9900 -804 0
7300 -805 0
6400 -806 0
6400 -807 0
14100 -808 0
7300 -809 0
7300 -810 0
9900 -811 0
7300 -812 0
14100 -813 0
12500 -814 0
6400 -815 0
8300 -816 0
12500 -817 0
9900 -818 0
6400 -819 0
10800 -820 0
6400 -821 0
7300 -822 0
9900 -823 0
7300 -824 0
12500 -825 0
10000 -826 0
14100 -827 0
7300 -828 0
8300 -829 0
7300 -830 0
8900 -831 0
6400 -832 0
8900 -833 0
9900 -834 0
10700 -835 0
14100 -836 0
10000 -837 0
8700 -838 0
6400 -839 0
8900 -840 0
10000 -841 0
12500 -842 0
8900 -843 0
6400 -844 0
14100 -845 0
14100 -846 0
8900 -847 0
2400 598 0
3300 599 0
900 600 0
2500 601 0
2500 602 0
900 603 0
900 604 0
3300 605 0
2500 606 0
2400 607 0
3300 608 0
3300 609 0
2400 610 0
2400 611 0
900 612 0
800 613 0
2500 614 0
2400 615 0
2500 616 0
2200 617 0
2200 618 0
2100 619 0
3300 620 0
1200 621 0
2400 622 0
2200 623 0
2200 624 0
2200 625 0
2100 626 0
2200 627 0
2200 628 0
1000 629 0
800 630 0
2200 631 0
1000 632 0
2100 633 0
900 634 0
2100 635 0
900 636 0
2100 637 0
2200 638 0
800 639 0
2900 640 0
2900 641 0
800 642 0
1200 643 0
2900 644 0
2600 645 0
2900 646 0
1900 647 0
2600 648 0
1900 649 0
1000 650 0
700 651 0
2200 652 0
2200 653 0
2900 654 0
2200 655 0
2600 656 0
1000 657 0
800 658 0
800 659 0
2100 660 0
900 661 0
2200 662 0
800 663 0
2000 664 0
1000 665 0
1900 666 0
2100 667 0
2200 668 0
1000 669 0
1900 670 0
1000 671 0
2900 672 0
700 673 0
2600 674 0
1900 675 0
900 676 0
2600 677 0
700 678 0
700 679 0
2000 680 0
1700 681 0
900 682 0
1900 683 0
2000 684 0
2200 685 0
1800 686 0
2600 687 0
2900 688 0
2600 689 0
1900 690 0
900 691 0
2100 692 0
900 693 0
1000 694 0
1800 695 0
2100 696 0
800 697 0
900 698 0
2200 699 0
2100 700 0
2100 701 0
2200 702 0
900 703 0
900 704 0
2100 705 0
2100 706 0
2900 707 0
2600 708 0
2900 709 0
2000 710 0
2600 711 0
800 712 0
2200 713 0
900 714 0
1200 715 0
800 716 0
2200 717 0
2900 718 0
2400 719 0
2900 720 0
2400 721 0
2200 722 0
1000 723 0
1900 724 0
700 725 0
2100 726 0
2900 727 0
2200 728 0
2200 729 0
3300 730 0
800 731 0
800 732 0
2100 733 0
2200 734 0
1000 735 0
2500 736 0
900 737 0
2200 738 0
700 739 0
1200 740 0
2600 741 0
2200 742 0
1000 743 0
800 744 0
800 745 0
2900 746 0
2900 747 0
2000 748 0
2600 749 0
700 750 0
1900 751 0
700 752 0
700 753 0
2600 754 0
1900 755 0
700 756 0
700 757 0
2000 758 0
2000 759 0
900 760 0
2600 761 0
1900 762 0
2200 763 0
2200 764 0
2000 765 0
800 766 0
2200 767 0
1000 768 0
1900 769 0
2600 770 0
1200 771 0
2600 772 0
2500 773 0
1900 774 0
2200 775 0
2100 776 0
1000 777 0
2000 778 0
800 779 0
700 780 0
2200 781 0
800 782 0
2000 783 0
2900 784 0
6435 -153 0
15190 -165 0
32470 166 -313 0
15280 -166 313 0
34762 -166 -313 0
26980 315 -359 0
8520 -315 359 0
27406 -315 -359 0
4194 -158 0
2970 316 -361 0
5940 -316 361 0
8316 -316 -361 0
36290 442 -318 0
36290 -442 318 0
38104 -442 -318 0
1920 508 159 403 -443 0
13440 508 159 -403 443 0
14688 508 159 -403 -443 0
19200 508 -159 403 443 0
20160 508 -159 403 -443 0
25920 508 -159 -403 443 0
26544 508 -159 -403 -443 0
15360 -508 159 403 443 0
16512 -508 159 403 -443 0
23424 -508 159 -403 443 0
24173 -508 159 -403 -443 0
26880 -508 -159 403 443 0
27456 -508 -159 403 -443 0
30912 -508 -159 -403 443 0
31286 -508 -159 -403 -443 0
13888 544 510 -169 0
21700 544 -510 169 0
28644 544 -510 -169 0
868 -544 510 169 0
14478 -544 510 -169 0
22134 -544 -510 169 0
28939 -544 -510 -169 0
9590 398 506 571 -160 0
9590 398 506 -571 160 0
15823 398 506 -571 -160 0
3288 398 -506 571 160 0
11727 398 -506 571 -160 0
11727 398 -506 -571 160 0
17213 398 -506 -571 -160 0
16440 -398 506 571 160 0
20276 -398 506 571 -160 0
20276 -398 506 -571 160 0
22769 -398 506 -571 -160 0
17755 -398 -506 571 160 0
21131 -398 -506 571 -160 0
21131 -398 -506 -571 160 0
23325 -398 -506 -571 -160 0
5760 155 572 -171 0
9600 155 -572 171 0
13920 155 -572 -171 0
4608 -155 572 171 0
9677 -155 572 -171 0
13056 -155 -572 171 0
16858 -155 -572 -171 0
18640 161 -156 0
8854 -161 156 0
20411 -161 -156 0
9815 475 -399 0
3020 -475 399 0
10872 -475 -399 0
6435 157 162 222 -248 0
4095 157 162 -222 248 0
8278 157 162 -222 -248 0
10530 157 -162 222 248 0
11174 157 -162 222 -248 0
10940 157 -162 -222 248 0
11358 157 -162 -222 -248 0
8775 -157 162 222 248 0
10384 -157 162 222 -248 0
9799 -157 162 -222 248 0
10844 -157 162 -222 -248 0
11408 -157 -162 222 248 0
11568 -157 -162 222 -248 0
11510 -157 -162 -222 248 0
11614 -157 -162 -222 -248 0
23870 163 476 -274 0
28210 163 -476 274 0
36565 163 -476 -274 0
16492 -163 476 274 0
31291 -163 476 -274 0
33982 -163 -476 274 0
39162 -163 -476 -274 0
7425 573 -290 0
26730 -573 290 0
27473 -573 -290 0
8680 294 -164 0
10850 -294 164 0
17360 -294 -164 0
7812 249 310 -197 0
13888 249 -310 197 0
19200 249 -310 -197 0
34720 -249 310 197 0
36282 -249 310 -197 0
37498 -249 -310 197 0
38560 -249 -310 -197 0
9504 291 -400 0
28215 -291 400 0
28690 -291 -400 0
3300 172 298 542 -275 0
6600 172 298 -542 275 0
8250 172 298 -542 -275 0
264 172 -298 542 275 0
3498 172 -298 542 -275 0
6732 172 -298 -542 275 0
8349 172 -298 -542 -275 0
10560 -172 298 542 275 0
11220 -172 298 542 -275 0
11880 -172 298 -542 275 0
12210 -172 298 -542 -275 0
10613 -172 -298 542 275 0
11260 -172 -298 542 -275 0
11906 -172 -298 -542 275 0
12230 -172 -298 -542 -275 0
24830 543 401 -311 0
9550 543 -401 311 0
28173 543 -401 -311 0
15280 -543 401 311 0
30178 -543 401 -311 0
21010 -543 -401 311 0
32184 -543 -401 -311 0
1420 301 -477 0
5680 -301 477 0
6816 -301 -477 0
4515 -329 0
5280 250 198 330 -305 0
6600 250 198 -330 305 0
9240 250 198 -330 -305 0
5940 250 -198 330 305 0
8844 250 -198 330 -305 0
9570 250 -198 -330 305 0
11022 250 -198 -330 -305 0
1980 -250 198 330 305 0
6468 -250 198 330 -305 0
7590 -250 198 -330 305 0
9834 -250 198 -330 -305 0
7029 -250 -198 330 305 0
9497 -250 -198 330 -305 0
10114 -250 -198 -330 305 0
11349 -250 -198 -330 -305 0
5280 223 319 312 -295 0
7920 223 319 -312 295 0
10032 223 319 -312 -295 0
11220 223 -319 312 295 0
12012 223 -319 312 -295 0
12408 223 -319 -312 295 0
12725 223 -319 -312 -295 0
2640 -223 319 312 295 0
6864 -223 319 312 -295 0
8976 -223 319 -312 295 0
10666 -223 319 -312 -295 0
11616 -223 -319 312 295 0
12250 -223 -319 312 -295 0
12566 -223 -319 -312 295 0
12820 -223 -319 -312 -295 0
11286 344 -306 0
7425 -344 306 0
15890 -344 -306 0
11220 340 251 224 -346 0
11220 340 251 -224 346 0
12903 340 251 -224 -346 0
3300 340 -251 224 346 0
11715 340 -251 224 -346 0
11715 340 -251 -224 346 0
12977 340 -251 -224 -346 0
3960 -340 251 224 346 0
11814 -340 251 224 -346 0
11814 -340 251 -224 346 0
12992 -340 251 -224 -346 0
6270 -340 -251 224 346 0
12161 -340 -251 224 -346 0
12161 -340 -251 -224 346 0
13044 -340 -251 -224 -346 0
9815 347 -402 0
5285 -347 402 0
11665 -347 -402 0
44555 331 299 341 -307 0
30485 331 299 -341 307 0
46079 331 299 -341 -307 0
42210 331 -299 341 307 0
46665 331 -299 341 -307 0
45258 331 -299 -341 307 0
46818 331 -299 -341 -307 0
15008 -331 299 341 307 0
45305 -331 299 341 -307 0
35738 -331 299 -341 307 0
46342 -331 299 -341 -307 0
43711 -331 -299 341 307 0
46741 -331 -299 341 -307 0
45784 -331 -299 -341 307 0
46844 -331 -299 -341 -307 0
34380 335 -167 0
34380 -335 167 0
37818 -335 -167 0
7455 -355 0
23760 345 314 325 -366 0
10395 345 314 -325 366 0
25839 345 314 -325 -366 0
16335 345 -314 325 366 0
27027 345 -314 325 -366 0
21013 345 -314 -325 366 0
27963 345 -314 -325 -366 0
594 -345 314 325 366 0
23879 -345 314 325 -366 0
10781 -345 314 -325 366 0
25916 -345 314 -325 -366 0
16602 -345 -314 325 366 0
27080 -345 -314 325 -366 0
21186 -345 -314 -325 366 0
27997 -345 -314 -325 -366 0
1980 350 363 199 302 -332 0
3960 350 363 199 -302 332 0
5346 350 363 199 -302 -332 0
9240 350 363 -199 302 332 0
9834 350 363 -199 302 -332 0
10428 350 363 -199 -302 332 0
10844 350 363 -199 -302 -332 0
9240 350 -363 199 302 332 0
9834 350 -363 199 302 -332 0
10428 350 -363 199 -302 332 0
10844 350 -363 199 -302 -332 0
12012 350 -363 -199 302 332 0
12190 350 -363 -199 302 -332 0
12368 350 -363 -199 -302 332 0
12493 350 -363 -199 -302 -332 0
1320 -350 363 199 302 332 0
3102 -350 363 199 302 -332 0
4884 -350 363 199 -302 332 0
6131 -350 363 199 -302 -332 0
9636 -350 363 -199 302 332 0
10171 -350 363 -199 302 -332 0
10705 -350 363 -199 -302 332 0
11079 -350 363 -199 -302 -332 0
9636 -350 -363 199 302 332 0
10171 -350 -363 199 302 -332 0
10705 -350 -363 199 -302 332 0
11079 -350 -363 199 -302 -332 0
12131 -350 -363 -199 302 332 0
12291 -350 -363 -199 302 -332 0
12452 -350 -363 -199 -302 332 0
12564 -350 -363 -199 -302 -332 0
5434 364 374 326 -320 0
286 364 374 -326 320 0
5611 364 374 -326 -320 0
9295 364 -374 326 320 0
11197 364 -374 326 -320 0
9395 364 -374 -326 320 0
11259 364 -374 -326 -320 0
2574 -364 374 326 320 0
7030 -364 374 326 -320 0
2809 -364 374 -326 320 0
7175 -364 374 -326 -320 0
10196 -364 -374 326 320 0
11755 -364 -374 326 -320 0
10278 -364 -374 -326 320 0
11806 -364 -374 -326 -320 0
3612 -296 0
18760 333 375 -353 0
17822 333 -375 353 0
29453 333 -375 -353 0
5628 -333 375 353 0
22137 -333 375 -353 0
21311 -333 -375 353 0
31547 -333 -375 -353 0
10010 321 -378 0
3575 -321 378 0
11082 -321 -378 0
7866 478 382 -370 0
26220 478 -382 370 0
29366 478 -382 -370 0
15295 -478 382 370 0
20408 -478 382 -370 0
32338 -478 -382 370 0
34383 -478 -382 -370 0
37170 351 322 348 383 -356 0
12390 351 322 348 -383 356 0
38409 351 322 348 -383 -356 0
39235 351 322 -348 383 356 0
41094 351 322 -348 383 -356 0
39854 351 322 -348 -383 356 0
41155 351 322 -348 -383 -356 0
4956 351 -322 348 383 356 0
37666 351 -322 348 383 -356 0
15859 351 -322 348 -383 356 0
38756 351 -322 348 -383 -356 0
39483 351 -322 -348 383 356 0
41118 351 -322 -348 383 -356 0
40028 351 -322 -348 -383 356 0
41173 351 -322 -348 -383 -356 0
6195 -351 322 348 383 356 0
37790 -351 322 348 383 -356 0
16727 -351 322 348 -383 356 0
38843 -351 322 348 -383 -356 0
39545 -351 322 -348 383 356 0
41124 -351 322 -348 383 -356 0
40071 -351 322 -348 -383 356 0
41177 -351 322 -348 -383 -356 0
10408 -351 -322 348 383 356 0
38211 -351 -322 348 383 -356 0
19675 -351 -322 348 -383 356 0
39138 -351 -322 348 -383 -356 0
39755 -351 -322 -348 383 356 0
41146 -351 -322 -348 383 -356 0
40219 -351 -322 -348 -383 356 0
41192 -351 -322 -348 -383 -356 0
9240 441 -395 0
9900 -441 395 0
12210 -441 -395 0
13150 388 396 168 -336 0
5260 388 396 -168 336 0
15780 388 396 -168 -336 0
4734 388 -396 168 336 0
15517 388 -396 168 -336 0
9047 388 -396 -168 336 0
17674 388 -396 -168 -336 0
18410 -388 396 168 336 0
22355 -388 396 168 -336 0
19988 -388 396 -168 336 0
23144 -388 396 -168 -336 0
19830 -388 -396 168 336 0
23065 -388 -396 168 -336 0
21124 -388 -396 -168 336 0
23712 -388 -396 -168 -336 0
286 327 367 371 -385 0
11440 327 367 -371 385 0
11497 327 367 -371 -385 0
13585 327 -367 371 385 0
13599 327 -367 371 -385 0
14157 327 -367 -371 385 0
14160 327 -367 -371 -385 0
11440 -327 367 371 385 0
11497 -327 367 371 -385 0
13728 -327 367 -371 385 0
13739 -327 367 -371 -385 0
14157 -327 -367 371 385 0
14160 -327 -367 371 -385 0
14271 -327 -367 -371 385 0
14272 -327 -367 -371 -385 0
11286 323 357 -354 0
4455 323 -357 354 0
14048 323 -357 -354 0
8910 -323 357 354 0
16810 -323 357 -354 0
12029 -323 -357 354 0
18744 -323 -357 -354 0
17820 342 392 -389 0
19305 342 -392 389 0
25542 342 -392 -389 0
20790 -342 392 389 0
26136 -342 392 -389 0
26581 -342 -392 389 0
28453 -342 -392 -389 0
5418 421 -379 0
19565 -421 379 0
21461 -421 -379 0
8260 426 376 -404 0
22715 426 -376 404 0
26432 426 -376 -404 0
2065 -426 376 404 0
9912 -426 376 -404 0
23644 -426 -376 404 0
27175 -426 -376 -404 0
10792 414 405 429 -410 0
568 414 405 -429 410 0
11144 414 405 -429 -410 0
568 414 -405 429 410 0
11144 414 -405 429 -410 0
1125 414 -405 -429 410 0
11489 414 -405 -429 -410 0
9088 -414 405 429 410 0
16427 -414 405 429 -410 0
9474 -414 405 -429 410 0
16666 -414 405 -429 -410 0
9474 -414 -405 429 410 0
16666 -414 -405 429 -410 0
9853 -414 -405 -429 410 0
16901 -414 -405 -429 -410 0
26980 422 418 380 -411 0
9940 422 418 -380 411 0
27477 422 418 -380 -411 0
22720 422 -418 380 411 0
28116 422 -418 380 -411 0
24708 422 -418 -380 411 0
28215 422 -418 -380 -411 0
8520 -422 418 380 411 0
27406 -422 418 380 -411 0
15478 -422 418 -380 411 0
27754 -422 418 -380 -411 0
24424 -422 -418 380 411 0
28201 -422 -418 380 -411 0
25816 -422 -418 -380 411 0
28271 -422 -418 -380 -411 0
17822 393 427 406 -419 0
37520 393 427 -406 419 0
41084 393 427 -406 -419 0
44555 393 -427 406 419 0
45446 393 -427 406 -419 0
46431 393 -427 -406 419 0
46609 393 -427 -406 -419 0
30485 -393 427 406 419 0
36723 -393 427 406 -419 0
43617 -393 427 -406 419 0
44865 -393 427 -406 -419 0
46079 -393 -427 406 419 0
46391 -393 -427 406 -419 0
46736 -393 -427 -406 419 0
46798 -393 -427 -406 -419 0
22575 415 430 -434 0
22575 415 -430 434 0
28219 415 -430 -434 0
6020 -415 430 434 0
24080 -415 430 -434 0
24080 -415 -430 434 0
28595 -415 -430 -434 0
39330 416 397 -437 0
26220 416 -397 437 0
41952 416 -397 -437 0
15295 -416 397 437 0
40860 -416 397 -437 0
32338 -416 -397 437 0
42564 -416 -397 -437 0
23550 447 438 444 432 -423 0
10990 447 438 444 -432 423 0
26298 447 438 444 -432 -423 0
4710 447 438 -444 432 423 0
24728 447 438 -444 432 -423 0
14052 447 438 -444 -432 423 0
27063 447 438 -444 -432 -423 0
7850 447 -438 444 432 423 0
25512 447 -438 444 432 -423 0
16092 447 -438 444 -432 423 0
27573 447 -438 444 -432 -423 0
11383 447 -438 -444 432 423 0
26396 447 -438 -444 432 -423 0
18389 447 -438 -444 -432 423 0
28147 447 -438 -444 -432 -423 0
4710 -447 438 444 432 423 0
24728 -447 438 444 432 -423 0
14052 -447 438 444 -432 423 0
27063 -447 438 444 -432 -423 0
8714 -447 438 -444 432 423 0
25728 -447 438 -444 432 -423 0
16654 -447 438 -444 -432 423 0
27713 -447 438 -444 -432 -423 0
11383 -447 -438 444 432 423 0
26396 -447 -438 444 432 -423 0
18389 -447 -438 444 -432 423 0
28147 -447 -438 444 -432 -423 0
14385 -447 -438 -444 432 423 0
27146 -447 -438 -444 432 -423 0
20340 -447 -438 -444 -432 423 0
28635 -447 -438 -444 -432 -423 0
6040 -424 0
22720 450 435 412 -448 0
568 450 435 -412 448 0
22834 450 435 -412 -448 0
24140 450 -435 412 448 0
27548 450 -435 412 -448 0
24225 450 -435 -412 448 0
27565 450 -435 -412 -448 0
12780 -450 435 412 448 0
25276 -450 435 412 -448 0
13092 -450 435 -412 448 0
25338 -450 435 -412 -448 0
26057 -450 -435 412 448 0
27931 -450 -435 412 -448 0
26104 -450 -435 -412 448 0
27941 -450 -435 -412 -448 0
17395 297 -449 0
29820 -297 449 0
36778 -297 -449 0
3775 445 390 -456 0
302 445 -390 456 0
4002 445 -390 -456 0
9815 -445 390 456 0
11136 -445 390 -456 0
9921 -445 -390 456 0
11216 -445 -390 -456 0
10535 451 459 462 431 -417 0
6020 451 459 462 -431 417 0
14448 451 459 462 -431 -417 0
5418 451 459 -462 431 417 0
14057 451 459 -462 431 -417 0
10354 451 459 -462 -431 417 0
17265 451 459 -462 -431 -417 0
10535 451 -459 462 431 417 0
17383 451 -459 462 431 -417 0
14448 451 -459 462 -431 417 0
19926 451 -459 462 -431 -417 0
14057 451 -459 -462 431 417 0
19672 451 -459 -462 431 -417 0
17265 451 -459 -462 -431 417 0
21757 451 -459 -462 -431 -417 0
25585 -451 459 462 431 417 0
27165 -451 459 462 431 -417 0
26488 -451 459 462 -431 417 0
27752 -451 459 462 -431 -417 0
26398 -451 459 -462 431 417 0
27694 -451 459 -462 431 -417 0
27138 -451 459 -462 -431 417 0
28175 -451 459 -462 -431 -417 0
27165 -451 -459 462 431 417 0
28192 -451 -459 462 431 -417 0
27752 -451 -459 462 -431 417 0
28574 -451 -459 462 -431 -417 0
27694 -451 -459 -462 431 417 0
28536 -451 -459 -462 431 -417 0
28175 -451 -459 -462 -431 417 0
28849 -451 -459 -462 -431 -417 0
9295 457 433 -360 0
715 457 -433 360 0
9545 457 -433 -360 0
12155 -457 433 360 0
13549 -457 433 -360 0
12262 -457 -433 360 0
13587 -457 -433 -360 0
28260 368 -452 0
12560 -368 452 0
29516 -368 -452 0
25585 464 -467 0
25585 -464 467 0
29423 -464 -467 0
3020 386 463 337 -468 0
8305 386 463 -337 468 0
9664 386 463 -337 -468 0
9815 386 -463 337 468 0
10872 386 -463 337 -468 0
12722 386 -463 -337 468 0
13197 386 -463 -337 -468 0
2718 -386 463 337 468 0
5194 -386 463 337 -468 0
9528 -386 463 -337 468 0
10642 -386 463 -337 -468 0
10766 -386 -463 337 468 0
11633 -386 -463 337 -468 0
13150 -386 -463 -337 468 0
13540 -386 -463 -337 -468 0
24035 480 469 -482 0
41515 480 -469 482 0
42717 480 -469 -482 0
26220 -480 469 482 0
35834 -480 469 -482 0
42826 -480 -469 482 0
43307 -480 -469 -482 0
14624 473 483 484 460 -252 0
27420 473 483 484 -460 252 0
33270 473 483 484 -460 -252 0
8226 473 483 -484 460 252 0
20218 473 483 -484 460 -252 0
30710 473 483 -484 -460 252 0
35507 473 483 -484 -460 -252 0
38845 473 -483 484 460 252 0
41039 473 -483 484 460 -252 0
42958 473 -483 484 -460 252 0
43835 473 -483 484 -460 -252 0
40079 473 -483 -484 460 252 0
41878 473 -483 -484 460 -252 0
43452 473 -483 -484 -460 252 0
44171 473 -483 -484 -460 -252 0
29705 -473 483 484 460 252 0
34823 -473 483 484 460 -252 0
39302 -473 483 484 -460 252 0
41349 -473 483 484 -460 -252 0
32584 -473 483 -484 460 252 0
36781 -473 483 -484 460 -252 0
40454 -473 483 -484 -460 252 0
42132 -473 483 -484 -460 -252 0
43301 -473 -483 484 460 252 0
44069 -473 -483 484 460 -252 0
44740 -473 -483 484 -460 252 0
45047 -473 -483 484 -460 -252 0
43733 -473 -483 -484 460 252 0
44362 -473 -483 -484 460 -252 0
44913 -473 -483 -484 -460 252 0
45165 -473 -483 -484 -460 -252 0
18840 481 487 474 425 -465 0
6280 481 487 474 -425 465 0
21352 481 487 474 -425 -465 0
4710 481 487 -474 425 465 0
20724 481 487 -474 425 -465 0
10048 481 487 -474 -425 465 0
22859 481 487 -474 -425 -465 0
17270 481 -487 474 425 465 0
25748 481 -487 474 425 -465 0
20096 481 -487 474 -425 465 0
26878 481 -487 474 -425 -465 0
19390 481 -487 -474 425 465 0
26596 481 -487 -474 425 -465 0
21792 481 -487 -474 -425 465 0
27557 481 -487 -474 -425 -465 0
12560 -481 487 474 425 465 0
23864 -481 487 474 425 -465 0
16328 -481 487 474 -425 465 0
25371 -481 487 474 -425 -465 0
15386 -481 487 -474 425 465 0
24994 -481 487 -474 425 -465 0
18589 -481 487 -474 -425 465 0
26276 -481 487 -474 -425 -465 0
22922 -481 -487 474 425 465 0
28009 -481 -487 474 425 -465 0
24618 -481 -487 474 -425 465 0
28687 -481 -487 474 -425 -465 0
24194 -481 -487 -474 425 465 0
28517 -481 -487 -474 425 -465 0
25635 -481 -487 -474 -425 465 0
29094 -481 -487 -474 -425 -465 0
1510 488 308 490 -453 0
8305 488 308 -490 453 0
8984 488 308 -490 -453 0
7550 488 -308 490 453 0
8305 488 -308 490 -453 0
11703 488 -308 -490 453 0
12042 488 -308 -490 -453 0
9815 -488 308 490 453 0
10344 -488 308 490 -453 0
12722 -488 308 -490 453 0
12960 -488 308 -490 -453 0
12457 -488 -308 490 453 0
12722 -488 -308 490 -453 0
13911 -488 -308 -490 453 0
14030 -488 -308 -490 -453 0
2145 -317 0
14910 369 470 491 -485 0
27335 369 470 -491 485 0
34045 369 470 -491 -485 0
8946 369 -470 491 485 0
21172 369 -470 491 -485 0
31361 369 -470 -491 485 0
36862 369 -470 -491 -485 0
4970 -369 470 491 485 0
18389 -369 470 491 -485 0
29571 -369 470 -491 485 0
35610 -369 470 -491 -485 0
13021 -369 -470 491 485 0
24025 -369 -470 491 -485 0
33195 -369 -470 -491 485 0
38146 -369 -470 -491 -485 0
2460 -489 0
15050 499 458 -492 0
11438 499 -458 492 0
20769 499 -458 -492 0
7525 -499 458 492 0
18812 -499 458 -492 0
16103 -499 -458 492 0
23102 -499 -458 -492 0
9030 391 -503 0
16555 -391 503 0
20619 -391 -503 0
1505 493 349 -511 0
7525 493 -349 511 0
8654 493 -349 -511 0
15050 -493 349 511 0
15803 -493 349 -511 0
18812 -493 -349 511 0
19377 -493 -349 -511 0
4710 -454 0
27090 439 512 504 -515 0
9030 439 512 -504 515 0
27993 439 512 -504 -515 0
12040 439 -512 504 515 0
28294 439 -512 504 -515 0
17458 439 -512 -504 515 0
28836 439 -512 -504 -515 0
21070 -439 512 504 515 0
29197 -439 512 504 -515 0
23779 -439 512 -504 515 0
29468 -439 512 -504 -515 0
24682 -439 -512 504 515 0
29558 -439 -512 504 -515 0
26307 -439 -512 -504 515 0
29721 -439 -512 -504 -515 0
9030 436 516 -500 0
3010 436 -516 500 0
11137 436 -516 -500 0
3612 -436 516 500 0
11558 -436 516 -500 0
6261 -436 -516 500 0
13413 -436 -516 -500 0
44555 303 -518 0
37520 -303 518 0
46431 -303 -518 0
25950 521 -523 0
1038 -521 523 0
26469 -521 -523 0
7550 496 -471 0
12835 -496 471 0
13968 -496 -471 0
38925 531 501 -513 0
49305 531 -501 513 0
51251 531 -501 -513 0
1038 -531 501 513 0
39185 -531 501 -513 0
49357 -531 -501 513 0
51264 -531 -501 -513 0
9994 200 -532 0
6575 -200 532 0
14071 -200 -532 0
10925 517 502 526 533 -522 0
13984 517 502 526 -533 522 0
21413 517 502 526 -533 -522 0
2185 517 502 -526 533 522 0
12564 517 502 -526 533 -522 0
15470 517 502 -526 -533 522 0
22527 517 502 -526 -533 -522 0
41515 517 -502 526 533 522 0
42061 517 -502 526 533 -522 0
42214 517 -502 526 -533 522 0
42586 517 -502 526 -533 -522 0
41624 517 -502 -526 533 522 0
42143 517 -502 -526 533 -522 0
42288 517 -502 -526 -533 522 0
42641 517 -502 -526 -533 -522 0
2185 -517 502 526 533 522 0
12564 -517 502 526 533 -522 0
15470 -517 502 526 -533 522 0
22527 -517 502 526 -533 -522 0
4261 -517 502 -526 533 522 0
14121 -517 502 -526 533 -522 0
16881 -517 502 -526 -533 522 0
23586 -517 502 -526 -533 -522 0
41624 -517 -502 526 533 522 0
42143 -517 -502 526 533 -522 0
42288 -517 -502 526 -533 522 0
42641 -517 -502 526 -533 -522 0
41728 -517 -502 -526 533 522 0
42221 -517 -502 -526 533 -522 0
42359 -517 -502 -526 -533 522 0
42694 -517 -502 -526 -533 -522 0
7550 527 -440 0
10570 -527 440 0
12835 -527 -440 0
5680 546 497 509 534 -529 0
568 546 497 509 -534 529 0
6134 546 497 509 -534 -529 0
3408 546 497 -509 534 529 0
8406 546 497 -509 534 -529 0
3908 546 497 -509 -534 529 0
8806 546 497 -509 -534 -529 0
17040 546 -497 509 534 529 0
19312 546 -497 509 534 -529 0
17267 546 -497 509 -534 529 0
19494 546 -497 509 -534 -529 0
18403 546 -497 -509 534 529 0
20403 546 -497 -509 534 -529 0
18603 546 -497 -509 -534 529 0
20563 546 -497 -509 -534 -529 0
4260 -546 497 509 534 529 0
9088 -546 497 509 534 -529 0
4743 -546 497 509 -534 529 0
9474 -546 497 509 -534 -529 0
7157 -546 497 -509 534 529 0
11405 -546 497 -509 534 -529 0
7582 -546 497 -509 -534 529 0
11745 -546 497 -509 -534 -529 0
18744 -546 -497 509 534 529 0
20675 -546 -497 509 534 -529 0
18937 -546 -497 509 -534 529 0
20830 -546 -497 509 -534 -529 0
19903 -546 -497 -509 534 529 0
21602 -546 -497 -509 534 -529 0
20073 -546 -497 -509 -534 529 0
21738 -546 -497 -509 -534 -529 0
19680 494 -524 0
31160 -494 524 0
32144 -494 -524 0
7900 535 -549 0
3950 -535 549 0
9875 -535 -549 0
37170 558 530 -362 0
10325 558 -530 362 0
38203 558 -530 -362 0
12390 -558 530 362 0
38409 -558 530 -362 0
19618 -558 -530 362 0
39132 -558 -530 -362 0
5346 547 -538 0
7425 -547 538 0
11434 -547 -538 0
8442 505 550 -539 0
28140 505 -550 539 0
31517 505 -550 -539 0
7035 -505 550 539 0
14211 -505 550 -539 0
30954 -505 -550 539 0
33824 -505 -550 -539 0
6795 555 553 565 559 -563 0
2265 555 553 565 -559 563 0
8041 555 553 565 -559 -563 0
4530 555 553 -565 559 563 0
9286 555 553 -565 559 -563 0
6116 555 553 -565 -559 563 0
10159 555 553 -565 -559 -563 0
1510 555 -553 565 559 563 0
7625 555 -553 565 559 -563 0
3548 555 -553 565 -559 563 0
8747 555 -553 565 -559 -563 0
5587 555 -553 -565 559 563 0
9868 555 -553 -565 559 -563 0
7014 555 -553 -565 -559 563 0
10653 555 -553 -565 -559 -563 0
12080 -555 553 565 559 563 0
13439 -555 553 565 559 -563 0
12533 -555 553 565 -559 563 0
13688 -555 553 565 -559 -563 0
12986 -555 553 -565 559 563 0
13937 -555 553 -565 559 -563 0
13303 -555 553 -565 -559 563 0
14112 -555 553 -565 -559 -563 0
12382 -555 -553 565 559 563 0
13605 -555 -553 565 559 -563 0
12790 -555 -553 565 -559 563 0
13829 -555 -553 565 -559 -563 0
13197 -555 -553 -565 559 563 0
14054 -555 -553 -565 559 -563 0
13483 -555 -553 -565 -559 563 0
14211 -555 -553 -565 -559 -563 0
30590 561 548 556 -566 0
4370 561 548 -556 566 0
31901 561 548 -556 -566 0
13110 561 -548 556 566 0
34523 561 -548 556 -566 0
16169 561 -548 -556 566 0
35441 561 -548 -556 -566 0
2185 -561 548 556 566 0
31245 -561 548 556 -566 0
6337 -561 548 -556 566 0
32491 -561 548 -556 -566 0
14640 -561 -548 556 566 0
34982 -561 -548 556 -566 0
17546 -561 -548 -556 566 0
35854 -561 -548 -556 -566 0
34790 498 567 -525 0
9940 498 -567 525 0
37772 498 -567 -525 0
24850 -498 567 525 0
42245 -498 567 -525 0
29820 -498 -567 525 0
43736 -498 -567 -525 0
30485 540 -387 0
9380 -540 387 0
33768 -540 -387 0
16335 407 562 -554 0
11880 407 -562 554 0
21681 407 -562 -554 0
14850 -407 562 554 0
23018 -407 562 -554 0
20790 -407 -562 554 0
25690 -407 -562 -554 0
6280 579 560 394 564 -569 0
3768 579 560 394 -564 569 0
9294 579 560 394 -564 -569 0
26690 579 560 -394 564 569 0
27632 579 560 -394 564 -569 0
27255 579 560 -394 -564 569 0
28084 579 560 -394 -564 -569 0
6280 579 -560 394 564 569 0
11304 579 -560 394 564 -569 0
9294 579 -560 394 -564 569 0
13716 579 -560 394 -564 -569 0
27632 579 -560 -394 564 569 0
28386 579 -560 -394 564 -569 0
28084 579 -560 -394 -564 569 0
28747 579 -560 -394 -564 -569 0
14130 -579 560 394 564 569 0
17584 -579 560 394 564 -569 0
16202 -579 560 394 -564 569 0
19242 -579 560 394 -564 -569 0
28809 -579 560 -394 564 569 0
29328 -579 560 -394 564 -569 0
29120 -579 560 -394 -564 569 0
29576 -579 560 -394 -564 -569 0
17584 -579 -560 394 564 569 0
20347 -579 -560 394 564 -569 0
19242 -579 -560 394 -564 569 0
21674 -579 -560 394 -564 -569 0
29328 -579 -560 -394 564 569 0
29742 -579 -560 -394 564 -569 0
29576 -579 -560 -394 -564 569 0
29941 -579 -560 -394 -564 -569 0
18460 568 581 519 577 580 574 -328 0
5680 568 581 519 577 580 -574 328 0
20448 568 581 519 577 580 -574 -328 0
17040 568 581 519 577 -580 574 328 0
24424 568 581 519 577 -580 574 -328 0
19312 568 581 519 577 -580 -574 328 0
25219 568 581 519 577 -580 -574 -328 0
9940 568 581 519 -577 580 574 328 0
21939 568 581 519 -577 580 574 -328 0
13632 568 581 519 -577 580 -574 328 0
23231 568 581 519 -577 580 -574 -328 0
21016 568 581 519 -577 -580 574 328 0
25816 568 581 519 -577 -580 574 -328 0
22493 568 581 519 -577 -580 -574 328 0
26332 568 581 519 -577 -580 -574 -328 0
7100 568 581 -519 577 580 574 328 0
20945 568 581 -519 577 580 574 -328 0
11360 568 581 -519 577 580 -574 328 0
22436 568 581 -519 577 580 -574 -328 0
19880 568 581 -519 577 -580 574 328 0
25418 568 581 -519 577 -580 574 -328 0
21584 568 581 -519 577 -580 -574 328 0
26014 568 581 -519 577 -580 -574 -328 0
14555 568 581 -519 -577 580 574 328 0
23554 568 581 -519 -577 580 574 -328 0
17324 568 581 -519 -577 580 -574 328 0
24523 568 581 -519 -577 580 -574 -328 0
22862 568 581 -519 -577 -580 574 328 0
26462 568 581 -519 -577 -580 574 -328 0
23970 568 581 -519 -577 -580 -574 328 0
26849 568 581 -519 -577 -580 -574 -328 0
14200 568 -581 519 577 580 574 328 0
23430 568 -581 519 577 580 574 -328 0
17040 568 -581 519 577 580 -574 328 0
24424 568 -581 519 577 580 -574 -328 0
22720 568 -581 519 577 -580 574 328 0
26412 568 -581 519 577 -580 574 -328 0
23856 568 -581 519 577 -580 -574 328 0
26810 568 -581 519 577 -580 -574 -328 0
19170 568 -581 519 -577 580 574 328 0
25169 568 -581 519 -577 580 574 -328 0
21016 568 -581 519 -577 580 -574 328 0
25816 568 -581 519 -577 580 -574 -328 0
24708 568 -581 519 -577 -580 574 328 0
27108 568 -581 519 -577 -580 574 -328 0
25446 568 -581 519 -577 -580 -574 328 0
27366 568 -581 519 -577 -580 -574 -328 0
17750 568 -581 -519 577 580 574 328 0
24672 568 -581 -519 577 580 574 -328 0
19880 568 -581 -519 577 580 -574 328 0
25418 568 -581 -519 577 580 -574 -328 0
24140 568 -581 -519 577 -580 574 328 0
26909 568 -581 -519 577 -580 574 -328 0
24992 568 -581 -519 577 -580 -574 328 0
27207 568 -581 -519 577 -580 -574 -328 0
21478 568 -581 -519 -577 580 574 328 0
25977 568 -581 -519 -577 580 574 -328 0
22862 568 -581 -519 -577 580 -574 328 0
26462 568 -581 -519 -577 580 -574 -328 0
25631 568 -581 -519 -577 -580 574 328 0
27431 568 -581 -519 -577 -580 574 -328 0
26185 568 -581 -519 -577 -580 -574 328 0
27625 568 -581 -519 -577 -580 -574 -328 0
1420 -568 581 519 577 580 574 328 0
18957 -568 581 519 577 580 574 -328 0
6816 -568 581 519 577 580 -574 328 0
20846 -568 581 519 577 580 -574 -328 0
17608 -568 581 519 577 -580 574 328 0
24623 -568 581 519 577 -580 574 -328 0
19766 -568 581 519 577 -580 -574 328 0
25378 -568 581 519 577 -580 -574 -328 0
10863 -568 581 519 -577 580 574 328 0
22262 -568 581 519 -577 580 574 -328 0
14370 -568 581 519 -577 580 -574 328 0
23490 -568 581 519 -577 580 -574 -328 0
21385 -568 581 519 -577 -580 574 328 0
25945 -568 581 519 -577 -580 574 -328 0
22788 -568 581 519 -577 -580 -574 328 0
26436 -568 581 519 -577 -580 -574 -328 0
8165 -568 581 -519 577 580 574 328 0
21318 -568 581 -519 577 580 574 -328 0
12212 -568 581 -519 577 580 -574 328 0
22734 -568 581 -519 577 580 -574 -328 0
20306 -568 581 -519 577 -580 574 328 0
25567 -568 581 -519 577 -580 574 -328 0
21925 -568 581 -519 577 -580 -574 328 0
26134 -568 581 -519 577 -580 -574 -328 0
15247 -568 581 -519 -577 580 574 328 0
23797 -568 581 -519 -577 580 574 -328 0
17878 -568 581 -519 -577 580 -574 328 0
24717 -568 581 -519 -577 580 -574 -328 0
23139 -568 581 -519 -577 -580 574 328 0
26559 -568 581 -519 -577 -580 574 -328 0
24191 -568 581 -519 -577 -580 -574 328 0
26927 -568 581 -519 -577 -580 -574 -328 0
14910 -568 -581 519 577 580 574 328 0
23678 -568 -581 519 577 580 574 -328 0
17608 -568 -581 519 577 580 -574 328 0
24623 -568 -581 519 577 580 -574 -328 0
23004 -568 -581 519 577 -580 574 328 0
26511 -568 -581 519 577 -580 574 -328 0
24083 -568 -581 519 577 -580 -574 328 0
26889 -568 -581 519 577 -580 -574 -328 0
19631 -568 -581 519 -577 580 574 328 0
25331 -568 -581 519 -577 580 574 -328 0
21385 -568 -581 519 -577 580 -574 328 0
25945 -568 -581 519 -577 580 -574 -328 0
24893 -568 -581 519 -577 -580 574 328 0
27172 -568 -581 519 -577 -580 574 -328 0
25594 -568 -581 519 -577 -580 -574 328 0
27418 -568 -581 519 -577 -580 -574 -328 0
18283 -568 -581 -519 577 580 574 328 0
24859 -568 -581 -519 577 580 574 -328 0
20306 -568 -581 -519 577 580 -574 328 0
25567 -568 -581 -519 577 580 -574 -328 0
24353 -568 -581 -519 577 -580 574 328 0
26984 -568 -581 -519 577 -580 574 -328 0
25162 -568 -581 -519 577 -580 -574 328 0
27267 -568 -581 -519 577 -580 -574 -328 0
21824 -568 -581 -519 -577 580 574 328 0
26098 -568 -581 -519 -577 580 574 -328 0
23139 -568 -581 -519 -577 580 -574 328 0
26559 -568 -581 -519 -577 580 -574 -328 0
25769 -568 -581 -519 -577 -580 574 328 0
27479 -568 -581 -519 -577 -580 574 -328 0
26296 -568 -581 -519 -577 -580 -574 328 0
27663 -568 -581 -519 -577 -580 -574 -328 0
15050 338 578 583 -570 0
13545 338 578 -583 570 0
21822 338 578 -583 -570 0
21070 338 -578 583 570 0
25585 338 -578 583 -570 0
25133 338 -578 -583 570 0
27617 338 -578 -583 -570 0
28595 -338 578 583 570 0
29347 -338 578 583 -570 0
29272 -338 578 -583 570 0
29686 -338 578 -583 -570 0
29649 -338 -578 583 570 0
29874 -338 -578 583 -570 0
29852 -338 -578 -583 570 0
29976 -338 -578 -583 -570 0
7812 584 586 170 -582 0
10850 584 586 -170 582 0
16709 584 586 -170 -582 0
4340 584 -586 170 582 0
11371 584 -586 170 -582 0
14105 584 -586 -170 582 0
19378 584 -586 -170 -582 0
34720 -584 586 170 582 0
36282 -584 586 170 -582 0
36890 -584 586 -170 582 0
38062 -584 586 -170 -582 0
35588 -584 -586 170 582 0
36994 -584 -586 170 -582 0
37541 -584 -586 -170 582 0
38596 -584 -586 -170 -582 0
5720 541 -575 0
8580 -541 575 0
10868 -541 -575 0
41520 -384 0
3010 479 -594 0
24080 -479 594 0
24682 -479 -594 0
10925 590 -446 0
30590 -590 446 0
33867 -590 -446 0
9342 -247 0
15795 173 -154 0
23085 -173 154 0
23875 -173 -154 0
7434 536 -587 0
12390 -536 587 0
17594 -536 -587 0
11932 520 593 -595 0
3140 520 -593 595 0
13879 520 -593 -595 0
628 -520 593 595 0
12321 -520 593 -595 0
3705 -520 -593 595 0
14229 -520 -593 -595 0
22355 588 174 176 178 585 -576 0
21040 588 174 176 178 -585 576 0
25511 588 174 176 178 -585 -576 0
22355 588 174 176 -178 585 576 0
25708 588 174 176 -178 585 -576 0
25511 588 174 176 -178 -585 576 0
26182 588 174 176 -178 -585 -576 0
3945 588 174 -176 178 585 576 0
22947 588 174 -176 178 585 -576 0
21829 588 174 -176 178 -585 576 0
25629 588 174 -176 178 -585 -576 0
22947 588 174 -176 -178 585 576 0
25797 588 174 -176 -178 585 -576 0
25629 588 174 -176 -178 -585 576 0
26199 588 174 -176 -178 -585 -576 0
3945 588 -174 176 178 585 576 0
22947 588 -174 176 178 585 -576 0
21829 588 -174 176 178 -585 576 0
25629 588 -174 176 178 -585 -576 0
22947 588 -174 176 -178 585 576 0
25797 588 -174 176 -178 585 -576 0
25629 588 -174 176 -178 -585 576 0
26199 588 -174 176 -178 -585 -576 0
7298 588 -174 -176 178 585 576 0
23450 588 -174 -176 178 585 -576 0
22500 588 -174 -176 178 -585 576 0
25730 588 -174 -176 178 -585 -576 0
23450 588 -174 -176 -178 585 576 0
25872 588 -174 -176 -178 585 -576 0
25730 588 -174 -176 -178 -585 576 0
26214 588 -174 -176 -178 -585 -576 0
17095 -588 174 176 178 585 576 0
24919 -588 174 176 178 585 -576 0
24459 -588 174 176 178 -585 576 0
26024 -588 174 176 178 -585 -576 0
24919 -588 174 176 -178 585 576 0
26093 -588 174 176 -178 585 -576 0
26024 -588 174 176 -178 -585 576 0
26259 -588 174 176 -178 -585 -576 0
18476 -588 174 -176 178 585 576 0
25126 -588 174 -176 178 585 -576 0
24735 -588 174 -176 178 -585 576 0
26065 -588 174 -176 178 -585 -576 0
25126 -588 174 -176 -178 585 576 0
26124 -588 174 -176 -178 585 -576 0
26065 -588 174 -176 -178 -585 576 0
26265 -588 174 -176 -178 -585 -576 0
18476 -588 -174 176 178 585 576 0
25126 -588 -174 176 178 585 -576 0
24735 -588 -174 176 178 -585 576 0
26065 -588 -174 176 178 -585 -576 0
25126 -588 -174 176 -178 585 576 0
26124 -588 -174 176 -178 585 -576 0
26065 -588 -174 176 -178 -585 576 0
26265 -588 -174 176 -178 -585 -576 0
19649 -588 -174 -176 178 585 576 0
25302 -588 -174 -176 178 585 -576 0
24970 -588 -174 -176 178 -585 576 0
26100 -588 -174 -176 178 -585 -576 0
25302 -588 -174 -176 -178 585 576 0
26150 -588 -174 -176 -178 585 -576 0
26100 -588 -174 -176 -178 -585 576 0
26270 -588 -174 -176 -178 -585 -576 0
17270 428 -181 0
17270 -428 181 0
25042 -428 -181 0
11220 537 185 179 -182 0
12540 537 185 -179 182 0
13101 537 185 -179 -182 0
5016 537 -185 179 182 0
11972 537 -185 179 -182 0
12791 537 -185 -179 182 0
13139 537 -185 -179 -182 0
5280 -537 185 179 182 0
12012 -537 185 179 -182 0
12804 -537 185 -179 182 0
13141 -537 185 -179 -182 0
8290 -537 -185 179 182 0
12463 -537 -185 179 -182 0
12954 -537 -185 -179 182 0
13163 -537 -185 -179 -182 0
9342 187 -381 0
6228 -187 381 0
14449 -187 -381 0
8305 591 183 -466 0
9815 591 -183 466 0
12722 591 -183 -466 0
3775 -591 183 466 0
10004 -591 183 -466 0
11136 -591 -183 466 0
13316 -591 -183 -466 0
5484 192 188 -461 0
4570 192 -188 461 0
9506 192 -188 -461 0
15995 -192 188 461 0
19560 -192 188 -461 0
18965 -192 -188 461 0
22174 -192 -188 -461 0
10010 343 177 -201 0
7150 343 -177 201 0
12155 343 -177 -201 0
12155 -343 177 201 0
13656 -343 177 -201 0
13228 -343 -177 201 0
13978 -343 -177 -201 0
24780 186 413 -203 0
4956 186 -413 203 0
26762 186 -413 -203 0
12390 -186 413 203 0
29736 -186 413 -203 0
15859 -186 -413 203 0
31124 -186 -413 -203 0
6020 202 195 377 -204 0
12040 202 195 -377 204 0
15652 202 195 -377 -204 0
9030 202 -195 377 204 0
13244 202 -195 377 -204 0
17458 202 -195 -377 204 0
19986 202 -195 -377 -204 0
13545 -202 195 377 204 0
16856 -202 195 377 -204 0
20167 -202 195 -377 204 0
22154 -202 195 -377 -204 0
18512 -202 -195 377 204 0
20829 -202 -195 377 -204 0
23147 -202 -195 -377 204 0
24538 -202 -195 -377 -204 0
13216 190 365 -207 0
30975 190 -365 207 0
34279 190 -365 -207 0
8260 -190 365 207 0
18833 -190 365 -207 0
33040 -190 -365 207 0
35683 -190 -365 -207 0
5738 205 193 184 -551 0
11325 205 193 -184 551 0
12759 205 193 -184 -551 0
12080 205 -193 184 551 0
13228 205 -193 184 -551 0
14345 205 -193 -184 551 0
14632 205 -193 -184 -551 0
2265 -205 193 184 551 0
7142 -205 193 184 -551 0
11891 -205 193 -184 551 0
13111 -205 193 -184 -551 0
12533 -205 -193 184 551 0
13508 -205 -193 184 -551 0
14458 -205 -193 -184 551 0
14702 -205 -193 -184 -551 0
17822 208 545 209 -191 0
39865 208 545 -209 191 0
42538 208 545 -209 -191 0
32830 208 -545 209 191 0
38177 208 -545 209 -191 0
44789 208 -545 -209 191 0
45591 208 -545 -209 -191 0
14070 -208 545 209 191 0
26545 -208 545 209 -191 0
41975 -208 545 -209 191 0
43847 -208 545 -209 -191 0
37051 -208 -545 209 191 0
40794 -208 -545 209 -191 0
45423 -208 -545 -209 191 0
45984 -208 -545 -209 -191 0
874 495 -212 0
6555 -495 212 0
7298 -495 -212 0
1570 216 -557 0
628 -216 557 0
2167 -216 -557 0
1570 -352 0
15904 486 213 -210 0
27335 486 -213 210 0
34492 486 -213 -210 0
42245 -486 213 210 0
44631 -486 213 -210 0
46345 -486 -213 210 0
47419 -486 -213 -210 0
39865 358 -218 0
18760 -358 218 0
42679 -358 -218 0
32775 196 220 -304 0
26220 196 -220 304 0
39330 196 -220 -304 0
10925 -196 220 304 0
35506 -196 220 -304 0
30590 -196 -220 304 0
40423 -196 -220 -304 0
10725 309 219 206 -596 0
13585 309 219 -206 596 0
14121 309 219 -206 -596 0
7150 309 -219 206 596 0
12512 309 -219 206 -596 0
13942 309 -219 -206 596 0
14211 309 -219 -206 -596 0
3575 -309 219 206 596 0
11619 -309 219 206 -596 0
13764 -309 219 -206 596 0
14166 -309 219 -206 -596 0
8938 -309 -219 206 596 0
12959 -309 -219 206 -596 0
14032 -309 -219 -206 596 0
14233 -309 -219 -206 -596 0
34790 232 225 -528 0
17395 232 -225 528 0
40008 232 -225 -528 0
44730 -232 225 528 0
48209 -232 225 -528 0
46470 -232 -225 528 0
48731 -232 -225 -528 0
2844 234 -217 0
11060 -234 217 0
11913 -234 -217 0
286 227 372 237 -221 0
12155 227 372 -237 221 0
12198 227 372 -237 -221 0
7150 227 -372 237 221 0
7293 227 -372 237 -221 0
13228 227 -372 -237 221 0
13249 227 -372 -237 -221 0
4290 -227 372 237 221 0
4490 -227 372 237 -221 0
12798 -227 372 -237 221 0
12829 -227 372 -237 -221 0
9295 -227 -372 237 221 0
9395 -227 -372 237 -221 0
13549 -227 -372 -237 221 0
13564 -227 -372 -237 -221 0
1510 226 235 194 -228 0
7550 226 235 -194 228 0
8305 226 235 -194 -228 0
7550 226 -235 194 228 0
8305 226 -235 194 -228 0
11325 226 -235 -194 228 0
11703 226 -235 -194 -228 0
9060 -226 235 194 228 0
9664 -226 235 194 -228 0
12080 -226 235 -194 228 0
12382 -226 235 -194 -228 0
12080 -226 -235 194 228 0
12382 -226 -235 194 -228 0
13590 -226 -235 -194 228 0
13741 -226 -235 -194 -228 0
7850 -229 0
4956 -339 0
5418 241 420 -245 0
22575 241 -420 245 0
23929 241 -420 -245 0
5418 -241 420 245 0
9861 -241 420 -245 0
23929 -241 -420 245 0
25040 -241 -420 -245 0
44730 236 455 238 -233 0
15904 236 455 -238 233 0
46320 236 455 -238 -233 0
44730 236 -455 238 233 0
49203 236 -455 238 -233 0
46320 236 -455 -238 233 0
49362 236 -455 -238 -233 0
12425 -236 455 238 233 0
45973 -236 455 238 -233 0
24353 -236 455 -238 233 0
47165 -236 455 -238 -233 0
45973 -236 -455 238 233 0
49327 -236 -455 238 -233 0
47165 -236 -455 -238 233 0
49447 -236 -455 -238 -233 0
17270 253 230 292 -255 0
628 253 230 -292 255 0
17553 253 230 -292 -255 0
17270 253 -230 292 255 0
25042 253 -230 292 -255 0
17553 253 -230 -292 255 0
25169 253 -230 -292 -255 0
23550 -253 230 292 255 0
27868 -253 230 292 -255 0
23707 -253 230 -292 255 0
27938 -253 230 -292 -255 0
27868 -253 -230 292 255 0
29810 -253 -230 292 -255 0
27938 -253 -230 -292 255 0
29842 -253 -230 -292 -255 0
21070 254 239 -334 0
19565 254 -239 334 0
26939 254 -239 -334 0
16555 -254 239 334 0
26037 -254 239 -334 0
25359 -254 -239 334 0
28678 -254 -239 -334 0
19665 243 242 214 257 231 -293 0
8740 243 242 214 257 -231 293 0
24472 243 242 214 257 -231 -293 0
17480 243 242 214 -257 231 293 0
29279 243 242 214 -257 231 -293 0
22724 243 242 214 -257 -231 293 0
32163 243 242 214 -257 -231 -293 0
37145 243 242 -214 257 231 293 0
40095 243 242 -214 257 231 -293 0
38456 243 242 -214 257 -231 293 0
40816 243 242 -214 257 -231 -293 0
39767 243 242 -214 -257 231 293 0
41537 243 242 -214 -257 231 -293 0
40554 243 242 -214 -257 -231 293 0
41969 243 242 -214 -257 -231 -293 0
10925 243 -242 214 257 231 293 0
25674 243 -242 214 257 231 -293 0
17480 243 -242 214 257 -231 293 0
29279 243 -242 214 257 -231 -293 0
24035 243 -242 214 -257 231 293 0
32884 243 -242 214 -257 231 -293 0
27968 243 -242 214 -257 -231 293 0
35047 243 -242 214 -257 -231 -293 0
38784 243 -242 -214 257 231 293 0
40996 243 -242 -214 257 231 -293 0
39767 243 -242 -214 257 -231 293 0
41537 243 -242 -214 257 -231 -293 0
40750 243 -242 -214 -257 231 293 0
42078 243 -242 -214 -257 231 -293 0
41340 243 -242 -214 -257 -231 293 0
42402 243 -242 -214 -257 -231 -293 0
30590 -243 242 214 257 231 293 0
36489 -243 242 214 257 231 -293 0
33212 -243 242 214 257 -231 293 0
37932 -243 242 214 257 -231 -293 0
35834 -243 242 214 -257 231 293 0
39374 -243 242 214 -257 231 -293 0
37407 -243 242 214 -257 -231 293 0
40239 -243 242 214 -257 -231 -293 0
41733 -243 242 -214 257 231 293 0
42618 -243 242 -214 257 231 -293 0
42127 -243 242 -214 257 -231 293 0
42835 -243 242 -214 257 -231 -293 0
42520 -243 242 -214 -257 231 293 0
43051 -243 242 -214 -257 231 -293 0
42756 -243 242 -214 -257 -231 293 0
43181 -243 242 -214 -257 -231 -293 0
33867 -243 -242 214 257 231 293 0
38292 -243 -242 214 257 231 -293 0
35834 -243 -242 214 257 -231 293 0
39374 -243 -242 214 257 -231 -293 0
37800 -243 -242 214 -257 231 293 0
40455 -243 -242 214 -257 231 -293 0
38980 -243 -242 214 -257 -231 293 0
41104 -243 -242 214 -257 -231 -293 0
42225 -243 -242 -214 257 231 293 0
42889 -243 -242 -214 257 231 -293 0
42520 -243 -242 -214 257 -231 293 0
43051 -243 -242 -214 257 -231 -293 0
42815 -243 -242 -214 -257 231 293 0
43213 -243 -242 -214 -257 231 -293 0
42992 -243 -242 -214 -257 -231 293 0
43311 -243 -242 -214 -257 -231 -293 0
22720 373 259 -244 0
17040 373 -259 244 0
26128 373 -259 -244 0
9940 -373 259 244 0
24708 -373 259 -244 0
21016 -373 -259 244 0
26923 -373 -259 -244 0
15050 264 240 175 -256 0
602 264 240 -175 256 0
15351 264 240 -175 -256 0
27090 264 -240 175 256 0
28595 264 -240 175 -256 0
27150 264 -240 -175 256 0
28625 264 -240 -175 -256 0
12040 -264 240 175 256 0
21070 -264 240 175 -256 0
12401 -264 240 -175 256 0
21251 -264 240 -175 -256 0
28294 -264 -240 175 256 0
29197 -264 -240 175 -256 0
28330 -264 -240 -175 256 0
29215 -264 -240 -175 -256 0
1420 215 -408 0
17040 -215 408 0
17608 -215 -408 0
10395 -324 0
18886 266 268 -211 0
32305 266 -268 211 0
38915 266 -268 -211 0
994 -266 268 211 0
19502 -266 268 -211 0
32653 -266 -268 211 0
39131 -266 -268 -211 0
41520 258 597 -272 0
38925 258 -597 272 0
49305 258 -597 -272 0
16608 -258 597 272 0
44842 -258 597 -272 0
43077 -258 -597 272 0
50135 -258 -597 -272 0
2185 260 276 270 261 -514 0
19665 260 276 270 -261 514 0
20867 260 276 270 -261 -514 0
41515 260 276 -270 261 514 0
41624 260 276 -270 261 -514 0
42498 260 276 -270 -261 514 0
42558 260 276 -270 -261 -514 0
15295 260 -276 270 261 514 0
16715 260 -276 270 261 -514 0
28077 260 -276 270 -261 514 0
28858 260 -276 270 -261 -514 0
42280 260 -276 -270 261 514 0
42351 260 -276 -270 261 -514 0
42919 260 -276 -270 -261 514 0
42958 260 -276 -270 -261 -514 0
30590 -260 276 270 261 514 0
31245 -260 276 270 261 -514 0
36489 -260 276 270 -261 514 0
36850 -260 276 270 -261 -514 0
43044 -260 276 -270 261 514 0
43077 -260 276 -270 261 -514 0
43339 -260 276 -270 -261 514 0
43358 -260 276 -270 -261 -514 0
35178 -260 -276 270 261 514 0
35605 -260 -276 270 261 -514 0
39013 -260 -276 270 -261 514 0
39248 -260 -276 270 -261 -514 0
43274 -260 -276 -270 261 514 0
43295 -260 -276 -270 261 -514 0
43466 -260 -276 -270 -261 514 0
43477 -260 -276 -270 -261 -514 0
6795 265 271 592 -262 0
6795 265 271 -592 262 0
10532 265 271 -592 -262 0
8305 265 -271 592 262 0
11363 265 -271 592 -262 0
11363 265 -271 -592 262 0
13045 265 -271 -592 -262 0
4530 -265 271 592 262 0
9286 -265 271 592 -262 0
9286 -265 271 -592 262 0
11903 -265 271 -592 -262 0
10344 -265 -271 592 262 0
12484 -265 -271 592 -262 0
12484 -265 -271 -592 262 0
13661 -265 -271 -592 -262 0
2170 180 277 -273 0
34720 180 -277 273 0
35154 180 -277 -273 0
13020 -180 277 273 0
14539 -180 277 -273 0
37324 -180 -277 273 0
37628 -180 -277 -273 0
26730 -589 0
14850 -409 0
16555 263 278 -282 0
28595 263 -278 282 0
29423 263 -278 -282 0
7525 -263 278 282 0
19941 -263 278 -282 0
28971 -263 -278 282 0
29592 -263 -278 -282 0
20650 284 507 279 -267 0
24780 284 507 -279 267 0
33040 284 507 -279 -267 0
37170 284 -507 279 267 0
39235 284 -507 279 -267 0
39648 284 -507 -279 267 0
40474 284 -507 -279 -267 0
35105 -284 507 279 267 0
38203 -284 507 279 -267 0
38822 -284 507 -279 267 0
40061 -284 507 -279 -267 0
40681 -284 -507 279 267 0
40990 -284 -507 279 -267 0
41052 -284 -507 -279 267 0
41176 -284 -507 -279 -267 0
6435 288 285 281 300 246 -283 0
10010 288 285 281 300 -246 283 0
11941 288 285 281 300 -246 -283 0
10725 288 285 281 -300 246 283 0
12334 288 285 281 -300 246 -283 0
13228 288 285 281 -300 -246 283 0
13710 288 285 281 -300 -246 -283 0
12155 288 285 -281 300 246 283 0
13120 288 285 -281 300 246 -283 0
13656 288 285 -281 300 -246 283 0
13946 288 285 -281 300 -246 -283 0
13764 288 285 -281 -300 246 283 0
14005 288 285 -281 -300 246 -283 0
14139 288 285 -281 -300 -246 283 0
14212 288 285 -281 -300 -246 -283 0
2574 288 -285 281 300 246 283 0
7851 288 -285 281 300 246 -283 0
10782 288 -285 281 300 -246 283 0
12365 288 -285 281 300 -246 -283 0
11368 288 -285 281 -300 246 283 0
12688 288 -285 281 -300 246 -283 0
13421 288 -285 281 -300 -246 283 0
13816 288 -285 281 -300 -246 -283 0
12541 288 -285 -281 300 246 283 0
13333 288 -285 -281 300 246 -283 0
13772 288 -285 -281 300 -246 283 0
14010 288 -285 -281 300 -246 -283 0
13860 288 -285 -281 -300 246 283 0
14058 288 -285 -281 -300 246 -283 0
14168 288 -285 -281 -300 -246 283 0
14227 288 -285 -281 -300 -246 -283 0
6435 -288 285 281 300 246 283 0
9974 -288 285 281 300 246 -283 0
11941 -288 285 281 300 -246 283 0
13002 -288 285 281 300 -246 -283 0
12334 -288 285 281 -300 246 283 0
13219 -288 285 281 -300 246 -283 0
13710 -288 285 281 -300 -246 283 0
13976 -288 285 281 -300 -246 -283 0
13120 -288 285 -281 300 246 283 0
13651 -288 285 -281 300 246 -283 0
13946 -288 285 -281 300 -246 283 0
14105 -288 285 -281 300 -246 -283 0
14005 -288 285 -281 -300 246 283 0
14138 -288 285 -281 -300 246 -283 0
14212 -288 285 -281 -300 -246 283 0
14251 -288 285 -281 -300 -246 -283 0
7851 -288 -285 281 300 246 283 0
10753 -288 -285 281 300 246 -283 0
12365 -288 -285 281 300 -246 283 0
13236 -288 -285 281 300 -246 -283 0
12688 -288 -285 281 -300 246 283 0
13413 -288 -285 281 -300 246 -283 0
13816 -288 -285 281 -300 -246 283 0
14034 -288 -285 281 -300 -246 -283 0
13333 -288 -285 -281 300 246 283 0
13768 -288 -285 -281 300 246 -283 0
14010 -288 -285 -281 300 -246 283 0
14140 -288 -285 -281 300 -246 -283 0
14058 -288 -285 -281 -300 246 283 0
14167 -288 -285 -281 -300 246 -283 0
14227 -288 -285 -281 -300 -246 283 0
14260 -288 -285 -281 -300 -246 -283 0
34790 280 286 -552 0
47215 280 -286 552 0
48955 280 -286 -552 0
29820 -280 286 552 0
43736 -280 286 -552 0
48706 -280 -286 552 0
49402 -280 -286 -552 0
21320 -189 0
7525 287 289 269 -472 0
19565 287 289 -269 472 0
22199 287 289 -269 -472 0
10535 287 -289 269 472 0
15426 287 -289 269 -472 0
23252 287 -289 -269 472 0
24964 287 -289 -269 -472 0
11438 -287 289 269 472 0
16103 -287 289 269 -472 0
23568 -287 289 -269 472 0
25201 -287 289 -269 -472 0
17970 -287 -289 269 472 0
21002 -287 -289 269 -472 0
25854 -287 -289 -269 472 0
26916 -287 -289 -269 -472 0
