p wcnf 50 160 1000000
1000000 1 0
1000000 2 -13 0
1000000 13 -37 -1 0
1000000 12 -14 0
1000000 14 -39 -38 -1 0
1000000 3 -15 0
1000000 15 -43 -42 -1 0
1000000 5 -16 0
1000000 16 -45 -40 -1 0
1000000 10 -17 0
1000000 17 -44 -37 -1 0
1000000 4 -18 0
1000000 18 -36 -2 0
1000000 6 -19 0
1000000 19 -40 -46 -38 -2 0
1000000 10 -20 0
1000000 20 -41 -2 0
1000000 4 -21 0
1000000 21 -43 -44 -3 0
1000000 5 -22 0
1000000 22 -36 -3 0
1000000 6 -23 0
1000000 23 -39 -42 -38 -3 0
1000000 7 -24 0
1000000 24 -45 -36 -3 0
1000000 8 -25 0
1000000 25 -46 -4 0
1000000 10 -26 0
1000000 26 -37 -4 0
1000000 11 -27 0
1000000 27 -41 -5 0
1000000 11 -28 0
1000000 28 -41 -43 -6 0
1000000 8 -29 0
1000000 29 -45 -39 -6 0
1000000 9 -30 0
1000000 30 -38 -37 -44 -6 0
1000000 12 -31 0
1000000 31 -39 -46 -40 -7 0
1000000 12 -32 0
1000000 32 -44 -40 -8 0
1000000 10 -33 0
1000000 33 -41 -8 0
1000000 11 -34 0
1000000 34 -42 -9 0
1000000 11 -35 0
1000000 35 -37 -45 -38 -10 0
1000000 1 0
1000000 -2 13 0
1000000 -3 15 0
1000000 -4 21 18 0
1000000 -5 22 16 0
1000000 -6 23 19 0
1000000 -7 24 0
1000000 -8 29 25 0
1000000 -9 30 0
1000000 -10 26 20 17 33 0
1000000 -11 27 34 35 28 0
1000000 -12 14 31 32 0
1000000 36 50 0
1000000 37 49 0
1000000 38 49 0
1000000 39 50 0
1000000 40 48 0
1000000 41 48 0
1000000 42 49 0
1000000 43 48 0
1000000 44 50 0
1000000 45 47 0
1000000 46 47 0
1000000 -36 -50 0
1000000 -37 -49 0
1000000 -38 -49 0
1000000 -39 -50 0
1000000 -40 -48 0
1000000 -41 -48 0
1000000 -42 -49 0
1000000 -43 -48 0
1000000 -44 -50 0
1000000 -45 -47 0
1000000 -46 -47 0
9400 -47 0
8000 -48 0
10200 -49 0
8000 -50 0
2300 36 0
2000 37 0
3300 38 0
2200 39 0
2000 40 0
1200 41 0
2300 42 0
2000 43 0
2000 44 0
2300 45 0
1200 46 0
12180 -13 0
21472 -15 0
2436 21 -18 0
406 -21 18 0
2793 -21 -18 0
2990 22 -16 0
47840 -22 16 0
48438 -22 -16 0
22336 23 -19 0
48860 -23 19 0
55561 -23 -19 0
6090 -24 0
14465 29 -25 0
17095 -29 25 0
22158 -29 -25 0
10752 -30 0
22304 26 20 17 -33 0
22304 26 20 -17 33 0
37471 26 20 -17 -33 0
24395 26 -20 17 33 0
38893 26 -20 17 -33 0
38893 26 -20 -17 33 0
48751 26 -20 -17 -33 0
52275 -26 20 17 33 0
57851 -26 20 17 -33 0
57851 -26 20 -17 33 0
61643 -26 20 -17 -33 0
58374 -26 -20 17 33 0
61998 -26 -20 17 -33 0
61998 -26 -20 -17 33 0
64463 -26 -20 -17 -33 0
1195 27 34 35 -28 0
4780 27 34 -35 28 0
5736 27 34 -35 -28 0
13145 27 -34 35 28 0
13683 27 -34 35 -28 0
15296 27 -34 -35 28 0
15726 27 -34 -35 -28 0
1195 -27 34 35 28 0
2330 -27 34 35 -28 0
5736 -27 34 -35 28 0
6644 -27 34 -35 -28 0
13683 -27 -34 35 28 0
14194 -27 -34 35 -28 0
15726 -27 -34 -35 28 0
16135 -27 -34 -35 -28 0
3355 14 31 -32 0
60390 14 -31 32 0
60725 14 -31 -32 0
46970 -14 31 32 0
47976 -14 31 -32 0
65087 -14 -31 32 0
65188 -14 -31 -32 0
