p wcnf 62 206 1000000
1000000 1 0
1000000 2 -15 0
1000000 15 -47 -46 -1 0
1000000 11 -16 0
1000000 16 -48 -1 0
1000000 4 -17 0
1000000 17 -44 -1 0
1000000 6 -18 0
1000000 18 -50 -52 -1 0
1000000 13 -19 0
1000000 19 -57 -53 -51 -2 0
1000000 3 -20 0
1000000 20 -55 -56 -2 0
1000000 6 -21 0
1000000 21 -44 -45 -46 -2 0
1000000 7 -22 0
1000000 22 -45 -2 0
1000000 10 -23 0
1000000 23 -51 -54 -48 -2 0
1000000 14 -24 0
1000000 24 -54 -50 -11 0
1000000 14 -25 0
1000000 25 -56 -55 -12 0
1000000 4 -26 0
1000000 26 -45 -52 -49 -3 0
1000000 5 -27 0
1000000 27 -47 -3 0
1000000 7 -28 0
1000000 28 -53 -3 0
1000000 10 -29 0
1000000 29 -44 -49 -3 0
1000000 8 -30 0
1000000 30 -50 -47 -4 0
1000000 10 -31 0
1000000 31 -52 -53 -51 -4 0
1000000 6 -32 0
1000000 32 -46 -5 0
1000000 9 -33 0
1000000 33 -45 -54 -44 -5 0
1000000 11 -34 0
1000000 34 -46 -57 -6 0
1000000 14 -35 0
1000000 35 -48 -6 0
1000000 8 -36 0
1000000 36 -49 -6 0
1000000 12 -37 0
1000000 37 -56 -7 0
1000000 13 -38 0
1000000 38 -55 -47 -57 -7 0
1000000 9 -39 0
1000000 39 -49 -7 0
1000000 12 -40 0
1000000 40 -50 -48 -55 -8 0
1000000 13 -41 0
1000000 41 -51 -45 -57 -8 0
1000000 14 -42 0
1000000 42 -52 -53 -9 0
1000000 14 -43 0
1000000 43 -47 -54 -46 -10 0
1000000 1 0
1000000 -2 15 0
1000000 -3 20 0
1000000 -4 17 26 0
1000000 -5 27 0
1000000 -6 32 21 18 0
1000000 -7 22 28 0
1000000 -8 30 36 0
1000000 -9 39 33 0
1000000 -10 23 31 29 0
1000000 -11 16 34 0
1000000 -12 37 40 0
1000000 -13 38 41 19 0
1000000 -14 24 35 42 43 25 0
1000000 44 62 0
1000000 45 58 0
1000000 46 61 0
1000000 47 60 0
1000000 48 58 0
1000000 49 62 0
1000000 50 59 0
1000000 51 58 0
1000000 52 62 0
1000000 53 60 0
1000000 54 59 0
1000000 55 59 0
1000000 56 60 0
1000000 57 61 0
1000000 -44 -62 0
1000000 -45 -58 0
1000000 -46 -61 0
1000000 -47 -60 0
1000000 -48 -58 0
1000000 -49 -62 0
1000000 -50 -59 0
1000000 -51 -58 0
1000000 -52 -62 0
1000000 -53 -60 0
1000000 -54 -59 0
1000000 -55 -59 0
1000000 -56 -60 0
1000000 -57 -61 0
8700 -58 0
7800 -59 0
12200 -60 0
9700 -61 0
11200 -62 0
2000 44 0
2800 45 0
900 46 0
1600 47 0
2000 48 0
1600 49 0
900 50 0
700 51 0
900 52 0
700 53 0
1600 54 0
2200 55 0
1300 56 0
2800 57 0
12400 -15 0
2030 -20 0
35700 17 -26 0
15960 -17 26 0
38094 -17 -26 0
16725 -27 0
7440 32 21 -18 0
46500 32 -21 18 0
48360 32 -21 -18 0
40300 -32 21 18 0
42904 -32 21 -18 0
56575 -32 -21 18 0
57226 -32 -21 -18 0
32580 22 -28 0
65160 -22 28 0
68418 -22 -28 0
4900 30 -36 0
15680 -30 36 0
19012 -30 -36 0
10800 39 -33 0
24300 -39 33 0
30240 -39 -33 0
1006 23 31 -29 0
19114 23 -31 29 0
19738 23 -31 -29 0
17605 -23 31 29 0
18259 -23 31 -29 0
30029 -23 -31 29 0
30435 -23 -31 -29 0
35700 16 -34 0
840 -16 34 0
35826 -16 -34 0
1080 37 -40 0
48600 -37 40 0
48708 -37 -40 0
41650 38 41 -19 0
5880 38 -41 19 0
42532 38 -41 -19 0
24500 -38 41 19 0
45325 -38 41 -19 0
27440 -38 -41 19 0
45766 -38 -41 -19 0
28960 24 35 42 43 -25 0
32580 24 35 42 -43 25 0
48508 24 35 42 -43 -25 0
43440 24 35 -42 43 25 0
55024 24 35 -42 43 -25 0
56472 24 35 -42 -43 25 0
62843 24 35 -42 -43 -25 0
61540 24 -35 42 43 25 0
65884 24 -35 42 43 -25 0
66427 24 -35 42 -43 25 0
68816 24 -35 42 -43 -25 0
68056 24 -35 -42 43 25 0
69794 24 -35 -42 43 -25 0
70011 24 -35 -42 -43 25 0
70966 24 -35 -42 -43 -25 0
1448 -24 35 42 43 25 0
29829 -24 35 42 43 -25 0
33376 -24 35 42 -43 25 0
48986 -24 35 42 -43 -25 0
44019 -24 35 -42 43 25 0
55372 -24 35 -42 43 -25 0
56791 -24 35 -42 -43 25 0
63034 -24 35 -42 -43 -25 0
61757 -24 -35 42 43 25 0
66014 -24 -35 42 43 -25 0
66546 -24 -35 42 -43 25 0
68888 -24 -35 42 -43 -25 0
68143 -24 -35 -42 43 25 0
69846 -24 -35 -42 43 -25 0
70059 -24 -35 -42 -43 25 0
70995 -24 -35 -42 -43 -25 0
