p wcnf 53 257 1000000
1000000 1 0
1000000 2 -13 0
1000000 13 -43 -39 -1 0
1000000 11 -14 0
1000000 14 -45 -38 -1 0
1000000 12 -15 0
1000000 15 -48 -40 -38 -1 0
1000000 3 -16 0
1000000 16 -44 -43 -42 -2 0
1000000 4 -17 0
1000000 17 -40 -49 -2 0
1000000 5 -18 0
1000000 18 -42 -44 -2 0
1000000 7 -19 0
1000000 19 -41 -2 0
1000000 8 -20 0
1000000 20 -41 -46 -47 -2 0
1000000 9 -21 0
1000000 21 -45 -48 -46 -2 0
1000000 12 -22 0
1000000 22 -43 -41 -47 -11 0
1000000 11 -23 0
1000000 23 -38 -3 0
1000000 4 -24 0
1000000 24 -42 -49 -44 -3 0
1000000 5 -25 0
1000000 25 -48 -40 -3 0
1000000 7 -26 0
1000000 26 -46 -47 -3 0
1000000 8 -27 0
1000000 27 -39 -3 0
1000000 11 -28 0
1000000 28 -49 -45 -4 0
1000000 12 -29 0
1000000 29 -38 -4 0
1000000 6 -30 0
1000000 30 -40 -44 -4 0
1000000 11 -31 0
1000000 31 -42 -5 0
1000000 12 -32 0
1000000 32 -39 -5 0
1000000 11 -33 0
1000000 33 -46 -41 -6 0
1000000 12 -34 0
1000000 34 -39 -8 0
1000000 10 -35 0
1000000 35 -43 -8 0
1000000 11 -36 0
1000000 36 -45 -9 0
1000000 12 -37 0
1000000 37 -41 -48 -39 -9 0
1000000 1 0
1000000 -2 13 0
1000000 -3 16 0
1000000 -4 17 24 0
1000000 -5 18 25 0
1000000 -6 30 0
1000000 -7 26 19 0
1000000 -8 27 20 0
1000000 -9 21 0
1000000 -10 35 0
1000000 -11 36 33 14 23 31 28 0
1000000 -12 34 22 29 37 15 32 0
1000000 38 51 0
1000000 39 52 0
1000000 40 53 0
1000000 41 53 0
1000000 42 51 0
1000000 43 50 0
1000000 44 52 0
1000000 45 52 0
1000000 46 51 0
1000000 47 53 0
1000000 48 50 0
1000000 49 50 0
1000000 -38 -51 0
1000000 -39 -52 0
1000000 -40 -53 0
1000000 -41 -53 0
1000000 -42 -51 0
1000000 -43 -50 0
1000000 -44 -52 0
1000000 -45 -52 0
1000000 -46 -51 0
1000000 -47 -53 0
1000000 -48 -50 0
1000000 -49 -50 0
8500 -50 0
11100 -51 0
8500 -52 0
11600 -53 0
1200 38 0
3400 39 0
2000 40 0
3400 41 0
2000 42 0
2000 43 0
1700 44 0
2100 45 0
2800 46 0
2000 47 0
2000 48 0
2800 49 0
1200 -13 0
29070 -16 0
576 17 -24 0
10944 -17 24 0
11301 -17 -24 0
10575 18 -25 0
5640 -18 25 0
11985 -18 -25 0
14265 -30 0
4440 26 -19 0
5328 -26 19 0
9235 -26 -19 0
4512 27 -20 0
5358 -27 20 0
8155 -27 -20 0
2880 -21 0
33840 -35 0
34815 36 33 14 23 31 -28 0
3165 36 33 14 23 -31 28 0
36239 36 33 14 23 -31 -28 0
18990 36 33 14 -23 31 28 0
43361 36 33 14 -23 31 -28 0
21206 36 33 14 -23 -31 28 0
44357 36 33 14 -23 -31 -28 0
12660 36 33 -14 23 31 28 0
40512 36 33 -14 23 31 -28 0
15192 36 33 -14 23 -31 28 0
41651 36 33 -14 23 -31 -28 0
27852 36 33 -14 -23 31 28 0
47348 36 33 -14 -23 31 -28 0
29624 36 33 -14 -23 -31 28 0
48146 36 33 -14 -23 -31 -28 0
25320 36 -33 14 23 31 28 0
46209 36 -33 14 23 31 -28 0
27219 36 -33 14 23 -31 28 0
47064 36 -33 14 23 -31 -28 0
36714 36 -33 14 -23 31 28 0
51336 36 -33 14 -23 31 -28 0
38043 36 -33 14 -23 -31 28 0
51934 36 -33 14 -23 -31 -28 0
32916 36 -33 -14 23 31 28 0
49627 36 -33 -14 23 31 -28 0
34435 36 -33 -14 23 -31 28 0
50311 36 -33 -14 23 -31 -28 0
42031 36 -33 -14 -23 31 28 0
53729 36 -33 -14 -23 31 -28 0
43095 36 -33 -14 -23 -31 28 0
54208 36 -33 -14 -23 -31 -28 0
7596 -36 33 14 23 31 28 0
38233 -36 33 14 23 31 -28 0
10381 -36 33 14 23 -31 28 0
39487 -36 33 14 23 -31 -28 0
24307 -36 33 14 -23 31 28 0
45753 -36 33 14 -23 31 -28 0
26257 -36 33 14 -23 -31 28 0
46631 -36 33 14 -23 -31 -28 0
18737 -36 33 -14 23 31 28 0
43247 -36 33 -14 23 31 -28 0
20965 -36 33 -14 23 -31 28 0
44249 -36 33 -14 23 -31 -28 0
32106 -36 33 -14 -23 31 28 0
49263 -36 33 -14 -23 31 -28 0
33665 -36 33 -14 -23 -31 28 0
49964 -36 33 -14 -23 -31 -28 0
29878 -36 -33 14 23 31 28 0
48260 -36 -33 14 23 31 -28 0
31549 -36 -33 14 23 -31 28 0
49012 -36 -33 14 23 -31 -28 0
39904 -36 -33 14 -23 31 28 0
52772 -36 -33 14 -23 31 -28 0
41074 -36 -33 14 -23 -31 28 0
53298 -36 -33 14 -23 -31 -28 0
36562 -36 -33 -14 23 31 28 0
51268 -36 -33 -14 23 31 -28 0
37899 -36 -33 -14 23 -31 28 0
51870 -36 -33 -14 23 -31 -28 0
44583 -36 -33 -14 -23 31 28 0
54878 -36 -33 -14 -23 31 -28 0
45519 -36 -33 -14 -23 -31 28 0
55299 -36 -33 -14 -23 -31 -28 0
30480 34 22 29 37 15 -32 0
13335 34 22 29 37 -15 32 0
33147 34 22 29 37 -15 -32 0
36195 34 22 29 -37 15 32 0
37719 34 22 29 -37 15 -32 0
36862 34 22 29 -37 -15 32 0
37852 34 22 29 -37 -15 -32 0
28575 34 22 -29 37 15 32 0
36195 34 22 -29 37 15 -32 0
31909 34 22 -29 37 -15 32 0
36862 34 22 -29 37 -15 -32 0
37624 34 22 -29 -37 15 32 0
38005 34 22 -29 -37 15 -32 0
37790 34 22 -29 -37 -15 32 0
38038 34 22 -29 -37 -15 -32 0
15240 34 -22 29 37 15 32 0
33528 34 -22 29 37 15 -32 0
23241 34 -22 29 37 -15 32 0
35128 34 -22 29 37 -15 -32 0
36957 34 -22 29 -37 15 32 0
37871 34 -22 29 -37 15 -32 0
37357 34 -22 29 -37 -15 32 0
37951 34 -22 29 -37 -15 -32 0
32385 34 -22 -29 37 15 32 0
36957 34 -22 -29 37 15 -32 0
34385 34 -22 -29 37 -15 32 0
37357 34 -22 -29 37 -15 -32 0
37814 34 -22 -29 -37 15 32 0
38043 34 -22 -29 -37 15 -32 0
37914 34 -22 -29 -37 -15 32 0
38063 34 -22 -29 -37 -15 -32 0
24765 -34 22 29 37 15 32 0
35433 -34 22 29 37 15 -32 0
29432 -34 22 29 37 -15 32 0
36366 -34 22 29 37 -15 -32 0
37433 -34 22 29 -37 15 32 0
37967 -34 22 29 -37 15 -32 0
37667 -34 22 29 -37 -15 32 0
38013 -34 22 29 -37 -15 -32 0
34766 -34 22 -29 37 15 32 0
37433 -34 22 -29 37 15 -32 0
35933 -34 22 -29 37 -15 32 0
37667 -34 22 -29 37 -15 -32 0
37933 -34 22 -29 -37 15 32 0
38067 -34 22 -29 -37 15 -32 0
37992 -34 22 -29 -37 -15 32 0
38078 -34 22 -29 -37 -15 -32 0
30099 -34 -22 29 37 15 32 0
36500 -34 -22 29 37 15 -32 0
32899 -34 -22 29 37 -15 32 0
37060 -34 -22 29 37 -15 -32 0
37700 -34 -22 29 -37 15 32 0
38020 -34 -22 29 -37 15 -32 0
37840 -34 -22 29 -37 -15 32 0
38048 -34 -22 29 -37 -15 -32 0
36100 -34 -22 -29 37 15 32 0
37700 -34 -22 -29 37 15 -32 0
36800 -34 -22 -29 37 -15 32 0
37840 -34 -22 -29 37 -15 -32 0
38000 -34 -22 -29 -37 15 32 0
38080 -34 -22 -29 -37 15 -32 0
38035 -34 -22 -29 -37 -15 32 0
38087 -34 -22 -29 -37 -15 -32 0
