p wcnf 51 204 1000000
1000000 1 0
1000000 2 -13 0
1000000 13 -37 -1 0
1000000 4 -14 0
1000000 14 -41 -39 -1 0
1000000 10 -15 0
1000000 15 -40 -44 -1 0
1000000 11 -16 0
1000000 16 -47 -39 -37 -2 0
1000000 3 -17 0
1000000 17 -43 -42 -2 0
1000000 5 -18 0
1000000 18 -38 -2 0
1000000 6 -19 0
1000000 19 -38 -46 -2 0
1000000 7 -20 0
1000000 20 -40 -43 -45 -2 0
1000000 8 -21 0
1000000 21 -46 -41 -2 0
1000000 9 -22 0
1000000 22 -44 -2 0
1000000 12 -23 0
1000000 23 -42 -11 0
1000000 12 -24 0
1000000 24 -41 -43 -37 -3 0
1000000 5 -25 0
1000000 25 -39 -44 -37 -4 0
1000000 6 -26 0
1000000 26 -41 -46 -47 -5 0
1000000 8 -27 0
1000000 27 -45 -39 -44 -5 0
1000000 10 -28 0
1000000 28 -40 -5 0
1000000 12 -29 0
1000000 29 -45 -47 -37 -6 0
1000000 11 -30 0
1000000 30 -42 -46 -7 0
1000000 12 -31 0
1000000 31 -42 -7 0
1000000 8 -32 0
1000000 32 -43 -7 0
1000000 12 -33 0
1000000 33 -40 -8 0
1000000 10 -34 0
1000000 34 -38 -8 0
1000000 12 -35 0
1000000 35 -47 -41 -9 0
1000000 11 -36 0
1000000 36 -38 -10 0
1000000 1 0
1000000 -2 13 0
1000000 -3 17 0
1000000 -4 14 0
1000000 -5 18 25 0
1000000 -6 26 19 0
1000000 -7 20 0
1000000 -8 21 27 32 0
1000000 -9 22 0
1000000 -10 28 15 34 0
1000000 -11 36 16 30 0
1000000 -12 35 24 33 29 31 23 0
1000000 37 49 0
1000000 38 51 0
1000000 39 50 0
1000000 40 51 0
1000000 41 48 0
1000000 42 51 0
1000000 43 49 0
1000000 44 49 0
1000000 45 48 0
1000000 46 50 0
1000000 47 50 0
1000000 -37 -49 0
1000000 -38 -51 0
1000000 -39 -50 0
1000000 -40 -51 0
1000000 -41 -48 0
1000000 -42 -51 0
1000000 -43 -49 0
1000000 -44 -49 0
1000000 -45 -48 0
1000000 -46 -50 0
1000000 -47 -50 0
13000 -48 0
11600 -49 0
10400 -50 0
13200 -51 0
1800 37 0
1900 38 0
1100 39 0
1100 40 0
1800 41 0
900 42 0
1400 43 0
1900 44 0
1100 45 0
1600 46 0
1400 47 0
3940 -13 0
29100 -17 0
7486 -14 0
4960 18 -25 0
14880 -18 25 0
16864 -18 -25 0
7980 26 -19 0
35910 -26 19 0
36708 -26 -19 0
29925 -20 0
14880 21 27 -32 0
4464 21 -27 32 0
16666 21 -27 -32 0
12400 -21 27 32 0
19840 -21 27 -32 0
14632 -21 -27 32 0
20733 -21 -27 -32 0
1150 -22 0
6444 28 15 -34 0
23270 28 -15 34 0
25525 28 -15 -34 0
34010 -28 15 34 0
34332 -28 15 -34 0
35173 -28 -15 34 0
35286 -28 -15 -34 0
43650 36 16 -30 0
5820 36 -16 30 0
45105 36 -16 -30 0
6984 -36 16 30 0
45396 -36 16 -30 0
12106 -36 -16 30 0
46676 -36 -16 -30 0
9652 35 24 33 29 31 -23 0
4572 35 24 33 29 -31 23 0
12487 35 24 33 29 -31 -23 0
12700 35 24 33 -29 31 23 0
17526 35 24 33 -29 31 -23 0
14986 35 24 33 -29 -31 23 0
18943 35 24 33 -29 -31 -23 0
21590 35 24 -33 29 31 23 0
23038 35 24 -33 29 31 -23 0
22276 35 24 -33 29 -31 23 0
23463 35 24 -33 29 -31 -23 0
23495 35 24 -33 -29 31 23 0
24219 35 24 -33 -29 31 -23 0
23838 35 24 -33 -29 -31 23 0
24431 35 24 -33 -29 -31 -23 0
3810 35 -24 33 29 31 23 0
12014 35 -24 33 29 31 -23 0
7696 35 -24 33 29 -31 23 0
14424 35 -24 33 29 -31 -23 0
14605 35 -24 33 -29 31 23 0
18707 35 -24 33 -29 31 -23 0
16548 35 -24 33 -29 -31 23 0
19912 35 -24 33 -29 -31 -23 0
22162 35 -24 -33 29 31 23 0
23392 35 -24 -33 29 31 -23 0
22744 35 -24 -33 29 -31 23 0
23754 35 -24 -33 29 -31 -23 0
23781 35 -24 -33 -29 31 23 0
24396 35 -24 -33 -29 31 -23 0
24072 35 -24 -33 -29 -31 23 0
24577 35 -24 -33 -29 -31 -23 0
1270 -35 24 33 29 31 23 0
10439 -35 24 33 29 31 -23 0
5613 -35 24 33 29 -31 23 0
13132 -35 24 33 29 -31 -23 0
13335 -35 24 33 -29 31 23 0
17920 -35 24 33 -29 31 -23 0
15507 -35 24 33 -29 -31 23 0
19266 -35 24 33 -29 -31 -23 0
21780 -35 24 -33 29 31 23 0
23156 -35 24 -33 29 31 -23 0
22432 -35 24 -33 29 -31 23 0
23560 -35 24 -33 29 -31 -23 0
23590 -35 24 -33 -29 31 23 0
24278 -35 24 -33 -29 31 -23 0
23916 -35 24 -33 -29 -31 23 0
24480 -35 24 -33 -29 -31 -23 0
4890 -35 -24 33 29 31 23 0
12683 -35 -24 33 29 31 -23 0
8581 -35 -24 33 29 -31 23 0
14972 -35 -24 33 29 -31 -23 0
15145 -35 -24 33 -29 31 23 0
19042 -35 -24 33 -29 31 -23 0
16991 -35 -24 33 -29 -31 23 0
20186 -35 -24 33 -29 -31 -23 0
22323 -35 -24 -33 29 31 23 0
23493 -35 -24 -33 29 31 -23 0
22877 -35 -24 -33 29 -31 23 0
23836 -35 -24 -33 29 -31 -23 0
23862 -35 -24 -33 -29 31 23 0
24446 -35 -24 -33 -29 31 -23 0
24139 -35 -24 -33 -29 -31 23 0
24618 -35 -24 -33 -29 -31 -23 0
