p wcnf 80 370 1000000
1000000 1 0
1000000 2 -18 0
1000000 18 -58 -62 -57 -1 0
1000000 3 -19 0
1000000 19 -59 -61 -60 -1 0
1000000 10 -20 0
1000000 20 -68 -63 -55 -1 0
1000000 15 -21 0
1000000 21 -65 -70 -71 -2 0
1000000 3 -22 0
1000000 22 -64 -72 -2 0
1000000 6 -23 0
1000000 23 -55 -67 -2 0
1000000 7 -24 0
1000000 24 -66 -69 -2 0
1000000 9 -25 0
1000000 25 -73 -56 -61 -2 0
1000000 14 -26 0
1000000 26 -58 -63 -60 -11 0
1000000 15 -27 0
1000000 27 -59 -11 0
1000000 13 -28 0
1000000 28 -56 -68 -66 -12 0
1000000 16 -29 0
1000000 29 -67 -64 -57 -12 0
1000000 15 -30 0
1000000 30 -62 -13 0
1000000 16 -31 0
1000000 31 -71 -65 -69 -13 0
1000000 17 -32 0
1000000 32 -70 -13 0
1000000 15 -33 0
1000000 33 -55 -14 0
1000000 11 -34 0
1000000 34 -72 -3 0
1000000 4 -35 0
1000000 35 -58 -59 -3 0
1000000 8 -36 0
1000000 36 -64 -65 -60 -3 0
1000000 9 -37 0
1000000 37 -68 -73 -62 -3 0
1000000 10 -38 0
1000000 38 -63 -67 -3 0
1000000 11 -39 0
1000000 39 -57 -4 0
1000000 12 -40 0
1000000 40 -56 -70 -71 -4 0
1000000 5 -41 0
1000000 41 -66 -4 0
1000000 6 -42 0
1000000 42 -72 -61 -4 0
1000000 8 -43 0
1000000 43 -56 -69 -4 0
1000000 9 -44 0
1000000 44 -62 -63 -61 -5 0
1000000 10 -45 0
1000000 45 -60 -55 -5 0
1000000 11 -46 0
1000000 46 -57 -73 -6 0
1000000 9 -47 0
1000000 47 -58 -6 0
1000000 15 -48 0
1000000 48 -66 -65 -7 0
1000000 12 -49 0
1000000 49 -64 -69 -8 0
1000000 15 -50 0
1000000 50 -59 -8 0
1000000 12 -51 0
1000000 51 -70 -72 -57 -9 0
1000000 11 -52 0
1000000 52 -68 -55 -73 -10 0
1000000 12 -53 0
1000000 53 -61 -58 -62 -10 0
1000000 15 -54 0
1000000 54 -56 -59 -10 0
1000000 1 0
1000000 -2 18 0
1000000 -3 19 22 0
1000000 -4 35 0
1000000 -5 41 0
1000000 -6 42 23 0
1000000 -7 24 0
1000000 -8 43 36 0
1000000 -9 44 25 37 47 0
1000000 -10 20 38 45 0
1000000 -11 39 46 34 52 0
1000000 -12 40 53 49 51 0
1000000 -13 28 0
1000000 -14 26 0
1000000 -15 54 30 33 48 27 21 50 0
1000000 -16 31 29 0
1000000 -17 32 0
1000000 55 74 0
1000000 56 79 0
1000000 57 75 0
1000000 58 75 0
1000000 59 76 0
1000000 60 78 0
1000000 61 74 0
1000000 62 78 0
1000000 63 78 0
1000000 64 79 0
1000000 65 77 0
1000000 66 77 0
1000000 67 74 0
1000000 68 77 0
1000000 69 80 0
1000000 70 79 0
1000000 71 76 0
1000000 72 76 0
1000000 73 75 0
1000000 -55 -74 0
1000000 -56 -79 0
1000000 -57 -75 0
1000000 -58 -75 0
1000000 -59 -76 0
1000000 -60 -78 0
1000000 -61 -74 0
1000000 -62 -78 0
1000000 -63 -78 0
1000000 -64 -79 0
1000000 -65 -77 0
1000000 -66 -77 0
1000000 -67 -74 0
1000000 -68 -77 0
1000000 -69 -80 0
1000000 -70 -79 0
1000000 -71 -76 0
1000000 -72 -76 0
1000000 -73 -75 0
9900 -74 0
8500 -75 0
8500 -76 0
9900 -77 0
8500 -78 0
8500 -79 0
11800 -80 0
1400 55 0
3200 56 0
1500 57 0
2400 58 0
1400 59 0
1500 60 0
1300 61 0
1400 62 0
2400 63 0
1500 64 0
1100 65 0
3200 66 0
2400 67 0
3800 68 0
1100 69 0
1100 70 0
1200 71 0
3800 72 0
1100 73 0
2220 -18 0
5500 19 -22 0
38500 -19 22 0
40150 -19 -22 0
41895 -35 0
17670 -41 0
60040 42 -23 0
11376 -42 23 0
60609 -42 -23 0
9888 -24 0
5292 43 -36 0
30870 -43 36 0
32458 -43 -36 0
850 44 25 37 -47 0
5100 44 25 -37 47 0
5695 44 25 -37 -47 0
6800 44 -25 37 47 0
7310 44 -25 37 -47 0
9860 44 -25 -37 47 0
10217 44 -25 -37 -47 0
2040 -44 25 37 47 0
2788 -44 25 37 -47 0
6528 -44 25 -37 47 0
7052 -44 25 -37 -47 0
8024 -44 -25 37 47 0
8473 -44 -25 37 -47 0
10717 -44 -25 -37 47 0
11031 -44 -25 -37 -47 0
1480 20 38 -45 0
13320 20 -38 45 0
13468 20 -38 -45 0
9620 -20 38 45 0
10138 -20 38 -45 0
14282 -20 -38 45 0
14334 -20 -38 -45 0
5196 39 46 34 -52 0
6495 39 46 -34 52 0
10912 39 46 -34 -52 0
21650 39 -46 34 52 0
24248 39 -46 34 -52 0
24897 39 -46 -34 52 0
27106 39 -46 -34 -52 0
16454 -39 46 34 52 0
19676 -39 46 34 -52 0
20481 -39 46 -34 52 0
23219 -39 46 -34 -52 0
29877 -39 -46 34 52 0
31488 -39 -46 34 -52 0
31890 -39 -46 -34 52 0
33260 -39 -46 -34 -52 0
5100 40 53 49 -51 0
14450 40 53 -49 51 0
15215 40 53 -49 -51 0
5100 40 -53 49 51 0
8670 40 -53 49 -51 0
15215 40 -53 -49 51 0
15750 40 -53 -49 -51 0
1700 -40 53 49 51 0
6290 -40 53 49 -51 0
14705 -40 53 -49 51 0
15394 -40 53 -49 -51 0
6290 -40 -53 49 51 0
9503 -40 -53 49 -51 0
15394 -40 -53 -49 51 0
15875 -40 -53 -49 -51 0
26015 -28 0
2232 -26 0
12640 54 30 33 48 27 21 -50 0
53720 54 30 33 48 27 -21 50 0
55616 54 30 33 48 27 -21 -50 0
9480 54 30 33 48 -27 21 50 0
20224 54 30 33 48 -27 21 -50 0
55142 54 30 33 48 -27 -21 50 0
56754 54 30 33 48 -27 -21 -50 0
3160 54 30 33 -48 27 21 50 0
15168 54 30 33 -48 27 21 -50 0
54194 54 30 33 -48 27 -21 50 0
55995 54 30 33 -48 27 -21 -50 0
12166 54 30 33 -48 -27 21 50 0
22373 54 30 33 -48 -27 21 -50 0
55545 54 30 33 -48 -27 -21 50 0
57076 54 30 33 -48 -27 -21 -50 0
37920 54 30 -33 48 27 21 50 0
42976 54 30 -33 48 27 21 -50 0
59408 54 30 -33 48 27 -21 50 0
60166 54 30 -33 48 27 -21 -50 0
41712 54 30 -33 48 -27 21 50 0
46010 54 30 -33 48 -27 21 -50 0
59977 54 30 -33 48 -27 -21 50 0
60621 54 30 -33 48 -27 -21 -50 0
39184 54 30 -33 -48 27 21 50 0
43987 54 30 -33 -48 27 21 -50 0
59598 54 30 -33 -48 27 -21 50 0
60318 54 30 -33 -48 27 -21 -50 0
42786 54 30 -33 -48 -27 21 50 0
46869 54 30 -33 -48 -27 21 -50 0
60138 54 30 -33 -48 -27 -21 50 0
60750 54 30 -33 -48 -27 -21 -50 0
18960 54 -30 33 48 27 21 50 0
27808 54 -30 33 48 27 21 -50 0
56564 54 -30 33 48 27 -21 50 0
57891 54 -30 33 48 27 -21 -50 0
25596 54 -30 33 48 -27 21 50 0
33117 54 -30 33 48 -27 21 -50 0
57559 54 -30 33 48 -27 -21 50 0
58688 54 -30 33 48 -27 -21 -50 0
21172 54 -30 33 -48 27 21 50 0
29578 54 -30 33 -48 27 21 -50 0
56896 54 -30 33 -48 27 -21 50 0
58157 54 -30 33 -48 27 -21 -50 0
27476 54 -30 33 -48 -27 21 50 0
34621 54 -30 33 -48 -27 21 -50 0
57841 54 -30 33 -48 -27 -21 50 0
58913 54 -30 33 -48 -27 -21 -50 0
45504 54 -30 -33 48 27 21 50 0
49043 54 -30 -33 48 27 21 -50 0
60546 54 -30 -33 48 27 -21 50 0
61076 54 -30 -33 48 27 -21 -50 0
48158 54 -30 -33 48 -27 21 50 0
51167 54 -30 -33 48 -27 21 -50 0
60944 54 -30 -33 48 -27 -21 50 0
61395 54 -30 -33 48 -27 -21 -50 0
46389 54 -30 -33 -48 27 21 50 0
49751 54 -30 -33 -48 27 21 -50 0
60678 54 -30 -33 -48 27 -21 50 0
61183 54 -30 -33 -48 27 -21 -50 0
48910 54 -30 -33 -48 -27 21 50 0
51768 54 -30 -33 -48 -27 21 -50 0
61057 54 -30 -33 -48 -27 -21 50 0
61485 54 -30 -33 -48 -27 -21 -50 0
60040 -54 30 33 48 27 21 50 0
60672 -54 30 33 48 27 21 -50 0
62726 -54 30 33 48 27 -21 50 0
62821 -54 30 33 48 27 -21 -50 0
60514 -54 30 33 48 -27 21 50 0
61051 -54 30 33 48 -27 21 -50 0
62797 -54 30 33 48 -27 -21 50 0
62878 -54 30 33 48 -27 -21 -50 0
60198 -54 30 33 -48 27 21 50 0
60798 -54 30 33 -48 27 21 -50 0
62750 -54 30 33 -48 27 -21 50 0
62840 -54 30 33 -48 27 -21 -50 0
60648 -54 30 33 -48 -27 21 50 0
61159 -54 30 33 -48 -27 21 -50 0
62817 -54 30 33 -48 -27 -21 50 0
62894 -54 30 33 -48 -27 -21 -50 0
61936 -54 30 -33 48 27 21 50 0
62189 -54 30 -33 48 27 21 -50 0
63010 -54 30 -33 48 27 -21 50 0
63048 -54 30 -33 48 27 -21 -50 0
62126 -54 30 -33 48 -27 21 50 0
62340 -54 30 -33 48 -27 21 -50 0
63039 -54 30 -33 48 -27 -21 50 0
63071 -54 30 -33 48 -27 -21 -50 0
61999 -54 30 -33 -48 27 21 50 0
62239 -54 30 -33 -48 27 21 -50 0
63020 -54 30 -33 -48 27 -21 50 0
63056 -54 30 -33 -48 27 -21 -50 0
62179 -54 30 -33 -48 -27 21 50 0
62383 -54 30 -33 -48 -27 21 -50 0
63047 -54 30 -33 -48 -27 -21 50 0
63078 -54 30 -33 -48 -27 -21 -50 0
60988 -54 -30 33 48 27 21 50 0
61430 -54 -30 33 48 27 21 -50 0
62868 -54 -30 33 48 27 -21 50 0
62935 -54 -30 33 48 27 -21 -50 0
61320 -54 -30 33 48 -27 21 50 0
61696 -54 -30 33 48 -27 21 -50 0
62918 -54 -30 33 48 -27 -21 50 0
62974 -54 -30 33 48 -27 -21 -50 0
61099 -54 -30 33 -48 27 21 50 0
61519 -54 -30 33 -48 27 21 -50 0
62885 -54 -30 33 -48 27 -21 50 0
62948 -54 -30 33 -48 27 -21 -50 0
61414 -54 -30 33 -48 -27 21 50 0
61771 -54 -30 33 -48 -27 21 -50 0
62932 -54 -30 33 -48 -27 -21 50 0
62986 -54 -30 33 -48 -27 -21 -50 0
62315 -54 -30 -33 48 27 21 50 0
62492 -54 -30 -33 48 27 21 -50 0
63067 -54 -30 -33 48 27 -21 50 0
63094 -54 -30 -33 48 27 -21 -50 0
62448 -54 -30 -33 48 -27 21 50 0
62598 -54 -30 -33 48 -27 21 -50 0
63087 -54 -30 -33 48 -27 -21 50 0
63110 -54 -30 -33 48 -27 -21 -50 0
62359 -54 -30 -33 -48 27 21 50 0
62528 -54 -30 -33 -48 27 21 -50 0
63074 -54 -30 -33 -48 27 -21 50 0
63099 -54 -30 -33 -48 27 -21 -50 0
62486 -54 -30 -33 -48 -27 21 50 0
62628 -54 -30 -33 -48 -27 21 -50 0
63093 -54 -30 -33 -48 -27 -21 50 0
63114 -54 -30 -33 -48 -27 -21 -50 0
21285 31 -29 0
30745 -31 29 0
38195 -31 -29 0
14850 -32 0
