p wcnf 67 205 1000000
1000000 1 0
1000000 2 -17 0
1000000 17 -48 -51 -1 0
1000000 15 -18 0
1000000 18 -52 -1 0
1000000 3 -19 0
1000000 19 -49 -56 -53 -1 0
1000000 4 -20 0
1000000 20 -58 -54 -59 -1 0
1000000 5 -21 0
1000000 21 -55 -1 0
1000000 4 -22 0
1000000 22 -62 -50 -2 0
1000000 5 -23 0
1000000 23 -60 -2 0
1000000 6 -24 0
1000000 24 -48 -2 0
1000000 12 -25 0
1000000 25 -50 -54 -61 -11 0
1000000 14 -26 0
1000000 26 -52 -57 -11 0
1000000 16 -27 0
1000000 27 -49 -56 -11 0
1000000 12 -28 0
1000000 28 -51 -55 -61 -3 0
1000000 7 -29 0
1000000 29 -57 -3 0
1000000 8 -30 0
1000000 30 -53 -51 -62 -3 0
1000000 13 -31 0
1000000 31 -58 -4 0
1000000 5 -32 0
1000000 32 -52 -49 -4 0
1000000 6 -33 0
1000000 33 -50 -54 -53 -4 0
1000000 7 -34 0
1000000 34 -61 -55 -56 -4 0
1000000 9 -35 0
1000000 35 -59 -4 0
1000000 12 -36 0
1000000 36 -57 -50 -62 -5 0
1000000 14 -37 0
1000000 37 -54 -60 -49 -5 0
1000000 8 -38 0
1000000 38 -51 -58 -5 0
1000000 11 -39 0
1000000 39 -60 -59 -55 -6 0
1000000 8 -40 0
1000000 40 -52 -61 -57 -6 0
1000000 15 -41 0
1000000 41 -48 -58 -7 0
1000000 9 -42 0
1000000 42 -56 -7 0
1000000 11 -43 0
1000000 43 -52 -60 -48 -8 0
1000000 12 -44 0
1000000 44 -62 -8 0
1000000 10 -45 0
1000000 45 -48 -8 0
1000000 16 -46 0
1000000 46 -49 -9 0
1000000 11 -47 0
1000000 47 -53 -51 -10 0
1000000 1 0
1000000 -2 17 0
1000000 -3 19 0
1000000 -4 20 22 0
1000000 -5 23 21 32 0
1000000 -6 24 33 0
1000000 -7 34 29 0
1000000 -8 40 30 38 0
1000000 -9 42 35 0
1000000 -10 45 0
1000000 -11 47 43 39 0
1000000 -12 28 44 25 36 0
1000000 -13 31 0
1000000 -14 26 37 0
1000000 -15 18 41 0
1000000 -16 27 46 0
1000000 48 63 0
1000000 49 66 0
1000000 50 65 0
1000000 51 66 0
1000000 52 66 0
1000000 53 64 0
1000000 54 65 0
1000000 55 65 0
1000000 56 64 0
1000000 57 63 0
1000000 58 67 0
1000000 59 63 0
1000000 60 67 0
1000000 61 67 0
1000000 62 64 0
1000000 -48 -63 0
1000000 -49 -66 0
1000000 -50 -65 0
1000000 -51 -66 0
1000000 -52 -66 0
1000000 -53 -64 0
1000000 -54 -65 0
1000000 -55 -65 0
1000000 -56 -64 0
1000000 -57 -63 0
1000000 -58 -67 0
1000000 -59 -63 0
1000000 -60 -67 0
1000000 -61 -67 0
1000000 -62 -64 0
8800 -63 0
7300 -64 0
7300 -65 0
12700 -66 0
7300 -67 0
2700 48 0
3600 49 0
2800 50 0
2800 51 0
2000 52 0
2700 53 0
2000 54 0
3100 55 0
2800 56 0
2200 57 0
2000 58 0
3600 59 0
2700 60 0
2200 61 0
3600 62 0
1238 -17 0
27225 -19 0
9225 20 -22 0
246 -20 22 0
9286 -20 -22 0
8415 23 21 -32 0
2754 23 -21 32 0
9654 23 -21 -32 0
3825 -23 21 32 0
10136 -23 21 -32 0
5891 -23 -21 32 0
11066 -23 -21 -32 0
7080 24 -33 0
44840 -24 33 0
45194 -24 -33 0
944 34 -29 0
44840 -34 29 0
44887 -34 -29 0
356 40 30 -38 0
5340 40 -30 38 0
5589 40 -30 -38 0
14240 -40 30 38 0
14311 -40 30 -38 0
15308 -40 -30 38 0
15358 -40 -30 -38 0
14440 42 -35 0
32490 -42 35 0
40432 -42 -35 0
5592 -45 0
17640 47 43 -39 0
6272 47 -43 39 0
18267 47 -43 -39 0
7840 -47 43 39 0
18424 -47 43 -39 0
11603 -47 -43 39 0
18800 -47 -43 -39 0
25380 28 44 25 -36 0
35955 28 44 -25 36 0
39762 28 44 -25 -36 0
27495 28 -44 25 36 0
36378 28 -44 25 -36 0
40079 28 -44 -25 36 0
41412 28 -44 -25 -36 0
16920 -28 44 25 36 0
32148 -28 44 25 -36 0
38493 -28 44 -25 36 0
40777 -28 44 -25 -36 0
33417 -28 -44 25 36 0
38747 -28 -44 25 -36 0
40968 -28 -44 -25 36 0
41767 -28 -44 -25 -36 0
50540 -31 0
30680 26 -37 0
23600 -26 37 0
38940 -26 -37 0
9840 18 -41 0
1845 -18 41 0
10209 -18 -41 0
41940 27 -46 0
4660 -27 46 0
42406 -27 -46 0
