p wcnf 61 184 1000000
1000000 1 0
1000000 2 -15 0
1000000 15 -46 -44 -1 0
1000000 3 -16 0
1000000 16 -47 -51 -49 -1 0
1000000 5 -17 0
1000000 17 -45 -1 0
1000000 8 -18 0
1000000 18 -43 -1 0
1000000 3 -19 0
1000000 19 -52 -2 0
1000000 6 -20 0
1000000 20 -44 -53 -56 -2 0
1000000 10 -21 0
1000000 21 -43 -50 -2 0
1000000 12 -22 0
1000000 22 -48 -49 -51 -11 0
1000000 13 -23 0
1000000 23 -46 -47 -55 -11 0
1000000 14 -24 0
1000000 24 -54 -11 0
1000000 13 -25 0
1000000 25 -45 -12 0
1000000 4 -26 0
1000000 26 -53 -52 -43 -3 0
1000000 5 -27 0
1000000 27 -46 -45 -50 -3 0
1000000 7 -28 0
1000000 28 -48 -3 0
1000000 9 -29 0
1000000 29 -44 -56 -3 0
1000000 7 -30 0
1000000 30 -55 -50 -4 0
1000000 8 -31 0
1000000 31 -53 -56 -48 -4 0
1000000 9 -32 0
1000000 32 -54 -4 0
1000000 11 -33 0
1000000 33 -51 -47 -55 -5 0
1000000 6 -34 0
1000000 34 -44 -49 -46 -5 0
1000000 7 -35 0
1000000 35 -43 -5 0
1000000 8 -36 0
1000000 36 -45 -48 -5 0
1000000 14 -37 0
1000000 37 -54 -51 -6 0
1000000 14 -38 0
1000000 38 -54 -49 -7 0
1000000 9 -39 0
1000000 39 -55 -45 -56 -7 0
1000000 10 -40 0
1000000 40 -44 -47 -9 0
1000000 11 -41 0
1000000 41 -50 -10 0
1000000 13 -42 0
1000000 42 -48 -53 -52 -10 0
1000000 1 0
1000000 -2 15 0
1000000 -3 16 19 0
1000000 -4 26 0
1000000 -5 17 27 0
1000000 -6 34 20 0
1000000 -7 28 30 35 0
1000000 -8 18 31 36 0
1000000 -9 29 32 39 0
1000000 -10 40 21 0
1000000 -11 41 33 0
1000000 -12 22 0
1000000 -13 42 23 25 0
1000000 -14 24 38 37 0
1000000 43 58 0
1000000 44 61 0
1000000 45 60 0
1000000 46 59 0
1000000 47 60 0
1000000 48 60 0
1000000 49 61 0
1000000 50 58 0
1000000 51 61 0
1000000 52 58 0
1000000 53 59 0
1000000 54 57 0
1000000 55 57 0
1000000 56 59 0
1000000 -43 -58 0
1000000 -44 -61 0
1000000 -45 -60 0
1000000 -46 -59 0
1000000 -47 -60 0
1000000 -48 -60 0
1000000 -49 -61 0
1000000 -50 -58 0
1000000 -51 -61 0
1000000 -52 -58 0
1000000 -53 -59 0
1000000 -54 -57 0
1000000 -55 -57 0
1000000 -56 -59 0
9800 -57 0
12900 -58 0
12900 -59 0
7600 -60 0
12000 -61 0
1200 43 0
1200 44 0
2000 45 0
1200 46 0
2000 47 0
3200 48 0
3200 49 0
3400 50 0
2000 51 0
2000 52 0
1200 53 0
2800 54 0
2800 55 0
3500 56 0
5565 -15 0
29680 16 -19 0
20405 -16 19 0
33761 -16 -19 0
35910 -26 0
26400 17 -27 0
880 -17 27 0
26752 -17 -27 0
16416 34 -20 0
16416 -34 20 0
27579 -34 -20 0
18935 28 30 -35 0
21640 28 -30 35 0
33001 28 -30 -35 0
2705 -28 30 35 0
20693 -28 30 -35 0
23263 -28 -30 35 0
34056 -28 -30 -35 0
39600 18 31 -36 0
6600 18 -31 36 0
40260 18 -31 -36 0
17600 -18 31 36 0
41360 -18 31 -36 0
21560 -18 -31 36 0
41756 -18 -31 -36 0
46170 29 32 -39 0
38475 29 -32 39 0
50018 29 -32 -39 0
19494 -29 32 39 0
48119 -29 32 -39 0
43349 -29 -32 39 0
50505 -29 -32 -39 0
13856 40 -21 0
23815 -40 21 0
30050 -40 -21 0
40575 41 -33 0
29755 -41 33 0
48014 -41 -33 0
18080 -22 0
45200 42 23 -25 0
48025 42 -23 25 0
54805 42 -23 -25 0
8475 -42 23 25 0
46895 -42 23 -25 0
49296 -42 -23 25 0
55059 -42 -23 -25 0
5650 24 38 -37 0
5650 24 -38 37 0
10735 24 -38 -37 0
6780 -24 38 37 0
11752 -24 38 -37 0
11752 -24 -38 37 0
16227 -24 -38 -37 0
