p wcnf 61 190 1000000
1000000 1 0
1000000 2 -15 0
1000000 15 -49 -43 -44 -1 0
1000000 7 -16 0
1000000 16 -46 -51 -1 0
1000000 8 -17 0
1000000 17 -53 -50 -1 0
1000000 10 -18 0
1000000 18 -45 -52 -1 0
1000000 3 -19 0
1000000 19 -48 -2 0
1000000 6 -20 0
1000000 20 -54 -2 0
1000000 13 -21 0
1000000 21 -56 -11 0
1000000 14 -22 0
1000000 22 -48 -55 -49 -11 0
1000000 14 -23 0
1000000 23 -50 -51 -43 -12 0
1000000 14 -24 0
1000000 24 -47 -13 0
1000000 11 -25 0
1000000 25 -52 -45 -3 0
1000000 12 -26 0
1000000 26 -47 -3 0
1000000 4 -27 0
1000000 27 -44 -3 0
1000000 5 -28 0
1000000 28 -54 -46 -45 -3 0
1000000 9 -29 0
1000000 29 -43 -55 -3 0
1000000 13 -30 0
1000000 30 -49 -56 -50 -4 0
1000000 5 -31 0
1000000 31 -52 -53 -46 -4 0
1000000 7 -32 0
1000000 32 -53 -54 -51 -4 0
1000000 12 -33 0
1000000 33 -56 -47 -55 -5 0
1000000 11 -34 0
1000000 34 -44 -45 -47 -6 0
1000000 9 -35 0
1000000 35 -43 -44 -6 0
1000000 10 -36 0
1000000 36 -49 -48 -53 -6 0
1000000 8 -37 0
1000000 37 -54 -48 -7 0
1000000 9 -38 0
1000000 38 -51 -7 0
1000000 12 -39 0
1000000 39 -52 -8 0
1000000 10 -40 0
1000000 40 -56 -43 -8 0
1000000 11 -41 0
1000000 41 -55 -9 0
1000000 12 -42 0
1000000 42 -47 -44 -50 -9 0
1000000 1 0
1000000 -2 15 0
1000000 -3 19 0
1000000 -4 27 0
1000000 -5 28 31 0
1000000 -6 20 0
1000000 -7 32 16 0
1000000 -8 17 37 0
1000000 -9 38 29 35 0
1000000 -10 40 18 36 0
1000000 -11 41 34 25 0
1000000 -12 26 42 39 33 0
1000000 -13 30 21 0
1000000 -14 22 24 23 0
1000000 43 60 0
1000000 44 59 0
1000000 45 57 0
1000000 46 60 0
1000000 47 59 0
1000000 48 61 0
1000000 49 58 0
1000000 50 57 0
1000000 51 57 0
1000000 52 59 0
1000000 53 58 0
1000000 54 61 0
1000000 55 61 0
1000000 56 58 0
1000000 -43 -60 0
1000000 -44 -59 0
1000000 -45 -57 0
1000000 -46 -60 0
1000000 -47 -59 0
1000000 -48 -61 0
1000000 -49 -58 0
1000000 -50 -57 0
1000000 -51 -57 0
1000000 -52 -59 0
1000000 -53 -58 0
1000000 -54 -61 0
1000000 -55 -61 0
1000000 -56 -58 0
11600 -57 0
12100 -58 0
11600 -59 0
11600 -60 0
12100 -61 0
1400 43 0
1500 44 0
1400 45 0
2400 46 0
700 47 0
1400 48 0
900 49 0
1400 50 0
2400 51 0
3100 52 0
2400 53 0
2400 54 0
2600 55 0
1400 56 0
15850 -15 0
71060 -19 0
21700 -27 0
31500 28 -31 0
1050 -28 31 0
31920 -28 -31 0
33670 -20 0
20760 32 -16 0
10380 -32 16 0
24912 -32 -16 0
15570 17 -37 0
13840 -17 37 0
23182 -17 -37 0
14600 38 29 -35 0
16425 38 -29 35 0
24455 38 -29 -35 0
9125 -38 29 35 0
20075 -38 29 -35 0
21444 -38 -29 35 0
27466 -38 -29 -35 0
22490 40 18 -36 0
12110 40 -18 36 0
26728 40 -18 -36 0
15570 -40 18 36 0
27939 -40 18 -36 0
22230 -40 -18 36 0
30271 -40 -18 -36 0
27455 41 34 -25 0
15895 41 -34 25 0
28250 41 -34 -25 0
5202 -41 34 25 0
27715 -41 34 -25 0
18236 -41 -34 25 0
28367 -41 -34 -25 0
26180 26 42 39 -33 0
18700 26 42 -39 33 0
38335 26 42 -39 -33 0
63580 26 -42 39 33 0
67507 26 -42 39 -33 0
66385 26 -42 -39 33 0
69330 26 -42 -39 -33 0
11220 -26 42 39 33 0
33473 -26 42 39 -33 0
27115 -26 42 -39 33 0
43805 -26 42 -39 -33 0
65263 -26 -42 39 33 0
68601 -26 -42 39 -33 0
67647 -26 -42 -39 33 0
70151 -26 -42 -39 -33 0
13860 30 -21 0
15400 -30 21 0
22330 -30 -21 0
1995 22 24 -23 0
15960 22 -24 23 0
17157 22 -24 -23 0
13965 -22 24 23 0
15262 -22 24 -23 0
24339 -22 -24 23 0
25117 -22 -24 -23 0
