p wcnf 882 3573 1000000
1000000 1 0
1000000 2 -158 0
1000000 158 -626 -621 -622 -1 0
1000000 105 -159 0
1000000 159 -620 -1 0
1000000 122 -160 0
1000000 160 -627 -629 -631 -1 0
1000000 16 -161 0
1000000 161 -625 -1 0
1000000 20 -162 0
1000000 162 -636 -623 -633 -1 0
1000000 3 -163 0
1000000 163 -624 -1 0
1000000 4 -164 0
1000000 164 -635 -630 -639 -1 0
1000000 7 -165 0
1000000 165 -642 -640 -632 -1 0
1000000 61 -166 0
1000000 166 -641 -638 -1 0
1000000 8 -167 0
1000000 167 -648 -647 -634 -1 0
1000000 16 -168 0
1000000 168 -644 -637 -2 0
1000000 17 -169 0
1000000 169 -628 -643 -2 0
1000000 20 -170 0
1000000 170 -655 -646 -649 -2 0
1000000 59 -171 0
1000000 171 -654 -653 -2 0
1000000 14 -172 0
1000000 172 -656 -651 -11 0
1000000 15 -173 0
1000000 173 -657 -661 -659 -11 0
1000000 16 -174 0
1000000 174 -660 -658 -662 -11 0
1000000 107 -175 0
1000000 175 -645 -101 0
1000000 117 -176 0
1000000 176 -652 -665 -101 0
1000000 104 -177 0
1000000 177 -663 -666 -102 0
1000000 105 -178 0
1000000 178 -669 -650 -102 0
1000000 105 -179 0
1000000 179 -672 -670 -103 0
1000000 110 -180 0
1000000 180 -674 -664 -103 0
1000000 105 -181 0
1000000 181 -673 -667 -104 0
1000000 107 -182 0
1000000 182 -679 -676 -680 -104 0
1000000 154 -183 0
1000000 183 -668 -677 -684 -104 0
1000000 111 -184 0
1000000 184 -678 -105 0
1000000 115 -185 0
1000000 185 -683 -675 -105 0
1000000 111 -186 0
1000000 186 -687 -686 -106 0
1000000 118 -187 0
1000000 187 -685 -671 -106 0
1000000 108 -188 0
1000000 188 -681 -107 0
1000000 109 -189 0
1000000 189 -682 -107 0
1000000 114 -190 0
1000000 190 -696 -690 -691 -108 0
1000000 116 -191 0
1000000 191 -688 -692 -689 -108 0
1000000 117 -192 0
1000000 192 -702 -700 -697 -109 0
1000000 120 -193 0
1000000 193 -703 -704 -705 -109 0
1000000 121 -194 0
1000000 194 -693 -109 0
1000000 112 -195 0
1000000 195 -695 -701 -707 -110 0
1000000 114 -196 0
1000000 196 -708 -699 -110 0
1000000 15 -197 0
1000000 197 -698 -12 0
1000000 16 -198 0
1000000 198 -715 -712 -706 -12 0
1000000 46 -199 0
1000000 199 -717 -711 -716 -12 0
1000000 50 -200 0
1000000 200 -709 -12 0
1000000 71 -201 0
1000000 201 -714 -719 -713 -12 0
1000000 113 -202 0
1000000 202 -722 -720 -111 0
1000000 116 -203 0
1000000 203 -718 -111 0
1000000 113 -204 0
1000000 204 -721 -112 0
1000000 114 -205 0
1000000 205 -723 -112 0
1000000 122 -206 0
1000000 206 -725 -724 -726 -113 0
1000000 128 -207 0
1000000 207 -710 -113 0
1000000 115 -208 0
1000000 208 -729 -694 -114 0
1000000 122 -209 0
1000000 209 -728 -730 -114 0
1000000 116 -210 0
1000000 210 -734 -737 -731 -115 0
1000000 122 -211 0
1000000 211 -733 -115 0
1000000 123 -212 0
1000000 212 -739 -736 -116 0
1000000 129 -213 0
1000000 213 -743 -732 -735 -116 0
1000000 121 -214 0
1000000 214 -744 -742 -746 -117 0
1000000 125 -215 0
1000000 215 -745 -727 -117 0
1000000 121 -216 0
1000000 216 -748 -750 -752 -118 0
1000000 123 -217 0
1000000 217 -751 -741 -754 -118 0
1000000 121 -218 0
1000000 218 -740 -756 -757 -119 0
1000000 126 -219 0
1000000 219 -755 -761 -738 -119 0
1000000 123 -220 0
1000000 220 -747 -120 0
1000000 127 -221 0
1000000 221 -753 -120 0
1000000 17 -222 0
1000000 222 -759 -13 0
1000000 18 -223 0
1000000 223 -766 -765 -763 -13 0
1000000 19 -224 0
1000000 224 -749 -13 0
1000000 60 -225 0
1000000 225 -760 -767 -768 -13 0
1000000 124 -226 0
1000000 226 -770 -771 -121 0
1000000 128 -227 0
1000000 227 -775 -774 -762 -121 0
1000000 123 -228 0
1000000 228 -772 -764 -122 0
1000000 128 -229 0
1000000 229 -758 -769 -122 0
1000000 132 -230 0
1000000 230 -782 -781 -780 -123 0
1000000 133 -231 0
1000000 231 -784 -777 -773 -123 0
1000000 126 -232 0
1000000 232 -785 -789 -787 -124 0
1000000 135 -233 0
1000000 233 -786 -791 -788 -124 0
1000000 157 -234 0
1000000 234 -795 -790 -779 -124 0
1000000 128 -235 0
1000000 235 -783 -125 0
1000000 136 -236 0
1000000 236 -794 -796 -125 0
1000000 129 -237 0
1000000 237 -778 -792 -126 0
1000000 137 -238 0
1000000 238 -793 -126 0
1000000 130 -239 0
1000000 239 -801 -776 -127 0
1000000 133 -240 0
1000000 240 -805 -798 -806 -127 0
1000000 129 -241 0
1000000 241 -800 -802 -809 -128 0
1000000 133 -242 0
1000000 242 -807 -799 -128 0
1000000 130 -243 0
1000000 243 -803 -812 -804 -129 0
1000000 131 -244 0
1000000 244 -797 -814 -815 -129 0
1000000 131 -245 0
1000000 245 -816 -622 -810 -130 0
1000000 132 -246 0
1000000 246 -808 -620 -130 0
1000000 114 -247 0
1000000 247 -623 -621 -624 -14 0
1000000 15 -248 0
1000000 248 -631 -811 -625 -14 0
1000000 26 -249 0
1000000 249 -628 -626 -14 0
1000000 32 -250 0
1000000 250 -627 -14 0
1000000 62 -251 0
1000000 251 -634 -637 -630 -14 0
1000000 135 -252 0
1000000 252 -632 -635 -131 0
1000000 136 -253 0
1000000 253 -640 -641 -638 -131 0
1000000 136 -254 0
1000000 254 -629 -132 0
1000000 139 -255 0
1000000 255 -642 -633 -132 0
1000000 135 -256 0
1000000 256 -643 -636 -133 0
1000000 143 -257 0
1000000 257 -644 -639 -133 0
1000000 140 -258 0
1000000 258 -813 -648 -645 -134 0
1000000 145 -259 0
1000000 259 -649 -134 0
1000000 136 -260 0
1000000 260 -647 -135 0
1000000 145 -261 0
1000000 261 -646 -135 0
1000000 137 -262 0
1000000 262 -656 -650 -657 -136 0
1000000 138 -263 0
1000000 263 -653 -658 -136 0
1000000 143 -264 0
1000000 264 -663 -660 -654 -137 0
1000000 146 -265 0
1000000 265 -652 -137 0
1000000 139 -266 0
1000000 266 -661 -662 -138 0
1000000 143 -267 0
1000000 267 -659 -651 -138 0
1000000 140 -268 0
1000000 268 -664 -665 -139 0
1000000 144 -269 0
1000000 269 -666 -655 -139 0
1000000 147 -270 0
1000000 270 -674 -672 -673 -140 0
1000000 149 -271 0
1000000 271 -667 -140 0
1000000 17 -272 0
1000000 272 -669 -671 -15 0
1000000 19 -273 0
1000000 273 -679 -676 -675 -15 0
1000000 27 -274 0
1000000 274 -677 -15 0
1000000 146 -275 0
1000000 275 -682 -670 -141 0
1000000 147 -276 0
1000000 276 -681 -680 -685 -141 0
1000000 149 -277 0
1000000 277 -678 -668 -141 0
1000000 153 -278 0
1000000 278 -689 -683 -686 -142 0
1000000 154 -279 0
1000000 279 -684 -142 0
1000000 145 -280 0
1000000 280 -690 -691 -143 0
1000000 151 -281 0
1000000 281 -694 -696 -697 -143 0
1000000 151 -282 0
1000000 282 -693 -701 -692 -144 0
1000000 153 -283 0
1000000 283 -698 -687 -703 -144 0
1000000 147 -284 0
1000000 284 -688 -695 -145 0
1000000 148 -285 0
1000000 285 -705 -699 -145 0
1000000 148 -286 0
1000000 286 -700 -707 -710 -146 0
1000000 150 -287 0
1000000 287 -709 -706 -146 0
1000000 150 -288 0
1000000 288 -704 -713 -712 -148 0
1000000 154 -289 0
1000000 289 -715 -711 -148 0
1000000 152 -290 0
1000000 290 -716 -708 -149 0
1000000 153 -291 0
1000000 291 -702 -714 -149 0
1000000 154 -292 0
1000000 292 -722 -719 -150 0
1000000 155 -293 0
1000000 293 -718 -150 0
1000000 142 -294 0
1000000 294 -721 -725 -724 -16 0
1000000 22 -295 0
1000000 295 -723 -16 0
1000000 23 -296 0
1000000 296 -729 -727 -731 -16 0
1000000 25 -297 0
1000000 297 -720 -717 -16 0
1000000 29 -298 0
1000000 298 -728 -16 0
1000000 31 -299 0
1000000 299 -735 -738 -726 -16 0
1000000 69 -300 0
1000000 300 -737 -730 -739 -16 0
1000000 152 -301 0
1000000 301 -733 -734 -151 0
1000000 154 -302 0
1000000 302 -741 -740 -151 0
1000000 154 -303 0
1000000 303 -744 -742 -152 0
1000000 154 -304 0
1000000 304 -736 -745 -749 -153 0
1000000 157 -305 0
1000000 305 -743 -732 -153 0
1000000 157 -306 0
1000000 306 -751 -746 -154 0
1000000 156 -307 0
1000000 307 -750 -752 -155 0
1000000 157 -308 0
1000000 308 -755 -756 -155 0
1000000 111 -309 0
1000000 309 -758 -747 -17 0
1000000 22 -310 0
1000000 310 -753 -17 0
1000000 25 -311 0
1000000 311 -760 -748 -17 0
1000000 72 -312 0
1000000 312 -761 -762 -17 0
1000000 24 -313 0
1000000 313 -767 -768 -757 -18 0
1000000 25 -314 0
1000000 314 -763 -765 -18 0
1000000 47 -315 0
1000000 315 -754 -18 0
1000000 67 -316 0
1000000 316 -759 -769 -764 -18 0
1000000 101 -317 0
1000000 317 -771 -776 -775 -19 0
1000000 26 -318 0
1000000 318 -779 -773 -772 -19 0
1000000 27 -319 0
1000000 319 -770 -19 0
1000000 113 -320 0
1000000 320 -781 -766 -782 -20 0
1000000 123 -321 0
1000000 321 -783 -778 -20 0
1000000 25 -322 0
1000000 322 -777 -784 -20 0
1000000 26 -323 0
1000000 323 -788 -786 -20 0
1000000 83 -324 0
1000000 324 -789 -785 -20 0
1000000 89 -325 0
1000000 325 -780 -20 0
1000000 11 -326 0
1000000 326 -787 -3 0
1000000 12 -327 0
1000000 327 -792 -793 -3 0
1000000 152 -328 0
1000000 328 -796 -774 -3 0
1000000 18 -329 0
1000000 329 -794 -797 -3 0
1000000 22 -330 0
1000000 330 -795 -791 -3 0
1000000 4 -331 0
1000000 331 -803 -802 -790 -3 0
1000000 34 -332 0
1000000 332 -801 -806 -808 -3 0
1000000 6 -333 0
1000000 333 -811 -799 -807 -3 0
1000000 9 -334 0
1000000 334 -798 -3 0
1000000 10 -335 0
1000000 335 -809 -812 -3 0
1000000 140 -336 0
1000000 336 -800 -21 0
1000000 22 -337 0
1000000 337 -810 -21 0
1000000 27 -338 0
1000000 338 -804 -816 -814 -21 0
1000000 36 -339 0
1000000 339 -624 -805 -620 -21 0
1000000 49 -340 0
1000000 340 -815 -21 0
1000000 26 -341 0
1000000 341 -621 -627 -626 -22 0
1000000 27 -342 0
1000000 342 -623 -22 0
1000000 68 -343 0
1000000 343 -630 -625 -628 -22 0
1000000 81 -344 0
1000000 344 -813 -22 0
1000000 132 -345 0
1000000 345 -629 -23 0
1000000 156 -346 0
1000000 346 -632 -23 0
1000000 24 -347 0
1000000 347 -633 -23 0
1000000 25 -348 0
1000000 348 -635 -622 -23 0
1000000 127 -349 0
1000000 349 -636 -24 0
1000000 143 -350 0
1000000 350 -637 -639 -631 -24 0
1000000 25 -351 0
1000000 351 -634 -24 0
1000000 29 -352 0
1000000 352 -641 -24 0
1000000 38 -353 0
1000000 353 -648 -643 -647 -24 0
1000000 70 -354 0
1000000 354 -638 -650 -646 -24 0
1000000 27 -355 0
1000000 355 -645 -644 -25 0
1000000 28 -356 0
1000000 356 -649 -652 -25 0
1000000 30 -357 0
1000000 357 -656 -658 -657 -25 0
1000000 35 -358 0
1000000 358 -654 -651 -642 -25 0
1000000 30 -359 0
1000000 359 -653 -26 0
1000000 34 -360 0
1000000 360 -659 -26 0
1000000 37 -361 0
1000000 361 -661 -640 -662 -26 0
1000000 42 -362 0
1000000 362 -655 -669 -660 -26 0
1000000 75 -363 0
1000000 363 -663 -26 0
1000000 97 -364 0
1000000 364 -664 -665 -26 0
1000000 37 -365 0
1000000 365 -667 -673 -675 -27 0
1000000 39 -366 0
1000000 366 -668 -666 -678 -27 0
1000000 30 -367 0
1000000 367 -670 -28 0
1000000 33 -368 0
1000000 368 -674 -28 0
1000000 52 -369 0
1000000 369 -672 -28 0
1000000 57 -370 0
1000000 370 -681 -676 -677 -28 0
1000000 73 -371 0
1000000 371 -682 -671 -28 0
1000000 82 -372 0
1000000 372 -680 -685 -28 0
1000000 31 -373 0
1000000 373 -684 -29 0
1000000 33 -374 0
1000000 374 -689 -687 -29 0
1000000 33 -375 0
1000000 375 -693 -691 -686 -30 0
1000000 34 -376 0
1000000 376 -696 -695 -683 -30 0
1000000 85 -377 0
1000000 377 -690 -699 -692 -30 0
1000000 5 -378 0
1000000 378 -698 -694 -4 0
1000000 6 -379 0
1000000 379 -679 -4 0
1000000 7 -380 0
1000000 380 -705 -706 -703 -4 0
1000000 9 -381 0
1000000 381 -688 -701 -707 -4 0
1000000 33 -382 0
1000000 382 -702 -697 -704 -31 0
1000000 38 -383 0
1000000 383 -700 -31 0
1000000 90 -384 0
1000000 384 -709 -31 0
1000000 35 -385 0
1000000 385 -712 -708 -32 0
1000000 36 -386 0
1000000 386 -711 -32 0
1000000 36 -387 0
1000000 387 -714 -33 0
1000000 48 -388 0
1000000 388 -713 -717 -719 -33 0
1000000 107 -389 0
1000000 389 -715 -710 -718 -34 0
1000000 40 -390 0
1000000 390 -722 -720 -724 -34 0
1000000 42 -391 0
1000000 391 -721 -730 -728 -34 0
1000000 43 -392 0
1000000 392 -729 -723 -731 -34 0
1000000 45 -393 0
1000000 393 -732 -733 -736 -34 0
1000000 36 -394 0
1000000 394 -725 -35 0
1000000 37 -395 0
1000000 395 -737 -740 -735 -35 0
1000000 39 -396 0
1000000 396 -734 -742 -726 -35 0
1000000 139 -397 0
1000000 397 -738 -36 0
1000000 43 -398 0
1000000 398 -716 -36 0
1000000 45 -399 0
1000000 399 -727 -36 0
1000000 39 -400 0
1000000 400 -741 -37 0
1000000 44 -401 0
1000000 401 -747 -745 -37 0
1000000 54 -402 0
1000000 402 -739 -37 0
1000000 41 -403 0
1000000 403 -746 -749 -38 0
1000000 42 -404 0
1000000 404 -753 -751 -755 -38 0
1000000 124 -405 0
1000000 405 -748 -757 -754 -39 0
1000000 130 -406 0
1000000 406 -743 -39 0
1000000 43 -407 0
1000000 407 -758 -762 -752 -39 0
1000000 48 -408 0
1000000 408 -750 -759 -39 0
1000000 58 -409 0
1000000 409 -764 -763 -756 -39 0
1000000 129 -410 0
1000000 410 -761 -40 0
1000000 131 -411 0
1000000 411 -760 -765 -40 0
1000000 45 -412 0
1000000 412 -766 -744 -40 0
1000000 47 -413 0
1000000 413 -771 -772 -40 0
1000000 74 -414 0
1000000 414 -774 -773 -40 0
1000000 19 -415 0
1000000 415 -769 -776 -777 -5 0
1000000 8 -416 0
1000000 416 -779 -770 -5 0
1000000 47 -417 0
1000000 417 -783 -775 -778 -41 0
1000000 50 -418 0
1000000 418 -784 -768 -41 0
1000000 47 -419 0
1000000 419 -767 -780 -42 0
1000000 48 -420 0
1000000 420 -781 -42 0
1000000 63 -421 0
1000000 421 -782 -789 -42 0
1000000 44 -422 0
1000000 422 -786 -43 0
1000000 45 -423 0
1000000 423 -792 -791 -43 0
1000000 54 -424 0
1000000 424 -787 -43 0
1000000 55 -425 0
1000000 425 -785 -43 0
1000000 153 -426 0
1000000 426 -796 -790 -44 0
1000000 48 -427 0
1000000 427 -788 -793 -44 0
1000000 52 -428 0
1000000 428 -795 -794 -44 0
1000000 46 -429 0
1000000 429 -800 -802 -45 0
1000000 49 -430 0
1000000 430 -805 -797 -807 -45 0
1000000 51 -431 0
1000000 431 -808 -801 -799 -45 0
1000000 47 -432 0
1000000 432 -813 -798 -811 -46 0
1000000 52 -433 0
1000000 433 -803 -46 0
1000000 56 -434 0
1000000 434 -806 -810 -816 -46 0
1000000 53 -435 0
1000000 435 -620 -814 -815 -47 0
1000000 58 -436 0
1000000 436 -812 -47 0
1000000 64 -437 0
1000000 437 -625 -621 -624 -47 0
1000000 106 -438 0
1000000 438 -630 -623 -628 -48 0
1000000 50 -439 0
1000000 439 -809 -48 0
1000000 55 -440 0
1000000 440 -626 -629 -48 0
1000000 118 -441 0
1000000 441 -622 -49 0
1000000 51 -442 0
1000000 442 -627 -49 0
1000000 52 -443 0
1000000 443 -804 -49 0
1000000 138 -444 0
1000000 444 -631 -634 -50 0
1000000 144 -445 0
1000000 445 -632 -638 -50 0
1000000 52 -446 0
1000000 446 -643 -641 -633 -50 0
1000000 59 -447 0
1000000 447 -644 -637 -642 -50 0
1000000 94 -448 0
1000000 448 -635 -50 0
1000000 11 -449 0
1000000 449 -639 -6 0
1000000 102 -450 0
1000000 450 -645 -6 0
1000000 110 -451 0
1000000 451 -646 -636 -6 0
1000000 13 -452 0
1000000 452 -647 -6 0
1000000 126 -453 0
1000000 453 -640 -6 0
1000000 23 -454 0
1000000 454 -648 -650 -6 0
1000000 24 -455 0
1000000 455 -651 -6 0
1000000 36 -456 0
1000000 456 -652 -656 -655 -6 0
1000000 48 -457 0
1000000 457 -661 -660 -653 -6 0
1000000 7 -458 0
1000000 458 -649 -657 -663 -6 0
1000000 58 -459 0
1000000 459 -658 -659 -51 0
1000000 59 -460 0
1000000 460 -654 -665 -51 0
1000000 109 -461 0
1000000 461 -664 -662 -52 0
1000000 53 -462 0
1000000 462 -670 -674 -671 -52 0
1000000 63 -463 0
1000000 463 -677 -673 -675 -52 0
1000000 65 -464 0
1000000 464 -669 -676 -52 0
1000000 68 -465 0
1000000 465 -679 -678 -53 0
1000000 69 -466 0
1000000 466 -667 -53 0
1000000 135 -467 0
1000000 467 -682 -668 -54 0
1000000 61 -468 0
1000000 468 -666 -680 -54 0
1000000 62 -469 0
1000000 469 -686 -681 -54 0
1000000 60 -470 0
1000000 470 -688 -672 -684 -55 0
1000000 64 -471 0
1000000 471 -687 -55 0
1000000 78 -472 0
1000000 472 -692 -685 -695 -55 0
1000000 58 -473 0
1000000 473 -689 -683 -56 0
1000000 59 -474 0
1000000 474 -700 -699 -690 -56 0
1000000 60 -475 0
1000000 475 -693 -703 -697 -57 0
1000000 64 -476 0
1000000 476 -701 -696 -694 -57 0
1000000 62 -477 0
1000000 477 -702 -698 -709 -58 0
1000000 65 -478 0
1000000 478 -708 -711 -691 -58 0
1000000 87 -479 0
1000000 479 -710 -705 -58 0
1000000 125 -480 0
1000000 480 -706 -59 0
1000000 145 -481 0
1000000 481 -718 -715 -707 -59 0
1000000 61 -482 0
1000000 482 -721 -717 -714 -59 0
1000000 65 -483 0
1000000 483 -713 -59 0
1000000 66 -484 0
1000000 484 -716 -712 -59 0
1000000 62 -485 0
1000000 485 -727 -719 -723 -60 0
1000000 66 -486 0
1000000 486 -722 -704 -60 0
1000000 11 -487 0
1000000 487 -732 -731 -726 -7 0
1000000 12 -488 0
1000000 488 -720 -724 -7 0
1000000 10 -489 0
1000000 489 -725 -729 -7 0
1000000 66 -490 0
1000000 490 -733 -61 0
1000000 72 -491 0
1000000 491 -735 -736 -737 -61 0
1000000 65 -492 0
1000000 492 -743 -740 -728 -62 0
1000000 67 -493 0
1000000 493 -738 -745 -734 -62 0
1000000 72 -494 0
1000000 494 -730 -62 0
1000000 67 -495 0
1000000 495 -742 -744 -63 0
1000000 80 -496 0
1000000 496 -739 -63 0
1000000 133 -497 0
1000000 497 -749 -747 -748 -64 0
1000000 71 -498 0
1000000 498 -750 -751 -754 -64 0
1000000 74 -499 0
1000000 499 -753 -741 -64 0
1000000 119 -500 0
1000000 500 -760 -752 -759 -65 0
1000000 137 -501 0
1000000 501 -756 -758 -65 0
1000000 68 -502 0
1000000 502 -746 -761 -764 -65 0
1000000 69 -503 0
1000000 503 -755 -65 0
1000000 84 -504 0
1000000 504 -757 -768 -763 -65 0
1000000 75 -505 0
1000000 505 -765 -771 -773 -66 0
1000000 76 -506 0
1000000 506 -775 -769 -776 -66 0
1000000 112 -507 0
1000000 507 -774 -767 -67 0
1000000 141 -508 0
1000000 508 -762 -772 -67 0
1000000 155 -509 0
1000000 509 -783 -782 -779 -67 0
1000000 69 -510 0
1000000 510 -780 -785 -770 -67 0
1000000 71 -511 0
1000000 511 -777 -67 0
1000000 74 -512 0
1000000 512 -784 -786 -68 0
1000000 86 -513 0
1000000 513 -766 -68 0
1000000 91 -514 0
1000000 514 -778 -781 -68 0
1000000 95 -515 0
1000000 515 -790 -788 -68 0
1000000 75 -516 0
1000000 516 -787 -793 -69 0
1000000 77 -517 0
1000000 517 -791 -69 0
1000000 73 -518 0
1000000 518 -792 -795 -70 0
1000000 87 -519 0
1000000 519 -798 -796 -70 0
1000000 11 -520 0
1000000 520 -797 -8 0
1000000 14 -521 0
1000000 521 -799 -789 -8 0
1000000 15 -522 0
1000000 522 -804 -805 -794 -8 0
1000000 21 -523 0
1000000 523 -802 -8 0
1000000 26 -524 0
1000000 524 -803 -8 0
1000000 33 -525 0
1000000 525 -806 -8 0
1000000 128 -526 0
1000000 526 -807 -71 0
1000000 72 -527 0
1000000 527 -811 -810 -808 -71 0
1000000 78 -528 0
1000000 528 -801 -812 -71 0
1000000 80 -529 0
1000000 529 -813 -71 0
1000000 76 -530 0
1000000 530 -809 -72 0
1000000 79 -531 0
1000000 531 -623 -624 -814 -72 0
1000000 83 -532 0
1000000 532 -800 -72 0
1000000 77 -533 0
1000000 533 -621 -816 -73 0
1000000 81 -534 0
1000000 534 -626 -620 -73 0
1000000 86 -535 0
1000000 535 -622 -629 -630 -73 0
1000000 87 -536 0
1000000 536 -625 -632 -73 0
1000000 78 -537 0
1000000 537 -815 -74 0
1000000 81 -538 0
1000000 538 -628 -74 0
1000000 79 -539 0
1000000 539 -634 -636 -75 0
1000000 86 -540 0
1000000 540 -631 -633 -75 0
1000000 151 -541 0
1000000 541 -638 -639 -76 0
1000000 77 -542 0
1000000 542 -627 -635 -76 0
1000000 78 -543 0
1000000 543 -644 -637 -647 -76 0
1000000 82 -544 0
1000000 544 -648 -650 -640 -77 0
1000000 85 -545 0
1000000 545 -643 -77 0
1000000 88 -546 0
1000000 546 -649 -642 -77 0
1000000 79 -547 0
1000000 547 -646 -78 0
1000000 80 -548 0
1000000 548 -641 -651 -654 -78 0
1000000 117 -549 0
1000000 549 -645 -79 0
1000000 81 -550 0
1000000 550 -658 -659 -655 -79 0
1000000 83 -551 0
1000000 551 -657 -663 -664 -79 0
1000000 104 -552 0
1000000 552 -652 -80 0
1000000 88 -553 0
1000000 553 -656 -665 -80 0
1000000 89 -554 0
1000000 554 -653 -666 -670 -80 0
1000000 108 -555 0
1000000 555 -660 -672 -668 -9 0
1000000 14 -556 0
1000000 556 -661 -9 0
1000000 22 -557 0
1000000 557 -662 -9 0
1000000 28 -558 0
1000000 558 -669 -9 0
1000000 40 -559 0
1000000 559 -671 -674 -676 -9 0
1000000 86 -560 0
1000000 560 -682 -675 -681 -81 0
1000000 92 -561 0
1000000 561 -678 -685 -673 -81 0
1000000 148 -562 0
1000000 562 -683 -667 -82 0
1000000 83 -563 0
1000000 563 -684 -677 -680 -82 0
1000000 91 -564 0
1000000 564 -687 -82 0
1000000 134 -565 0
1000000 565 -688 -83 0
1000000 86 -566 0
1000000 566 -679 -692 -83 0
1000000 87 -567 0
1000000 567 -689 -83 0
1000000 147 -568 0
1000000 568 -690 -84 0
1000000 86 -569 0
1000000 569 -694 -696 -84 0
1000000 88 -570 0
1000000 570 -686 -84 0
1000000 87 -571 0
1000000 571 -691 -699 -85 0
1000000 89 -572 0
1000000 572 -695 -698 -700 -85 0
1000000 100 -573 0
1000000 573 -701 -704 -703 -85 0
1000000 121 -574 0
1000000 574 -706 -702 -697 -86 0
1000000 92 -575 0
1000000 575 -710 -709 -713 -86 0
1000000 93 -576 0
1000000 576 -711 -693 -712 -86 0
1000000 96 -577 0
1000000 577 -708 -705 -714 -86 0
1000000 99 -578 0
1000000 578 -715 -707 -86 0
1000000 91 -579 0
1000000 579 -716 -722 -721 -87 0
1000000 93 -580 0
1000000 580 -720 -724 -87 0
1000000 94 -581 0
1000000 581 -717 -719 -87 0
1000000 89 -582 0
1000000 582 -723 -88 0
1000000 90 -583 0
1000000 583 -726 -718 -88 0
1000000 92 -584 0
1000000 584 -731 -729 -728 -88 0
1000000 93 -585 0
1000000 585 -733 -725 -89 0
1000000 96 -586 0
1000000 586 -730 -89 0
1000000 93 -587 0
1000000 587 -727 -90 0
1000000 95 -588 0
1000000 588 -732 -90 0
1000000 28 -589 0
1000000 589 -739 -736 -738 -10 0
1000000 39 -590 0
1000000 590 -741 -735 -10 0
1000000 41 -591 0
1000000 591 -740 -10 0
1000000 79 -592 0
1000000 592 -747 -744 -734 -10 0
1000000 98 -593 0
1000000 593 -743 -10 0
1000000 92 -594 0
1000000 594 -742 -748 -746 -91 0
1000000 93 -595 0
1000000 595 -751 -737 -91 0
1000000 93 -596 0
1000000 596 -752 -753 -92 0
1000000 94 -597 0
1000000 597 -745 -92 0
1000000 103 -598 0
1000000 598 -749 -750 -93 0
1000000 107 -599 0
1000000 599 -754 -93 0
1000000 149 -600 0
1000000 600 -758 -763 -755 -93 0
1000000 94 -601 0
1000000 601 -759 -757 -764 -93 0
1000000 103 -602 0
1000000 602 -760 -767 -766 -94 0
1000000 136 -603 0
1000000 603 -756 -768 -94 0
1000000 150 -604 0
1000000 604 -761 -762 -765 -94 0
1000000 96 -605 0
1000000 605 -772 -777 -773 -94 0
1000000 115 -606 0
1000000 606 -779 -771 -769 -95 0
1000000 116 -607 0
1000000 607 -778 -775 -95 0
1000000 98 -608 0
1000000 608 -770 -782 -95 0
1000000 99 -609 0
1000000 609 -783 -784 -785 -95 0
1000000 109 -610 0
1000000 610 -780 -786 -781 -96 0
1000000 99 -611 0
1000000 611 -789 -790 -96 0
1000000 101 -612 0
1000000 612 -795 -787 -776 -97 0
1000000 109 -613 0
1000000 613 -792 -791 -97 0
1000000 104 -614 0
1000000 614 -796 -793 -788 -98 0
1000000 100 -615 0
1000000 615 -799 -798 -98 0
1000000 101 -616 0
1000000 616 -797 -800 -801 -99 0
1000000 102 -617 0
1000000 617 -802 -99 0
1000000 101 -618 0
1000000 618 -808 -804 -803 -100 0
1000000 103 -619 0
1000000 619 -812 -794 -807 -100 0
1000000 1 0
1000000 -2 158 0
1000000 -3 163 0
1000000 -4 164 331 0
1000000 -5 378 0
1000000 -6 379 333 0
1000000 -7 380 165 458 0
1000000 -8 167 416 0
1000000 -9 381 334 0
1000000 -10 335 489 0
1000000 -11 326 520 487 449 0
1000000 -12 327 488 0
1000000 -13 452 0
1000000 -14 556 172 521 0
1000000 -15 197 248 173 522 0
1000000 -16 168 198 174 161 0
1000000 -17 272 222 169 0
1000000 -18 223 329 0
1000000 -19 224 415 273 0
1000000 -20 170 162 0
1000000 -21 523 0
1000000 -22 310 557 295 337 330 0
1000000 -23 454 296 0
1000000 -24 347 313 455 0
1000000 -25 348 311 314 297 351 322 0
1000000 -26 323 524 318 341 249 0
1000000 -27 319 338 342 274 355 0
1000000 -28 558 589 356 0
1000000 -29 298 352 0
1000000 -30 359 367 357 0
1000000 -31 299 373 0
1000000 -32 250 0
1000000 -33 525 374 375 382 368 0
1000000 -34 360 332 376 0
1000000 -35 358 385 0
1000000 -36 456 394 386 339 387 0
1000000 -37 365 395 361 0
1000000 -38 383 353 0
1000000 -39 396 400 590 366 0
1000000 -40 390 559 0
1000000 -41 403 591 0
1000000 -42 404 362 391 0
1000000 -43 407 392 398 0
1000000 -44 401 422 0
1000000 -45 423 393 399 412 0
1000000 -46 199 429 0
1000000 -47 413 417 315 419 432 0
1000000 -48 457 427 408 388 420 0
1000000 -49 340 430 0
1000000 -50 200 418 439 0
1000000 -51 431 442 0
1000000 -52 443 446 428 433 369 0
1000000 -53 435 462 0
1000000 -54 424 402 0
1000000 -55 440 425 0
1000000 -56 434 0
1000000 -57 370 0
1000000 -58 436 459 473 409 0
1000000 -59 474 171 447 460 0
1000000 -60 470 225 475 0
1000000 -61 482 166 468 0
1000000 -62 477 251 469 485 0
1000000 -63 421 463 0
1000000 -64 437 476 471 0
1000000 -65 483 492 464 478 0
1000000 -66 486 490 484 0
1000000 -67 493 316 495 0
1000000 -68 343 465 502 0
1000000 -69 503 300 510 466 0
1000000 -70 354 0
1000000 -71 201 498 511 0
1000000 -72 312 494 491 527 0
1000000 -73 518 371 0
1000000 -74 499 414 512 0
1000000 -75 363 505 516 0
1000000 -76 530 506 0
1000000 -77 542 517 533 0
1000000 -78 537 543 528 472 0
1000000 -79 592 547 531 539 0
1000000 -80 496 548 529 0
1000000 -81 550 344 534 538 0
1000000 -82 544 372 0
1000000 -83 551 563 324 532 0
1000000 -84 504 0
1000000 -85 377 545 0
1000000 -86 513 540 569 535 566 560 0
1000000 -87 571 536 567 479 519 0
1000000 -88 570 553 546 0
1000000 -89 582 325 554 572 0
1000000 -90 583 384 0
1000000 -91 514 579 564 0
1000000 -92 584 561 594 575 0
1000000 -93 585 595 596 576 580 587 0
1000000 -94 581 597 448 601 0
1000000 -95 515 588 0
1000000 -96 586 577 605 0
1000000 -97 364 0
1000000 -98 608 593 0
1000000 -99 611 609 578 0
1000000 -100 615 573 0
1000000 -101 618 317 612 616 0
1000000 -102 617 450 0
1000000 -103 619 598 602 0
1000000 -104 552 614 177 0
1000000 -105 179 178 181 159 0
1000000 -106 438 0
1000000 -107 182 175 389 599 0
1000000 -108 555 188 0
1000000 -109 610 461 189 613 0
1000000 -110 451 180 0
1000000 -111 186 309 184 0
1000000 -112 507 195 0
1000000 -113 320 202 204 0
1000000 -114 190 247 196 205 0
1000000 -115 185 606 208 0
1000000 -116 607 210 191 203 0
1000000 -117 192 176 549 0
1000000 -118 441 187 0
1000000 -119 500 0
1000000 -120 193 0
1000000 -121 574 194 218 216 214 0
1000000 -122 206 209 211 160 0
1000000 -123 220 321 212 217 228 0
1000000 -124 405 226 0
1000000 -125 215 480 0
1000000 -126 219 232 453 0
1000000 -127 349 221 0
1000000 -128 526 207 227 229 235 0
1000000 -129 410 213 241 237 0
1000000 -130 239 406 243 0
1000000 -131 411 244 245 0
1000000 -132 246 230 345 0
1000000 -133 231 497 240 242 0
1000000 -134 565 0
1000000 -135 256 233 252 467 0
1000000 -136 260 253 254 236 603 0
1000000 -137 262 501 238 0
1000000 -138 263 444 0
1000000 -139 397 266 255 0
1000000 -140 268 336 258 0
1000000 -141 508 0
1000000 -142 294 0
1000000 -143 257 350 264 267 0
1000000 -144 269 445 0
1000000 -145 259 261 481 280 0
1000000 -146 265 275 0
1000000 -147 284 270 276 568 0
1000000 -148 286 285 562 0
1000000 -149 271 277 600 0
1000000 -150 604 287 288 0
1000000 -151 281 282 541 0
1000000 -152 290 328 301 0
1000000 -153 283 291 426 278 0
1000000 -154 303 302 183 289 304 279 292 0
1000000 -155 293 509 0
1000000 -156 346 307 0
1000000 -157 234 308 305 306 0
1000000 620 851 0
1000000 621 847 0
1000000 622 848 0
1000000 623 880 0
1000000 624 827 0
1000000 625 851 0
1000000 626 881 0
1000000 627 856 0
1000000 628 844 0
1000000 629 818 0
1000000 630 847 0
1000000 631 867 0
1000000 632 858 0
1000000 633 838 0
1000000 634 856 0
1000000 635 837 0
1000000 636 830 0
1000000 637 878 0
1000000 638 850 0
1000000 639 881 0
1000000 640 846 0
1000000 641 817 0
1000000 642 835 0
1000000 643 850 0
1000000 644 841 0
1000000 645 859 0
1000000 646 831 0
1000000 647 854 0
1000000 648 880 0
1000000 649 857 0
1000000 650 855 0
1000000 651 877 0
1000000 652 840 0
1000000 653 824 0
1000000 654 864 0
1000000 655 870 0
1000000 656 850 0
1000000 657 858 0
1000000 658 833 0
1000000 659 870 0
1000000 660 864 0
1000000 661 871 0
1000000 662 826 0
1000000 663 833 0
1000000 664 839 0
1000000 665 867 0
1000000 666 837 0
1000000 667 864 0
1000000 668 820 0
1000000 669 827 0
1000000 670 836 0
1000000 671 832 0
1000000 672 853 0
1000000 673 847 0
1000000 674 873 0
1000000 675 837 0
1000000 676 839 0
1000000 677 861 0
1000000 678 820 0
1000000 679 848 0
1000000 680 846 0
1000000 681 852 0
1000000 682 848 0
1000000 683 862 0
1000000 684 827 0
1000000 685 831 0
1000000 686 844 0
1000000 687 856 0
1000000 688 819 0
1000000 689 872 0
1000000 690 879 0
1000000 691 854 0
1000000 692 823 0
1000000 693 835 0
1000000 694 852 0
1000000 695 845 0
1000000 696 855 0
1000000 697 822 0
1000000 698 858 0
1000000 699 836 0
1000000 700 826 0
1000000 701 873 0
1000000 702 853 0
1000000 703 818 0
1000000 704 874 0
1000000 705 872 0
1000000 706 870 0
1000000 707 872 0
1000000 708 871 0
1000000 709 860 0
1000000 710 877 0
1000000 711 835 0
1000000 712 820 0
1000000 713 839 0
1000000 714 859 0
1000000 715 861 0
1000000 716 826 0
1000000 717 878 0
1000000 718 851 0
1000000 719 855 0
1000000 720 846 0
1000000 721 863 0
1000000 722 860 0
1000000 723 833 0
1000000 724 880 0
1000000 725 828 0
1000000 726 874 0
1000000 727 838 0
1000000 728 838 0
1000000 729 874 0
1000000 730 859 0
1000000 731 876 0
1000000 732 862 0
1000000 733 873 0
1000000 734 817 0
1000000 735 877 0
1000000 736 867 0
1000000 737 832 0
1000000 738 829 0
1000000 739 878 0
1000000 740 866 0
1000000 741 824 0
1000000 742 868 0
1000000 743 824 0
1000000 744 862 0
1000000 745 841 0
1000000 746 849 0
1000000 747 866 0
1000000 748 842 0
1000000 749 861 0
1000000 750 863 0
1000000 751 849 0
1000000 752 819 0
1000000 753 845 0
1000000 754 863 0
1000000 755 845 0
1000000 756 876 0
1000000 757 868 0
1000000 758 857 0
1000000 759 818 0
1000000 760 821 0
1000000 761 860 0
1000000 762 881 0
1000000 763 882 0
1000000 764 823 0
1000000 765 830 0
1000000 766 871 0
1000000 767 830 0
1000000 768 866 0
1000000 769 821 0
1000000 770 869 0
1000000 771 821 0
1000000 772 865 0
1000000 773 842 0
1000000 774 869 0
1000000 775 823 0
1000000 776 876 0
1000000 777 875 0
1000000 778 868 0
1000000 779 841 0
1000000 780 828 0
1000000 781 844 0
1000000 782 832 0
1000000 783 875 0
1000000 784 843 0
1000000 785 829 0
1000000 786 836 0
1000000 787 831 0
1000000 788 882 0
1000000 789 819 0
1000000 790 829 0
1000000 791 842 0
1000000 792 853 0
1000000 793 828 0
1000000 794 834 0
1000000 795 865 0
1000000 796 869 0
1000000 797 882 0
1000000 798 822 0
1000000 799 852 0
1000000 800 875 0
1000000 801 843 0
1000000 802 865 0
1000000 803 849 0
1000000 804 822 0
1000000 805 840 0
1000000 806 817 0
1000000 807 843 0
1000000 808 834 0
1000000 809 840 0
1000000 810 825 0
1000000 811 854 0
1000000 812 834 0
1000000 813 825 0
1000000 814 825 0
1000000 815 857 0
1000000 816 879 0
1000000 -620 -851 0
1000000 -621 -847 0
1000000 -622 -848 0
1000000 -623 -880 0
1000000 -624 -827 0
1000000 -625 -851 0
1000000 -626 -881 0
1000000 -627 -856 0
1000000 -628 -844 0
1000000 -629 -818 0
1000000 -630 -847 0
1000000 -631 -867 0
1000000 -632 -858 0
1000000 -633 -838 0
1000000 -634 -856 0
1000000 -635 -837 0
1000000 -636 -830 0
1000000 -637 -878 0
1000000 -638 -850 0
1000000 -639 -881 0
1000000 -640 -846 0
1000000 -641 -817 0
1000000 -642 -835 0
1000000 -643 -850 0
1000000 -644 -841 0
1000000 -645 -859 0
1000000 -646 -831 0
1000000 -647 -854 0
1000000 -648 -880 0
1000000 -649 -857 0
1000000 -650 -855 0
1000000 -651 -877 0
1000000 -652 -840 0
1000000 -653 -824 0
1000000 -654 -864 0
1000000 -655 -870 0
1000000 -656 -850 0
1000000 -657 -858 0
1000000 -658 -833 0
1000000 -659 -870 0
1000000 -660 -864 0
1000000 -661 -871 0
1000000 -662 -826 0
1000000 -663 -833 0
1000000 -664 -839 0
1000000 -665 -867 0
1000000 -666 -837 0
1000000 -667 -864 0
1000000 -668 -820 0
1000000 -669 -827 0
1000000 -670 -836 0
1000000 -671 -832 0
1000000 -672 -853 0
1000000 -673 -847 0
1000000 -674 -873 0
1000000 -675 -837 0
1000000 -676 -839 0
1000000 -677 -861 0
1000000 -678 -820 0
1000000 -679 -848 0
1000000 -680 -846 0
1000000 -681 -852 0
1000000 -682 -848 0
1000000 -683 -862 0
1000000 -684 -827 0
1000000 -685 -831 0
1000000 -686 -844 0
1000000 -687 -856 0
1000000 -688 -819 0
1000000 -689 -872 0
1000000 -690 -879 0
1000000 -691 -854 0
1000000 -692 -823 0
1000000 -693 -835 0
1000000 -694 -852 0
1000000 -695 -845 0
1000000 -696 -855 0
1000000 -697 -822 0
1000000 -698 -858 0
1000000 -699 -836 0
1000000 -700 -826 0
1000000 -701 -873 0
1000000 -702 -853 0
1000000 -703 -818 0
1000000 -704 -874 0
1000000 -705 -872 0
1000000 -706 -870 0
1000000 -707 -872 0
1000000 -708 -871 0
1000000 -709 -860 0
1000000 -710 -877 0
1000000 -711 -835 0
1000000 -712 -820 0
1000000 -713 -839 0
1000000 -714 -859 0
1000000 -715 -861 0
1000000 -716 -826 0
1000000 -717 -878 0
1000000 -718 -851 0
1000000 -719 -855 0
1000000 -720 -846 0
1000000 -721 -863 0
1000000 -722 -860 0
1000000 -723 -833 0
1000000 -724 -880 0
1000000 -725 -828 0
1000000 -726 -874 0
1000000 -727 -838 0
1000000 -728 -838 0
1000000 -729 -874 0
1000000 -730 -859 0
1000000 -731 -876 0
1000000 -732 -862 0
1000000 -733 -873 0
1000000 -734 -817 0
1000000 -735 -877 0
1000000 -736 -867 0
1000000 -737 -832 0
1000000 -738 -829 0
1000000 -739 -878 0
1000000 -740 -866 0
1000000 -741 -824 0
1000000 -742 -868 0
1000000 -743 -824 0
1000000 -744 -862 0
1000000 -745 -841 0
1000000 -746 -849 0
1000000 -747 -866 0
1000000 -748 -842 0
1000000 -749 -861 0
1000000 -750 -863 0
1000000 -751 -849 0
1000000 -752 -819 0
1000000 -753 -845 0
1000000 -754 -863 0
1000000 -755 -845 0
1000000 -756 -876 0
1000000 -757 -868 0
1000000 -758 -857 0
1000000 -759 -818 0
1000000 -760 -821 0
1000000 -761 -860 0
1000000 -762 -881 0
1000000 -763 -882 0
1000000 -764 -823 0
1000000 -765 -830 0
1000000 -766 -871 0
1000000 -767 -830 0
1000000 -768 -866 0
1000000 -769 -821 0
1000000 -770 -869 0
1000000 -771 -821 0
1000000 -772 -865 0
1000000 -773 -842 0
1000000 -774 -869 0
1000000 -775 -823 0
1000000 -776 -876 0
1000000 -777 -875 0
1000000 -778 -868 0
1000000 -779 -841 0
1000000 -780 -828 0
1000000 -781 -844 0
1000000 -782 -832 0
1000000 -783 -875 0
1000000 -784 -843 0
1000000 -785 -829 0
1000000 -786 -836 0
1000000 -787 -831 0
1000000 -788 -882 0
1000000 -789 -819 0
1000000 -790 -829 0
1000000 -791 -842 0
1000000 -792 -853 0
1000000 -793 -828 0
1000000 -794 -834 0
1000000 -795 -865 0
1000000 -796 -869 0
1000000 -797 -882 0
1000000 -798 -822 0
1000000 -799 -852 0
1000000 -800 -875 0
1000000 -801 -843 0
1000000 -802 -865 0
1000000 -803 -849 0
1000000 -804 -822 0
1000000 -805 -840 0
1000000 -806 -817 0
1000000 -807 -843 0
1000000 -808 -834 0
1000000 -809 -840 0
1000000 -810 -825 0
1000000 -811 -854 0
1000000 -812 -834 0
1000000 -813 -825 0
1000000 -814 -825 0
1000000 -815 -857 0
1000000 -816 -879 0
7900 -817 0
10200 -818 0
9100 -819 0
10200 -820 0
9100 -821 0
9100 -822 0
11300 -823 0
10700 -824 0
8900 -825 0
10200 -826 0
10200 -827 0
9400 -828 0
10000 -829 0
10000 -830 0
7900 -831 0
11600 -832 0
7900 -833 0
11300 -834 0
8000 -835 0
7900 -836 0
10000 -837 0
10000 -838 0
11300 -839 0
11600 -840 0
7900 -841 0
10700 -842 0
10700 -843 0
9100 -844 0
11600 -845 0
8000 -846 0
10000 -847 0
10200 -848 0
10000 -849 0
8000 -850 0
9400 -851 0
11300 -852 0
8000 -853 0
10200 -854 0
8000 -855 0
10000 -856 0
10000 -857 0
10000 -858 0
8000 -859 0
11300 -860 0
7900 -861 0
8900 -862 0
10200 -863 0
10000 -864 0
7900 -865 0
9100 -866 0
7900 -867 0
10700 -868 0
10000 -869 0
10200 -870 0
11300 -871 0
7900 -872 0
9400 -873 0
9400 -874 0
9100 -875 0
10700 -876 0
11300 -877 0
9400 -878 0
11600 -879 0
10000 -880 0
7900 -881 0
9100 -882 0
2700 620 0
2700 621 0
2700 622 0
2700 623 0
1500 624 0
1000 625 0
1000 626 0
2900 627 0
1200 628 0
3200 629 0
3200 630 0
1000 631 0
1500 632 0
2900 633 0
3200 634 0
2900 635 0
1000 636 0
2900 637 0
1000 638 0
1500 639 0
1000 640 0
2700 641 0
1000 642 0
1200 643 0
2700 644 0
2500 645 0
3200 646 0
2900 647 0
3200 648 0
1000 649 0
1500 650 0
2800 651 0
1100 652 0
1200 653 0
1200 654 0
2700 655 0
2300 656 0
1000 657 0
1500 658 0
2300 659 0
1500 660 0
800 661 0
2700 662 0
3200 663 0
2800 664 0
2800 665 0
2900 666 0
2900 667 0
1100 668 0
1500 669 0
2900 670 0
800 671 0
2700 672 0
1500 673 0
2300 674 0
800 675 0
1100 676 0
800 677 0
2300 678 0
2300 679 0
1000 680 0
2000 681 0
2500 682 0
800 683 0
2800 684 0
2200 685 0
2500 686 0
800 687 0
2300 688 0
2500 689 0
800 690 0
800 691 0
1100 692 0
1200 693 0
2800 694 0
2800 695 0
1200 696 0
2300 697 0
800 698 0
2500 699 0
800 700 0
2500 701 0
1200 702 0
2900 703 0
800 704 0
1500 705 0
1000 706 0
800 707 0
1200 708 0
2000 709 0
1200 710 0
2000 711 0
3200 712 0
2500 713 0
3200 714 0
1000 715 0
1200 716 0
1500 717 0
700 718 0
700 719 0
1200 720 0
2900 721 0
2300 722 0
1200 723 0
3200 724 0
3200 725 0
3200 726 0
800 727 0
2900 728 0
2500 729 0
3200 730 0
1200 731 0
2500 732 0
2700 733 0
2800 734 0
2500 735 0
2800 736 0
2800 737 0
2800 738 0
1200 739 0
2500 740 0
800 741 0
2200 742 0
1100 743 0
1100 744 0
2500 745 0
700 746 0
2500 747 0
2300 748 0
2500 749 0
1100 750 0
2800 751 0
1100 752 0
1200 753 0
2500 754 0
2500 755 0
1800 756 0
700 757 0
2800 758 0
2800 759 0
2300 760 0
2500 761 0
2500 762 0
2500 763 0
800 764 0
2800 765 0
2300 766 0
700 767 0
1100 768 0
800 769 0
3200 770 0
800 771 0
2800 772 0
2500 773 0
2300 774 0
2800 775 0
700 776 0
2800 777 0
2500 778 0
2700 779 0
2500 780 0
2800 781 0
800 782 0
2500 783 0
2500 784 0
2300 785 0
2300 786 0
2300 787 0
2300 788 0
2300 789 0
2700 790 0
2800 791 0
1200 792 0
2500 793 0
2800 794 0
2500 795 0
2500 796 0
2800 797 0
2800 798 0
800 799 0
800 800 0
800 801 0
3200 802 0
2900 803 0
2800 804 0
2800 805 0
2500 806 0
2500 807 0
1200 808 0
800 809 0
2300 810 0
2800 811 0
2500 812 0
1100 813 0
700 814 0
1100 815 0
2500 816 0
1225 -158 0
38570 -163 0
3675 164 -331 0
18375 -164 331 0
19294 -164 -331 0
37680 -378 0
1490 379 -333 0
37250 -379 333 0
37995 -379 -333 0
41325 380 165 -458 0
27550 380 -165 458 0
48212 380 -165 -458 0
9918 -380 165 458 0
43804 -380 165 -458 0
32509 -380 -165 458 0
49452 -380 -165 -458 0
2450 167 -416 0
9310 -167 416 0
10829 -167 -416 0
15700 381 -334 0
43960 -381 334 0
48670 -381 -334 0
20925 335 -489 0
25575 -335 489 0
34991 -335 -489 0
14900 326 520 487 -449 0
52150 326 520 -487 449 0
56620 326 520 -487 -449 0
63325 326 -520 487 449 0
65560 326 -520 487 -449 0
71148 326 -520 -487 449 0
71818 326 -520 -487 -449 0
3725 -326 520 487 449 0
17880 -326 520 487 -449 0
53267 -326 520 -487 449 0
57514 -326 520 -487 -449 0
63884 -326 -520 487 449 0
66007 -326 -520 487 -449 0
71315 -326 -520 -487 449 0
71952 -326 -520 -487 -449 0
3450 327 -488 0
8050 -327 488 0
9085 -327 -488 0
25250 -452 0
55875 556 172 -521 0
3725 556 -172 521 0
56806 556 -172 -521 0
1490 -556 172 521 0
56248 -556 172 -521 0
5141 -556 -172 521 0
57160 -556 -172 -521 0
9775 197 248 173 -522 0
10350 197 248 -173 522 0
11327 197 248 -173 -522 0
2875 197 -248 173 522 0
10206 197 -248 173 -522 0
10638 197 -248 -173 522 0
11371 197 -248 -173 -522 0
10350 -197 248 173 522 0
11327 -197 248 173 -522 0
11385 -197 248 -173 522 0
11483 -197 248 -173 -522 0
10638 -197 -248 173 522 0
11371 -197 -248 173 -522 0
11414 -197 -248 -173 522 0
11487 -197 -248 -173 -522 0
16530 168 198 174 -161 0
24795 168 198 -174 161 0
33887 168 198 -174 -161 0
13775 168 -198 174 161 0
26173 168 -198 174 -161 0
32371 168 -198 -174 161 0
39190 168 -198 -174 -161 0
19285 -168 198 174 161 0
30030 -168 198 174 -161 0
35402 -168 198 -174 161 0
41311 -168 198 -174 -161 0
28239 -168 -198 174 161 0
36297 -168 -198 174 -161 0
40326 -168 -198 -174 161 0
44758 -168 -198 -174 -161 0
53380 272 222 -169 0
18840 272 -222 169 0
56206 272 -222 -169 0
28260 -272 222 169 0
57619 -272 222 -169 0
38622 -272 -222 169 0
59173 -272 -222 -169 0
4370 223 -329 0
8050 -223 329 0
9361 -223 -329 0
10100 224 415 -273 0
1010 224 -415 273 0
10908 224 -415 -273 0
17675 -224 415 273 0
24240 -224 415 -273 0
18331 -224 -415 273 0
24765 -224 -415 -273 0
2020 170 -162 0
5050 -170 162 0
6060 -170 -162 0
13950 -523 0
3348 310 557 295 337 -330 0
5022 310 557 295 -337 330 0
7767 310 557 295 -337 -330 0
16740 310 557 -295 337 330 0
18079 310 557 -295 337 -330 0
18749 310 557 -295 -337 330 0
19847 310 557 -295 -337 -330 0
22320 310 -557 295 337 330 0
22990 310 -557 295 337 -330 0
23324 310 -557 295 -337 330 0
23873 310 -557 295 -337 -330 0
25668 310 -557 -295 337 330 0
25936 310 -557 -295 337 -330 0
26070 310 -557 -295 -337 330 0
26289 310 -557 -295 -337 -330 0
11160 -310 557 295 337 330 0
13169 -310 557 295 337 -330 0
14173 -310 557 295 -337 330 0
15820 -310 557 295 -337 -330 0
21204 -310 557 -295 337 330 0
22008 -310 557 -295 337 -330 0
22409 -310 557 -295 -337 330 0
23068 -310 557 -295 -337 -330 0
24552 -310 -557 295 337 330 0
24954 -310 -557 295 337 -330 0
25155 -310 -557 295 -337 330 0
25484 -310 -557 295 -337 -330 0
26561 -310 -557 -295 337 330 0
26722 -310 -557 -295 337 -330 0
26802 -310 -557 -295 -337 330 0
26934 -310 -557 -295 -337 -330 0
9300 454 -296 0
2325 -454 296 0
11160 -454 -296 0
5000 347 313 -455 0
625 347 -313 455 0
5375 347 -313 -455 0
1500 -347 313 455 0
5900 -347 313 -455 0
2050 -347 -313 455 0
6230 -347 -313 -455 0
23864 348 311 314 297 351 -322 0
6280 348 311 314 297 -351 322 0
27758 348 311 314 297 -351 -322 0
6280 348 311 314 -297 351 322 0
27758 348 311 314 -297 351 -322 0
11932 348 311 314 -297 -351 322 0
31262 348 311 314 -297 -351 -322 0
12560 348 311 -314 297 351 322 0
31651 348 311 -314 297 351 -322 0
17584 348 311 -314 297 -351 322 0
34766 348 311 -314 297 -351 -322 0
17584 348 311 -314 -297 351 322 0
34766 348 311 -314 -297 351 -322 0
22106 348 311 -314 -297 -351 322 0
37569 348 311 -314 -297 -351 -322 0
6280 348 -311 314 297 351 322 0
27758 348 -311 314 297 351 -322 0
11932 348 -311 314 297 -351 322 0
31262 348 -311 314 297 -351 -322 0
11932 348 -311 314 -297 351 322 0
31262 348 -311 314 -297 351 -322 0
17019 348 -311 314 -297 -351 322 0
34416 348 -311 314 -297 -351 -322 0
17584 348 -311 -314 297 351 322 0
34766 348 -311 -314 297 351 -322 0
22106 348 -311 -314 297 -351 322 0
37569 348 -311 -314 297 -351 -322 0
22106 348 -311 -314 -297 351 322 0
37569 348 -311 -314 -297 351 -322 0
26175 348 -311 -314 -297 -351 322 0
40093 348 -311 -314 -297 -351 -322 0
50240 -348 311 314 297 351 322 0
55013 -348 311 314 297 351 -322 0
51496 -348 311 314 297 -351 322 0
55792 -348 311 314 297 -351 -322 0
51496 -348 311 314 -297 351 322 0
55792 -348 311 314 -297 351 -322 0
52626 -348 311 314 -297 -351 322 0
56492 -348 311 314 -297 -351 -322 0
52752 -348 311 -314 297 351 322 0
56570 -348 311 -314 297 351 -322 0
53757 -348 311 -314 297 -351 322 0
57193 -348 311 -314 297 -351 -322 0
53757 -348 311 -314 -297 351 322 0
57193 -348 311 -314 -297 351 -322 0
54661 -348 311 -314 -297 -351 322 0
57754 -348 311 -314 -297 -351 -322 0
51496 -348 -311 314 297 351 322 0
55792 -348 -311 314 297 351 -322 0
52626 -348 -311 314 297 -351 322 0
56492 -348 -311 314 297 -351 -322 0
52626 -348 -311 314 -297 351 322 0
56492 -348 -311 314 -297 351 -322 0
53644 -348 -311 314 -297 -351 322 0
57123 -348 -311 314 -297 -351 -322 0
53757 -348 -311 -314 297 351 322 0
57193 -348 -311 -314 297 351 -322 0
54661 -348 -311 -314 297 -351 322 0
57754 -348 -311 -314 297 -351 -322 0
54661 -348 -311 -314 -297 351 322 0
57754 -348 -311 -314 -297 351 -322 0
55475 -348 -311 -314 -297 -351 322 0
58259 -348 -311 -314 -297 -351 -322 0
2875 323 524 318 341 -249 0
9200 323 524 318 -341 249 0
9775 323 524 318 -341 -249 0
10925 323 524 -318 341 249 0
11069 323 524 -318 341 -249 0
11385 323 524 -318 -341 249 0
11414 323 524 -318 -341 -249 0
4370 323 -524 318 341 249 0
6153 323 -524 318 341 -249 0
10074 323 -524 318 -341 249 0
10431 323 -524 318 -341 -249 0
11144 323 -524 -318 341 249 0
11233 323 -524 -318 341 -249 0
11429 323 -524 -318 -341 249 0
11447 323 -524 -318 -341 -249 0
4025 -323 524 318 341 249 0
5894 -323 524 318 341 -249 0
10005 -323 524 318 -341 249 0
10379 -323 524 318 -341 -249 0
11126 -323 524 -318 341 249 0
11220 -323 524 -318 341 -249 0
11425 -323 524 -318 -341 249 0
11444 -323 524 -318 -341 -249 0
6866 -323 -524 318 341 249 0
8024 -323 -524 318 341 -249 0
10573 -323 -524 318 -341 249 0
10805 -323 -524 318 -341 -249 0
11268 -323 -524 -318 341 249 0
11326 -323 -524 -318 341 -249 0
11454 -323 -524 -318 -341 249 0
11465 -323 -524 -318 -341 -249 0
250 319 338 342 274 -355 0
6875 319 338 342 -274 355 0
6988 319 338 342 -274 -355 0
2500 319 338 -342 274 355 0
2700 319 338 -342 274 -355 0
8000 319 338 -342 -274 355 0
8090 319 338 -342 -274 -355 0
3125 319 -338 342 274 355 0
3312 319 -338 342 274 -355 0
8281 319 -338 342 -274 355 0
8366 319 -338 342 -274 -355 0
5000 319 -338 -342 274 355 0
5150 319 -338 -342 274 -355 0
9125 319 -338 -342 -274 355 0
9193 319 -338 -342 -274 -355 0
1875 -319 338 342 274 355 0
2088 -319 338 342 274 -355 0
7719 -319 338 342 -274 355 0
7814 -319 338 342 -274 -355 0
4000 -319 338 -342 274 355 0
4170 -319 338 -342 274 -355 0
8675 -319 338 -342 -274 355 0
8752 -319 338 -342 -274 -355 0
4531 -319 -338 342 274 355 0
4691 -319 -338 342 274 -355 0
8914 -319 -338 342 -274 355 0
8986 -319 -338 342 -274 -355 0
6125 -319 -338 -342 274 355 0
6252 -319 -338 -342 274 -355 0
9631 -319 -338 -342 -274 355 0
9689 -319 -338 -342 -274 -355 0
6875 558 589 -356 0
11250 558 -589 356 0
11938 558 -589 -356 0
5000 -558 589 356 0
9125 -558 589 -356 0
11750 -558 -589 356 0
12162 -558 -589 -356 0
37680 298 -352 0
31400 -298 352 0
50240 -298 -352 0
11250 359 367 -357 0
1250 359 -367 357 0
11375 359 -367 -357 0
1500 -359 367 357 0
11400 -359 367 -357 0
2600 -359 -367 357 0
11510 -359 -367 -357 0
2875 299 -373 0
3680 -299 373 0
5635 -299 -373 0
34100 -250 0
230 525 374 375 382 -368 0
1725 525 374 375 -382 368 0
1921 525 374 375 -382 -368 0
5175 525 374 -375 382 368 0
5301 525 374 -375 382 -368 0
6124 525 374 -375 -382 368 0
6231 525 374 -375 -382 -368 0
9775 525 -374 375 382 368 0
9809 525 -374 375 382 -368 0
10034 525 -374 375 -382 368 0
10063 525 -374 375 -382 -368 0
10551 525 -374 -375 382 368 0
10570 525 -374 -375 382 -368 0
10694 525 -374 -375 -382 368 0
10710 525 -374 -375 -382 -368 0
3680 -525 374 375 382 368 0
3836 -525 374 375 382 -368 0
4853 -525 374 375 -382 368 0
4986 -525 374 375 -382 -368 0
7199 -525 374 -375 382 368 0
7285 -525 374 -375 382 -368 0
7844 -525 374 -375 -382 368 0
7917 -525 374 -375 -382 -368 0
10327 -525 -374 375 382 368 0
10350 -525 -374 375 382 -368 0
10503 -525 -374 375 -382 368 0
10523 -525 -374 375 -382 -368 0
10855 -525 -374 -375 382 368 0
10868 -525 -374 -375 382 -368 0
10952 -525 -374 -375 -382 368 0
10963 -525 -374 -375 -382 -368 0
4025 360 332 -376 0
2875 360 -332 376 0
5894 360 -332 -376 0
4025 -360 332 376 0
6641 -360 332 -376 0
5894 -360 -332 376 0
7856 -360 -332 -376 0
10100 358 -385 0
6060 -358 385 0
14948 -358 -385 0
40450 456 394 386 339 -387 0
25888 456 394 386 -339 387 0
53394 456 394 386 -339 -387 0
56630 456 394 -386 339 387 0
68765 456 394 -386 339 -387 0
64396 456 394 -386 -339 387 0
72648 456 394 -386 -339 -387 0
76855 456 -394 386 339 387 0
78877 456 -394 386 339 -387 0
78149 456 -394 386 -339 387 0
79525 456 -394 386 -339 -387 0
79687 456 -394 -386 339 387 0
80293 456 -394 -386 339 -387 0
80075 456 -394 -386 -339 387 0
80487 456 -394 -386 -339 -387 0
9708 -456 394 386 339 387 0
45304 -456 394 386 339 -387 0
32489 -456 394 386 -339 387 0
56695 -456 394 386 -339 -387 0
59542 -456 394 -386 339 387 0
70221 -456 394 -386 339 -387 0
66377 -456 394 -386 -339 387 0
73638 -456 394 -386 -339 -387 0
77340 -456 -394 386 339 387 0
79120 -456 -394 386 339 -387 0
78479 -456 -394 386 -339 387 0
79690 -456 -394 386 -339 -387 0
79832 -456 -394 -386 339 387 0
80366 -456 -394 -386 339 -387 0
80174 -456 -394 -386 -339 387 0
80537 -456 -394 -386 -339 -387 0
61380 365 395 -361 0
57970 365 -395 361 0
67177 365 -395 -361 0
57970 -365 395 361 0
67177 -365 395 -361 0
66665 -365 -395 361 0
68047 -365 -395 -361 0
16160 383 -353 0
2525 -383 353 0
17877 -383 -353 0
13635 396 400 590 -366 0
25755 396 400 -590 366 0
27800 396 400 -590 -366 0
13635 396 -400 590 366 0
21134 396 -400 590 -366 0
27800 396 -400 -590 366 0
28925 396 -400 -590 -366 0
3030 -396 400 590 366 0
15301 -396 400 590 -366 0
26209 -396 400 -590 366 0
28050 -396 400 -590 -366 0
15301 -396 -400 590 366 0
22051 -396 -400 590 -366 0
28050 -396 -400 -590 366 0
29063 -396 -400 -590 -366 0
15150 390 -559 0
20200 -390 559 0
29290 -390 -559 0
9090 403 -591 0
6060 -403 591 0
13332 -403 -591 0
64790 404 362 -391 0
54560 404 -362 391 0
67518 404 -362 -391 0
54560 -404 362 391 0
67518 -404 362 -391 0
65472 -404 -362 391 0
68064 -404 -362 -391 0
10000 407 392 -398 0
10000 407 -392 398 0
12000 407 -392 -398 0
10625 -407 392 398 0
12125 -407 392 -398 0
12125 -407 -392 398 0
12425 -407 -392 -398 0
9900 401 -422 0
5280 -401 422 0
11220 -401 -422 0
10000 423 393 399 -412 0
6250 423 393 -399 412 0
11250 423 393 -399 -412 0
11875 423 -393 399 412 0
12375 423 -393 399 -412 0
12188 423 -393 -399 412 0
12438 423 -393 -399 -412 0
1250 -423 393 399 412 0
10250 -423 393 399 -412 0
6875 -423 393 -399 412 0
11375 -423 393 -399 -412 0
11938 -423 -393 399 412 0
12388 -423 -393 399 -412 0
12219 -423 -393 -399 412 0
12444 -423 -393 -399 -412 0
5625 199 -429 0
10625 -199 429 0
11469 -199 -429 0
2250 413 417 315 419 -432 0
9375 413 417 315 -419 432 0
9937 413 417 315 -419 -432 0
8125 413 417 -315 419 432 0
8913 413 417 -315 419 -432 0
11406 413 417 -315 -419 432 0
11603 413 417 -315 -419 -432 0
5000 413 -417 315 419 432 0
6350 413 -417 315 419 -432 0
10625 413 -417 315 -419 432 0
10962 413 -417 315 -419 -432 0
9875 413 -417 -315 419 432 0
10347 413 -417 -315 419 -432 0
11844 413 -417 -315 -419 432 0
11962 413 -417 -315 -419 -432 0
7500 -413 417 315 419 432 0
8400 -413 417 315 419 -432 0
11250 -413 417 315 -419 432 0
11475 -413 417 315 -419 -432 0
10750 -413 417 -315 419 432 0
11065 -413 417 -315 419 -432 0
12062 -413 417 -315 -419 432 0
12141 -413 417 -315 -419 -432 0
9500 -413 -417 315 419 432 0
10040 -413 -417 315 419 -432 0
11750 -413 -417 315 -419 432 0
11885 -413 -417 315 -419 -432 0
11450 -413 -417 -315 419 432 0
11639 -413 -417 -315 419 -432 0
12238 -413 -417 -315 -419 432 0
12285 -413 -417 -315 -419 -432 0
18180 457 427 408 388 -420 0
22725 457 427 408 -388 420 0
27270 457 427 408 -388 -420 0
606 457 427 -408 388 420 0
18422 457 427 -408 388 -420 0
22877 457 427 -408 -388 420 0
27331 457 427 -408 -388 -420 0
9696 457 -427 408 388 420 0
22058 457 -427 408 388 -420 0
25149 457 -427 408 -388 420 0
28240 457 -427 408 -388 -420 0
10108 457 -427 -408 388 420 0
22223 457 -427 -408 388 -420 0
25252 457 -427 -408 -388 420 0
28281 457 -427 -408 -388 -420 0
3030 -457 427 408 388 420 0
19392 -457 427 408 388 -420 0
23483 -457 427 408 -388 420 0
27573 -457 427 408 -388 -420 0
3575 -457 427 -408 388 420 0
19610 -457 427 -408 388 -420 0
23619 -457 427 -408 -388 420 0
27628 -457 427 -408 -388 -420 0
11756 -457 -427 408 388 420 0
22883 -457 -427 408 388 -420 0
25664 -457 -427 408 -388 420 0
28446 -457 -427 408 -388 -420 0
12127 -457 -427 -408 388 420 0
23031 -457 -427 -408 388 -420 0
25757 -457 -427 -408 -388 420 0
28483 -457 -427 -408 -388 -420 0
4045 340 -430 0
64720 -340 430 0
65529 -340 -430 0
6060 200 418 -439 0
1515 200 -418 439 0
7272 200 -418 -439 0
15150 -200 418 439 0
18180 -200 418 -439 0
15908 -200 -418 439 0
18786 -200 -418 -439 0
11220 431 -442 0
5016 -431 442 0
11972 -431 -442 0
68720 443 446 428 433 -369 0
34360 443 446 428 -433 369 0
75592 443 446 428 -433 -369 0
38655 443 446 -428 433 369 0
76451 443 446 -428 433 -369 0
57553 443 446 -428 -433 369 0
80231 443 446 -428 -433 -369 0
38655 443 -446 428 433 369 0
76451 443 -446 428 433 -369 0
57553 443 -446 428 -433 369 0
80231 443 -446 428 -433 -369 0
59915 443 -446 -428 433 369 0
80703 443 -446 -428 433 -369 0
70309 443 -446 -428 -433 369 0
82782 443 -446 -428 -433 -369 0
8590 -443 446 428 433 369 0
70438 -443 446 428 433 -369 0
39514 -443 446 428 -433 369 0
76623 -443 446 428 -433 -369 0
43379 -443 446 -428 433 369 0
77396 -443 446 -428 433 -369 0
60388 -443 446 -428 -433 369 0
80798 -443 446 -428 -433 -369 0
43379 -443 -446 428 433 369 0
77396 -443 -446 428 433 -369 0
60388 -443 -446 428 -433 369 0
80798 -443 -446 428 -433 -369 0
62514 -443 -446 -428 433 369 0
81223 -443 -446 -428 433 -369 0
71868 -443 -446 -428 -433 369 0
83094 -443 -446 -428 -433 -369 0
64425 435 -462 0
60130 -435 462 0
79458 -435 -462 0
5940 424 -402 0
1980 -424 402 0
7029 -424 -402 0
30065 440 -425 0
10308 -440 425 0
36765 -440 -425 0
8580 -434 0
9630 -370 0
660 436 459 473 -409 0
7920 436 459 -473 409 0
8184 436 459 -473 -409 0
5280 436 -459 473 409 0
5676 436 -459 473 -409 0
10032 436 -459 -473 409 0
10190 436 -459 -473 -409 0
11880 -436 459 473 409 0
11946 -436 459 473 -409 0
12672 -436 459 -473 409 0
12698 -436 459 -473 -409 0
12408 -436 -459 473 409 0
12448 -436 -459 473 -409 0
12883 -436 -459 -473 409 0
12899 -436 -459 -473 -409 0
23840 474 171 447 -460 0
1490 474 171 -447 460 0
24853 474 171 -447 -460 0
37250 474 -171 447 460 0
49170 474 -171 447 -460 0
37995 474 -171 -447 460 0
49677 474 -171 -447 -460 0
14900 -474 171 447 460 0
33972 -474 171 447 -460 0
16092 -474 171 -447 460 0
34783 -474 171 -447 -460 0
44700 -474 -171 447 460 0
54236 -474 -171 447 -460 0
45296 -474 -171 -447 460 0
54641 -474 -171 -447 -460 0
25340 470 225 -475 0
14480 470 -225 475 0
34752 470 -225 -475 0
36200 -470 225 475 0
48870 -470 225 -475 0
43440 -470 -225 475 0
53576 -470 -225 -475 0
4090 482 166 -468 0
14315 482 -166 468 0
16973 482 -166 -468 0
34765 -482 166 468 0
35378 -482 166 -468 0
36912 -482 -166 468 0
37311 -482 -166 -468 0
16665 477 251 469 -485 0
3636 477 251 -469 485 0
18301 477 251 -469 -485 0
9090 477 -251 469 485 0
20756 477 -251 469 -485 0
11635 477 -251 -469 485 0
21901 477 -251 -469 -485 0
22725 -477 251 469 485 0
26891 -477 251 469 -485 0
23634 -477 251 -469 485 0
27300 -477 251 -469 -485 0
24997 -477 -251 469 485 0
27914 -477 -251 469 -485 0
25634 -477 -251 -469 485 0
28200 -477 -251 -469 -485 0
45560 421 -463 0
8040 -421 463 0
46766 -421 -463 0
77310 437 476 -471 0
47245 437 -476 471 0
82035 437 -476 -471 0
55835 -437 476 471 0
82893 -437 476 -471 0
72371 -437 -476 471 0
84547 -437 -476 -471 0
27270 483 492 464 -478 0
10605 483 492 -464 478 0
28331 483 492 -464 -478 0
28785 483 -492 464 478 0
30149 483 -492 464 -478 0
29315 483 -492 -464 478 0
30202 483 -492 -464 -478 0
22725 -483 492 464 478 0
29543 -483 492 464 -478 0
25376 -483 492 -464 478 0
29808 -483 492 -464 -478 0
29921 -483 -492 464 478 0
30262 -483 -492 464 -478 0
30054 -483 -492 -464 478 0
30275 -483 -492 -464 -478 0
10602 486 490 -484 0
4185 486 -490 484 0
13197 486 -490 -484 0
4185 -486 490 484 0
13197 -486 490 -484 0
7742 -486 -490 484 0
15402 -486 -490 -484 0
1500 493 316 -495 0
5625 493 -316 495 0
6450 493 -316 -495 0
2500 -493 316 495 0
3700 -493 316 -495 0
7000 -493 -316 495 0
7660 -493 -316 -495 0
3030 343 465 -502 0
18180 343 -465 502 0
19392 343 -465 -502 0
21210 -343 465 502 0
22119 -343 465 -502 0
26664 -343 -465 502 0
27028 -343 -465 -502 0
59600 503 300 510 -466 0
48425 503 300 -510 466 0
69285 503 300 -510 -466 0
13410 503 -300 510 466 0
62282 503 -300 510 -466 0
53119 503 -300 -510 466 0
70224 503 -300 -510 -466 0
63325 -503 300 510 466 0
72265 -503 300 510 -466 0
70589 -503 300 -510 466 0
73718 -503 300 -510 -466 0
65337 -503 -300 510 466 0
72667 -503 -300 510 -466 0
71293 -503 -300 -510 466 0
73859 -503 -300 -510 -466 0
5360 -354 0
16180 201 498 -511 0
12135 201 -498 511 0
25888 201 -498 -511 0
28315 -201 498 511 0
38832 -201 498 -511 0
36203 -201 -498 511 0
45142 -201 -498 -511 0
28310 312 494 491 -527 0
55875 312 494 -491 527 0
62952 312 494 -491 -527 0
33525 312 -494 491 527 0
49096 312 -494 491 -527 0
64256 312 -494 -491 527 0
68149 312 -494 -491 -527 0
63325 -312 494 491 527 0
67572 -312 494 491 -527 0
71706 -312 494 -491 527 0
72768 -312 494 -491 -527 0
68354 -312 -494 491 527 0
70689 -312 -494 491 -527 0
72963 -312 -494 -491 527 0
73547 -312 -494 -491 -527 0
3960 518 -371 0
2376 -518 371 0
5623 -518 -371 0
81605 499 414 -512 0
68720 499 -414 512 0
85041 499 -414 -512 0
51540 -499 414 512 0
84182 -499 414 -512 0
79028 -499 -414 512 0
85556 -499 -414 -512 0
625 363 505 -516 0
9375 363 -505 516 0
9531 363 -505 -516 0
11875 -363 505 516 0
11906 -363 505 -516 0
12344 -363 -505 516 0
12352 -363 -505 -516 0
12135 530 -506 0
12135 -530 506 0
22450 -530 -506 0
8750 542 517 -533 0
250 542 -517 533 0
8825 542 -517 -533 0
4000 -542 517 533 0
9950 -542 517 -533 0
4170 -542 -517 533 0
10001 -542 -517 -533 0
7920 537 543 528 -472 0
3960 537 543 -528 472 0
9504 537 543 -528 -472 0
5940 537 -543 528 472 0
10296 537 -543 528 -472 0
8118 537 -543 -528 472 0
11167 537 -543 -528 -472 0
6600 -537 543 528 472 0
10560 -537 543 528 -472 0
8580 -537 543 -528 472 0
11352 -537 543 -528 -472 0
9570 -537 -543 528 472 0
11748 -537 -543 528 -472 0
10659 -537 -543 -528 472 0
12184 -537 -543 -528 -472 0
16160 592 547 531 -539 0
32825 592 547 -531 539 0
38481 592 547 -531 -539 0
6060 592 -547 531 539 0
20281 592 -547 531 -539 0
34946 592 -547 -531 539 0
39923 592 -547 -531 -539 0
7575 -592 547 531 539 0
21311 -592 547 531 -539 0
35476 -592 547 -531 539 0
40284 -592 547 -531 -539 0
12726 -592 -547 531 539 0
24814 -592 -547 531 -539 0
37279 -592 -547 -531 539 0
41510 -592 -547 -531 -539 0
10720 496 548 -529 0
17152 496 -548 529 0
24442 496 -548 -529 0
20368 -496 548 529 0
27014 -496 548 -529 0
31002 -496 -548 529 0
35522 -496 -548 -529 0
4045 550 344 534 -538 0
60675 550 344 -534 538 0
61686 550 344 -534 -538 0
30742 550 -344 534 538 0
33250 550 -344 534 -538 0
68361 550 -344 -534 538 0
68987 550 -344 -534 -538 0
9708 -550 344 534 538 0
13268 -550 344 534 -538 0
63102 -550 344 -534 538 0
63992 -550 344 -534 -538 0
36761 -550 -344 534 538 0
38968 -550 -344 534 -538 0
69865 -550 -344 -534 538 0
70417 -550 -344 -534 -538 0
77310 544 -372 0
32642 -544 372 0
80574 -544 -372 0
12560 551 563 324 -532 0
53380 551 563 -324 532 0
55264 551 563 -324 -532 0
15700 551 -563 324 532 0
25120 551 -563 324 -532 0
55735 551 -563 -324 532 0
57148 551 -563 -324 -532 0
7536 -551 563 324 532 0
18589 -551 563 324 -532 0
54510 -551 563 -324 532 0
56168 -551 563 -324 -532 0
21352 -551 -563 324 532 0
29642 -551 -563 324 -532 0
56583 -551 -563 -324 532 0
57826 -551 -563 -324 -532 0
14480 -504 0
10272 377 -545 0
11235 -377 545 0
17912 -377 -545 0
9090 513 540 569 535 566 -560 0
16160 513 540 569 535 -566 560 0
22341 513 540 569 535 -566 -560 0
25250 513 540 569 -535 566 560 0
29795 513 540 569 -535 566 -560 0
33330 513 540 569 -535 -566 560 0
36421 513 540 569 -535 -566 -560 0
5050 513 540 -569 535 566 560 0
13231 513 540 -569 535 566 -560 0
19594 513 540 -569 535 -566 560 0
25157 513 540 -569 535 -566 -560 0
27775 513 540 -569 -535 566 560 0
31866 513 540 -569 -535 566 -560 0
35047 513 540 -569 -535 -566 560 0
37829 513 540 -569 -535 -566 -560 0
47975 513 -540 569 535 566 560 0
48429 513 -540 569 535 566 -560 0
48783 513 -540 569 535 -566 560 0
49092 513 -540 569 535 -566 -560 0
49238 513 -540 569 -535 566 560 0
49465 513 -540 569 -535 566 -560 0
49642 513 -540 569 -535 -566 560 0
49796 513 -540 569 -535 -566 -560 0
48227 513 -540 -569 535 566 560 0
48637 513 -540 -569 535 566 -560 0
48955 513 -540 -569 535 -566 560 0
49233 513 -540 -569 535 -566 -560 0
49364 513 -540 -569 -535 566 560 0
49568 513 -540 -569 -535 566 -560 0
49727 513 -540 -569 -535 -566 560 0
49866 513 -540 -569 -535 -566 -560 0
16160 -513 540 569 535 566 560 0
22341 -513 540 569 535 566 -560 0
27149 -513 540 569 535 -566 560 0
31352 -513 540 569 535 -566 -560 0
33330 -513 540 569 -535 566 560 0
36421 -513 540 569 -535 566 -560 0
38824 -513 540 569 -535 -566 560 0
40926 -513 540 569 -535 -566 -560 0
19594 -513 540 -569 535 566 560 0
25157 -513 540 -569 535 566 -560 0
29484 -513 540 -569 535 -566 560 0
33267 -513 540 -569 535 -566 -560 0
35047 -513 540 -569 -535 566 560 0
37829 -513 540 -569 -535 566 -560 0
39992 -513 540 -569 -535 -566 560 0
41883 -513 540 -569 -535 -566 -560 0
48783 -513 -540 569 535 566 560 0
49092 -513 -540 569 535 566 -560 0
49332 -513 -540 569 535 -566 560 0
49543 -513 -540 569 535 -566 -560 0
49642 -513 -540 569 -535 566 560 0
49796 -513 -540 569 -535 566 -560 0
49916 -513 -540 569 -535 -566 560 0
50021 -513 -540 569 -535 -566 -560 0
48955 -513 -540 -569 535 566 560 0
49233 -513 -540 -569 535 566 -560 0
49449 -513 -540 -569 535 -566 560 0
49638 -513 -540 -569 535 -566 -560 0
49727 -513 -540 -569 -535 566 560 0
49866 -513 -540 -569 -535 566 -560 0
49975 -513 -540 -569 -535 -566 560 0
50069 -513 -540 -569 -535 -566 -560 0
56630 571 536 567 479 -519 0
1618 571 536 567 -479 519 0
57115 571 536 567 -479 -519 0
52585 571 536 -567 479 519 0
72406 571 536 -567 479 -519 0
53151 571 536 -567 -479 519 0
72575 571 536 -567 -479 -519 0
60675 571 -536 567 479 519 0
74833 571 -536 567 479 -519 0
61079 571 -536 567 -479 519 0
74954 571 -536 567 -479 -519 0
73821 571 -536 -567 479 519 0
78776 571 -536 -567 479 -519 0
73963 571 -536 -567 -479 519 0
78819 571 -536 -567 -479 -519 0
4045 -571 536 567 479 519 0
57843 -571 536 567 479 -519 0
5582 -571 536 567 -479 519 0
58305 -571 536 567 -479 -519 0
54001 -571 536 -567 479 519 0
72830 -571 536 -567 479 -519 0
54539 -571 536 -567 -479 519 0
72992 -571 536 -567 -479 -519 0
61686 -571 -536 567 479 519 0
75136 -571 -536 567 479 -519 0
62071 -571 -536 567 -479 519 0
75251 -571 -536 567 -479 -519 0
74175 -571 -536 -567 479 519 0
78883 -571 -536 -567 479 -519 0
74310 -571 -536 -567 -479 519 0
78923 -571 -536 -567 -479 -519 0
3300 570 553 -546 0
5940 570 -553 546 0
7755 570 -553 -546 0
1980 -570 553 546 0
4785 -570 553 -546 0
7029 -570 -553 546 0
8572 -570 -553 -546 0
15345 582 325 554 -572 0
558 582 325 -554 572 0
15596 582 325 -554 -572 0
26505 582 -325 554 572 0
27272 582 -325 554 -572 0
26533 582 -325 -554 572 0
27285 582 -325 -554 -572 0
8370 -582 325 554 572 0
19112 -582 325 554 -572 0
8761 -582 325 -554 572 0
19287 -582 325 -554 -572 0
26924 -582 -325 554 572 0
27461 -582 -325 554 -572 0
26943 -582 -325 -554 572 0
27469 -582 -325 -554 -572 0
10230 583 -384 0
17050 -583 384 0
24723 -583 -384 0
9900 514 579 -564 0
5016 514 -579 564 0
11154 514 -579 -564 0
7260 -514 579 564 0
11715 -514 579 -564 0
9517 -514 -579 564 0
12279 -514 -579 -564 0
65160 584 561 594 -575 0
61540 584 561 -594 575 0
71314 584 561 -594 -575 0
28960 584 -561 594 575 0
68056 584 -561 594 -575 0
65884 584 -561 -594 575 0
71748 584 -561 -594 -575 0
65160 -584 561 594 575 0
71676 -584 561 594 -575 0
71314 -584 561 -594 575 0
72291 -584 561 -594 -575 0
68056 -584 -561 594 575 0
71966 -584 -561 594 -575 0
71748 -584 -561 -594 575 0
72335 -584 -561 -594 -575 0
3636 585 595 596 576 580 -587 0
15150 585 595 596 576 -580 587 0
16968 585 595 596 576 -580 -587 0
21210 585 595 596 -576 580 587 0
22301 585 595 596 -576 580 -587 0
25755 585 595 596 -576 -580 587 0
26300 585 595 596 -576 -580 -587 0
9090 585 595 -596 576 580 587 0
11635 585 595 -596 576 580 -587 0
19695 585 595 -596 576 -580 587 0
20968 585 595 -596 576 -580 -587 0
23937 585 595 -596 -576 580 587 0
24701 585 595 -596 -576 580 -587 0
27119 585 595 -596 -576 -580 587 0
27500 585 595 -596 -576 -580 -587 0
6060 585 -595 596 576 580 587 0
8969 585 -595 596 576 580 -587 0
18180 585 -595 596 576 -580 587 0
19634 585 -595 596 576 -580 -587 0
23028 585 -595 596 -576 580 587 0
23901 585 -595 596 -576 580 -587 0
26664 585 -595 596 -576 -580 587 0
27100 585 -595 596 -576 -580 -587 0
13332 585 -595 -596 576 580 587 0
15368 585 -595 -596 576 580 -587 0
21816 585 -595 -596 576 -580 587 0
22834 585 -595 -596 576 -580 -587 0
25210 585 -595 -596 -576 580 587 0
25820 585 -595 -596 -576 580 -587 0
27755 585 -595 -596 -576 -580 587 0
28060 585 -595 -596 -576 -580 -587 0
3636 -585 595 596 576 580 587 0
6836 -585 595 596 576 580 -587 0
16968 -585 595 596 576 -580 587 0
18568 -585 595 596 576 -580 -587 0
22301 -585 595 596 -576 580 587 0
23261 -585 595 596 -576 580 -587 0
26300 -585 595 596 -576 -580 587 0
26780 -585 595 596 -576 -580 -587 0
11635 -585 595 -596 576 580 587 0
13875 -585 595 -596 576 580 -587 0
20968 -585 595 -596 576 -580 587 0
22087 -585 595 -596 576 -580 -587 0
24701 -585 595 -596 -576 580 587 0
25372 -585 595 -596 -576 580 -587 0
27500 -585 595 -596 -576 -580 587 0
27836 -585 595 -596 -576 -580 -587 0
8969 -585 -595 596 576 580 587 0
11529 -585 -595 596 576 580 -587 0
19634 -585 -595 596 576 -580 587 0
20914 -585 -595 596 576 -580 -587 0
23901 -585 -595 596 -576 580 587 0
24669 -585 -595 596 -576 580 -587 0
27100 -585 -595 596 -576 -580 587 0
27484 -585 -595 596 -576 -580 -587 0
15368 -585 -595 -596 576 580 587 0
17160 -585 -595 -596 576 580 -587 0
22834 -585 -595 -596 576 -580 587 0
23730 -585 -595 -596 576 -580 -587 0
25820 -585 -595 -596 -576 580 587 0
26358 -585 -595 -596 -576 580 -587 0
28060 -585 -595 -596 -576 -580 587 0
28329 -585 -595 -596 -576 -580 -587 0
32160 581 597 448 -601 0
20368 581 597 -448 601 0
40307 581 597 -448 -601 0
21440 581 -597 448 601 0
40736 581 -597 448 -601 0
33661 581 -597 -448 601 0
45624 581 -597 -448 -601 0
18760 -581 597 448 601 0
39664 -581 597 448 -601 0
31999 -581 597 -448 601 0
44960 -581 597 -448 -601 0
32696 -581 -597 448 601 0
45238 -581 -597 448 -601 0
40640 -581 -597 -448 601 0
48416 -581 -597 -448 -601 0
3620 515 -588 0
43440 -515 588 0
44888 -515 -588 0
9696 586 577 -605 0
9696 586 -577 605 0
16289 586 -577 -605 0
606 -586 577 605 0
10108 -586 577 -605 0
10108 -586 -577 605 0
16569 -586 -577 -605 0
51150 -364 0
27280 608 -593 0
37510 -608 593 0
49786 -608 -593 0
18100 611 609 -578 0
13032 611 -609 578 0
27874 611 -609 -578 0
32580 -611 609 578 0
42535 -611 609 -578 0
39748 -611 -609 578 0
47911 -611 -609 -578 0
642 615 -573 0
28890 -615 573 0
28954 -615 -573 0
25770 618 317 612 -616 0
55835 618 317 -612 616 0
64854 618 317 -612 -616 0
21475 618 -317 612 616 0
40803 618 -317 612 -616 0
63351 618 -317 -612 616 0
70116 618 -317 -612 -616 0
27488 -618 317 612 616 0
45012 -618 317 612 -616 0
65456 -618 317 -612 616 0
71589 -618 317 -612 -616 0
42091 -618 -317 612 616 0
55234 -618 -317 612 -616 0
70567 -618 -317 -612 616 0
75167 -618 -317 -612 -616 0
19190 617 -450 0
2525 -617 450 0
20756 -617 -450 0
45560 619 598 -602 0
21440 619 -598 602 0
48776 619 -598 -602 0
48240 -619 598 602 0
52796 -619 598 -602 0
50384 -619 -598 602 0
53118 -619 -598 -602 0
3620 552 614 -177 0
28960 552 -614 177 0
31132 552 -614 -177 0
8688 -552 614 177 0
11874 -552 614 -177 0
34173 -552 -614 177 0
36084 -552 -614 -177 0
22040 179 178 181 -159 0
2755 179 178 -181 159 0
23693 179 178 -181 -159 0
33060 179 -178 181 159 0
41876 179 -178 181 -159 0
34162 179 -178 -181 159 0
42537 179 -178 -181 -159 0
6612 -179 178 181 159 0
26007 -179 178 181 -159 0
9036 -179 178 -181 159 0
27462 -179 178 -181 -159 0
35705 -179 -178 181 159 0
43463 -179 -178 181 -159 0
36675 -179 -178 -181 159 0
44045 -179 -178 -181 -159 0
1072 -438 0
64720 182 175 389 -599 0
76855 182 175 -389 599 0
80091 182 175 -389 -599 0
76855 182 -175 389 599 0
80091 182 -175 389 -599 0
80698 182 -175 -389 599 0
80860 182 -175 -389 -599 0
76855 -182 175 389 599 0
80091 -182 175 389 -599 0
80698 -182 175 -389 599 0
80860 -182 175 -389 -599 0
80698 -182 -175 389 599 0
80860 -182 -175 389 -599 0
80890 -182 -175 -389 599 0
80898 -182 -175 -389 -599 0
3636 555 -188 0
1515 -555 188 0
4969 -555 -188 0
4224 610 461 189 -613 0
11880 610 461 -189 613 0
12302 610 461 -189 -613 0
3960 610 -461 189 613 0
6917 610 -461 189 -613 0
12276 610 -461 -189 613 0
12572 610 -461 -189 -613 0
1320 -610 461 189 613 0
5122 -610 461 189 -613 0
12012 -610 461 -189 613 0
12392 -610 461 -189 -613 0
4884 -610 -461 189 613 0
7545 -610 -461 189 -613 0
12368 -610 -461 -189 613 0
12635 -610 -461 -189 -613 0
54560 451 -180 0
40920 -451 180 0
62744 -451 -180 0
3680 186 309 -184 0
9200 186 -309 184 0
9936 186 -309 -184 0
1380 -186 309 184 0
4618 -186 309 -184 0
9476 -186 -309 184 0
10124 -186 -309 -184 0
18100 507 -195 0
25340 -507 195 0
37105 -507 -195 0
7536 320 202 -204 0
40820 320 -202 204 0
43458 320 -202 -204 0
9420 -320 202 204 0
15826 -320 202 -204 0
44117 -320 -202 204 0
46359 -320 -202 -204 0
36405 190 247 196 -205 0
9708 190 247 -196 205 0
41744 190 247 -196 -205 0
8090 190 -247 196 205 0
40854 190 -247 196 -205 0
16827 190 -247 -196 205 0
45660 190 -247 -196 -205 0
36405 -190 247 196 205 0
56428 -190 247 196 -205 0
41744 -190 247 -196 205 0
59364 -190 247 -196 -205 0
40854 -190 -247 196 205 0
58875 -190 -247 196 -205 0
45660 -190 -247 -196 205 0
61518 -190 -247 -196 -205 0
5022 185 606 -208 0
16740 185 -606 208 0
18749 185 -606 -208 0
558 -185 606 208 0
5480 -185 606 -208 0
16963 -185 -606 208 0
18932 -185 -606 -208 0
76855 607 210 191 -203 0
40450 607 210 -191 203 0
78877 607 210 -191 -203 0
56630 607 -210 191 203 0
79687 607 -210 191 -203 0
68765 607 -210 -191 203 0
80293 607 -210 -191 -203 0
44495 -607 210 191 203 0
79080 -607 210 191 -203 0
62698 -607 210 -191 203 0
79990 -607 210 -191 -203 0
69978 -607 -210 191 203 0
80354 -607 -210 191 -203 0
75439 -607 -210 -191 203 0
80627 -607 -210 -191 -203 0
1605 192 176 -549 0
642 192 -176 549 0
2215 192 -176 -549 0
6420 -192 176 549 0
7704 -192 176 -549 0
6934 -192 -176 549 0
8192 -192 -176 -549 0
14480 441 -187 0
65160 -441 187 0
66608 -441 -187 0
3620 -500 0
278 -193 0
1605 574 194 218 216 -214 0
3210 574 194 218 -216 214 0
4655 574 194 218 -216 -214 0
5778 574 194 -218 216 214 0
7094 574 194 -218 216 -214 0
8410 574 194 -218 -216 214 0
9595 574 194 -218 -216 -214 0
16050 574 -194 218 216 214 0
16853 574 -194 218 216 -214 0
17655 574 -194 218 -216 214 0
18377 574 -194 218 -216 -214 0
18939 574 -194 -218 216 214 0
19597 574 -194 -218 216 -214 0
20255 574 -194 -218 -216 214 0
20847 574 -194 -218 -216 -214 0
8025 -574 194 218 216 214 0
9229 -574 194 218 216 -214 0
10432 -574 194 218 -216 214 0
11516 -574 194 218 -216 -214 0
12359 -574 194 -218 216 214 0
13346 -574 194 -218 216 -214 0
14333 -574 194 -218 -216 214 0
15221 -574 194 -218 -216 -214 0
20062 -574 -194 218 216 214 0
20664 -574 -194 218 216 -214 0
21266 -574 -194 218 -216 214 0
21808 -574 -194 218 -216 -214 0
22229 -574 -194 -218 216 214 0
22723 -574 -194 -218 216 -214 0
23216 -574 -194 -218 -216 214 0
23661 -574 -194 -218 -216 -214 0
27550 206 209 211 -160 0
33060 206 209 -211 160 0
44080 206 209 -211 -160 0
19285 206 -209 211 160 0
37193 206 -209 211 -160 0
40774 206 -209 -211 160 0
47937 206 -209 -211 -160 0
35815 -206 209 211 160 0
45457 -206 209 211 -160 0
47386 -206 209 -211 160 0
51243 -206 209 -211 -160 0
42565 -206 -209 211 160 0
48832 -206 -209 211 -160 0
50086 -206 -209 -211 160 0
52593 -206 -209 -211 -160 0
6975 220 321 212 217 -228 0
22320 220 321 212 -217 228 0
23715 220 321 212 -217 -228 0
25110 220 321 -212 217 228 0
25807 220 321 -212 217 -228 0
27342 220 321 -212 -217 228 0
27481 220 321 -212 -217 -228 0
9765 220 -321 212 217 228 0
14299 220 -321 212 217 -228 0
24273 220 -321 212 -217 228 0
25180 220 -321 212 -217 -228 0
26087 220 -321 -212 217 228 0
26540 220 -321 -212 217 -228 0
27537 220 -321 -212 -217 228 0
27628 220 -321 -212 -217 -228 0
10602 -220 321 212 217 228 0
14927 -220 321 212 217 -228 0
24440 -220 321 212 -217 228 0
25305 -220 321 212 -217 -228 0
26170 -220 321 -212 217 228 0
26603 -220 321 -212 217 -228 0
27554 -220 321 -212 -217 228 0
27641 -220 321 -212 -217 -228 0
16656 -220 -321 212 217 228 0
19467 -220 -321 212 217 -228 0
25651 -220 -321 212 -217 228 0
26213 -220 -321 212 -217 -228 0
26776 -220 -321 -212 217 228 0
27057 -220 -321 -212 217 -228 0
27675 -220 -321 -212 -217 228 0
27731 -220 -321 -212 -217 -228 0
60130 405 -226 0
51540 -405 226 0
75592 -405 -226 0
9090 215 -480 0
35350 -215 480 0
38077 -215 -480 0
3125 219 232 -453 0
1875 219 -232 453 0
4531 219 -232 -453 0
6875 -219 232 453 0
8281 -219 232 -453 0
7719 -219 -232 453 0
8914 -219 -232 -453 0
26800 349 -221 0
21440 -349 221 0
37520 -349 -221 0
3680 526 207 227 229 -235 0
5175 526 207 227 -229 235 0
7199 526 207 227 -229 -235 0
2070 526 207 -227 229 235 0
5088 526 207 -227 229 -235 0
6313 526 207 -227 -229 235 0
7973 526 207 -227 -229 -235 0
4025 526 -207 227 229 235 0
6417 526 -207 227 229 -235 0
7389 526 -207 227 -229 235 0
8704 526 -207 227 -229 -235 0
5370 526 -207 -227 229 235 0
7332 526 -207 -227 229 -235 0
8129 526 -207 -227 -229 235 0
9208 526 -207 -227 -229 -235 0
4370 -526 207 227 229 235 0
6652 -526 207 227 229 -235 0
7578 -526 207 227 -229 235 0
8833 -526 207 227 -229 -235 0
5653 -526 207 -227 229 235 0
7524 -526 207 -227 229 -235 0
8284 -526 207 -227 -229 235 0
9313 -526 207 -227 -229 -235 0
6866 -526 -207 227 229 235 0
8349 -526 -207 227 229 -235 0
8951 -526 -207 227 -229 235 0
9767 -526 -207 227 -229 -235 0
7700 -526 -207 -227 229 235 0
8916 -526 -207 -227 229 -235 0
9410 -526 -207 -227 -229 235 0
10079 -526 -207 -227 -229 -235 0
6060 410 213 241 -237 0
9090 410 213 -241 237 0
14059 410 213 -241 -237 0
15150 410 -213 241 237 0
19392 410 -213 241 -237 0
21513 410 -213 -241 237 0
24991 410 -213 -241 -237 0
45450 -410 213 241 237 0
46056 -410 213 241 -237 0
46359 -410 213 -241 237 0
46856 -410 213 -241 -237 0
46965 -410 -213 241 237 0
47389 -410 -213 241 -237 0
47601 -410 -213 -241 237 0
47949 -410 -213 -241 -237 0
17152 239 406 -243 0
42880 239 -406 243 0
46310 239 -406 -243 0
24120 -239 406 243 0
33554 -239 406 -243 0
47704 -239 -406 243 0
49591 -239 -406 -243 0
11235 411 244 -245 0
8025 411 -244 245 0
16451 411 -244 -245 0
1605 -411 244 245 0
12278 -411 244 -245 0
9229 -411 -244 245 0
17234 -411 -244 -245 0
13640 246 230 -345 0
57970 246 -230 345 0
60016 246 -230 -345 0
64790 -246 230 345 0
65472 -246 230 -345 0
67688 -246 -230 345 0
67791 -246 -230 -345 0
40920 231 497 240 -242 0
25916 231 497 -240 242 0
51286 231 497 -240 -242 0
40920 231 -497 240 242 0
57288 231 -497 240 -242 0
51286 231 -497 -240 242 0
61435 231 -497 -240 -242 0
13640 -231 497 240 242 0
46376 -231 497 240 -242 0
34373 -231 497 -240 242 0
54669 -231 497 -240 -242 0
46376 -231 -497 240 242 0
59470 -231 -497 240 -242 0
54669 -231 -497 -240 242 0
62788 -231 -497 -240 -242 0
7500 -565 0
68780 256 233 252 -467 0
36200 256 233 -252 467 0
70590 256 233 -252 -467 0
1448 256 -233 252 467 0
68852 256 -233 252 -467 0
36924 256 -233 -252 467 0
70626 256 -233 -252 -467 0
68780 -256 233 252 467 0
72219 -256 233 252 -467 0
70590 -256 233 -252 467 0
72310 -256 233 -252 -467 0
68852 -256 -233 252 467 0
72223 -256 -233 252 -467 0
70626 -256 -233 -252 467 0
72311 -256 -233 -252 -467 0
8590 260 253 254 236 -603 0
21475 260 253 254 -236 603 0
27917 260 253 254 -236 -603 0
55835 260 253 -254 236 603 0
58842 260 253 -254 236 -603 0
63351 260 253 -254 -236 603 0
65606 260 253 -254 -236 -603 0
12885 260 -253 254 236 603 0
20186 260 -253 254 236 -603 0
31139 260 -253 254 -236 603 0
36615 260 -253 254 -236 -603 0
60345 260 -253 -254 236 603 0
62900 260 -253 -254 236 -603 0
66734 260 -253 -254 -236 603 0
68650 260 -253 -254 -236 -603 0
77310 -260 253 254 236 603 0
78169 -260 253 254 236 -603 0
79458 -260 253 254 -236 603 0
80102 -260 253 254 -236 -603 0
82893 -260 253 -254 236 603 0
83194 -260 253 -254 236 -603 0
83645 -260 253 -254 -236 603 0
83871 -260 253 -254 -236 -603 0
78599 -260 -253 254 236 603 0
79329 -260 -253 254 236 -603 0
80424 -260 -253 254 -236 603 0
80971 -260 -253 254 -236 -603 0
83344 -260 -253 -254 236 603 0
83600 -260 -253 -254 236 -603 0
83983 -260 -253 -254 -236 603 0
84175 -260 -253 -254 -236 -603 0
26800 262 501 -238 0
16080 262 -501 238 0
34840 262 -501 -238 0
45560 -262 501 238 0
49580 -262 501 -238 0
47972 -262 -501 238 0
50786 -262 -501 -238 0
61540 263 -444 0
36200 -263 444 0
66970 -263 -444 0
25680 397 266 -255 0
19260 397 -266 255 0
29532 397 -266 -255 0
17655 -397 266 255 0
29211 -397 266 -255 0
26322 -397 -266 255 0
30944 -397 -266 -255 0
44495 268 336 -258 0
32360 268 -336 258 0
59057 268 -336 -258 0
24270 -268 336 258 0
55417 -268 336 -258 0
46922 -268 -336 258 0
65610 -268 -336 -258 0
20368 -508 0
25110 -294 0
21475 257 350 264 -267 0
81605 257 350 -264 267 0
82679 257 350 -264 -267 0
27488 257 -350 264 267 0
42091 257 -350 264 -267 0
82979 257 -350 -264 267 0
83710 257 -350 -264 -267 0
73015 -257 350 264 267 0
76236 -257 350 264 -267 0
85256 -257 350 -264 267 0
85417 -257 350 -264 -267 0
77138 -257 -350 264 267 0
79329 -257 -350 264 -267 0
85462 -257 -350 -264 267 0
85571 -257 -350 -264 -267 0
11235 269 -445 0
19260 -269 445 0
23754 -269 -445 0
25888 259 261 481 -280 0
48540 259 261 -481 280 0
58895 259 261 -481 -280 0
14562 259 -261 481 280 0
35790 259 -261 481 -280 0
54365 259 -261 -481 280 0
62856 259 -261 -481 -280 0
48540 -259 261 481 280 0
58895 -259 261 481 -280 0
67956 -259 261 -481 280 0
72098 -259 261 -481 -280 0
54365 -259 -261 481 280 0
62856 -259 -261 481 -280 0
70286 -259 -261 -481 280 0
73682 -259 -261 -481 -280 0
36000 265 -275 0
9000 -265 275 0
41400 -265 -275 0
23168 284 270 276 -568 0
39820 284 270 -276 568 0
50246 284 270 -276 -568 0
21720 284 -270 276 568 0
37938 284 -270 276 -568 0
49594 284 -270 -276 568 0
56892 284 -270 -276 -568 0
61540 -284 270 276 568 0
65015 -284 270 276 -568 0
67513 -284 270 -276 568 0
69077 -284 270 -276 -568 0
64798 -284 -270 276 568 0
67231 -284 -270 276 -568 0
68979 -284 -270 -276 568 0
70074 -284 -270 -276 -568 0
12198 286 285 -562 0
8025 286 -285 562 0
17174 286 -285 -562 0
17655 -286 285 562 0
23144 -286 285 -562 0
21266 -286 -285 562 0
25383 -286 -285 -562 0
10560 271 277 -600 0
3960 271 -277 600 0
11352 271 -277 -600 0
7260 -271 277 600 0
12012 -271 277 -600 0
9042 -271 -277 600 0
12368 -271 -277 -600 0
3475 604 287 -288 0
9035 604 -287 288 0
10251 604 -287 -288 0
2780 -604 287 288 0
5560 -604 287 -288 0
10008 -604 -287 288 0
10981 -604 -287 -288 0
77310 281 282 -541 0
55835 281 -282 541 0
82893 281 -282 -541 0
38655 -281 282 541 0
81176 -281 282 -541 0
69364 -281 -282 541 0
84246 -281 -282 -541 0
18600 290 328 -301 0
25575 290 -328 301 0
33945 290 -328 -301 0
8370 -290 328 301 0
23622 -290 328 -301 0
29342 -290 -328 301 0
36205 -290 -328 -301 0
25755 283 291 426 -278 0
3030 283 291 -426 278 0
26209 283 291 -426 -278 0
12120 283 -291 426 278 0
27573 283 -291 426 -278 0
13938 283 -291 -426 278 0
27846 283 -291 -426 -278 0
15150 -283 291 426 278 0
28028 -283 291 426 -278 0
16665 -283 291 -426 278 0
28255 -283 291 -426 -278 0
21210 -283 -291 426 278 0
28937 -283 -291 426 -278 0
22119 -283 -291 -426 278 0
29073 -283 -291 -426 -278 0
61380 303 302 183 289 304 279 -292 0
57970 303 302 183 289 304 -279 292 0
67177 303 302 183 289 304 -279 -292 0
13640 303 302 183 289 -304 279 292 0
62744 303 302 183 289 -304 279 -292 0
60016 303 302 183 289 -304 -279 292 0
67382 303 302 183 289 -304 -279 -292 0
20460 303 302 183 -289 304 279 292 0
63426 303 302 183 -289 304 279 -292 0
61039 303 302 183 -289 304 -279 292 0
67484 303 302 183 -289 304 -279 -292 0
30008 303 302 183 -289 -304 279 292 0
64381 303 302 183 -289 -304 279 -292 0
62471 303 302 183 -289 -304 -279 292 0
67627 303 302 183 -289 -304 -279 -292 0
1364 303 302 -183 289 304 279 292 0
61516 303 302 -183 289 304 279 -292 0
58175 303 302 -183 289 304 -279 292 0
67197 303 302 -183 289 304 -279 -292 0
14731 303 302 -183 289 -304 279 292 0
62853 303 302 -183 289 -304 279 -292 0
60180 303 302 -183 289 -304 -279 292 0
67398 303 302 -183 289 -304 -279 -292 0
21415 303 302 -183 -289 304 279 292 0
63521 303 302 -183 -289 304 279 -292 0
61182 303 302 -183 -289 304 -279 292 0
67498 303 302 -183 -289 304 -279 -292 0
30772 303 302 -183 -289 -304 279 292 0
64457 303 302 -183 -289 -304 279 -292 0
62586 303 302 -183 -289 -304 -279 292 0
67639 303 302 -183 -289 -304 -279 -292 0
3410 303 -302 183 289 304 279 292 0
61721 303 -302 183 289 304 279 -292 0
58481 303 -302 183 289 304 -279 292 0
67228 303 -302 183 289 304 -279 -292 0
16368 303 -302 183 289 -304 279 292 0
63017 303 -302 183 289 -304 279 -292 0
60425 303 -302 183 289 -304 -279 292 0
67423 303 -302 183 289 -304 -279 -292 0
22847 303 -302 183 -289 304 279 292 0
63665 303 -302 183 -289 304 279 -292 0
61397 303 -302 183 -289 304 -279 292 0
67520 303 -302 183 -289 304 -279 -292 0
31918 303 -302 183 -289 -304 279 292 0
64572 303 -302 183 -289 -304 279 -292 0
62758 303 -302 183 -289 -304 -279 292 0
67656 303 -302 183 -289 -304 -279 -292 0
4706 303 -302 -183 289 304 279 292 0
61851 303 -302 -183 289 304 279 -292 0
58676 303 -302 -183 289 304 -279 292 0
67248 303 -302 -183 289 304 -279 -292 0
17405 303 -302 -183 289 -304 279 292 0
63120 303 -302 -183 289 -304 279 -292 0
60581 303 -302 -183 289 -304 -279 292 0
67438 303 -302 -183 289 -304 -279 -292 0
23754 303 -302 -183 -289 304 279 292 0
63755 303 -302 -183 -289 304 279 -292 0
61533 303 -302 -183 -289 304 -279 292 0
67533 303 -302 -183 -289 304 -279 -292 0
32643 303 -302 -183 -289 -304 279 292 0
64644 303 -302 -183 -289 -304 279 -292 0
62866 303 -302 -183 -289 -304 -279 292 0
67667 303 -302 -183 -289 -304 -279 -292 0
6820 -303 302 183 289 304 279 292 0
62062 -303 302 183 289 304 279 -292 0
58993 -303 302 183 289 304 -279 292 0
67279 -303 302 183 289 304 -279 -292 0
19096 -303 302 183 289 -304 279 292 0
63290 -303 302 183 289 -304 279 -292 0
60834 -303 302 183 289 -304 -279 292 0
67463 -303 302 183 289 -304 -279 -292 0
25234 -303 302 183 -289 304 279 292 0
63903 -303 302 183 -289 304 279 -292 0
61755 -303 302 183 -289 304 -279 292 0
67556 -303 302 183 -289 304 -279 -292 0
33827 -303 302 183 -289 -304 279 292 0
64763 -303 302 183 -289 -304 279 -292 0
63044 -303 302 183 -289 -304 -279 292 0
67684 -303 302 183 -289 -304 -279 -292 0
8048 -303 302 -183 289 304 279 292 0
62185 -303 302 -183 289 304 279 -292 0
59177 -303 302 -183 289 304 -279 292 0
67298 -303 302 -183 289 304 -279 -292 0
20078 -303 302 -183 289 -304 279 292 0
63388 -303 302 -183 289 -304 279 -292 0
60982 -303 302 -183 289 -304 -279 292 0
67478 -303 302 -183 289 -304 -279 -292 0
26093 -303 302 -183 -289 304 279 292 0
63989 -303 302 -183 -289 304 279 -292 0
61884 -303 302 -183 -289 304 -279 292 0
67568 -303 302 -183 -289 304 -279 -292 0
34515 -303 302 -183 -289 -304 279 292 0
64831 -303 302 -183 -289 -304 279 -292 0
63147 -303 302 -183 -289 -304 -279 292 0
67695 -303 302 -183 -289 -304 -279 -292 0
9889 -303 -302 183 289 304 279 292 0
62369 -303 -302 183 289 304 279 -292 0
59453 -303 -302 183 289 304 -279 292 0
67325 -303 -302 183 289 304 -279 -292 0
21551 -303 -302 183 289 -304 279 292 0
63535 -303 -302 183 289 -304 279 -292 0
61203 -303 -302 183 289 -304 -279 292 0
67500 -303 -302 183 289 -304 -279 -292 0
27382 -303 -302 183 -289 304 279 292 0
64118 -303 -302 183 -289 304 279 -292 0
62077 -303 -302 183 -289 304 -279 292 0
67588 -303 -302 183 -289 304 -279 -292 0
35546 -303 -302 183 -289 -304 279 292 0
64935 -303 -302 183 -289 -304 279 -292 0
63302 -303 -302 183 -289 -304 -279 292 0
67710 -303 -302 183 -289 -304 -279 -292 0
11055 -303 -302 -183 289 304 279 292 0
62486 -303 -302 -183 289 304 279 -292 0
59628 -303 -302 -183 289 304 -279 292 0
67343 -303 -302 -183 289 304 -279 -292 0
22484 -303 -302 -183 289 -304 279 292 0
63628 -303 -302 -183 289 -304 279 -292 0
61343 -303 -302 -183 289 -304 -279 292 0
67514 -303 -302 -183 289 -304 -279 -292 0
28199 -303 -302 -183 -289 304 279 292 0
64200 -303 -302 -183 -289 304 279 -292 0
62200 -303 -302 -183 -289 304 -279 292 0
67600 -303 -302 -183 -289 304 -279 -292 0
36199 -303 -302 -183 -289 -304 279 292 0
65000 -303 -302 -183 -289 -304 279 -292 0
63400 -303 -302 -183 -289 -304 -279 292 0
67720 -303 -302 -183 -289 -304 -279 -292 0
36200 293 -509 0
32580 -293 509 0
52490 -293 -509 0
54560 346 -307 0
10230 -346 307 0
56606 -346 -307 0
8580 234 308 305 -306 0
1980 234 308 -305 306 0
9273 234 308 -305 -306 0
8580 234 -308 305 306 0
11583 234 -308 305 -306 0
9273 234 -308 -305 306 0
11826 234 -308 -305 -306 0
12540 -234 308 305 306 0
12969 -234 308 305 -306 0
12639 -234 308 -305 306 0
13004 -234 308 -305 -306 0
12969 -234 -308 305 306 0
13119 -234 -308 305 -306 0
13004 -234 -308 -305 306 0
13131 -234 -308 -305 -306 0
