p wcnf 74 227 1000000
1000000 1 0
1000000 2 -18 0
1000000 18 -55 -53 -54 -1 0
1000000 3 -19 0
1000000 19 -52 -1 0
1000000 4 -20 0
1000000 20 -56 -59 -61 -1 0
1000000 5 -21 0
1000000 21 -57 -1 0
1000000 6 -22 0
1000000 22 -67 -64 -68 -1 0
1000000 8 -23 0
1000000 23 -66 -53 -58 -1 0
1000000 4 -24 0
1000000 24 -52 -65 -2 0
1000000 6 -25 0
1000000 25 -62 -2 0
1000000 13 -26 0
1000000 26 -55 -61 -56 -11 0
1000000 15 -27 0
1000000 27 -59 -54 -11 0
1000000 15 -28 0
1000000 28 -64 -66 -65 -14 0
1000000 16 -29 0
1000000 29 -62 -60 -52 -15 0
1000000 17 -30 0
1000000 30 -68 -58 -63 -15 0
1000000 11 -31 0
1000000 31 -63 -56 -54 -3 0
1000000 7 -32 0
1000000 32 -55 -58 -3 0
1000000 8 -33 0
1000000 33 -67 -3 0
1000000 10 -34 0
1000000 34 -60 -59 -3 0
1000000 11 -35 0
1000000 35 -60 -61 -4 0
1000000 12 -36 0
1000000 36 -65 -57 -64 -4 0
1000000 12 -37 0
1000000 37 -53 -63 -5 0
1000000 6 -38 0
1000000 38 -66 -52 -62 -5 0
1000000 7 -39 0
1000000 39 -55 -68 -5 0
1000000 15 -40 0
1000000 40 -57 -6 0
1000000 11 -41 0
1000000 41 -53 -7 0
1000000 13 -42 0
1000000 42 -54 -7 0
1000000 9 -43 0
1000000 43 -56 -7 0
1000000 13 -44 0
1000000 44 -58 -57 -8 0
1000000 10 -45 0
1000000 45 -59 -8 0
1000000 12 -46 0
1000000 46 -63 -62 -61 -9 0
1000000 14 -47 0
1000000 47 -67 -9 0
1000000 16 -48 0
1000000 48 -66 -64 -68 -9 0
1000000 17 -49 0
1000000 49 -54 -57 -56 -9 0
1000000 12 -50 0
1000000 50 -67 -10 0
1000000 14 -51 0
1000000 51 -60 -65 -10 0
1000000 1 0
1000000 -2 18 0
1000000 -3 19 0
1000000 -4 20 24 0
1000000 -5 21 0
1000000 -6 25 22 38 0
1000000 -7 39 32 0
1000000 -8 23 33 0
1000000 -9 43 0
1000000 -10 34 45 0
1000000 -11 41 31 35 0
1000000 -12 50 36 46 37 0
1000000 -13 26 44 42 0
1000000 -14 47 51 0
1000000 -15 28 40 27 0
1000000 -16 29 48 0
1000000 -17 30 49 0
1000000 52 71 0
1000000 53 69 0
1000000 54 69 0
1000000 55 69 0
1000000 56 71 0
1000000 57 71 0
1000000 58 74 0
1000000 59 73 0
1000000 60 70 0
1000000 61 72 0
1000000 62 74 0
1000000 63 70 0
1000000 64 70 0
1000000 65 73 0
1000000 66 73 0
1000000 67 72 0
1000000 68 72 0
1000000 -52 -71 0
1000000 -53 -69 0
1000000 -54 -69 0
1000000 -55 -69 0
1000000 -56 -71 0
1000000 -57 -71 0
1000000 -58 -74 0
1000000 -59 -73 0
1000000 -60 -70 0
1000000 -61 -72 0
1000000 -62 -74 0
1000000 -63 -70 0
1000000 -64 -70 0
1000000 -65 -73 0
1000000 -66 -73 0
1000000 -67 -72 0
1000000 -68 -72 0
12000 -69 0
11100 -70 0
10600 -71 0
12000 -72 0
12000 -73 0
11100 -74 0
2200 52 0
2200 53 0
2400 54 0
3400 55 0
1000 56 0
3400 57 0
2400 58 0
3400 59 0
2700 60 0
2200 61 0
1000 62 0
800 63 0
2200 64 0
2200 65 0
3600 66 0
1000 67 0
2400 68 0
1390 -18 0
57960 -19 0
38640 20 -24 0
22540 -20 24 0
47656 -20 -24 0
11120 -21 0
7760 25 22 -38 0
2910 25 -22 38 0
8342 25 -22 -38 0
4365 -25 22 38 0
8633 -25 22 -38 0
5966 -25 -22 38 0
8953 -25 -22 -38 0
4520 39 -32 0
9040 -39 32 0
9944 -39 -32 0
15120 23 -33 0
12285 -23 33 0
17577 -23 -33 0
21600 -43 0
3978 34 -45 0
6630 -34 45 0
9415 -34 -45 0
2430 41 31 -35 0
5184 41 -31 35 0
6836 41 -31 -35 0
8910 -41 31 35 0
10004 -41 31 -35 0
11243 -41 -31 35 0
11986 -41 -31 -35 0
12155 50 36 46 -37 0
17680 50 36 -46 37 0
20111 50 36 -46 -37 0
18785 50 -36 46 37 0
20608 50 -36 46 -37 0
21437 50 -36 -46 37 0
21802 50 -36 -46 -37 0
6630 -50 36 46 37 0
15139 -50 36 46 -37 0
19006 -50 36 -46 37 0
20708 -50 36 -46 -37 0
19780 -50 -36 46 37 0
21056 -50 -36 46 -37 0
21636 -50 -36 -46 37 0
21891 -50 -36 -46 -37 0
13080 26 44 -42 0
42510 26 -44 42 0
47088 26 -44 -42 0
3270 -26 44 42 0
15696 -26 44 -42 0
43655 -26 -44 42 0
48004 -26 -44 -42 0
5580 47 -51 0
4960 -47 51 0
8308 -47 -51 0
3390 28 40 -27 0
9040 28 -40 27 0
9718 28 -40 -27 0
1130 -28 40 27 0
4181 -28 40 -27 0
9266 -28 -40 27 0
9876 -28 -40 -27 0
3560 29 -48 0
16910 -29 48 0
17088 -29 -48 0
66240 30 -49 0
9936 -30 49 0
68227 -30 -49 0
