p wcnf 1104 4485 1000000
1000000 1 0
1000000 2 -199 0
1000000 199 -791 -793 -786 -1 0
1000000 14 -200 0
1000000 200 -789 -795 -794 -1 0
1000000 15 -201 0
1000000 201 -785 -1 0
1000000 141 -202 0
1000000 202 -800 -792 -798 -1 0
1000000 16 -203 0
1000000 203 -788 -1 0
1000000 163 -204 0
1000000 204 -803 -787 -797 -1 0
1000000 22 -205 0
1000000 205 -796 -805 -790 -1 0
1000000 4 -206 0
1000000 206 -807 -801 -1 0
1000000 9 -207 0
1000000 207 -799 -1 0
1000000 82 -208 0
1000000 208 -806 -1 0
1000000 10 -209 0
1000000 209 -804 -1 0
1000000 11 -210 0
1000000 210 -808 -2 0
1000000 14 -211 0
1000000 211 -802 -2 0
1000000 3 -212 0
1000000 212 -814 -810 -2 0
1000000 5 -213 0
1000000 213 -812 -818 -816 -2 0
1000000 7 -214 0
1000000 214 -809 -2 0
1000000 10 -215 0
1000000 215 -813 -817 -2 0
1000000 13 -216 0
1000000 216 -819 -11 0
1000000 14 -217 0
1000000 217 -821 -815 -811 -11 0
1000000 15 -218 0
1000000 218 -823 -11 0
1000000 20 -219 0
1000000 219 -824 -830 -826 -11 0
1000000 95 -220 0
1000000 220 -833 -828 -832 -11 0
1000000 112 -221 0
1000000 221 -836 -829 -831 -101 0
1000000 113 -222 0
1000000 222 -838 -825 -827 -101 0
1000000 143 -223 0
1000000 223 -820 -835 -834 -101 0
1000000 110 -224 0
1000000 224 -842 -845 -843 -102 0
1000000 111 -225 0
1000000 225 -840 -837 -102 0
1000000 114 -226 0
1000000 226 -841 -102 0
1000000 167 -227 0
1000000 227 -839 -102 0
1000000 106 -228 0
1000000 228 -822 -846 -103 0
1000000 112 -229 0
1000000 229 -844 -103 0
1000000 106 -230 0
1000000 230 -854 -851 -847 -104 0
1000000 111 -231 0
1000000 231 -849 -853 -852 -104 0
1000000 132 -232 0
1000000 232 -859 -858 -857 -104 0
1000000 106 -233 0
1000000 233 -848 -860 -863 -105 0
1000000 108 -234 0
1000000 234 -850 -856 -105 0
1000000 111 -235 0
1000000 235 -855 -865 -105 0
1000000 177 -236 0
1000000 236 -871 -866 -862 -105 0
1000000 107 -237 0
1000000 237 -868 -861 -106 0
1000000 109 -238 0
1000000 238 -869 -106 0
1000000 127 -239 0
1000000 239 -867 -106 0
1000000 109 -240 0
1000000 240 -873 -878 -872 -107 0
1000000 111 -241 0
1000000 241 -875 -874 -877 -107 0
1000000 113 -242 0
1000000 242 -884 -864 -870 -108 0
1000000 115 -243 0
1000000 243 -876 -881 -108 0
1000000 112 -244 0
1000000 244 -885 -886 -109 0
1000000 113 -245 0
1000000 245 -882 -887 -109 0
1000000 117 -246 0
1000000 246 -880 -891 -879 -110 0
1000000 119 -247 0
1000000 247 -889 -893 -896 -110 0
1000000 14 -248 0
1000000 248 -888 -894 -895 -12 0
1000000 139 -249 0
1000000 249 -883 -899 -12 0
1000000 15 -250 0
1000000 250 -890 -12 0
1000000 24 -251 0
1000000 251 -897 -12 0
1000000 49 -252 0
1000000 252 -898 -902 -905 -12 0
1000000 114 -253 0
1000000 253 -901 -903 -111 0
1000000 118 -254 0
1000000 254 -908 -900 -111 0
1000000 113 -255 0
1000000 255 -892 -112 0
1000000 114 -256 0
1000000 256 -907 -904 -112 0
1000000 151 -257 0
1000000 257 -910 -112 0
1000000 120 -258 0
1000000 258 -906 -113 0
1000000 125 -259 0
1000000 259 -912 -113 0
1000000 123 -260 0
1000000 260 -911 -114 0
1000000 124 -261 0
1000000 261 -909 -114 0
1000000 120 -262 0
1000000 262 -914 -913 -115 0
1000000 122 -263 0
1000000 263 -919 -917 -115 0
1000000 119 -264 0
1000000 264 -921 -918 -922 -116 0
1000000 120 -265 0
1000000 265 -920 -116 0
1000000 121 -266 0
1000000 266 -926 -915 -117 0
1000000 124 -267 0
1000000 267 -923 -916 -117 0
1000000 133 -268 0
1000000 268 -929 -930 -933 -118 0
1000000 146 -269 0
1000000 269 -932 -931 -936 -118 0
1000000 122 -270 0
1000000 270 -924 -925 -119 0
1000000 126 -271 0
1000000 271 -934 -119 0
1000000 122 -272 0
1000000 272 -927 -120 0
1000000 129 -273 0
1000000 273 -943 -939 -940 -120 0
1000000 21 -274 0
1000000 274 -942 -935 -13 0
1000000 22 -275 0
1000000 275 -937 -941 -13 0
1000000 23 -276 0
1000000 276 -928 -948 -950 -13 0
1000000 78 -277 0
1000000 277 -953 -945 -938 -13 0
1000000 126 -278 0
1000000 278 -944 -949 -951 -121 0
1000000 127 -279 0
1000000 279 -952 -121 0
1000000 123 -280 0
1000000 280 -954 -955 -122 0
1000000 129 -281 0
1000000 281 -957 -958 -960 -122 0
1000000 125 -282 0
1000000 282 -959 -963 -962 -123 0
1000000 130 -283 0
1000000 283 -956 -967 -965 -123 0
1000000 137 -284 0
1000000 284 -964 -947 -124 0
1000000 144 -285 0
1000000 285 -961 -124 0
1000000 127 -286 0
1000000 286 -968 -125 0
1000000 133 -287 0
1000000 287 -946 -975 -966 -125 0
1000000 128 -288 0
1000000 288 -976 -969 -971 -126 0
1000000 130 -289 0
1000000 289 -973 -126 0
1000000 147 -290 0
1000000 290 -970 -126 0
1000000 129 -291 0
1000000 291 -978 -974 -127 0
1000000 135 -292 0
1000000 292 -972 -127 0
1000000 136 -293 0
1000000 293 -980 -983 -127 0
1000000 130 -294 0
1000000 294 -977 -128 0
1000000 134 -295 0
1000000 295 -979 -128 0
1000000 186 -296 0
1000000 296 -982 -984 -128 0
1000000 132 -297 0
1000000 297 -985 -987 -129 0
1000000 134 -298 0
1000000 298 -986 -129 0
1000000 132 -299 0
1000000 299 -981 -130 0
1000000 137 -300 0
1000000 300 -990 -989 -130 0
1000000 122 -301 0
1000000 301 -991 -14 0
1000000 15 -302 0
1000000 302 -993 -14 0
1000000 17 -303 0
1000000 303 -997 -995 -14 0
1000000 33 -304 0
1000000 304 -999 -992 -14 0
1000000 55 -305 0
1000000 305 -988 -1003 -1002 -14 0
1000000 133 -306 0
1000000 306 -998 -131 0
1000000 134 -307 0
1000000 307 -1000 -131 0
1000000 138 -308 0
1000000 308 -996 -132 0
1000000 139 -309 0
1000000 309 -1005 -994 -132 0
1000000 140 -310 0
1000000 310 -1009 -1008 -133 0
1000000 149 -311 0
1000000 311 -1001 -133 0
1000000 136 -312 0
1000000 312 -1004 -1012 -134 0
1000000 137 -313 0
1000000 313 -1010 -1013 -1011 -134 0
1000000 140 -314 0
1000000 314 -1006 -1017 -135 0
1000000 146 -315 0
1000000 315 -1022 -1007 -1021 -135 0
1000000 154 -316 0
1000000 316 -1018 -1019 -135 0
1000000 141 -317 0
1000000 317 -1024 -785 -1020 -136 0
1000000 142 -318 0
1000000 318 -1015 -136 0
1000000 140 -319 0
1000000 319 -1014 -787 -137 0
1000000 141 -320 0
1000000 320 -786 -137 0
1000000 140 -321 0
1000000 321 -789 -791 -138 0
1000000 142 -322 0
1000000 322 -790 -793 -138 0
1000000 140 -323 0
1000000 323 -792 -788 -139 0
1000000 143 -324 0
1000000 324 -1016 -798 -794 -139 0
1000000 156 -325 0
1000000 325 -795 -797 -140 0
1000000 161 -326 0
1000000 326 -1023 -140 0
1000000 171 -327 0
1000000 327 -800 -799 -803 -140 0
1000000 131 -328 0
1000000 328 -802 -15 0
1000000 145 -329 0
1000000 329 -807 -796 -15 0
1000000 17 -330 0
1000000 330 -801 -15 0
1000000 181 -331 0
1000000 331 -804 -15 0
1000000 21 -332 0
1000000 332 -805 -15 0
1000000 27 -333 0
1000000 333 -814 -808 -809 -15 0
1000000 30 -334 0
1000000 334 -812 -806 -813 -15 0
1000000 35 -335 0
1000000 335 -819 -820 -811 -15 0
1000000 68 -336 0
1000000 336 -818 -815 -15 0
1000000 145 -337 0
1000000 337 -821 -823 -141 0
1000000 146 -338 0
1000000 338 -817 -141 0
1000000 152 -339 0
1000000 339 -822 -141 0
1000000 143 -340 0
1000000 340 -810 -142 0
1000000 148 -341 0
1000000 341 -816 -828 -829 -142 0
1000000 165 -342 0
1000000 342 -826 -827 -830 -142 0
1000000 155 -343 0
1000000 343 -832 -831 -836 -143 0
1000000 156 -344 0
1000000 344 -838 -833 -824 -143 0
1000000 146 -345 0
1000000 345 -825 -841 -837 -144 0
1000000 147 -346 0
1000000 346 -845 -843 -839 -144 0
1000000 149 -347 0
1000000 347 -834 -145 0
1000000 154 -348 0
1000000 348 -850 -840 -844 -145 0
1000000 148 -349 0
1000000 349 -842 -835 -846 -146 0
1000000 153 -350 0
1000000 350 -847 -852 -146 0
1000000 150 -351 0
1000000 351 -851 -147 0
1000000 151 -352 0
1000000 352 -855 -853 -856 -147 0
1000000 149 -353 0
1000000 353 -862 -860 -849 -148 0
1000000 156 -354 0
1000000 354 -857 -859 -865 -148 0
1000000 153 -355 0
1000000 355 -854 -149 0
1000000 156 -356 0
1000000 356 -858 -149 0
1000000 157 -357 0
1000000 357 -867 -866 -150 0
1000000 165 -358 0
1000000 358 -861 -864 -150 0
1000000 125 -359 0
1000000 359 -871 -868 -874 -16 0
1000000 148 -360 0
1000000 360 -869 -16 0
1000000 18 -361 0
1000000 361 -873 -872 -16 0
1000000 19 -362 0
1000000 362 -878 -880 -875 -16 0
1000000 23 -363 0
1000000 363 -879 -877 -16 0
1000000 26 -364 0
1000000 364 -863 -16 0
1000000 59 -365 0
1000000 365 -848 -883 -16 0
1000000 155 -366 0
1000000 366 -870 -885 -151 0
1000000 159 -367 0
1000000 367 -882 -884 -886 -151 0
1000000 154 -368 0
1000000 368 -876 -152 0
1000000 158 -369 0
1000000 369 -881 -152 0
1000000 155 -370 0
1000000 370 -888 -889 -153 0
1000000 158 -371 0
1000000 371 -893 -891 -887 -153 0
1000000 155 -372 0
1000000 372 -899 -890 -896 -154 0
1000000 157 -373 0
1000000 373 -900 -902 -898 -154 0
1000000 160 -374 0
1000000 374 -897 -894 -154 0
1000000 156 -375 0
1000000 375 -892 -155 0
1000000 158 -376 0
1000000 376 -895 -155 0
1000000 164 -377 0
1000000 377 -901 -155 0
1000000 173 -378 0
1000000 378 -906 -909 -904 -155 0
1000000 157 -379 0
1000000 379 -913 -908 -914 -156 0
1000000 161 -380 0
1000000 380 -907 -912 -156 0
1000000 169 -381 0
1000000 381 -916 -905 -918 -156 0
1000000 162 -382 0
1000000 382 -910 -157 0
1000000 164 -383 0
1000000 383 -920 -911 -157 0
1000000 161 -384 0
1000000 384 -925 -915 -924 -158 0
1000000 163 -385 0
1000000 385 -919 -158 0
1000000 183 -386 0
1000000 386 -903 -158 0
1000000 161 -387 0
1000000 387 -923 -928 -927 -159 0
1000000 162 -388 0
1000000 388 -929 -930 -159 0
1000000 162 -389 0
1000000 389 -917 -160 0
1000000 169 -390 0
1000000 390 -921 -933 -160 0
1000000 119 -391 0
1000000 391 -935 -934 -17 0
1000000 19 -392 0
1000000 392 -926 -17 0
1000000 21 -393 0
1000000 393 -937 -936 -17 0
1000000 24 -394 0
1000000 394 -938 -922 -17 0
1000000 162 -395 0
1000000 395 -931 -941 -944 -161 0
1000000 165 -396 0
1000000 396 -932 -943 -161 0
1000000 189 -397 0
1000000 397 -947 -946 -161 0
1000000 164 -398 0
1000000 398 -942 -940 -950 -162 0
1000000 165 -399 0
1000000 399 -945 -162 0
1000000 166 -400 0
1000000 400 -949 -162 0
1000000 164 -401 0
1000000 401 -952 -955 -948 -163 0
1000000 165 -402 0
1000000 402 -957 -956 -163 0
1000000 167 -403 0
1000000 403 -953 -958 -959 -164 0
1000000 170 -404 0
1000000 404 -951 -164 0
1000000 166 -405 0
1000000 405 -963 -964 -939 -165 0
1000000 168 -406 0
1000000 406 -962 -961 -968 -165 0
1000000 168 -407 0
1000000 407 -965 -969 -166 0
1000000 179 -408 0
1000000 408 -966 -971 -960 -166 0
1000000 168 -409 0
1000000 409 -972 -973 -167 0
1000000 170 -410 0
1000000 410 -967 -974 -167 0
1000000 173 -411 0
1000000 411 -975 -978 -168 0
1000000 175 -412 0
1000000 412 -977 -970 -954 -168 0
1000000 178 -413 0
1000000 413 -979 -168 0
1000000 182 -414 0
1000000 414 -983 -980 -168 0
1000000 175 -415 0
1000000 415 -982 -169 0
1000000 178 -416 0
1000000 416 -990 -984 -981 -169 0
1000000 173 -417 0
1000000 417 -992 -985 -988 -170 0
1000000 175 -418 0
1000000 418 -987 -986 -170 0
1000000 101 -419 0
1000000 419 -996 -997 -989 -18 0
1000000 27 -420 0
1000000 420 -993 -995 -18 0
1000000 31 -421 0
1000000 421 -991 -18 0
1000000 39 -422 0
1000000 422 -976 -1001 -1004 -18 0
1000000 181 -423 0
1000000 423 -1003 -994 -171 0
1000000 185 -424 0
1000000 424 -998 -171 0
1000000 173 -425 0
1000000 425 -1010 -1002 -1000 -172 0
1000000 180 -426 0
1000000 426 -999 -172 0
1000000 177 -427 0
1000000 427 -1009 -1006 -173 0
1000000 179 -428 0
1000000 428 -1013 -1011 -1007 -173 0
1000000 175 -429 0
1000000 429 -1012 -1005 -174 0
1000000 181 -430 0
1000000 430 -1016 -1018 -174 0
1000000 177 -431 0
1000000 431 -1017 -1022 -1020 -175 0
1000000 189 -432 0
1000000 432 -1023 -785 -786 -175 0
1000000 180 -433 0
1000000 433 -1015 -176 0
1000000 185 -434 0
1000000 434 -1014 -176 0
1000000 182 -435 0
1000000 435 -1021 -177 0
1000000 183 -436 0
1000000 436 -1019 -1024 -177 0
1000000 180 -437 0
1000000 437 -1008 -178 0
1000000 183 -438 0
1000000 438 -787 -178 0
1000000 181 -439 0
1000000 439 -790 -791 -792 -179 0
1000000 189 -440 0
1000000 440 -793 -795 -179 0
1000000 184 -441 0
1000000 441 -794 -180 0
1000000 191 -442 0
1000000 442 -797 -796 -802 -180 0
1000000 22 -443 0
1000000 443 -805 -803 -789 -19 0
1000000 27 -444 0
1000000 444 -801 -798 -799 -19 0
1000000 185 -445 0
1000000 445 -788 -804 -181 0
1000000 188 -446 0
1000000 446 -813 -808 -800 -181 0
1000000 183 -447 0
1000000 447 -809 -182 0
1000000 185 -448 0
1000000 448 -812 -814 -182 0
1000000 190 -449 0
1000000 449 -810 -182 0
1000000 185 -450 0
1000000 450 -806 -820 -817 -183 0
1000000 196 -451 0
1000000 451 -811 -818 -183 0
1000000 188 -452 0
1000000 452 -807 -815 -822 -184 0
1000000 191 -453 0
1000000 453 -816 -184 0
1000000 186 -454 0
1000000 454 -826 -823 -827 -185 0
1000000 187 -455 0
1000000 455 -828 -829 -185 0
1000000 189 -456 0
1000000 456 -831 -830 -186 0
1000000 191 -457 0
1000000 457 -836 -833 -832 -186 0
1000000 188 -458 0
1000000 458 -824 -819 -835 -187 0
1000000 191 -459 0
1000000 459 -834 -187 0
1000000 190 -460 0
1000000 460 -825 -188 0
1000000 191 -461 0
1000000 461 -838 -821 -188 0
1000000 190 -462 0
1000000 462 -846 -840 -839 -189 0
1000000 195 -463 0
1000000 463 -843 -848 -837 -189 0
1000000 191 -464 0
1000000 464 -841 -190 0
1000000 193 -465 0
1000000 465 -847 -850 -190 0
1000000 113 -466 0
1000000 466 -852 -845 -851 -20 0
1000000 154 -467 0
1000000 467 -842 -20 0
1000000 28 -468 0
1000000 468 -855 -854 -20 0
1000000 32 -469 0
1000000 469 -849 -861 -859 -20 0
1000000 51 -470 0
1000000 470 -853 -20 0
1000000 192 -471 0
1000000 471 -844 -191 0
1000000 197 -472 0
1000000 472 -856 -857 -191 0
1000000 194 -473 0
1000000 473 -862 -858 -192 0
1000000 197 -474 0
1000000 474 -863 -192 0
1000000 194 -475 0
1000000 475 -864 -193 0
1000000 197 -476 0
1000000 476 -870 -868 -865 -193 0
1000000 196 -477 0
1000000 477 -874 -873 -869 -194 0
1000000 197 -478 0
1000000 478 -867 -872 -194 0
1000000 198 -479 0
1000000 479 -860 -195 0
1000000 21 -480 0
1000000 480 -866 -3 0
1000000 29 -481 0
1000000 481 -871 -882 -881 -3 0
1000000 6 -482 0
1000000 482 -876 -879 -3 0
1000000 8 -483 0
1000000 483 -880 -877 -884 -3 0
1000000 88 -484 0
1000000 484 -887 -888 -890 -3 0
1000000 22 -485 0
1000000 485 -875 -21 0
1000000 31 -486 0
1000000 486 -886 -878 -893 -21 0
1000000 30 -487 0
1000000 487 -892 -883 -885 -22 0
1000000 36 -488 0
1000000 488 -894 -22 0
1000000 37 -489 0
1000000 489 -897 -898 -889 -22 0
1000000 46 -490 0
1000000 490 -895 -896 -891 -22 0
1000000 73 -491 0
1000000 491 -903 -899 -22 0
1000000 168 -492 0
1000000 492 -904 -901 -23 0
1000000 27 -493 0
1000000 493 -902 -907 -23 0
1000000 29 -494 0
1000000 494 -909 -908 -905 -23 0
1000000 32 -495 0
1000000 495 -911 -912 -23 0
1000000 43 -496 0
1000000 496 -918 -910 -913 -23 0
1000000 52 -497 0
1000000 497 -906 -916 -23 0
1000000 80 -498 0
1000000 498 -920 -914 -23 0
1000000 100 -499 0
1000000 499 -915 -921 -23 0
1000000 28 -500 0
1000000 500 -924 -926 -900 -24 0
1000000 31 -501 0
1000000 501 -922 -923 -928 -24 0
1000000 32 -502 0
1000000 502 -925 -24 0
1000000 70 -503 0
1000000 503 -930 -927 -24 0
1000000 83 -504 0
1000000 504 -933 -919 -24 0
1000000 37 -505 0
1000000 505 -935 -932 -25 0
1000000 40 -506 0
1000000 506 -937 -938 -931 -25 0
1000000 50 -507 0
1000000 507 -943 -929 -917 -25 0
1000000 75 -508 0
1000000 508 -934 -25 0
1000000 124 -509 0
1000000 509 -944 -942 -26 0
1000000 27 -510 0
1000000 510 -940 -26 0
1000000 29 -511 0
1000000 511 -941 -26 0
1000000 48 -512 0
1000000 512 -939 -947 -949 -26 0
1000000 92 -513 0
1000000 513 -945 -26 0
1000000 28 -514 0
1000000 514 -948 -27 0
1000000 31 -515 0
1000000 515 -953 -954 -946 -27 0
1000000 33 -516 0
1000000 516 -957 -958 -951 -27 0
1000000 30 -517 0
1000000 517 -962 -956 -959 -28 0
1000000 32 -518 0
1000000 518 -960 -961 -28 0
1000000 34 -519 0
1000000 519 -950 -28 0
1000000 32 -520 0
1000000 520 -965 -967 -955 -29 0
1000000 35 -521 0
1000000 521 -964 -969 -971 -29 0
1000000 38 -522 0
1000000 522 -968 -970 -29 0
1000000 34 -523 0
1000000 523 -976 -963 -952 -30 0
1000000 37 -524 0
1000000 524 -973 -936 -30 0
1000000 47 -525 0
1000000 525 -974 -977 -972 -30 0
1000000 13 -526 0
1000000 526 -981 -975 -4 0
1000000 153 -527 0
1000000 527 -978 -4 0
1000000 176 -528 0
1000000 528 -986 -982 -979 -4 0
1000000 6 -529 0
1000000 529 -966 -4 0
1000000 172 -530 0
1000000 530 -984 -31 0
1000000 192 -531 0
1000000 531 -985 -31 0
1000000 33 -532 0
1000000 532 -990 -983 -31 0
1000000 36 -533 0
1000000 533 -988 -31 0
1000000 93 -534 0
1000000 534 -980 -31 0
1000000 48 -535 0
1000000 535 -987 -32 0
1000000 50 -536 0
1000000 536 -994 -989 -995 -32 0
1000000 37 -537 0
1000000 537 -991 -33 0
1000000 44 -538 0
1000000 538 -993 -996 -33 0
1000000 46 -539 0
1000000 539 -998 -997 -1004 -33 0
1000000 35 -540 0
1000000 540 -1000 -34 0
1000000 38 -541 0
1000000 541 -1002 -1005 -34 0
1000000 37 -542 0
1000000 542 -1003 -992 -35 0
1000000 38 -543 0
1000000 543 -999 -1007 -35 0
1000000 107 -544 0
1000000 544 -1001 -36 0
1000000 50 -545 0
1000000 545 -1013 -1015 -1010 -36 0
1000000 54 -546 0
1000000 546 -1006 -1014 -36 0
1000000 39 -547 0
1000000 547 -1012 -1008 -1018 -37 0
1000000 41 -548 0
1000000 548 -1011 -37 0
1000000 67 -549 0
1000000 549 -1016 -1017 -1022 -37 0
1000000 155 -550 0
1000000 550 -1009 -1020 -38 0
1000000 179 -551 0
1000000 551 -786 -1019 -38 0
1000000 42 -552 0
1000000 552 -1021 -38 0
1000000 46 -553 0
1000000 553 -788 -787 -789 -38 0
1000000 58 -554 0
1000000 554 -795 -791 -793 -38 0
1000000 42 -555 0
1000000 555 -785 -39 0
1000000 43 -556 0
1000000 556 -1024 -39 0
1000000 44 -557 0
1000000 557 -1023 -39 0
1000000 45 -558 0
1000000 558 -790 -39 0
1000000 84 -559 0
1000000 559 -794 -39 0
1000000 117 -560 0
1000000 560 -799 -803 -797 -40 0
1000000 184 -561 0
1000000 561 -801 -805 -804 -40 0
1000000 41 -562 0
1000000 562 -796 -808 -802 -40 0
1000000 60 -563 0
1000000 563 -792 -807 -40 0
1000000 61 -564 0
1000000 564 -798 -811 -40 0
1000000 11 -565 0
1000000 565 -810 -806 -5 0
1000000 14 -566 0
1000000 566 -814 -815 -818 -5 0
1000000 159 -567 0
1000000 567 -816 -817 -5 0
1000000 17 -568 0
1000000 568 -800 -821 -809 -5 0
1000000 164 -569 0
1000000 569 -826 -823 -812 -5 0
1000000 25 -570 0
1000000 570 -813 -5 0
1000000 44 -571 0
1000000 571 -827 -819 -5 0
1000000 6 -572 0
1000000 572 -829 -824 -5 0
1000000 8 -573 0
1000000 573 -820 -5 0
1000000 91 -574 0
1000000 574 -830 -831 -833 -5 0
1000000 128 -575 0
1000000 575 -828 -41 0
1000000 190 -576 0
1000000 576 -839 -837 -838 -41 0
1000000 45 -577 0
1000000 577 -836 -822 -41 0
1000000 50 -578 0
1000000 578 -832 -41 0
1000000 65 -579 0
1000000 579 -842 -843 -844 -41 0
1000000 46 -580 0
1000000 580 -835 -42 0
1000000 47 -581 0
1000000 581 -840 -42 0
1000000 44 -582 0
1000000 582 -847 -846 -43 0
1000000 45 -583 0
1000000 583 -825 -845 -43 0
1000000 162 -584 0
1000000 584 -834 -852 -850 -44 0
1000000 49 -585 0
1000000 585 -841 -44 0
1000000 51 -586 0
1000000 586 -848 -44 0
1000000 64 -587 0
1000000 587 -851 -44 0
1000000 79 -588 0
1000000 588 -849 -44 0
1000000 46 -589 0
1000000 589 -855 -853 -857 -45 0
1000000 53 -590 0
1000000 590 -858 -45 0
1000000 53 -591 0
1000000 591 -854 -46 0
1000000 57 -592 0
1000000 592 -856 -860 -861 -46 0
1000000 61 -593 0
1000000 593 -863 -46 0
1000000 62 -594 0
1000000 594 -862 -859 -865 -46 0
1000000 63 -595 0
1000000 595 -867 -46 0
1000000 193 -596 0
1000000 596 -869 -868 -47 0
1000000 50 -597 0
1000000 597 -873 -871 -47 0
1000000 54 -598 0
1000000 598 -864 -872 -870 -47 0
1000000 71 -599 0
1000000 599 -875 -874 -47 0
1000000 94 -600 0
1000000 600 -880 -866 -47 0
1000000 52 -601 0
1000000 601 -882 -876 -48 0
1000000 53 -602 0
1000000 602 -879 -48 0
1000000 69 -603 0
1000000 603 -877 -48 0
1000000 103 -604 0
1000000 604 -886 -878 -49 0
1000000 111 -605 0
1000000 605 -887 -884 -890 -49 0
1000000 118 -606 0
1000000 606 -883 -49 0
1000000 120 -607 0
1000000 607 -885 -49 0
1000000 126 -608 0
1000000 608 -888 -49 0
1000000 52 -609 0
1000000 609 -891 -49 0
1000000 56 -610 0
1000000 610 -898 -894 -893 -49 0
1000000 115 -611 0
1000000 611 -892 -50 0
1000000 53 -612 0
1000000 612 -895 -50 0
1000000 54 -613 0
1000000 613 -889 -897 -50 0
1000000 55 -614 0
1000000 614 -901 -900 -50 0
1000000 68 -615 0
1000000 615 -899 -907 -906 -50 0
1000000 11 -616 0
1000000 616 -896 -6 0
1000000 12 -617 0
1000000 617 -908 -904 -6 0
1000000 121 -618 0
1000000 618 -902 -6 0
1000000 7 -619 0
1000000 619 -910 -903 -912 -6 0
1000000 52 -620 0
1000000 620 -909 -51 0
1000000 54 -621 0
1000000 621 -881 -51 0
1000000 77 -622 0
1000000 622 -905 -917 -918 -51 0
1000000 97 -623 0
1000000 623 -921 -922 -916 -51 0
1000000 55 -624 0
1000000 624 -911 -52 0
1000000 57 -625 0
1000000 625 -913 -52 0
1000000 85 -626 0
1000000 626 -923 -919 -925 -52 0
1000000 158 -627 0
1000000 627 -920 -915 -53 0
1000000 54 -628 0
1000000 628 -932 -924 -927 -53 0
1000000 59 -629 0
1000000 629 -914 -928 -926 -53 0
1000000 56 -630 0
1000000 630 -936 -933 -934 -54 0
1000000 57 -631 0
1000000 631 -929 -54 0
1000000 58 -632 0
1000000 632 -931 -935 -54 0
1000000 180 -633 0
1000000 633 -939 -942 -930 -55 0
1000000 57 -634 0
1000000 634 -937 -55 0
1000000 59 -635 0
1000000 635 -941 -948 -943 -55 0
1000000 62 -636 0
1000000 636 -946 -940 -944 -56 0
1000000 65 -637 0
1000000 637 -938 -56 0
1000000 58 -638 0
1000000 638 -951 -949 -57 0
1000000 59 -639 0
1000000 639 -955 -945 -950 -57 0
1000000 98 -640 0
1000000 640 -953 -57 0
1000000 61 -641 0
1000000 641 -947 -58 0
1000000 62 -642 0
1000000 642 -952 -58 0
1000000 170 -643 0
1000000 643 -956 -962 -958 -59 0
1000000 60 -644 0
1000000 644 -960 -963 -59 0
1000000 69 -645 0
1000000 645 -954 -967 -957 -59 0
1000000 195 -646 0
1000000 646 -964 -60 0
1000000 61 -647 0
1000000 647 -970 -965 -966 -60 0
1000000 69 -648 0
1000000 648 -968 -60 0
1000000 11 -649 0
1000000 649 -959 -7 0
1000000 123 -650 0
1000000 650 -973 -971 -7 0
1000000 41 -651 0
1000000 651 -977 -979 -961 -7 0
1000000 10 -652 0
1000000 652 -972 -976 -980 -7 0
1000000 110 -653 0
1000000 653 -983 -975 -982 -61 0
1000000 62 -654 0
1000000 654 -974 -61 0
1000000 63 -655 0
1000000 655 -988 -989 -987 -61 0
1000000 140 -656 0
1000000 656 -969 -984 -62 0
1000000 73 -657 0
1000000 657 -991 -986 -62 0
1000000 74 -658 0
1000000 658 -992 -978 -62 0
1000000 64 -659 0
1000000 659 -994 -996 -997 -63 0
1000000 65 -660 0
1000000 660 -985 -63 0
1000000 133 -661 0
1000000 661 -998 -999 -64 0
1000000 76 -662 0
1000000 662 -1002 -1004 -1003 -64 0
1000000 86 -663 0
1000000 663 -981 -1007 -993 -64 0
1000000 68 -664 0
1000000 664 -1000 -65 0
1000000 88 -665 0
1000000 665 -1006 -1005 -65 0
1000000 187 -666 0
1000000 666 -990 -1010 -66 0
1000000 70 -667 0
1000000 667 -1012 -1009 -66 0
1000000 73 -668 0
1000000 668 -1008 -1001 -66 0
1000000 71 -669 0
1000000 669 -1015 -1014 -67 0
1000000 72 -670 0
1000000 670 -1013 -1011 -1021 -67 0
1000000 89 -671 0
1000000 671 -1020 -1017 -67 0
1000000 69 -672 0
1000000 672 -1016 -68 0
1000000 70 -673 0
1000000 673 -1024 -1018 -68 0
1000000 72 -674 0
1000000 674 -786 -1019 -995 -68 0
1000000 77 -675 0
1000000 675 -1023 -791 -789 -69 0
1000000 78 -676 0
1000000 676 -795 -1022 -785 -69 0
1000000 104 -677 0
1000000 677 -787 -794 -70 0
1000000 134 -678 0
1000000 678 -788 -796 -800 -70 0
1000000 144 -679 0
1000000 679 -793 -70 0
1000000 73 -680 0
1000000 680 -802 -792 -797 -70 0
1000000 74 -681 0
1000000 681 -804 -805 -798 -70 0
1000000 76 -682 0
1000000 682 -809 -807 -799 -70 0
1000000 13 -683 0
1000000 683 -806 -801 -8 0
1000000 33 -684 0
1000000 684 -812 -810 -8 0
1000000 57 -685 0
1000000 685 -811 -816 -817 -8 0
1000000 10 -686 0
1000000 686 -814 -803 -819 -8 0
1000000 129 -687 0
1000000 687 -790 -818 -71 0
1000000 73 -688 0
1000000 688 -815 -820 -823 -71 0
1000000 74 -689 0
1000000 689 -822 -824 -813 -71 0
1000000 76 -690 0
1000000 690 -826 -827 -72 0
1000000 79 -691 0
1000000 691 -808 -72 0
1000000 75 -692 0
1000000 692 -821 -825 -832 -73 0
1000000 79 -693 0
1000000 693 -829 -73 0
1000000 191 -694 0
1000000 694 -835 -831 -74 0
1000000 75 -695 0
1000000 695 -828 -74 0
1000000 81 -696 0
1000000 696 -834 -74 0
1000000 84 -697 0
1000000 697 -842 -833 -837 -74 0
1000000 86 -698 0
1000000 698 -838 -74 0
1000000 80 -699 0
1000000 699 -836 -75 0
1000000 86 -700 0
1000000 700 -840 -839 -830 -75 0
1000000 138 -701 0
1000000 701 -844 -847 -76 0
1000000 150 -702 0
1000000 702 -849 -843 -846 -76 0
1000000 161 -703 0
1000000 703 -848 -851 -855 -76 0
1000000 197 -704 0
1000000 704 -852 -841 -850 -76 0
1000000 81 -705 0
1000000 705 -853 -76 0
1000000 83 -706 0
1000000 706 -857 -858 -860 -76 0
1000000 196 -707 0
1000000 707 -845 -77 0
1000000 79 -708 0
1000000 708 -856 -77 0
1000000 84 -709 0
1000000 709 -861 -862 -77 0
1000000 79 -710 0
1000000 710 -854 -859 -78 0
1000000 80 -711 0
1000000 711 -867 -864 -868 -78 0
1000000 137 -712 0
1000000 712 -866 -865 -79 0
1000000 84 -713 0
1000000 713 -869 -79 0
1000000 88 -714 0
1000000 714 -872 -863 -870 -79 0
1000000 81 -715 0
1000000 715 -875 -873 -879 -80 0
1000000 84 -716 0
1000000 716 -877 -876 -80 0
1000000 14 -717 0
1000000 717 -878 -874 -885 -9 0
1000000 15 -718 0
1000000 718 -884 -871 -9 0
1000000 66 -719 0
1000000 719 -887 -886 -9 0
1000000 76 -720 0
1000000 720 -882 -883 -9 0
1000000 130 -721 0
1000000 721 -881 -880 -81 0
1000000 85 -722 0
1000000 722 -890 -893 -889 -81 0
1000000 90 -723 0
1000000 723 -898 -896 -892 -81 0
1000000 83 -724 0
1000000 724 -888 -895 -902 -82 0
1000000 85 -725 0
1000000 725 -891 -905 -899 -82 0
1000000 91 -726 0
1000000 726 -904 -900 -83 0
1000000 96 -727 0
1000000 727 -894 -83 0
1000000 86 -728 0
1000000 728 -907 -908 -897 -84 0
1000000 87 -729 0
1000000 729 -901 -906 -84 0
1000000 90 -730 0
1000000 730 -903 -84 0
1000000 99 -731 0
1000000 731 -911 -84 0
1000000 109 -732 0
1000000 732 -915 -912 -909 -85 0
1000000 116 -733 0
1000000 733 -913 -918 -85 0
1000000 142 -734 0
1000000 734 -916 -910 -85 0
1000000 149 -735 0
1000000 735 -922 -924 -921 -85 0
1000000 194 -736 0
1000000 736 -917 -923 -85 0
1000000 198 -737 0
1000000 737 -925 -919 -85 0
1000000 86 -738 0
1000000 738 -926 -85 0
1000000 87 -739 0
1000000 739 -927 -929 -85 0
1000000 92 -740 0
1000000 740 -932 -920 -930 -85 0
1000000 91 -741 0
1000000 741 -928 -86 0
1000000 92 -742 0
1000000 742 -936 -931 -86 0
1000000 104 -743 0
1000000 743 -934 -87 0
1000000 89 -744 0
1000000 744 -939 -942 -933 -87 0
1000000 182 -745 0
1000000 745 -941 -944 -943 -88 0
1000000 89 -746 0
1000000 746 -935 -88 0
1000000 100 -747 0
1000000 747 -946 -914 -88 0
1000000 91 -748 0
1000000 748 -945 -947 -950 -89 0
1000000 94 -749 0
1000000 749 -938 -951 -89 0
1000000 103 -750 0
1000000 750 -937 -90 0
1000000 107 -751 0
1000000 751 -949 -90 0
1000000 12 -752 0
1000000 752 -953 -948 -955 -10 0
1000000 18 -753 0
1000000 753 -940 -958 -952 -10 0
1000000 23 -754 0
1000000 754 -962 -957 -959 -10 0
1000000 40 -755 0
1000000 755 -964 -961 -10 0
1000000 96 -756 0
1000000 756 -956 -10 0
1000000 105 -757 0
1000000 757 -954 -91 0
1000000 112 -758 0
1000000 758 -969 -966 -970 -91 0
1000000 95 -759 0
1000000 759 -960 -91 0
1000000 94 -760 0
1000000 760 -965 -92 0
1000000 96 -761 0
1000000 761 -972 -968 -92 0
1000000 94 -762 0
1000000 762 -963 -93 0
1000000 98 -763 0
1000000 763 -973 -977 -967 -93 0
1000000 102 -764 0
1000000 764 -971 -974 -94 0
1000000 108 -765 0
1000000 765 -983 -980 -982 -94 0
1000000 99 -766 0
1000000 766 -975 -94 0
1000000 102 -767 0
1000000 767 -976 -981 -95 0
1000000 174 -768 0
1000000 768 -984 -988 -987 -95 0
1000000 97 -769 0
1000000 769 -989 -978 -95 0
1000000 160 -770 0
1000000 770 -991 -979 -96 0
1000000 97 -771 0
1000000 771 -985 -96 0
1000000 98 -772 0
1000000 772 -990 -96 0
1000000 98 -773 0
1000000 773 -993 -998 -992 -97 0
1000000 99 -774 0
1000000 774 -986 -997 -97 0
1000000 102 -775 0
1000000 775 -995 -98 0
1000000 106 -776 0
1000000 776 -996 -1001 -98 0
1000000 100 -777 0
1000000 777 -1002 -999 -98 0
1000000 102 -778 0
1000000 778 -1000 -99 0
1000000 105 -779 0
1000000 779 -1006 -1007 -99 0
1000000 105 -780 0
1000000 780 -1003 -100 0
1000000 106 -781 0
1000000 781 -1010 -994 -100 0
1000000 108 -782 0
1000000 782 -1005 -1011 -100 0
1000000 135 -783 0
1000000 783 -1008 -1013 -1009 -100 0
1000000 188 -784 0
1000000 784 -1016 -1004 -1019 -100 0
1000000 1 0
1000000 -2 199 0
1000000 -3 212 0
1000000 -4 206 0
1000000 -5 213 0
1000000 -6 572 529 482 0
1000000 -7 619 214 0
1000000 -8 483 573 0
1000000 -9 207 0
1000000 -10 209 686 652 215 0
1000000 -11 565 210 616 649 0
1000000 -12 752 617 0
1000000 -13 683 526 216 0
1000000 -14 717 248 217 566 200 211 0
1000000 -15 201 250 218 302 718 0
1000000 -16 203 0
1000000 -17 330 568 303 0
1000000 -18 361 753 0
1000000 -19 392 362 0
1000000 -20 219 0
1000000 -21 393 274 480 332 0
1000000 -22 443 205 275 485 0
1000000 -23 363 754 276 0
1000000 -24 251 394 0
1000000 -25 570 0
1000000 -26 364 0
1000000 -27 510 420 444 333 493 0
1000000 -28 468 500 514 0
1000000 -29 494 511 481 0
1000000 -30 487 517 334 0
1000000 -31 501 515 486 421 0
1000000 -32 495 520 518 502 469 0
1000000 -33 532 516 304 684 0
1000000 -34 523 519 0
1000000 -35 335 540 521 0
1000000 -36 533 488 0
1000000 -37 505 542 537 489 524 0
1000000 -38 522 541 543 0
1000000 -39 422 547 0
1000000 -40 755 506 0
1000000 -41 548 651 562 0
1000000 -42 555 552 0
1000000 -43 496 556 0
1000000 -44 582 557 571 538 0
1000000 -45 577 583 558 0
1000000 -46 539 580 553 490 589 0
1000000 -47 525 581 0
1000000 -48 512 535 0
1000000 -49 585 252 0
1000000 -50 507 597 545 578 536 0
1000000 -51 586 470 0
1000000 -52 609 620 497 601 0
1000000 -53 612 591 602 590 0
1000000 -54 598 621 546 628 613 0
1000000 -55 614 624 305 0
1000000 -56 630 610 0
1000000 -57 685 625 634 592 631 0
1000000 -58 638 632 554 0
1000000 -59 639 635 365 629 0
1000000 -60 563 644 0
1000000 -61 647 641 593 564 0
1000000 -62 636 654 594 642 0
1000000 -63 595 655 0
1000000 -64 659 587 0
1000000 -65 660 579 637 0
1000000 -66 719 0
1000000 -67 549 0
1000000 -68 664 336 615 0
1000000 -69 672 603 645 648 0
1000000 -70 667 503 673 0
1000000 -71 669 599 0
1000000 -72 670 674 0
1000000 -73 688 680 491 668 657 0
1000000 -74 681 658 689 0
1000000 -75 692 695 508 0
1000000 -76 662 720 690 682 0
1000000 -77 675 622 0
1000000 -78 277 676 0
1000000 -79 693 588 710 691 708 0
1000000 -80 711 498 699 0
1000000 -81 715 705 696 0
1000000 -82 208 0
1000000 -83 706 724 504 0
1000000 -84 697 713 559 716 709 0
1000000 -85 722 626 725 0
1000000 -86 663 700 728 738 698 0
1000000 -87 739 729 0
1000000 -88 484 665 714 0
1000000 -89 671 746 744 0
1000000 -90 730 723 0
1000000 -91 574 726 741 748 0
1000000 -92 740 513 742 0
1000000 -93 534 0
1000000 -94 600 749 762 760 0
1000000 -95 220 759 0
1000000 -96 761 756 727 0
1000000 -97 623 771 769 0
1000000 -98 772 640 773 763 0
1000000 -99 731 774 766 0
1000000 -100 499 747 777 0
1000000 -101 419 0
1000000 -102 764 767 778 775 0
1000000 -103 604 750 0
1000000 -104 677 743 0
1000000 -105 757 780 779 0
1000000 -106 228 776 233 230 781 0
1000000 -107 544 237 751 0
1000000 -108 234 765 782 0
1000000 -109 238 240 732 0
1000000 -110 653 224 0
1000000 -111 231 235 241 605 225 0
1000000 -112 221 244 229 758 0
1000000 -113 222 255 242 466 245 0
1000000 -114 253 226 256 0
1000000 -115 243 611 0
1000000 -116 733 0
1000000 -117 560 246 0
1000000 -118 254 606 0
1000000 -119 264 391 247 0
1000000 -120 607 265 258 262 0
1000000 -121 266 618 0
1000000 -122 263 270 301 272 0
1000000 -123 260 650 280 0
1000000 -124 267 261 509 0
1000000 -125 259 282 359 0
1000000 -126 271 608 278 0
1000000 -127 286 239 279 0
1000000 -128 575 288 0
1000000 -129 281 687 291 273 0
1000000 -130 721 289 283 294 0
1000000 -131 328 0
1000000 -132 297 299 232 0
1000000 -133 306 287 661 268 0
1000000 -134 678 298 307 295 0
1000000 -135 783 292 0
1000000 -136 312 293 0
1000000 -137 313 284 300 712 0
1000000 -138 701 308 0
1000000 -139 249 309 0
1000000 -140 323 319 656 314 321 310 0
1000000 -141 202 317 320 0
1000000 -142 322 318 734 0
1000000 -143 324 340 223 0
1000000 -144 285 679 0
1000000 -145 329 337 0
1000000 -146 338 269 345 315 0
1000000 -147 346 290 0
1000000 -148 349 341 360 0
1000000 -149 735 353 311 347 0
1000000 -150 702 351 0
1000000 -151 257 352 0
1000000 -152 339 0
1000000 -153 355 527 350 0
1000000 -154 348 368 467 316 0
1000000 -155 343 370 372 366 550 0
1000000 -156 325 356 344 354 375 0
1000000 -157 373 379 357 0
1000000 -158 371 369 376 627 0
1000000 -159 567 367 0
1000000 -160 770 374 0
1000000 -161 703 380 326 384 387 0
1000000 -162 389 395 388 584 382 0
1000000 -163 385 204 0
1000000 -164 398 401 569 377 383 0
1000000 -165 396 342 402 399 358 0
1000000 -166 405 400 0
1000000 -167 227 403 0
1000000 -168 406 407 492 409 0
1000000 -169 381 390 0
1000000 -170 404 643 410 0
1000000 -171 327 0
1000000 -172 530 0
1000000 -173 378 411 417 425 0
1000000 -174 768 0
1000000 -175 429 412 418 415 0
1000000 -176 528 0
1000000 -177 427 431 236 0
1000000 -178 416 413 0
1000000 -179 428 408 551 0
1000000 -180 426 433 633 437 0
1000000 -181 439 331 430 423 0
1000000 -182 435 414 745 0
1000000 -183 436 386 447 438 0
1000000 -184 441 561 0
1000000 -185 445 448 424 434 450 0
1000000 -186 296 454 0
1000000 -187 455 666 0
1000000 -188 446 784 458 452 0
1000000 -189 440 397 432 456 0
1000000 -190 462 460 576 449 0
1000000 -191 457 453 442 464 459 694 461 0
1000000 -192 531 471 0
1000000 -193 596 465 0
1000000 -194 473 736 475 0
1000000 -195 646 463 0
1000000 -196 707 451 477 0
1000000 -197 472 478 474 704 476 0
1000000 -198 737 479 0
1000000 785 1042 0
1000000 786 1097 0
1000000 787 1027 0
1000000 788 1063 0
1000000 789 1026 0
1000000 790 1058 0
1000000 791 1083 0
1000000 792 1054 0
1000000 793 1079 0
1000000 794 1039 0
1000000 795 1061 0
1000000 796 1071 0
1000000 797 1087 0
1000000 798 1028 0
1000000 799 1087 0
1000000 800 1040 0
1000000 801 1077 0
1000000 802 1053 0
1000000 803 1097 0
1000000 804 1096 0
1000000 805 1086 0
1000000 806 1036 0
1000000 807 1041 0
1000000 808 1027 0
1000000 809 1100 0
1000000 810 1050 0
1000000 811 1053 0
1000000 812 1054 0
1000000 813 1093 0
1000000 814 1093 0
1000000 815 1027 0
1000000 816 1036 0
1000000 817 1036 0
1000000 818 1067 0
1000000 819 1031 0
1000000 820 1057 0
1000000 821 1042 0
1000000 822 1100 0
1000000 823 1104 0
1000000 824 1101 0
1000000 825 1057 0
1000000 826 1045 0
1000000 827 1089 0
1000000 828 1066 0
1000000 829 1033 0
1000000 830 1067 0
1000000 831 1091 0
1000000 832 1056 0
1000000 833 1073 0
1000000 834 1091 0
1000000 835 1059 0
1000000 836 1080 0
1000000 837 1098 0
1000000 838 1063 0
1000000 839 1031 0
1000000 840 1091 0
1000000 841 1083 0
1000000 842 1032 0
1000000 843 1067 0
1000000 844 1046 0
1000000 845 1097 0
1000000 846 1044 0
1000000 847 1045 0
1000000 848 1034 0
1000000 849 1090 0
1000000 850 1030 0
1000000 851 1081 0
1000000 852 1064 0
1000000 853 1070 0
1000000 854 1099 0
1000000 855 1051 0
1000000 856 1038 0
1000000 857 1082 0
1000000 858 1102 0
1000000 859 1064 0
1000000 860 1065 0
1000000 861 1101 0
1000000 862 1068 0
1000000 863 1096 0
1000000 864 1080 0
1000000 865 1093 0
1000000 866 1077 0
1000000 867 1034 0
1000000 868 1049 0
1000000 869 1031 0
1000000 870 1065 0
1000000 871 1095 0
1000000 872 1063 0
1000000 873 1087 0
1000000 874 1104 0
1000000 875 1077 0
1000000 876 1050 0
1000000 877 1102 0
1000000 878 1104 0
1000000 879 1092 0
1000000 880 1061 0
1000000 881 1055 0
1000000 882 1056 0
1000000 883 1092 0
1000000 884 1065 0
1000000 885 1045 0
1000000 886 1079 0
1000000 887 1088 0
1000000 888 1033 0
1000000 889 1040 0
1000000 890 1056 0
1000000 891 1078 0
1000000 892 1040 0
1000000 893 1078 0
1000000 894 1058 0
1000000 895 1095 0
1000000 896 1059 0
1000000 897 1054 0
1000000 898 1083 0
1000000 899 1094 0
1000000 900 1030 0
1000000 901 1092 0
1000000 902 1038 0
1000000 903 1030 0
1000000 904 1078 0
1000000 905 1086 0
1000000 906 1048 0
1000000 907 1098 0
1000000 908 1095 0
1000000 909 1028 0
1000000 910 1100 0
1000000 911 1038 0
1000000 912 1070 0
1000000 913 1089 0
1000000 914 1068 0
1000000 915 1099 0
1000000 916 1048 0
1000000 917 1060 0
1000000 918 1044 0
1000000 919 1034 0
1000000 920 1090 0
1000000 921 1076 0
1000000 922 1041 0
1000000 923 1098 0
1000000 924 1058 0
1000000 925 1082 0
1000000 926 1084 0
1000000 927 1060 0
1000000 928 1079 0
1000000 929 1074 0
1000000 930 1029 0
1000000 931 1089 0
1000000 932 1033 0
1000000 933 1037 0
1000000 934 1044 0
1000000 935 1064 0
1000000 936 1073 0
1000000 937 1059 0
1000000 938 1048 0
1000000 939 1066 0
1000000 940 1060 0
1000000 941 1047 0
1000000 942 1072 0
1000000 943 1068 0
1000000 944 1073 0
1000000 945 1096 0
1000000 946 1035 0
1000000 947 1088 0
1000000 948 1061 0
1000000 949 1076 0
1000000 950 1028 0
1000000 951 1047 0
1000000 952 1103 0
1000000 953 1101 0
1000000 954 1088 0
1000000 955 1042 0
1000000 956 1051 0
1000000 957 1072 0
1000000 958 1084 0
1000000 959 1090 0
1000000 960 1070 0
1000000 961 1057 0
1000000 962 1074 0
1000000 963 1032 0
1000000 964 1039 0
1000000 965 1026 0
1000000 966 1071 0
1000000 967 1082 0
1000000 968 1074 0
1000000 969 1046 0
1000000 970 1050 0
1000000 971 1043 0
1000000 972 1099 0
1000000 973 1072 0
1000000 974 1102 0
1000000 975 1035 0
1000000 976 1076 0
1000000 977 1035 0
1000000 978 1029 0
1000000 979 1039 0
1000000 980 1032 0
1000000 981 1062 0
1000000 982 1071 0
1000000 983 1052 0
1000000 984 1080 0
1000000 985 1081 0
1000000 986 1025 0
1000000 987 1043 0
1000000 988 1037 0
1000000 989 1062 0
1000000 990 1041 0
1000000 991 1075 0
1000000 992 1047 0
1000000 993 1025 0
1000000 994 1075 0
1000000 995 1029 0
1000000 996 1043 0
1000000 997 1066 0
1000000 998 1053 0
1000000 999 1025 0
1000000 1000 1052 0
1000000 1001 1037 0
1000000 1002 1046 0
1000000 1003 1086 0
1000000 1004 1052 0
1000000 1005 1085 0
1000000 1006 1103 0
1000000 1007 1049 0
1000000 1008 1049 0
1000000 1009 1069 0
1000000 1010 1062 0
1000000 1011 1069 0
1000000 1012 1026 0
1000000 1013 1051 0
1000000 1014 1055 0
1000000 1015 1055 0
1000000 1016 1085 0
1000000 1017 1069 0
1000000 1018 1075 0
1000000 1019 1081 0
1000000 1020 1103 0
1000000 1021 1085 0
1000000 1022 1084 0
1000000 1023 1094 0
1000000 1024 1094 0
1000000 -785 -1042 0
1000000 -786 -1097 0
1000000 -787 -1027 0
1000000 -788 -1063 0
1000000 -789 -1026 0
1000000 -790 -1058 0
1000000 -791 -1083 0
1000000 -792 -1054 0
1000000 -793 -1079 0
1000000 -794 -1039 0
1000000 -795 -1061 0
1000000 -796 -1071 0
1000000 -797 -1087 0
1000000 -798 -1028 0
1000000 -799 -1087 0
1000000 -800 -1040 0
1000000 -801 -1077 0
1000000 -802 -1053 0
1000000 -803 -1097 0
1000000 -804 -1096 0
1000000 -805 -1086 0
1000000 -806 -1036 0
1000000 -807 -1041 0
1000000 -808 -1027 0
1000000 -809 -1100 0
1000000 -810 -1050 0
1000000 -811 -1053 0
1000000 -812 -1054 0
1000000 -813 -1093 0
1000000 -814 -1093 0
1000000 -815 -1027 0
1000000 -816 -1036 0
1000000 -817 -1036 0
1000000 -818 -1067 0
1000000 -819 -1031 0
1000000 -820 -1057 0
1000000 -821 -1042 0
1000000 -822 -1100 0
1000000 -823 -1104 0
1000000 -824 -1101 0
1000000 -825 -1057 0
1000000 -826 -1045 0
1000000 -827 -1089 0
1000000 -828 -1066 0
1000000 -829 -1033 0
1000000 -830 -1067 0
1000000 -831 -1091 0
1000000 -832 -1056 0
1000000 -833 -1073 0
1000000 -834 -1091 0
1000000 -835 -1059 0
1000000 -836 -1080 0
1000000 -837 -1098 0
1000000 -838 -1063 0
1000000 -839 -1031 0
1000000 -840 -1091 0
1000000 -841 -1083 0
1000000 -842 -1032 0
1000000 -843 -1067 0
1000000 -844 -1046 0
1000000 -845 -1097 0
1000000 -846 -1044 0
1000000 -847 -1045 0
1000000 -848 -1034 0
1000000 -849 -1090 0
1000000 -850 -1030 0
1000000 -851 -1081 0
1000000 -852 -1064 0
1000000 -853 -1070 0
1000000 -854 -1099 0
1000000 -855 -1051 0
1000000 -856 -1038 0
1000000 -857 -1082 0
1000000 -858 -1102 0
1000000 -859 -1064 0
1000000 -860 -1065 0
1000000 -861 -1101 0
1000000 -862 -1068 0
1000000 -863 -1096 0
1000000 -864 -1080 0
1000000 -865 -1093 0
1000000 -866 -1077 0
1000000 -867 -1034 0
1000000 -868 -1049 0
1000000 -869 -1031 0
1000000 -870 -1065 0
1000000 -871 -1095 0
1000000 -872 -1063 0
1000000 -873 -1087 0
1000000 -874 -1104 0
1000000 -875 -1077 0
1000000 -876 -1050 0
1000000 -877 -1102 0
1000000 -878 -1104 0
1000000 -879 -1092 0
1000000 -880 -1061 0
1000000 -881 -1055 0
1000000 -882 -1056 0
1000000 -883 -1092 0
1000000 -884 -1065 0
1000000 -885 -1045 0
1000000 -886 -1079 0
1000000 -887 -1088 0
1000000 -888 -1033 0
1000000 -889 -1040 0
1000000 -890 -1056 0
1000000 -891 -1078 0
1000000 -892 -1040 0
1000000 -893 -1078 0
1000000 -894 -1058 0
1000000 -895 -1095 0
1000000 -896 -1059 0
1000000 -897 -1054 0
1000000 -898 -1083 0
1000000 -899 -1094 0
1000000 -900 -1030 0
1000000 -901 -1092 0
1000000 -902 -1038 0
1000000 -903 -1030 0
1000000 -904 -1078 0
1000000 -905 -1086 0
1000000 -906 -1048 0
1000000 -907 -1098 0
1000000 -908 -1095 0
1000000 -909 -1028 0
1000000 -910 -1100 0
1000000 -911 -1038 0
1000000 -912 -1070 0
1000000 -913 -1089 0
1000000 -914 -1068 0
1000000 -915 -1099 0
1000000 -916 -1048 0
1000000 -917 -1060 0
1000000 -918 -1044 0
1000000 -919 -1034 0
1000000 -920 -1090 0
1000000 -921 -1076 0
1000000 -922 -1041 0
1000000 -923 -1098 0
1000000 -924 -1058 0
1000000 -925 -1082 0
1000000 -926 -1084 0
1000000 -927 -1060 0
1000000 -928 -1079 0
1000000 -929 -1074 0
1000000 -930 -1029 0
1000000 -931 -1089 0
1000000 -932 -1033 0
1000000 -933 -1037 0
1000000 -934 -1044 0
1000000 -935 -1064 0
1000000 -936 -1073 0
1000000 -937 -1059 0
1000000 -938 -1048 0
1000000 -939 -1066 0
1000000 -940 -1060 0
1000000 -941 -1047 0
1000000 -942 -1072 0
1000000 -943 -1068 0
1000000 -944 -1073 0
1000000 -945 -1096 0
1000000 -946 -1035 0
1000000 -947 -1088 0
1000000 -948 -1061 0
1000000 -949 -1076 0
1000000 -950 -1028 0
1000000 -951 -1047 0
1000000 -952 -1103 0
1000000 -953 -1101 0
1000000 -954 -1088 0
1000000 -955 -1042 0
1000000 -956 -1051 0
1000000 -957 -1072 0
1000000 -958 -1084 0
1000000 -959 -1090 0
1000000 -960 -1070 0
1000000 -961 -1057 0
1000000 -962 -1074 0
1000000 -963 -1032 0
1000000 -964 -1039 0
1000000 -965 -1026 0
1000000 -966 -1071 0
1000000 -967 -1082 0
1000000 -968 -1074 0
1000000 -969 -1046 0
1000000 -970 -1050 0
1000000 -971 -1043 0
1000000 -972 -1099 0
1000000 -973 -1072 0
1000000 -974 -1102 0
1000000 -975 -1035 0
1000000 -976 -1076 0
1000000 -977 -1035 0
1000000 -978 -1029 0
1000000 -979 -1039 0
1000000 -980 -1032 0
1000000 -981 -1062 0
1000000 -982 -1071 0
1000000 -983 -1052 0
1000000 -984 -1080 0
1000000 -985 -1081 0
1000000 -986 -1025 0
1000000 -987 -1043 0
1000000 -988 -1037 0
1000000 -989 -1062 0
1000000 -990 -1041 0
1000000 -991 -1075 0
1000000 -992 -1047 0
1000000 -993 -1025 0
1000000 -994 -1075 0
1000000 -995 -1029 0
1000000 -996 -1043 0
1000000 -997 -1066 0
1000000 -998 -1053 0
1000000 -999 -1025 0
1000000 -1000 -1052 0
1000000 -1001 -1037 0
1000000 -1002 -1046 0
1000000 -1003 -1086 0
1000000 -1004 -1052 0
1000000 -1005 -1085 0
1000000 -1006 -1103 0
1000000 -1007 -1049 0
1000000 -1008 -1049 0
1000000 -1009 -1069 0
1000000 -1010 -1062 0
1000000 -1011 -1069 0
1000000 -1012 -1026 0
1000000 -1013 -1051 0
1000000 -1014 -1055 0
1000000 -1015 -1055 0
1000000 -1016 -1085 0
1000000 -1017 -1069 0
1000000 -1018 -1075 0
1000000 -1019 -1081 0
1000000 -1020 -1103 0
1000000 -1021 -1085 0
1000000 -1022 -1084 0
1000000 -1023 -1094 0
1000000 -1024 -1094 0
6800 -1025 0
7100 -1026 0
6700 -1027 0
6800 -1028 0
7600 -1029 0
12500 -1030 0
6800 -1031 0
6800 -1032 0
13100 -1033 0
13100 -1034 0
7800 -1035 0
6700 -1036 0
7800 -1037 0
14900 -1038 0
13100 -1039 0
6800 -1040 0
7100 -1041 0
13100 -1042 0
7800 -1043 0
7600 -1044 0
11000 -1045 0
7800 -1046 0
13100 -1047 0
14900 -1048 0
8000 -1049 0
14900 -1050 0
7600 -1051 0
7800 -1052 0
6800 -1053 0
6700 -1054 0
8700 -1055 0
6800 -1056 0
7600 -1057 0
6700 -1058 0
7100 -1059 0
7800 -1060 0
6800 -1061 0
7800 -1062 0
6800 -1063 0
14900 -1064 0
6700 -1065 0
8000 -1066 0
6700 -1067 0
12500 -1068 0
8400 -1069 0
14900 -1070 0
11000 -1071 0
12500 -1072 0
7800 -1073 0
12500 -1074 0
8000 -1075 0
7100 -1076 0
6700 -1077 0
12500 -1078 0
7100 -1079 0
7600 -1080 0
16200 -1081 0
7800 -1082 0
6700 -1083 0
12500 -1084 0
7600 -1085 0
6800 -1086 0
6800 -1087 0
7800 -1088 0
12500 -1089 0
8000 -1090 0
16200 -1091 0
7600 -1092 0
11000 -1093 0
13100 -1094 0
7100 -1095 0
6800 -1096 0
13100 -1097 0
8000 -1098 0
13100 -1099 0
12500 -1100 0
14900 -1101 0
7800 -1102 0
7100 -1103 0
6700 -1104 0
4000 785 0
4000 786 0
3500 787 0
3800 788 0
3800 789 0
3500 790 0
4000 791 0
3500 792 0
3800 793 0
1500 794 0
1900 795 0
1500 796 0
1500 797 0
1500 798 0
4000 799 0
1500 800 0
1900 801 0
1900 802 0
4000 803 0
4000 804 0
3800 805 0
1900 806 0
1900 807 0
1300 808 0
3000 809 0
3500 810 0
1500 811 0
1300 812 0
4000 813 0
3500 814 0
1500 815 0
1300 816 0
3800 817 0
3800 818 0
1500 819 0
3000 820 0
4000 821 0
3500 822 0
3500 823 0
3000 824 0
3500 825 0
3000 826 0
3500 827 0
3300 828 0
1700 829 0
3500 830 0
3100 831 0
2600 832 0
2900 833 0
1500 834 0
1300 835 0
1200 836 0
3500 837 0
1500 838 0
3100 839 0
1200 840 0
3000 841 0
1700 842 0
1500 843 0
2600 844 0
2800 845 0
1700 846 0
3000 847 0
3500 848 0
2600 849 0
2600 850 0
3100 851 0
3300 852 0
3000 853 0
1700 854 0
3000 855 0
1200 856 0
3300 857 0
3300 858 0
1200 859 0
3000 860 0
1300 861 0
1200 862 0
3500 863 0
3000 864 0
1200 865 0
1300 866 0
1200 867 0
1300 868 0
1700 869 0
1200 870 0
1900 871 0
3000 872 0
3000 873 0
3500 874 0
3500 875 0
3000 876 0
3500 877 0
4000 878 0
1300 879 0
1300 880 0
2600 881 0
1700 882 0
3300 883 0
4000 884 0
4000 885 0
3500 886 0
3500 887 0
3800 888 0
1300 889 0
1900 890 0
1700 891 0
1300 892 0
3500 893 0
3500 894 0
1500 895 0
3000 896 0
1300 897 0
1700 898 0
3500 899 0
3500 900 0
3300 901 0
1700 902 0
1700 903 0
1300 904 0
3000 905 0
3300 906 0
3300 907 0
1700 908 0
2900 909 0
1700 910 0
3300 911 0
3000 912 0
3100 913 0
3300 914 0
2600 915 0
3100 916 0
3300 917 0
3100 918 0
3500 919 0
3000 920 0
2900 921 0
1200 922 0
3500 923 0
3500 924 0
1300 925 0
3500 926 0
3000 927 0
1700 928 0
3100 929 0
2900 930 0
3500 931 0
3500 932 0
3500 933 0
2900 934 0
1300 935 0
1300 936 0
1500 937 0
3300 938 0
3100 939 0
3500 940 0
4000 941 0
3300 942 0
3000 943 0
2900 944 0
1700 945 0
1200 946 0
2600 947 0
1700 948 0
3100 949 0
1700 950 0
1700 951 0
1700 952 0
1700 953 0
1500 954 0
1700 955 0
3500 956 0
3500 957 0
1300 958 0
1700 959 0
1200 960 0
3000 961 0
3000 962 0
3000 963 0
1300 964 0
3100 965 0
3300 966 0
2900 967 0
1700 968 0
1300 969 0
3100 970 0
3500 971 0
3500 972 0
3000 973 0
1200 974 0
1700 975 0
4000 976 0
3100 977 0
3000 978 0
1300 979 0
3500 980 0
3000 981 0
3500 982 0
3500 983 0
2400 984 0
3100 985 0
3000 986 0
2900 987 0
3500 988 0
1200 989 0
3000 990 0
3300 991 0
1700 992 0
3800 993 0
3500 994 0
1700 995 0
1200 996 0
3000 997 0
1300 998 0
1700 999 0
3300 1000 0
1700 1001 0
3000 1002 0
3300 1003 0
3300 1004 0
2900 1005 0
2600 1006 0
3300 1007 0
3500 1008 0
3100 1009 0
1200 1010 0
2600 1011 0
1200 1012 0
3100 1013 0
1200 1014 0
3100 1015 0
3500 1016 0
3100 1017 0
3300 1018 0
1500 1019 0
1900 1020 0
1300 1021 0
3500 1022 0
2900 1023 0
3500 1024 0
5265 -199 0
20845 -212 0
1656 -206 0
5985 -213 0
16736 572 529 -482 0
7845 572 -529 482 0
22071 572 -529 -482 0
39225 -572 529 482 0
43409 -572 529 -482 0
41186 -572 -529 482 0
44743 -572 -529 -482 0
16736 619 -214 0
2615 -619 214 0
18514 -619 -214 0
12960 483 -573 0
9360 -483 573 0
13896 -483 -573 0
25190 -207 0
4600 209 686 652 -215 0
20700 209 686 -652 215 0
23230 209 686 -652 -215 0
43700 209 -686 652 215 0
43930 209 -686 652 -215 0
44735 209 -686 -652 215 0
44861 209 -686 -652 -215 0
32200 -209 686 652 215 0
33580 -209 686 652 -215 0
38410 -209 686 -652 215 0
39169 -209 686 -652 -215 0
45310 -209 -686 652 215 0
45379 -209 -686 652 -215 0
45620 -209 -686 -652 215 0
45658 -209 -686 -652 -215 0
28710 565 210 616 -649 0
15660 565 210 -616 649 0
35757 565 210 -616 -649 0
2610 565 -210 616 649 0
29885 565 -210 616 -649 0
17487 565 -210 -616 649 0
36579 565 -210 -616 -649 0
20880 -565 210 616 649 0
38106 -565 210 616 -649 0
30276 -565 210 -616 649 0
42334 -565 210 -616 -649 0
22446 -565 -210 616 649 0
38811 -565 -210 616 -649 0
31372 -565 -210 -616 649 0
42827 -565 -210 -616 -649 0
4680 752 -617 0
3952 -752 617 0
6854 -752 -617 0
41760 683 526 -216 0
39150 683 -526 216 0
49590 683 -526 -216 0
44370 -683 526 216 0
50634 -683 526 -216 0
50243 -683 -526 216 0
51809 -683 -526 -216 0
2106 717 248 217 566 200 -211 0
4446 717 248 217 566 -200 211 0
5752 717 248 217 566 -200 -211 0
2925 717 248 217 -566 200 211 0
4505 717 248 217 -566 200 -211 0
6260 717 248 217 -566 -200 211 0
7239 717 248 217 -566 -200 -211 0
3744 717 248 -217 566 200 211 0
5176 717 248 -217 566 200 -211 0
6767 717 248 -217 566 -200 211 0
7655 717 248 -217 566 -200 -211 0
5733 717 248 -217 -566 200 211 0
6807 717 248 -217 -566 200 -211 0
8000 717 248 -217 -566 -200 211 0
8666 717 248 -217 -566 -200 -211 0
11115 717 -248 217 566 200 211 0
11220 717 -248 217 566 200 -211 0
11337 717 -248 217 566 -200 211 0
11403 717 -248 217 566 -200 -211 0
11261 717 -248 217 -566 200 211 0
11340 717 -248 217 -566 200 -211 0
11428 717 -248 217 -566 -200 211 0
11477 717 -248 217 -566 -200 -211 0
11302 717 -248 -217 566 200 211 0
11374 717 -248 -217 566 200 -211 0
11453 717 -248 -217 566 -200 211 0
11498 717 -248 -217 566 -200 -211 0
11402 717 -248 -217 -566 200 211 0
11455 717 -248 -217 -566 200 -211 0
11515 717 -248 -217 -566 -200 211 0
11548 717 -248 -217 -566 -200 -211 0
9360 -717 248 217 566 200 211 0
9781 -717 248 217 566 200 -211 0
10249 -717 248 217 566 -200 211 0
10510 -717 248 217 566 -200 -211 0
9945 -717 248 217 -566 200 211 0
10261 -717 248 217 -566 200 -211 0
10612 -717 248 217 -566 -200 211 0
10808 -717 248 217 -566 -200 -211 0
10109 -717 248 -217 566 200 211 0
10395 -717 248 -217 566 200 -211 0
10713 -717 248 -217 566 -200 211 0
10891 -717 248 -217 566 -200 -211 0
10507 -717 248 -217 -566 200 211 0
10721 -717 248 -217 -566 200 -211 0
10960 -717 248 -217 -566 -200 211 0
11093 -717 248 -217 -566 -200 -211 0
11583 -717 -248 217 566 200 211 0
11604 -717 -248 217 566 200 -211 0
11627 -717 -248 217 566 -200 211 0
11641 -717 -248 217 566 -200 -211 0
11612 -717 -248 217 -566 200 211 0
11628 -717 -248 217 -566 200 -211 0
11646 -717 -248 217 -566 -200 211 0
11655 -717 -248 217 -566 -200 -211 0
11620 -717 -248 -217 566 200 211 0
11635 -717 -248 -217 566 200 -211 0
11651 -717 -248 -217 566 -200 211 0
11660 -717 -248 -217 566 -200 -211 0
11640 -717 -248 -217 -566 200 211 0
11651 -717 -248 -217 -566 200 -211 0
11663 -717 -248 -217 -566 -200 211 0
11670 -717 -248 -217 -566 -200 -211 0
27600 201 250 218 302 -718 0
4600 201 250 218 -302 718 0
29440 201 250 218 -302 -718 0
25300 201 250 -218 302 718 0
37720 201 250 -218 302 -718 0
27370 201 250 -218 -302 718 0
38548 201 250 -218 -302 -718 0
41400 201 -250 218 302 718 0
44160 201 -250 218 302 -718 0
41860 201 -250 218 -302 718 0
44344 201 -250 218 -302 -718 0
43930 201 -250 -218 302 718 0
45172 201 -250 -218 302 -718 0
44137 201 -250 -218 -302 718 0
45255 201 -250 -218 -302 -718 0
920 -201 250 218 302 718 0
27968 -201 250 218 302 -718 0
5428 -201 250 218 -302 718 0
29771 -201 250 218 -302 -718 0
25714 -201 250 -218 302 718 0
37886 -201 250 -218 302 -718 0
27743 -201 250 -218 -302 718 0
38697 -201 250 -218 -302 -718 0
41492 -201 -250 218 302 718 0
44197 -201 -250 218 302 -718 0
41943 -201 -250 218 -302 718 0
44377 -201 -250 218 -302 -718 0
43971 -201 -250 -218 302 718 0
45189 -201 -250 -218 302 -718 0
44174 -201 -250 -218 -302 718 0
45270 -201 -250 -218 -302 -718 0
6660 -203 0
1040 330 568 -303 0
1560 330 -568 303 0
2444 330 -568 -303 0
1872 -330 568 303 0
2725 -330 568 -303 0
3151 -330 -568 303 0
3876 -330 -568 -303 0
6822 361 -753 0
12128 -361 753 0
16767 -361 -753 0
7830 392 -362 0
2610 -392 362 0
10048 -392 -362 0
10206 -219 0
6240 393 274 480 -332 0
6760 393 274 -480 332 0
8944 393 274 -480 -332 0
520 393 -274 480 332 0
6448 393 -274 480 -332 0
6942 393 -274 -480 332 0
9017 393 -274 -480 -332 0
5720 -393 274 480 332 0
8528 -393 274 480 -332 0
8762 -393 274 -480 332 0
9745 -393 274 -480 -332 0
5954 -393 -274 480 332 0
8622 -393 -274 480 -332 0
8844 -393 -274 -480 332 0
9778 -393 -274 -480 -332 0
1840 443 205 275 -485 0
7360 443 205 -275 485 0
7728 443 205 -275 -485 0
1380 443 -205 275 485 0
2944 443 -205 275 -485 0
7636 443 -205 -275 485 0
7949 443 -205 -275 -485 0
3680 -443 205 275 485 0
4784 -443 205 275 -485 0
8096 -443 205 -275 485 0
8317 -443 205 -275 -485 0
4508 -443 -205 275 485 0
5446 -443 -205 275 -485 0
8262 -443 -205 -275 485 0
8449 -443 -205 -275 -485 0
4680 363 754 -276 0
6240 363 -754 276 0
8112 363 -754 -276 0
6240 -363 754 276 0
8112 -363 754 -276 0
8736 -363 -754 276 0
9485 -363 -754 -276 0
10735 251 -394 0
8475 -251 394 0
11159 -251 -394 0
19845 -570 0
3790 -364 0
14402 510 420 444 333 -493 0
11370 510 420 444 -333 493 0
21451 510 420 444 -333 -493 0
3790 510 420 -444 333 493 0
16752 510 420 -444 333 -493 0
14023 510 420 -444 -333 493 0
23096 510 420 -444 -333 -493 0
18950 510 -420 444 333 493 0
26151 510 -420 444 333 -493 0
24635 510 -420 444 -333 493 0
29676 510 -420 444 -333 -493 0
20845 510 -420 -444 333 493 0
27326 510 -420 -444 333 -493 0
25962 510 -420 -444 -333 493 0
30498 510 -420 -444 -333 -493 0
24635 -510 420 444 333 493 0
29676 -510 420 444 333 -493 0
28614 -510 420 444 -333 493 0
32143 -510 420 444 -333 -493 0
25962 -510 420 -444 333 493 0
30498 -510 420 -444 333 -493 0
29543 -510 420 -444 -333 493 0
32719 -510 420 -444 -333 -493 0
31268 -510 -420 444 333 493 0
33788 -510 -420 444 333 -493 0
33257 -510 -420 444 -333 493 0
35021 -510 -420 444 -333 -493 0
31931 -510 -420 -444 333 493 0
34199 -510 -420 -444 333 -493 0
33722 -510 -420 -444 -333 493 0
35309 -510 -420 -444 -333 -493 0
7920 468 500 -514 0
1440 468 -500 514 0
8568 468 -500 -514 0
4608 -468 500 514 0
9994 -468 500 -514 0
5587 -468 -500 514 0
10434 -468 -500 -514 0
1695 494 511 -481 0
1695 494 -511 481 0
3136 494 -511 -481 0
7345 -494 511 481 0
7938 -494 511 -481 0
7938 -494 -511 481 0
8443 -494 -511 -481 0
2660 487 517 -334 0
5054 487 -517 334 0
6703 487 -517 -334 0
7980 -487 517 334 0
9044 -487 517 -334 0
10002 -487 -517 334 0
10661 -487 -517 -334 0
10275 501 515 486 -421 0
10275 501 515 -486 421 0
17981 501 515 -486 -421 0
7398 501 -515 486 421 0
15824 501 -515 486 -421 0
15824 501 -515 -486 421 0
22143 501 -515 -486 -421 0
8220 -501 515 486 421 0
16440 -501 515 486 -421 0
16440 -501 515 -486 421 0
22605 -501 515 -486 -421 0
14138 -501 -515 486 421 0
20879 -501 -515 486 -421 0
20879 -501 -515 -486 421 0
25934 -501 -515 -486 -421 0
36920 495 520 518 502 -469 0
19880 495 520 518 -502 469 0
43878 495 520 518 -502 -469 0
1136 495 520 -518 502 469 0
37318 495 520 -518 502 -469 0
20618 495 520 -518 -502 469 0
44136 495 520 -518 -502 -469 0
8520 495 -520 518 502 469 0
39902 495 -520 518 502 -469 0
25418 495 -520 518 -502 469 0
45816 495 -520 518 -502 -469 0
9486 495 -520 -518 502 469 0
40240 495 -520 -518 502 -469 0
26046 495 -520 -518 -502 469 0
46036 495 -520 -518 -502 -469 0
19880 -495 520 518 502 469 0
43878 -495 520 518 502 -469 0
32802 -495 520 518 -502 469 0
48401 -495 520 518 -502 -469 0
20618 -495 520 -518 502 469 0
44136 -495 520 -518 502 -469 0
33282 -495 520 -518 -502 469 0
48569 -495 520 -518 -502 -469 0
25418 -495 -520 518 502 469 0
45816 -495 -520 518 502 -469 0
36402 -495 -520 518 -502 469 0
49661 -495 -520 518 -502 -469 0
26046 -495 -520 -518 502 469 0
46036 -495 -520 -518 502 -469 0
36810 -495 -520 -518 -502 469 0
49803 -495 -520 -518 -502 -469 0
5985 532 516 304 -684 0
8645 532 516 -304 684 0
10740 532 516 -304 -684 0
2660 532 -516 304 684 0
7448 532 -516 304 -684 0
9576 532 -516 -304 684 0
11252 532 -516 -304 -684 0
6650 -532 516 304 684 0
9642 -532 516 304 -684 0
10972 -532 516 -304 684 0
12020 -532 516 -304 -684 0
7980 -532 -516 304 684 0
10374 -532 -516 304 -684 0
11438 -532 -516 -304 684 0
12276 -532 -516 -304 -684 0
5760 523 -519 0
10080 -523 519 0
11808 -523 -519 0
13265 335 540 -521 0
12128 335 -540 521 0
21148 335 -540 -521 0
13265 -335 540 521 0
21887 -335 540 -521 0
21148 -335 -540 521 0
27011 -335 -540 -521 0
3325 533 -488 0
10640 -533 488 0
11305 -533 -488 0
47070 505 542 537 489 -524 0
41840 505 542 537 -489 524 0
51254 505 542 537 -489 -524 0
20920 505 542 -537 489 524 0
49162 505 542 -537 489 -524 0
46024 505 542 -537 -489 524 0
51672 505 542 -537 -489 -524 0
33995 505 -542 537 489 524 0
50469 505 -542 537 489 -524 0
48639 505 -542 537 -489 524 0
51934 505 -542 537 -489 -524 0
41317 505 -542 -537 489 524 0
51202 505 -542 -537 489 -524 0
50103 505 -542 -537 -489 524 0
52080 505 -542 -537 -489 -524 0
6276 -505 542 537 489 524 0
47698 -505 542 537 489 -524 0
43095 -505 542 537 -489 524 0
51380 -505 542 537 -489 -524 0
24686 -505 542 -537 489 524 0
49539 -505 542 -537 489 -524 0
46777 -505 542 -537 -489 524 0
51748 -505 542 -537 -489 -524 0
36192 -505 -542 537 489 524 0
50689 -505 -542 537 489 -524 0
49078 -505 -542 537 -489 524 0
51978 -505 -542 537 -489 -524 0
42635 -505 -542 -537 489 524 0
51333 -505 -542 -537 489 -524 0
50367 -505 -542 -537 -489 524 0
52107 -505 -542 -537 -489 -524 0
4932 522 541 -543 0
6165 522 -541 543 0
10357 522 -541 -543 0
16440 -522 541 543 0
19399 -522 541 -543 0
20139 -522 -541 543 0
22654 -522 -541 -543 0
8505 422 -547 0
28350 -422 547 0
32602 -422 -547 0
3328 755 -506 0
4160 -755 506 0
6157 -755 -506 0
45440 548 651 -562 0
45440 548 -651 562 0
54528 548 -651 -562 0
11360 -548 651 562 0
47712 -548 651 -562 0
47712 -548 -651 562 0
54982 -548 -651 -562 0
15295 555 -552 0
6555 -555 552 0
19556 -555 -552 0
10170 496 -556 0
2825 -496 556 0
10453 -496 -556 0
34080 582 557 571 -538 0
36920 582 557 -571 538 0
48848 582 557 -571 -538 0
2840 582 -557 571 538 0
35216 582 -557 571 -538 0
37914 582 -557 -571 538 0
49246 582 -557 -571 -538 0
11360 -582 557 571 538 0
38624 -582 557 571 -538 0
40896 -582 557 -571 538 0
50438 -582 557 -571 -538 0
13632 -582 -557 571 538 0
39533 -582 -557 571 -538 0
41691 -582 -557 -571 538 0
50756 -582 -557 -571 -538 0
2295 577 583 -558 0
765 577 -583 558 0
2945 577 -583 -558 0
306 -577 583 558 0
2555 -577 583 -558 0
1056 -577 -583 558 0
3192 -577 -583 -558 0
6650 539 580 553 490 -589 0
5320 539 580 553 -490 589 0
9310 539 580 553 -490 -589 0
3990 539 580 -553 490 589 0
8645 539 580 -553 490 -589 0
7714 539 580 -553 -490 589 0
10507 539 580 -553 -490 -589 0
266 539 -580 553 490 589 0
6783 539 -580 553 490 -589 0
5480 539 -580 553 -490 589 0
9390 539 -580 553 -490 -589 0
4176 539 -580 -553 490 589 0
8738 539 -580 -553 490 -589 0
7826 539 -580 -553 -490 589 0
10563 539 -580 -553 -490 -589 0
1995 -539 580 553 490 589 0
7647 -539 580 553 490 -589 0
6517 -539 580 553 -490 589 0
9908 -539 580 553 -490 -589 0
5387 -539 580 -553 490 589 0
9343 -539 580 -553 490 -589 0
8552 -539 580 -553 -490 589 0
10926 -539 580 -553 -490 -589 0
2221 -539 -580 553 490 589 0
7761 -539 -580 553 490 -589 0
6653 -539 -580 553 -490 589 0
9976 -539 -580 553 -490 -589 0
5545 -539 -580 -553 490 589 0
9422 -539 -580 -553 490 -589 0
8647 -539 -580 -553 -490 589 0
10973 -539 -580 -553 -490 -589 0
1130 525 -581 0
2825 -525 581 0
3672 -525 -581 0
45360 512 -535 0
48195 -512 535 0
54999 -512 -535 0
34020 585 -252 0
19845 -585 252 0
41958 -585 -252 0
2880 507 597 545 578 -536 0
1728 507 597 545 -578 536 0
4262 507 597 545 -578 -536 0
5760 507 597 -545 578 536 0
7488 507 597 -545 578 -536 0
6797 507 597 -545 -578 536 0
8317 507 597 -545 -578 -536 0
4320 507 -597 545 578 536 0
6336 507 -597 545 578 -536 0
5530 507 -597 545 -578 536 0
7304 507 -597 545 -578 -536 0
8352 507 -597 -545 578 536 0
9562 507 -597 -545 578 -536 0
9078 507 -597 -545 -578 536 0
10142 507 -597 -545 -578 -536 0
2880 -507 597 545 578 536 0
5184 -507 597 545 578 -536 0
4262 -507 597 545 -578 536 0
6290 -507 597 545 -578 -536 0
7488 -507 597 -545 578 536 0
8870 -507 597 -545 578 -536 0
8317 -507 597 -545 -578 536 0
9534 -507 597 -545 -578 -536 0
6336 -507 -597 545 578 536 0
7949 -507 -597 545 578 -536 0
7304 -507 -597 545 -578 536 0
8723 -507 -597 545 -578 -536 0
9562 -507 -597 -545 578 536 0
10529 -507 -597 -545 578 -536 0
10142 -507 -597 -545 -578 536 0
10994 -507 -597 -545 -578 -536 0
11400 586 -470 0
11400 -586 470 0
11970 -586 -470 0
9605 609 620 497 -601 0
5650 609 620 -497 601 0
10453 609 620 -497 -601 0
4520 609 -620 497 601 0
10283 609 -620 497 -601 0
7910 609 -620 -497 601 0
10791 609 -620 -497 -601 0
6215 -609 620 497 601 0
10537 -609 620 497 -601 0
8758 -609 620 -497 601 0
10919 -609 620 -497 -601 0
8249 -609 -620 497 601 0
10842 -609 -620 497 -601 0
9775 -609 -620 -497 601 0
11071 -609 -620 -497 -601 0
288 612 591 602 -590 0
2880 612 591 -602 590 0
3110 612 591 -602 -590 0
4608 612 -591 602 590 0
4804 612 -591 602 -590 0
6566 612 -591 -602 590 0
6723 612 -591 -602 -590 0
13680 -612 591 602 590 0
13694 -612 591 602 -590 0
13824 -612 591 -602 590 0
13836 -612 591 -602 -590 0
13910 -612 -591 602 590 0
13920 -612 -591 602 -590 0
14008 -612 -591 -602 590 0
14016 -612 -591 -602 -590 0
45360 598 621 546 628 -613 0
25515 598 621 546 -628 613 0
50463 598 621 546 -628 -613 0
1134 598 621 -546 628 613 0
45587 598 621 -546 628 -613 0
26139 598 621 -546 -628 613 0
50588 598 621 -546 -628 -613 0
28350 598 -621 546 628 613 0
51030 598 -621 546 628 -613 0
41107 598 -621 546 -628 613 0
53582 598 -621 546 -628 -613 0
28917 598 -621 -546 628 613 0
51143 598 -621 -546 628 -613 0
41419 598 -621 -546 -628 613 0
53644 598 -621 -546 -628 -613 0
36855 -598 621 546 628 613 0
52731 -598 621 546 628 -613 0
45785 -598 621 546 -628 613 0
54517 -598 621 546 -628 -613 0
37252 -598 621 -546 628 613 0
52810 -598 621 -546 628 -613 0
46004 -598 621 -546 -628 613 0
54561 -598 621 -546 -628 -613 0
46777 -598 -621 546 628 613 0
54715 -598 -621 546 628 -613 0
51243 -598 -621 546 -628 613 0
55609 -598 -621 546 -628 -613 0
46976 -598 -621 -546 628 613 0
54755 -598 -621 -546 628 -613 0
51352 -598 -621 -546 -628 613 0
55630 -598 -621 -546 -628 -613 0
20920 614 624 -305 0
28765 614 -624 305 0
38179 614 -624 -305 0
28765 -614 624 305 0
38179 -614 624 -305 0
41709 -614 -624 305 0
45946 -614 -624 -305 0
8415 630 -610 0
11475 -630 610 0
13579 -630 -610 0
22680 685 625 634 592 -631 0
42525 685 625 634 -592 631 0
48195 685 625 634 -592 -631 0
25515 685 625 -634 592 631 0
37989 685 625 -634 592 -631 0
48904 685 625 -634 -592 631 0
52022 685 625 -634 -592 -631 0
28350 685 -625 634 592 631 0
39690 685 -625 634 592 -631 0
49612 685 -625 634 -592 631 0
52448 685 -625 634 -592 -631 0
41107 685 -625 -634 592 631 0
47344 685 -625 -634 592 -631 0
52802 685 -625 -634 -592 631 0
54361 685 -625 -634 -592 -631 0
14175 -685 625 634 592 631 0
31185 -685 625 634 592 -631 0
46069 -685 625 634 -592 631 0
50321 -685 625 634 -592 -631 0
33311 -685 625 -634 592 631 0
42667 -685 625 -634 592 -631 0
50853 -685 625 -634 -592 631 0
53192 -685 625 -634 -592 -631 0
35438 -685 -625 634 592 631 0
43943 -685 -625 634 592 -631 0
51384 -685 -625 634 -592 631 0
53511 -685 -625 634 -592 -631 0
45006 -685 -625 -634 592 631 0
49683 -685 -625 -634 592 -631 0
53776 -685 -625 -634 -592 631 0
54946 -685 -625 -634 -592 -631 0
8415 638 632 -554 0
6885 638 -632 554 0
11513 638 -632 -554 0
7650 -638 632 554 0
11858 -638 632 -554 0
11092 -638 -632 554 0
13407 -638 -632 -554 0
6240 639 635 365 -629 0
3120 639 635 -365 629 0
7488 639 635 -365 -629 0
9360 639 -635 365 629 0
9984 639 -635 365 -629 0
9672 639 -635 -365 629 0
10109 639 -635 -365 -629 0
3328 -639 635 365 629 0
7571 -639 635 365 -629 0
5450 -639 635 -365 629 0
8420 -639 635 -365 -629 0
9693 -639 -635 365 629 0
10117 -639 -635 365 -629 0
9905 -639 -635 -365 629 0
10202 -639 -635 -365 -629 0
2840 563 -644 0
51120 -563 644 0
51404 -563 -644 0
2880 647 641 593 -564 0
5040 647 641 -593 564 0
6912 647 641 -593 -564 0
4320 647 -641 593 564 0
6336 647 -641 593 -564 0
7848 647 -641 -593 564 0
9158 647 -641 -593 -564 0
5040 -647 641 593 564 0
6912 -647 641 593 -564 0
8316 -647 641 -593 564 0
9533 -647 641 -593 -564 0
7848 -647 -641 593 564 0
9158 -647 -641 593 -564 0
10141 -647 -641 -593 564 0
10993 -647 -641 -593 -564 0
5040 636 654 594 -642 0
720 636 654 -594 642 0
5508 636 654 -594 -642 0
12960 636 -654 594 642 0
13464 636 -654 594 -642 0
13032 636 -654 -594 642 0
13511 636 -654 -594 -642 0
10800 -636 654 594 642 0
12060 -636 654 594 -642 0
10980 -636 654 -594 642 0
12177 -636 654 -594 -642 0
14040 -636 -654 594 642 0
14166 -636 -654 594 -642 0
14058 -636 -654 -594 642 0
14178 -636 -654 -594 -642 0
6804 595 -655 0
48195 -595 655 0
49216 -595 -655 0
37145 659 -587 0
8740 -659 587 0
38456 -659 -587 0
9600 660 579 -637 0
2160 660 -579 637 0
10032 660 -579 -637 0
1800 -660 579 637 0
9960 -660 579 -637 0
3636 -660 -579 637 0
10327 -660 -579 -637 0
266 -719 0
22680 -549 0
7845 664 336 -615 0
41840 664 -336 615 0
43409 664 -336 -615 0
41840 -664 336 615 0
43409 -664 336 -615 0
50208 -664 -336 615 0
50522 -664 -336 -615 0
20550 672 603 645 -648 0
4110 672 603 -645 648 0
22605 672 603 -645 -648 0
30825 672 -603 645 648 0
35962 672 -603 645 -648 0
31853 672 -603 -645 648 0
36476 672 -603 -645 -648 0
4932 -672 603 645 648 0
23016 -672 603 645 -648 0
8549 -672 603 -645 648 0
24824 -672 603 -645 -648 0
32058 -672 -603 645 648 0
36579 -672 -603 645 -648 0
32962 -672 -603 -645 648 0
37031 -672 -603 -645 -648 0
4320 667 503 -673 0
13680 667 -503 673 0
13896 667 -503 -673 0
4320 -667 503 673 0
7344 -667 503 -673 0
13896 -667 -503 673 0
14047 -667 -503 -673 0
306 669 -599 0
6885 -669 599 0
7053 -669 -599 0
15618 670 -674 0
10275 -670 674 0
21989 -670 -674 0
4160 688 680 491 668 -657 0
1040 688 680 491 -668 657 0
4784 688 680 491 -668 -657 0
3120 688 680 -491 668 657 0
6032 688 680 -491 668 -657 0
3848 688 680 -491 -668 657 0
6469 688 680 -491 -668 -657 0
520 688 -680 491 668 657 0
4472 688 -680 491 668 -657 0
1508 688 -680 491 -668 657 0
5065 688 -680 491 -668 -657 0
3484 688 -680 -491 668 657 0
6250 688 -680 -491 668 -657 0
4176 688 -680 -491 -668 657 0
6665 688 -680 -491 -668 -657 0
1040 -688 680 491 668 657 0
4784 -688 680 491 668 -657 0
1976 -688 680 491 -668 657 0
5346 -688 680 491 -668 -657 0
3848 -688 680 -491 668 657 0
6469 -688 680 -491 668 -657 0
4503 -688 680 -491 -668 657 0
6862 -688 680 -491 -668 -657 0
1508 -688 -680 491 668 657 0
5065 -688 -680 491 668 -657 0
2397 -688 -680 491 -668 657 0
5598 -688 -680 491 -668 -657 0
4176 -688 -680 -491 668 657 0
6665 -688 -680 -491 668 -657 0
4798 -688 -680 -491 -668 657 0
7039 -688 -680 -491 -668 -657 0
15075 681 658 -689 0
15075 681 -658 689 0
26381 681 -658 -689 0
45225 -681 658 689 0
48994 -681 658 -689 0
48994 -681 -658 689 0
51820 -681 -658 -689 0
21584 692 695 -508 0
10224 692 -695 508 0
27923 692 -695 -508 0
10224 -692 695 508 0
27923 -692 695 -508 0
18608 -692 -695 508 0
33121 -692 -695 -508 0
5720 662 720 690 -682 0
7800 662 720 -690 682 0
9230 662 720 -690 -682 0
208 662 -720 690 682 0
5814 662 -720 690 -682 0
7852 662 -720 -690 682 0
9253 662 -720 -690 -682 0
4160 -662 720 690 682 0
7592 -662 720 690 -682 0
8840 -662 720 -690 682 0
9698 -662 720 -690 -682 0
4285 -662 -720 690 682 0
7648 -662 -720 690 -682 0
8871 -662 -720 -690 682 0
9712 -662 -720 -690 -682 0
4370 675 -622 0
8740 -675 622 0
12236 -675 -622 0
6780 277 -676 0
6780 -277 676 0
9492 -277 -676 0
2825 693 588 710 691 -708 0
6780 693 588 710 -691 708 0
7910 693 588 710 -691 -708 0
5650 693 588 -710 691 708 0
7062 693 588 -710 691 -708 0
9040 693 588 -710 -691 708 0
9605 693 588 -710 -691 -708 0
1130 693 -588 710 691 708 0
3672 693 -588 710 691 -708 0
7232 693 -588 710 -691 708 0
8249 693 -588 710 -691 -708 0
6215 693 -588 -710 691 708 0
7486 693 -588 -710 691 -708 0
9266 693 -588 -710 -691 708 0
9775 693 -588 -710 -691 -708 0
3390 -693 588 710 691 708 0
5368 -693 588 710 691 -708 0
8136 -693 588 710 -691 708 0
8927 -693 588 710 -691 -708 0
7345 -693 588 -710 691 708 0
8334 -693 588 -710 691 -708 0
9718 -693 588 -710 -691 708 0
10114 -693 588 -710 -691 -708 0
4181 -693 -588 710 691 708 0
5961 -693 -588 710 691 -708 0
8452 -693 -588 710 -691 708 0
9164 -693 -588 710 -691 -708 0
7741 -693 -588 -710 691 708 0
8630 -693 -588 -710 691 -708 0
9876 -693 -588 -710 -691 708 0
10232 -693 -588 -710 -691 -708 0
10206 711 498 -699 0
6804 711 -498 699 0
15785 711 -498 -699 0
19845 -711 498 699 0
26479 -711 498 -699 0
24268 -711 -498 699 0
30105 -711 -498 -699 0
6804 715 705 -696 0
22680 715 -705 696 0
26762 715 -705 -696 0
18144 -715 705 696 0
22771 -715 705 -696 0
33566 -715 -705 696 0
36342 -715 -705 -696 0
6435 -208 0
6276 706 724 -504 0
39225 706 -724 504 0
40794 706 -724 -504 0
19874 -706 724 504 0
23765 -706 724 -504 0
44194 -706 -724 504 0
45166 -706 -724 -504 0
42140 697 713 559 716 -709 0
18060 697 713 559 -716 709 0
47558 697 713 559 -716 -709 0
6020 697 713 -559 716 709 0
43946 697 713 -559 716 -709 0
22274 697 713 -559 -716 709 0
48822 697 713 -559 -716 -709 0
42140 697 -713 559 716 709 0
54782 697 -713 559 716 -709 0
47558 697 -713 559 -716 709 0
56407 697 -713 559 -716 -709 0
43946 697 -713 -559 716 709 0
55324 697 -713 -559 716 -709 0
48822 697 -713 -559 -716 709 0
56787 697 -713 -559 -716 -709 0
22876 -697 713 559 716 709 0
49003 -697 713 559 716 -709 0
34073 -697 713 559 -716 709 0
52362 -697 713 559 -716 -709 0
26608 -697 713 -559 716 709 0
50123 -697 713 -559 716 -709 0
36686 -697 713 -559 -716 709 0
53146 -697 713 -559 -716 -709 0
49003 -697 -713 559 716 709 0
56841 -697 -713 559 716 -709 0
52362 -697 -713 559 -716 709 0
57849 -697 -713 559 -716 -709 0
50123 -697 -713 -559 716 709 0
57177 -697 -713 -559 716 -709 0
53146 -697 -713 -559 -716 709 0
58084 -697 -713 -559 -716 -709 0
33995 722 626 -725 0
20920 722 -626 725 0
41317 722 -626 -725 0
39225 -722 626 725 0
47724 -722 626 -725 0
44455 -722 -626 725 0
49554 -722 -626 -725 0
53960 663 700 728 738 -698 0
10224 663 700 728 -738 698 0
54471 663 700 728 -738 -698 0
22720 663 700 -728 738 698 0
55096 663 700 -728 738 -698 0
28854 663 700 -728 -738 698 0
55403 663 700 -728 -738 -698 0
5680 663 -700 728 738 698 0
54244 663 -700 728 738 -698 0
14882 663 -700 728 -738 698 0
54704 663 -700 728 -738 -698 0
26128 663 -700 -728 738 698 0
55266 663 -700 -728 738 -698 0
31649 663 -700 -728 -738 698 0
55542 663 -700 -728 -738 -698 0
10224 -663 700 728 738 698 0
54471 -663 700 728 738 -698 0
18608 -663 700 728 -738 698 0
54890 -663 700 728 -738 -698 0
28854 -663 700 -728 738 698 0
55403 -663 700 -728 738 -698 0
33885 -663 700 -728 -738 698 0
55654 -663 700 -728 -738 -698 0
14882 -663 -700 728 738 698 0
54704 -663 -700 728 738 -698 0
22427 -663 -700 728 -738 698 0
55081 -663 -700 728 -738 -698 0
31649 -663 -700 -728 738 698 0
55542 -663 -700 -728 738 -698 0
36176 -663 -700 -728 -738 698 0
55769 -663 -700 -728 -738 -698 0
51030 739 -729 0
34020 -739 729 0
54432 -739 -729 0
14175 484 665 -714 0
25515 484 -665 714 0
33311 484 -665 -714 0
1134 -484 665 714 0
15025 -484 665 -714 0
26139 -484 -665 714 0
33779 -484 -665 -714 0
16606 671 746 -744 0
34960 671 -746 744 0
38281 671 -746 -744 0
41515 -671 746 744 0
42345 -671 746 -744 0
43263 -671 -746 744 0
43429 -671 -746 -744 0
41515 730 -723 0
874 -730 723 0
41559 -730 -723 0
6480 574 726 741 -748 0
5040 574 726 -741 748 0
9252 574 726 -741 -748 0
10800 574 -726 741 748 0
12420 574 -726 741 -748 0
12060 574 -726 -741 748 0
13113 574 -726 -741 -748 0
7920 -574 726 741 748 0
10836 -574 726 741 -748 0
10188 -574 726 -741 748 0
12083 -574 726 -741 -748 0
12780 -574 -726 741 748 0
13509 -574 -726 741 -748 0
13347 -574 -726 -741 748 0
13821 -574 -726 -741 -748 0
2160 740 513 -742 0
3600 740 -513 742 0
5220 740 -513 -742 0
8640 -740 513 742 0
9504 -740 513 -742 0
10080 -740 -513 742 0
10728 -740 -513 -742 0
10836 -534 0
306 600 749 762 -760 0
11475 600 749 -762 760 0
11552 600 749 -762 -760 0
11475 600 -749 762 760 0
11552 600 -749 762 -760 0
14344 600 -749 -762 760 0
14363 600 -749 -762 -760 0
13770 -600 749 762 760 0
13801 -600 749 762 -760 0
14917 -600 749 -762 760 0
14925 -600 749 -762 -760 0
14917 -600 -749 762 760 0
14925 -600 -749 762 -760 0
15204 -600 -749 -762 760 0
15206 -600 -749 -762 -760 0
1356 220 -759 0
2260 -220 759 0
3345 -220 -759 0
26100 761 756 -727 0
10440 761 -756 727 0
31320 761 -756 -727 0
39150 -761 756 727 0
45675 -761 756 -727 0
41760 -761 -756 727 0
46980 -761 -756 -727 0
2835 623 771 -769 0
2835 623 -771 769 0
5528 623 -771 -769 0
45360 -623 771 769 0
45927 -623 771 -769 0
45927 -623 -771 769 0
46466 -623 -771 -769 0
5085 772 640 773 -763 0
6780 772 640 -773 763 0
8814 772 640 -773 -763 0
7345 772 -640 773 763 0
9125 772 -640 773 -763 0
9718 772 -640 -773 763 0
10430 772 -640 -773 -763 0
1695 -772 640 773 763 0
6017 -772 640 773 -763 0
7458 -772 640 -773 763 0
9187 -772 640 -773 -763 0
7938 -772 -640 773 763 0
9451 -772 -640 773 -763 0
9955 -772 -640 -773 763 0
10560 -772 -640 -773 -763 0
9030 731 774 -766 0
54180 731 -774 766 0
55083 731 -774 -766 0
48160 -731 774 766 0
49966 -731 774 -766 0
58996 -731 -774 766 0
59177 -731 -774 -766 0
45440 499 747 -777 0
22720 499 -747 777 0
49984 499 -747 -777 0
25560 -499 747 777 0
50552 -499 747 -777 0
38056 -499 -747 777 0
53051 -499 -747 -777 0
14385 -419 0
48240 764 767 778 -775 0
9045 764 767 -778 775 0
50049 764 767 -778 -775 0
9045 764 -767 778 775 0
50049 764 -767 778 -775 0
16733 764 -767 -778 775 0
51587 764 -767 -778 -775 0
33165 -764 767 778 775 0
54873 -764 767 778 -775 0
37235 -764 767 -778 775 0
55687 -764 767 -778 -775 0
37235 -764 -767 778 775 0
55687 -764 -767 778 -775 0
40695 -764 -767 -778 775 0
56379 -764 -767 -778 -775 0
6000 604 -750 0
3840 -604 750 0
7920 -604 -750 0
3000 677 -743 0
6600 -677 743 0
7950 -677 -743 0
13984 757 780 -779 0
5244 757 -780 779 0
17550 757 -780 -779 0
39330 -757 780 779 0
40728 -757 780 -779 0
39854 -757 -780 779 0
41085 -757 -780 -779 0
12060 228 776 233 230 -781 0
57285 228 776 233 -230 781 0
57888 228 776 233 -230 -781 0
19296 228 776 -233 230 781 0
27497 228 776 -233 230 -781 0
58250 228 776 -233 -230 781 0
58660 228 776 -233 -230 -781 0
45225 228 -776 233 230 781 0
48240 228 -776 233 230 -781 0
59546 228 -776 233 -230 781 0
59697 228 -776 233 -230 -781 0
50049 228 -776 -233 230 781 0
52099 228 -776 -233 230 -781 0
59787 228 -776 -233 -230 781 0
59890 228 -776 -233 -230 -781 0
7236 -228 776 233 230 781 0
17849 -228 776 233 230 -781 0
57647 -228 776 233 -230 781 0
58177 -228 776 233 -230 -781 0
24216 -228 776 -233 230 781 0
31433 -228 776 -233 230 -781 0
58496 -228 776 -233 -230 781 0
58857 -228 776 -233 -230 -781 0
47034 -228 -776 233 230 781 0
49687 -228 -776 233 230 -781 0
59637 -228 -776 233 -230 781 0
59769 -228 -776 233 -230 -781 0
51279 -228 -776 -233 230 781 0
53083 -228 -776 -233 230 -781 0
59849 -228 -776 -233 -230 781 0
59939 -228 -776 -233 -230 -781 0
15618 544 237 -751 0
12330 544 -237 751 0
23263 544 -237 -751 0
4110 -544 237 751 0
18166 -544 237 -751 0
15207 -544 -237 751 0
25046 -544 -237 -751 0
5355 234 765 -782 0
4896 234 -765 782 0
8537 234 -765 -782 0
4896 -234 765 782 0
8537 -234 765 -782 0
8225 -234 -765 782 0
10701 -234 -765 -782 0
7920 238 240 -732 0
2160 238 -240 732 0
8892 238 -240 -732 0
6480 -238 240 732 0
10836 -238 240 -732 0
7668 -238 -240 732 0
11371 -238 -240 -732 0
19665 653 -224 0
6555 -653 224 0
23270 -653 -224 0
5244 231 235 241 605 -225 0
26220 231 235 241 -605 225 0
28318 231 235 241 -605 -225 0
24035 231 235 -241 605 225 0
26395 231 235 -241 605 -225 0
35834 231 235 -241 -605 225 0
36778 231 235 -241 -605 -225 0
41515 231 -235 241 605 225 0
41777 231 -235 241 605 -225 0
42826 231 -235 241 -605 225 0
42931 231 -235 241 -605 -225 0
42717 231 -235 -241 605 225 0
42835 231 -235 -241 605 -225 0
43307 231 -235 -241 -605 225 0
43354 231 -235 -241 -605 -225 0
16606 -231 235 241 605 225 0
19857 -231 235 241 605 -225 0
32862 -231 235 241 -605 225 0
34163 -231 235 241 -605 -225 0
31508 -231 235 -241 605 225 0
32971 -231 235 -241 605 -225 0
38823 -231 235 -241 -605 225 0
39408 -231 235 -241 -605 -225 0
42345 -231 -235 241 605 225 0
42508 -231 -235 241 605 -225 0
43158 -231 -235 241 -605 225 0
43223 -231 -235 241 -605 -225 0
43090 -231 -235 -241 605 225 0
43164 -231 -235 -241 605 -225 0
43456 -231 -235 -241 -605 225 0
43485 -231 -235 -241 -605 -225 0
32775 221 244 229 -758 0
26220 221 244 -229 758 0
39330 221 244 -229 -758 0
10925 221 -244 229 758 0
35506 221 -244 229 -758 0
30590 221 -244 -229 758 0
40423 221 -244 -229 -758 0
874 -221 244 229 758 0
32994 -221 244 229 -758 0
26570 -221 244 -229 758 0
39417 -221 244 -229 -758 0
11581 -221 -244 229 758 0
35670 -221 -244 229 -758 0
30852 -221 -244 -229 758 0
40488 -221 -244 -229 -758 0
6600 222 255 242 466 -245 0
2160 222 255 242 -466 245 0
7572 222 255 242 -466 -245 0
6000 222 255 -242 466 245 0
9300 222 255 -242 466 -245 0
7080 222 255 -242 -466 245 0
9786 222 255 -242 -466 -245 0
7200 222 -255 242 466 245 0
9840 222 -255 242 466 -245 0
8064 222 -255 242 -466 245 0
10229 222 -255 242 -466 -245 0
9600 222 -255 -242 466 245 0
10920 222 -255 -242 466 -245 0
10032 222 -255 -242 -466 245 0
11114 222 -255 -242 -466 -245 0
4800 -222 255 242 466 245 0
8760 -222 255 242 466 -245 0
6096 -222 255 242 -466 245 0
9343 -222 255 242 -466 -245 0
8400 -222 255 -242 466 245 0
10380 -222 255 -242 466 -245 0
9048 -222 255 -242 -466 245 0
10672 -222 255 -242 -466 -245 0
9120 -222 -255 242 466 245 0
10704 -222 -255 242 466 -245 0
9638 -222 -255 242 -466 245 0
10937 -222 -255 242 -466 -245 0
10560 -222 -255 -242 466 245 0
11352 -222 -255 -242 466 -245 0
10819 -222 -255 -242 -466 245 0
11469 -222 -255 -242 -466 -245 0
914 253 226 -256 0
17366 253 -226 256 0
17933 253 -226 -256 0
20565 -253 226 256 0
21068 -253 226 -256 0
30116 -253 -226 256 0
30428 -253 -226 -256 0
10200 243 -611 0
1800 -243 611 0
10470 -243 -611 0
10206 -733 0
7345 560 -246 0
1356 -560 246 0
7820 -560 -246 0
9000 254 -606 0
4560 -254 606 0
10140 -254 -606 0
2880 264 391 -247 0
12960 264 -391 247 0
13248 264 -391 -247 0
12960 -264 391 247 0
13248 -264 391 -247 0
14256 -264 -391 247 0
14285 -264 -391 -247 0
1800 607 265 258 -262 0
11400 607 265 -258 262 0
11490 607 265 -258 -262 0
3600 607 -265 258 262 0
4860 607 -265 258 -262 0
11580 607 -265 -258 262 0
11643 607 -265 -258 -262 0
5400 -607 265 258 262 0
6390 -607 265 258 -262 0
11670 -607 265 -258 262 0
11719 -607 265 -258 -262 0
7380 -607 -265 258 262 0
8073 -607 -265 258 -262 0
11769 -607 -265 -258 262 0
11804 -607 -265 -258 -262 0
1136 266 -618 0
6816 -266 618 0
7816 -266 -618 0
665 263 270 301 -272 0
665 263 270 -301 272 0
1297 263 270 -301 -272 0
1330 263 -270 301 272 0
1929 263 -270 301 -272 0
1929 263 -270 -301 272 0
2497 263 -270 -301 -272 0
3325 -263 270 301 272 0
3824 -263 270 301 -272 0
3824 -263 270 -301 272 0
4298 -263 270 -301 -272 0
4322 -263 -270 301 272 0
4771 -263 -270 301 -272 0
4771 -263 -270 -301 272 0
5198 -263 -270 -301 -272 0
20550 260 650 -280 0
10275 260 -650 280 0
25688 260 -650 -280 0
24660 -260 650 280 0
32880 -260 650 -280 0
28770 -260 -650 280 0
34935 -260 -650 -280 0
5650 267 261 -509 0
3616 267 -261 509 0
7458 267 -261 -509 0
1356 -267 261 509 0
6328 -267 261 -509 0
4538 -267 -261 509 0
7919 -267 -261 -509 0
1248 259 282 -359 0
6240 259 -282 359 0
6739 259 -282 -359 0
1248 -259 282 359 0
2346 -259 282 -359 0
6739 -259 -282 359 0
7178 -259 -282 -359 0
1440 271 608 -278 0
4800 271 -608 278 0
5664 271 -608 -278 0
2160 -271 608 278 0
3341 -271 608 -278 0
6096 -271 -608 278 0
6804 -271 -608 -278 0
30825 286 239 -279 0
2055 286 -239 279 0
31339 286 -239 -279 0
8220 -286 239 279 0
32880 -286 239 -279 0
9864 -286 -239 279 0
33291 -286 -239 -279 0
54270 575 -288 0
22914 -575 288 0
56561 -575 -288 0
42600 281 687 291 -273 0
19880 281 687 -291 273 0
47570 281 687 -291 -273 0
11360 281 -687 291 273 0
45440 281 -687 291 -273 0
27264 281 -687 -291 273 0
49416 281 -687 -291 -273 0
45440 -281 687 291 273 0
53960 -281 687 291 -273 0
49416 -281 687 -291 273 0
54954 -281 687 -291 -273 0
47712 -281 -687 291 273 0
54528 -281 -687 291 -273 0
50893 -281 -687 -291 273 0
55323 -281 -687 -291 -273 0
10925 721 289 283 -294 0
19665 721 289 -283 294 0
25674 721 289 -283 -294 0
4370 721 -289 283 294 0
14202 721 -289 283 -294 0
22068 721 -289 -283 294 0
27476 721 -289 -283 -294 0
15295 -721 289 283 294 0
22396 -721 289 283 -294 0
28077 -721 289 -283 294 0
31983 -721 289 -283 -294 0
18135 -721 -289 283 294 0
24527 -721 -289 283 -294 0
29640 -721 -289 -283 294 0
33155 -721 -289 -283 -294 0
31380 -328 0
54270 297 299 -232 0
1206 297 -299 232 0
54391 297 -299 -232 0
6030 -297 299 232 0
54873 -297 299 -232 0
7115 -297 -299 232 0
54982 -297 -299 -232 0
48195 306 287 661 -268 0
53865 306 287 -661 268 0
56275 306 287 -661 -268 0
53865 306 -287 661 268 0
56275 306 -287 661 -268 0
56558 306 -287 -661 268 0
56679 306 -287 -661 -268 0
42525 -306 287 661 268 0
54574 -306 287 661 -268 0
55991 -306 287 -661 268 0
56594 -306 287 -661 -268 0
55991 -306 -287 661 268 0
56594 -306 -287 661 -268 0
56665 -306 -287 -661 268 0
56695 -306 -287 -661 -268 0
45440 678 298 307 -295 0
31240 678 298 -307 295 0
51688 678 298 -307 -295 0
31240 678 -298 307 295 0
51688 678 -298 307 -295 0
45298 678 -298 -307 295 0
54500 678 -298 -307 -295 0
25560 -678 298 307 295 0
50552 -678 298 307 -295 0
42742 -678 298 -307 295 0
53988 -678 298 -307 -295 0
42742 -678 -298 307 295 0
53988 -678 -298 307 -295 0
50474 -678 -298 -307 295 0
55535 -678 -298 -307 -295 0
15050 783 -292 0
22876 -783 292 0
32207 -783 -292 0
4800 312 -293 0
11400 -312 293 0
11640 -312 -293 0
7236 313 284 300 -712 0
15075 313 284 -300 712 0
20502 313 284 -300 -712 0
36180 313 -284 300 712 0
39074 313 -284 300 -712 0
42210 313 -284 -300 712 0
44381 313 -284 -300 -712 0
51255 -313 284 300 712 0
52340 -313 284 300 -712 0
53516 -313 284 -300 712 0
54330 -313 284 -300 -712 0
56682 -313 -284 300 712 0
57116 -313 -284 300 -712 0
57587 -313 -284 -300 712 0
57912 -313 -284 -300 -712 0
2880 701 -308 0
2160 -701 308 0
4608 -701 -308 0
15618 249 -309 0
16440 -249 309 0
25811 -249 -309 0
13770 323 319 656 314 321 -310 0
306 323 319 656 314 -321 310 0
13801 323 319 656 314 -321 -310 0
5814 323 319 656 -314 321 310 0
14351 323 319 656 -314 321 -310 0
6004 323 319 656 -314 -321 310 0
14370 323 319 656 -314 -321 -310 0
1836 323 319 -656 314 321 310 0
13954 323 319 -656 314 321 -310 0
2105 323 319 -656 314 -321 310 0
13981 323 319 -656 314 -321 -310 0
6952 323 319 -656 -314 321 310 0
14465 323 319 -656 -314 321 -310 0
7119 323 319 -656 -314 -321 310 0
14482 323 319 -656 -314 -321 -310 0
2295 323 -319 656 314 321 310 0
14000 323 -319 656 314 321 -310 0
2555 323 -319 656 314 -321 310 0
14026 323 -319 656 314 -321 -310 0
7237 323 -319 656 -314 321 310 0
14494 323 -319 656 -314 321 -310 0
7398 323 -319 656 -314 -321 310 0
14510 323 -319 656 -314 -321 -310 0
3856 323 -319 -656 314 321 310 0
14156 323 -319 -656 314 321 -310 0
4084 323 -319 -656 314 -321 310 0
14178 323 -319 -656 314 -321 -310 0
8204 323 -319 -656 -314 321 310 0
14590 323 -319 -656 -314 321 -310 0
8346 323 -319 -656 -314 -321 310 0
14605 323 -319 -656 -314 -321 -310 0
13770 -323 319 656 314 321 310 0
15147 -323 319 656 314 321 -310 0
13801 -323 319 656 314 -321 310 0
15150 -323 319 656 314 -321 -310 0
14351 -323 319 656 -314 321 310 0
15205 -323 319 656 -314 321 -310 0
14370 -323 319 656 -314 -321 310 0
15207 -323 319 656 -314 -321 -310 0
13954 -323 319 -656 314 321 310 0
15165 -323 319 -656 314 321 -310 0
13981 -323 319 -656 314 -321 310 0
15168 -323 319 -656 314 -321 -310 0
14465 -323 319 -656 -314 321 310 0
15217 -323 319 -656 -314 321 -310 0
14482 -323 319 -656 -314 -321 310 0
15218 -323 319 -656 -314 -321 -310 0
14000 -323 -319 656 314 321 310 0
15170 -323 -319 656 314 321 -310 0
14026 -323 -319 656 314 -321 310 0
15173 -323 -319 656 314 -321 -310 0
14494 -323 -319 656 -314 321 310 0
15219 -323 -319 656 -314 321 -310 0
14510 -323 -319 656 -314 -321 310 0
15221 -323 -319 656 -314 -321 -310 0
14156 -323 -319 -656 314 321 310 0
15186 -323 -319 -656 314 321 -310 0
14178 -323 -319 -656 314 -321 310 0
15188 -323 -319 -656 314 -321 -310 0
14590 -323 -319 -656 -314 321 310 0
15229 -323 -319 -656 -314 321 -310 0
14605 -323 -319 -656 -314 -321 310 0
15230 -323 -319 -656 -314 -321 -310 0
920 202 317 -320 0
1380 202 -317 320 0
2162 202 -317 -320 0
3220 -202 317 320 0
3818 -202 317 -320 0
4117 -202 -317 320 0
4625 -202 -317 -320 0
11520 322 318 -734 0
6480 322 -318 734 0
12816 322 -318 -734 0
4608 -322 318 734 0
12442 -322 318 -734 0
9014 -322 -318 734 0
13323 -322 -318 -734 0
5244 324 340 -223 0
24035 324 -340 223 0
26395 324 -340 -223 0
2185 -324 340 223 0
7167 -324 340 -223 0
25018 -324 -340 223 0
27260 -324 -340 -223 0
12240 285 -679 0
12240 -285 679 0
14688 -285 -679 0
4680 329 -337 0
9880 -329 337 0
10114 -329 -337 0
7580 338 269 345 -315 0
17055 338 269 -345 315 0
21224 338 269 -345 -315 0
26530 338 -269 345 315 0
28804 338 -269 345 -315 0
31646 338 -269 -345 315 0
32897 338 -269 -345 -315 0
36005 -338 269 345 315 0
36384 -338 269 345 -315 0
36858 -338 269 -345 315 0
37066 -338 269 -345 -315 0
37331 -338 -269 345 315 0
37445 -338 -269 345 -315 0
37587 -338 -269 -345 315 0
37650 -338 -269 -345 -315 0
47400 346 -290 0
24016 -346 290 0
53404 -346 -290 0
23535 349 341 -360 0
41840 349 -341 360 0
46547 349 -341 -360 0
20920 -349 341 360 0
35041 -349 341 -360 0
46024 -349 -341 360 0
48848 -349 -341 -360 0
51030 735 353 311 -347 0
2835 735 353 -311 347 0
51313 735 353 -311 -347 0
11340 735 -353 311 347 0
52164 735 -353 311 -347 0
13608 735 -353 -311 347 0
52391 735 -353 -311 -347 0
25515 -735 353 311 347 0
53582 -735 353 311 -347 0
27074 -735 353 -311 347 0
53737 -735 353 -311 -347 0
31752 -735 -353 311 347 0
54205 -735 -353 311 -347 0
32999 -735 -353 -311 347 0
54330 -735 -353 -311 -347 0
17010 702 -351 0
6804 -702 351 0
21773 -702 -351 0
36560 257 -352 0
38845 -257 352 0
44329 -257 -352 0
6822 -339 0
11305 355 527 -350 0
665 355 -527 350 0
11405 355 -527 -350 0
9975 -355 527 350 0
12801 -355 527 -350 0
10141 -355 -527 350 0
12826 -355 -527 -350 0
226 348 368 467 -316 0
10735 348 368 -467 316 0
10746 348 368 -467 -316 0
5085 348 -368 467 316 0
5209 348 -368 467 -316 0
10989 348 -368 -467 316 0
10995 348 -368 -467 -316 0
2034 -348 368 467 316 0
2219 -348 368 467 -316 0
10837 -348 368 -467 316 0
10846 -348 368 -467 -316 0
6204 -348 -368 467 316 0
6306 -348 -368 467 -316 0
11045 -348 -368 -467 316 0
11050 -348 -368 -467 -316 0
20550 343 370 372 366 -550 0
34935 343 370 372 -366 550 0
38018 343 370 372 -366 -550 0
2055 343 370 -372 366 550 0
21578 343 370 -372 366 -550 0
35243 343 370 -372 -366 550 0
38172 343 370 -372 -366 -550 0
26715 343 -370 372 366 550 0
33907 343 -370 372 366 -550 0
38942 343 -370 372 -366 550 0
40021 343 -370 372 -366 -550 0
27434 343 -370 -372 366 550 0
34267 343 -370 -372 366 -550 0
39050 343 -370 -372 -366 550 0
40075 343 -370 -372 -366 -550 0
30825 -343 370 372 366 550 0
35962 -343 370 372 366 -550 0
39559 -343 370 372 -366 550 0
40329 -343 370 372 -366 -550 0
31339 -343 370 -372 366 550 0
36219 -343 370 -372 366 -550 0
39636 -343 370 -372 -366 550 0
40368 -343 370 -372 -366 -550 0
37504 -343 -370 372 366 550 0
39302 -343 -370 372 366 -550 0
40561 -343 -370 372 -366 550 0
40830 -343 -370 372 -366 -550 0
37684 -343 -370 -372 366 550 0
39392 -343 -370 -372 366 -550 0
40588 -343 -370 -372 -366 550 0
40844 -343 -370 -372 -366 -550 0
1136 325 356 344 354 -375 0
6816 325 356 344 -354 375 0
7816 325 356 344 -354 -375 0
22720 325 356 -344 354 375 0
23402 325 356 -344 354 -375 0
26810 325 356 -344 -354 375 0
27409 325 356 -344 -354 -375 0
25560 325 -356 344 354 375 0
26185 325 -356 344 354 -375 0
29309 325 -356 344 -354 375 0
29859 325 -356 344 -354 -375 0
38056 325 -356 -344 354 375 0
38431 325 -356 -344 354 -375 0
40305 325 -356 -344 -354 375 0
40635 325 -356 -344 -354 -375 0
18176 -325 356 344 354 375 0
18948 -325 356 344 354 -375 0
22811 -325 356 344 -354 375 0
23491 -325 356 344 -354 -375 0
33626 -325 356 -344 354 375 0
34089 -325 356 -344 354 -375 0
36407 -325 356 -344 -354 375 0
36814 -325 356 -344 -354 -375 0
35557 -325 -356 344 354 375 0
35982 -325 -356 344 354 -375 0
38106 -325 -356 344 -354 375 0
38480 -325 -356 344 -354 -375 0
44054 -325 -356 -344 354 375 0
44309 -325 -356 -344 354 -375 0
45584 -325 -356 -344 -354 375 0
45808 -325 -356 -344 -354 -375 0
7866 373 379 -357 0
17480 373 -379 357 0
22200 373 -379 -357 0
8740 -373 379 357 0
15033 -373 379 -357 0
22724 -373 -379 357 0
26500 -373 -379 -357 0
22605 371 369 376 -627 0
8220 371 369 -376 627 0
26304 371 369 -376 -627 0
14385 371 -369 376 627 0
29078 371 -369 376 -627 0
19728 371 -369 -376 627 0
31483 371 -369 -376 -627 0
6165 -371 369 376 627 0
25379 -371 369 376 -627 0
13152 -371 369 -376 627 0
28523 -371 369 -376 -627 0
18392 -371 -369 376 627 0
30882 -371 -369 376 -627 0
22934 -371 -369 -376 627 0
32925 -371 -369 -376 -627 0
9605 567 -367 0
3390 -567 367 0
10114 -567 -367 0
45360 770 -374 0
10206 -770 374 0
47401 -770 -374 0
2835 703 380 326 384 -387 0
11340 703 380 326 -384 387 0
13608 703 380 326 -384 -387 0
8505 703 380 -326 384 387 0
10915 703 380 -326 384 -387 0
18144 703 380 -326 -384 387 0
20072 703 380 -326 -384 -387 0
19845 703 -380 326 384 387 0
21688 703 -380 326 384 -387 0
27216 703 -380 326 -384 387 0
28690 703 -380 326 -384 -387 0
25373 703 -380 -326 384 387 0
26940 703 -380 -326 384 -387 0
31639 703 -380 -326 -384 387 0
32892 703 -380 -326 -384 -387 0
21546 -703 380 326 384 387 0
23304 -703 380 326 384 -387 0
28577 -703 380 326 -384 387 0
29983 -703 380 326 -384 -387 0
26819 -703 380 -326 384 387 0
28313 -703 380 -326 384 -387 0
32795 -703 380 -326 -384 387 0
33991 -703 380 -326 -384 -387 0
33850 -703 -380 326 384 387 0
34992 -703 -380 326 384 -387 0
38420 -703 -380 326 -384 387 0
39334 -703 -380 326 -384 -387 0
37277 -703 -380 -326 384 387 0
38249 -703 -380 -326 384 -387 0
41162 -703 -380 -326 -384 387 0
41939 -703 -380 -326 -384 -387 0
22876 389 395 388 584 -382 0
30100 389 395 388 -584 382 0
41538 389 395 388 -584 -382 0
30100 389 395 -388 584 382 0
41538 389 395 -388 584 -382 0
45150 389 395 -388 -584 382 0
50869 389 395 -388 -584 -382 0
36120 389 -395 388 584 382 0
45270 389 -395 388 584 -382 0
48160 389 -395 388 -584 382 0
52735 389 -395 388 -584 -382 0
48160 389 -395 -388 584 382 0
52735 389 -395 -388 584 -382 0
54180 389 -395 -388 -584 382 0
56468 389 -395 -388 -584 -382 0
3010 -389 395 388 584 382 0
24742 -389 395 388 584 -382 0
31605 -389 395 388 -584 382 0
42471 -389 395 388 -584 -382 0
31605 -389 395 -388 584 382 0
42471 -389 395 -388 584 -382 0
45902 -389 395 -388 -584 382 0
51336 -389 395 -388 -584 -382 0
37324 -389 -395 388 584 382 0
46017 -389 -395 388 584 -382 0
48762 -389 -395 388 -584 382 0
53108 -389 -395 388 -584 -382 0
48762 -389 -395 -388 584 382 0
53108 -389 -395 -388 584 -382 0
54481 -389 -395 -388 -584 382 0
56654 -389 -395 -388 -584 -382 0
1665 385 -204 0
6660 -385 204 0
7992 -385 -204 0
1596 398 401 569 377 -383 0
1596 398 401 569 -377 383 0
3000 398 401 569 -377 -383 0
266 398 401 -569 377 383 0
1830 398 401 -569 377 -383 0
1830 398 401 -569 -377 383 0
3206 398 401 -569 -377 -383 0
665 398 -401 569 377 383 0
2181 398 -401 569 377 -383 0
2181 398 -401 569 -377 383 0
3515 398 -401 569 -377 -383 0
918 398 -401 -569 377 383 0
2404 398 -401 -569 377 -383 0
2404 398 -401 -569 -377 383 0
3711 398 -401 -569 -377 -383 0
11305 -398 401 569 377 383 0
11544 -398 401 569 377 -383 0
11544 -398 401 569 -377 383 0
11755 -398 401 569 -377 -383 0
11345 -398 401 -569 377 383 0
11580 -398 401 -569 377 -383 0
11580 -398 401 -569 -377 383 0
11786 -398 401 -569 -377 -383 0
11405 -398 -401 569 377 383 0
11632 -398 -401 569 377 -383 0
11632 -398 -401 569 -377 383 0
11832 -398 -401 569 -377 -383 0
11443 -398 -401 -569 377 383 0
11666 -398 -401 -569 377 -383 0
11666 -398 -401 -569 -377 383 0
11862 -398 -401 -569 -377 -383 0
7845 396 342 402 399 -358 0
36610 396 342 402 -399 358 0
38963 396 342 402 -399 -358 0
47070 396 342 -402 399 358 0
47855 396 342 -402 399 -358 0
50731 396 342 -402 -399 358 0
50966 396 342 -402 -399 -358 0
19874 396 -342 402 399 358 0
24738 396 -342 402 399 -358 0
42572 396 -342 402 -399 358 0
44031 396 -342 402 -399 -358 0
49057 396 -342 -402 399 358 0
49544 396 -342 -402 399 -358 0
51327 396 -342 -402 -399 358 0
51473 396 -342 -402 -399 -358 0
16736 -396 342 402 399 358 0
22071 -396 342 402 399 -358 0
41631 -396 342 402 -399 358 0
43231 -396 342 402 -399 -358 0
48744 -396 342 -402 399 358 0
49277 -396 342 -402 399 -358 0
51233 -396 342 -402 -399 358 0
51393 -396 342 -402 -399 -358 0
30250 -396 -342 402 399 358 0
33558 -396 -342 402 399 -358 0
45685 -396 -342 402 -399 358 0
46677 -396 -342 402 -399 -358 0
50095 -396 -342 -402 399 358 0
50426 -396 -342 -402 399 -358 0
51639 -396 -342 -402 -399 358 0
51738 -396 -342 -402 -399 -358 0
3390 405 -400 0
1695 -405 400 0
4577 -405 -400 0
45360 227 -403 0
17010 -227 403 0
48762 -227 -403 0
5040 406 407 492 -409 0
720 406 407 -492 409 0
5508 406 407 -492 -409 0
12240 406 -407 492 409 0
12996 406 -407 492 -409 0
12348 406 -407 -492 409 0
13066 406 -407 -492 -409 0
5040 -406 407 492 409 0
8316 -406 407 492 -409 0
5508 -406 407 -492 409 0
8620 -406 407 -492 -409 0
12996 -406 -407 492 409 0
13487 -406 -407 492 -409 0
13066 -406 -407 -492 409 0
13533 -406 -407 -492 -409 0
22876 381 -390 0
51170 -381 390 0
54601 -381 -390 0
1134 404 643 -410 0
22680 404 -643 410 0
23360 404 -643 -410 0
11340 -404 643 410 0
12247 -404 643 -410 0
29484 -404 -643 410 0
30028 -404 -643 -410 0
28350 -327 0
1836 -530 0
48240 378 411 417 -425 0
27135 378 411 -417 425 0
53667 378 411 -417 -425 0
42210 378 -411 417 425 0
56682 378 -411 417 -425 0
50350 378 -411 -417 425 0
58310 378 -411 -417 -425 0
48240 -378 411 417 425 0
57888 -378 411 417 -425 0
53667 -378 411 -417 425 0
58973 -378 411 -417 -425 0
56682 -378 -411 417 425 0
59576 -378 -411 417 -425 0
58310 -378 -411 -417 425 0
59902 -378 -411 -417 -425 0
3010 -768 0
5244 429 412 418 -415 0
7866 429 412 -418 415 0
12166 429 412 -418 -415 0
17480 429 -412 418 415 0
20626 429 -412 418 -415 0
22200 429 -412 -418 415 0
24780 429 -412 -418 -415 0
32775 -429 412 418 415 0
34086 -429 412 418 -415 0
34741 -429 412 -418 415 0
35817 -429 412 -418 -415 0
37145 -429 -412 418 415 0
37932 -429 -412 418 -415 0
38325 -429 -412 -418 415 0
38970 -429 -412 -418 -415 0
18305 -528 0
40950 427 431 -236 0
12600 427 -431 236 0
45360 427 -431 -236 0
9450 -427 431 236 0
44257 -427 431 -236 0
20160 -427 -431 236 0
48006 -427 -431 -236 0
5355 416 -413 0
8415 -416 413 0
10825 -416 -413 0
21070 428 408 -551 0
30100 428 -408 551 0
40635 428 -408 -551 0
48160 -428 408 551 0
52374 -428 408 -551 0
54180 -428 -408 551 0
56287 -428 -408 -551 0
22605 426 433 633 -437 0
39045 426 433 -633 437 0
40175 426 433 -633 -437 0
22605 426 -433 633 437 0
32777 426 -433 633 -437 0
40175 426 -433 -633 437 0
40684 426 -433 -633 -437 0
34935 -426 433 633 437 0
38326 -426 433 633 -437 0
40792 -426 433 -633 437 0
40961 -426 433 -633 -437 0
38326 -426 -433 633 437 0
39852 -426 -433 633 -437 0
40961 -426 -433 -633 437 0
41038 -426 -433 -633 -437 0
11370 439 331 430 -423 0
36005 439 331 -430 423 0
36574 439 331 -430 -423 0
15160 439 -331 430 423 0
21982 439 -331 430 -423 0
36763 439 -331 -430 423 0
37104 439 -331 -430 -423 0
12128 -439 331 430 423 0
19860 -439 331 430 -423 0
36611 -439 331 -430 423 0
36998 -439 331 -430 -423 0
22437 -439 -331 430 423 0
27076 -439 -331 430 -423 0
37127 -439 -331 -430 423 0
37359 -439 -331 -430 -423 0
1440 435 414 -745 0
10800 435 -414 745 0
10944 435 -414 -745 0
600 -435 414 745 0
1968 -435 414 -745 0
10860 -435 -414 745 0
10997 -435 -414 -745 0
57285 436 386 447 -438 0
12060 436 386 -447 438 0
57888 436 386 -447 -438 0
18090 436 -386 447 438 0
58189 436 -386 447 -438 0
26532 436 -386 -447 438 0
58612 436 -386 -447 -438 0
36180 -436 386 447 438 0
59094 -436 386 447 -438 0
41004 -436 386 -447 438 0
59335 -436 386 -447 -438 0
43416 -436 -386 447 438 0
59456 -436 -386 447 -438 0
46793 -436 -386 -447 438 0
59625 -436 -386 -447 -438 0
8475 441 -561 0
8475 -441 561 0
10594 -441 -561 0
11520 445 448 424 434 -450 0
1728 445 448 424 -434 450 0
11866 445 448 424 -434 -450 0
7920 445 448 -424 434 450 0
13104 445 448 -424 434 -450 0
8698 445 448 -424 -434 450 0
13260 445 448 -424 -434 -450 0
8640 445 -448 424 434 450 0
13248 445 -448 424 434 -450 0
9331 445 -448 424 -434 450 0
13386 445 -448 424 -434 -450 0
11808 445 -448 -424 434 450 0
13882 445 -448 -424 434 -450 0
12119 445 -448 -424 -434 450 0
13944 445 -448 -424 -434 -450 0
10080 -445 448 424 434 450 0
13536 -445 448 424 434 -450 0
10598 -445 448 424 -434 450 0
13640 -445 448 424 -434 -450 0
12456 -445 448 -424 434 450 0
14011 -445 448 -424 434 -450 0
12689 -445 448 -424 -434 450 0
14058 -445 448 -424 -434 -450 0
12672 -445 -448 424 434 450 0
14054 -445 -448 424 434 -450 0
12879 -445 -448 424 -434 450 0
14096 -445 -448 424 -434 -450 0
13622 -445 -448 -424 434 450 0
14244 -445 -448 -424 434 -450 0
13716 -445 -448 -424 -434 450 0
14263 -445 -448 -424 -434 -450 0
45150 296 -454 0
7224 -296 454 0
46956 -296 -454 0
2034 455 -666 0
6780 -455 666 0
7594 -455 -666 0
15618 446 784 458 -452 0
30825 446 784 -458 452 0
34730 446 784 -458 -452 0
30825 446 -784 458 452 0
34730 446 -784 458 -452 0
38531 446 -784 -458 452 0
39507 446 -784 -458 -452 0
6165 -446 784 458 452 0
19440 -446 784 458 -452 0
32366 -446 784 -458 452 0
35685 -446 784 -458 -452 0
32366 -446 -784 458 452 0
35685 -446 -784 458 -452 0
38917 -446 -784 -458 452 0
39746 -446 -784 -458 -452 0
7800 440 397 432 -456 0
4200 440 397 -432 456 0
9270 440 397 -432 -456 0
4200 440 -397 432 456 0
9270 440 -397 432 -456 0
6930 440 -397 -432 456 0
10225 440 -397 -432 -456 0
600 -440 397 432 456 0
8010 -440 397 432 -456 0
4590 -440 397 -432 456 0
9407 -440 397 -432 -456 0
4590 -440 -397 432 456 0
9407 -440 -397 432 -456 0
7183 -440 -397 -432 456 0
10314 -440 -397 -432 -456 0
3600 462 460 576 -449 0
9600 462 460 -576 449 0
10320 462 460 -576 -449 0
3000 462 -460 576 449 0
5700 462 -460 576 -449 0
10200 462 -460 -576 449 0
10740 462 -460 -576 -449 0
1800 -462 460 576 449 0
4860 -462 460 576 -449 0
9960 -462 460 -576 449 0
10572 -462 460 -576 -449 0
4350 -462 -460 576 449 0
6645 -462 -460 576 -449 0
10470 -462 -460 -576 449 0
10929 -462 -460 -576 -449 0
4590 457 453 442 464 459 694 -461 0
13770 457 453 442 464 459 -694 461 0
14229 457 453 442 464 459 -694 -461 0
5814 457 453 442 464 -459 694 461 0
8660 457 453 442 464 -459 694 -461 0
14351 457 453 442 464 -459 -694 461 0
14636 457 453 442 464 -459 -694 -461 0
5814 457 453 442 -464 459 694 461 0
8660 457 453 442 -464 459 694 -461 0
14351 457 453 442 -464 459 -694 461 0
14636 457 453 442 -464 459 -694 -461 0
9419 457 453 442 -464 -459 694 461 0
11183 457 453 442 -464 -459 694 -461 0
14712 457 453 442 -464 -459 -694 461 0
14888 457 453 442 -464 -459 -694 -461 0
13005 457 453 -442 464 459 694 461 0
13694 457 453 -442 464 459 694 -461 0
15070 457 453 -442 464 459 -694 461 0
15139 457 453 -442 464 459 -694 -461 0
13877 457 453 -442 464 -459 694 461 0
14304 457 453 -442 464 -459 694 -461 0
15158 457 453 -442 464 -459 -694 461 0
15200 457 453 -442 464 -459 -694 -461 0
13877 457 453 -442 -464 459 694 461 0
14304 457 453 -442 -464 459 694 -461 0
15158 457 453 -442 -464 459 -694 461 0
15200 457 453 -442 -464 459 -694 -461 0
14418 457 453 -442 -464 -459 694 461 0
14682 457 453 -442 -464 -459 694 -461 0
15212 457 453 -442 -464 -459 -694 461 0
15238 457 453 -442 -464 -459 -694 -461 0
2295 457 -453 442 464 459 694 461 0
6197 457 -453 442 464 459 694 -461 0
14000 457 -453 442 464 459 -694 461 0
14390 457 -453 442 464 459 -694 -461 0
7237 457 -453 442 464 -459 694 461 0
9656 457 -453 442 464 -459 694 -461 0
14494 457 -453 442 464 -459 -694 461 0
14736 457 -453 442 464 -459 -694 -461 0
7237 457 -453 442 -464 459 694 461 0
9656 457 -453 442 -464 459 694 -461 0
14494 457 -453 442 -464 459 -694 461 0
14736 457 -453 442 -464 459 -694 -461 0
10301 457 -453 442 -464 -459 694 461 0
11801 457 -453 442 -464 -459 694 -461 0
14800 457 -453 442 -464 -459 -694 461 0
14950 457 -453 442 -464 -459 -694 -461 0
13349 457 -453 -442 464 459 694 461 0
13934 457 -453 -442 464 459 694 -461 0
15105 457 -453 -442 464 459 -694 461 0
15163 457 -453 -442 464 459 -694 -461 0
14091 457 -453 -442 464 -459 694 461 0
14453 457 -453 -442 464 -459 694 -461 0
15179 457 -453 -442 464 -459 -694 461 0
15215 457 -453 -442 464 -459 -694 -461 0
14091 457 -453 -442 -464 459 694 461 0
14453 457 -453 -442 -464 459 694 -461 0
15179 457 -453 -442 -464 459 -694 461 0
15215 457 -453 -442 -464 459 -694 -461 0
14550 457 -453 -442 -464 -459 694 461 0
14775 457 -453 -442 -464 -459 694 -461 0
15225 457 -453 -442 -464 -459 -694 461 0
15248 457 -453 -442 -464 -459 -694 -461 0
14535 -457 453 442 464 459 694 461 0
14764 -457 453 442 464 459 694 -461 0
15223 -457 453 442 464 459 -694 461 0
15246 -457 453 442 464 459 -694 -461 0
14826 -457 453 442 464 -459 694 461 0
14968 -457 453 442 464 -459 694 -461 0
15253 -457 453 442 464 -459 -694 461 0
15267 -457 453 442 464 -459 -694 -461 0
14826 -457 453 442 -464 459 694 461 0
14968 -457 453 442 -464 459 694 -461 0
15253 -457 453 442 -464 459 -694 461 0
15267 -457 453 442 -464 459 -694 -461 0
15006 -457 453 442 -464 -459 694 461 0
15094 -457 453 442 -464 -459 694 -461 0
15271 -457 453 442 -464 -459 -694 461 0
15279 -457 453 442 -464 -459 -694 -461 0
15185 -457 453 -442 464 459 694 461 0
15220 -457 453 -442 464 459 694 -461 0
15289 -457 453 -442 464 459 -694 461 0
15292 -457 453 -442 464 459 -694 -461 0
15229 -457 453 -442 464 -459 694 461 0
15250 -457 453 -442 464 -459 694 -461 0
15293 -457 453 -442 464 -459 -694 461 0
15295 -457 453 -442 464 -459 -694 -461 0
15229 -457 453 -442 -464 459 694 461 0
15250 -457 453 -442 -464 459 694 -461 0
15293 -457 453 -442 -464 459 -694 461 0
15295 -457 453 -442 -464 459 -694 -461 0
15256 -457 453 -442 -464 -459 694 461 0
15269 -457 453 -442 -464 -459 694 -461 0
15296 -457 453 -442 -464 -459 -694 461 0
15297 -457 453 -442 -464 -459 -694 -461 0
14650 -457 -453 442 464 459 694 461 0
14845 -457 -453 442 464 459 694 -461 0
15235 -457 -453 442 464 459 -694 461 0
15254 -457 -453 442 464 459 -694 -461 0
14897 -457 -453 442 464 -459 694 461 0
15018 -457 -453 442 464 -459 694 -461 0
15260 -457 -453 442 464 -459 -694 461 0
15272 -457 -453 442 464 -459 -694 -461 0
14897 -457 -453 442 -464 459 694 461 0
15018 -457 -453 442 -464 459 694 -461 0
15260 -457 -453 442 -464 459 -694 461 0
15272 -457 -453 442 -464 459 -694 -461 0
15050 -457 -453 442 -464 -459 694 461 0
15125 -457 -453 442 -464 -459 694 -461 0
15275 -457 -453 442 -464 -459 -694 461 0
15283 -457 -453 442 -464 -459 -694 -461 0
15202 -457 -453 -442 464 459 694 461 0
15232 -457 -453 -442 464 459 694 -461 0
15290 -457 -453 -442 464 459 -694 461 0
15293 -457 -453 -442 464 459 -694 -461 0
15240 -457 -453 -442 464 -459 694 461 0
15258 -457 -453 -442 464 -459 694 -461 0
15294 -457 -453 -442 464 -459 -694 461 0
15296 -457 -453 -442 464 -459 -694 -461 0
15240 -457 -453 -442 -464 459 694 461 0
15258 -457 -453 -442 -464 459 694 -461 0
15294 -457 -453 -442 -464 459 -694 461 0
15296 -457 -453 -442 -464 459 -694 -461 0
15263 -457 -453 -442 -464 -459 694 461 0
15274 -457 -453 -442 -464 -459 694 -461 0
15296 -457 -453 -442 -464 -459 -694 461 0
15297 -457 -453 -442 -464 -459 -694 -461 0
24080 531 -471 0
30100 -531 471 0
42140 -531 -471 0
13110 596 -465 0
37145 -596 465 0
39112 -596 -465 0
34935 473 736 -475 0
26715 473 -736 475 0
38942 473 -736 -475 0
14385 -473 736 475 0
37093 -473 736 -475 0
31750 -473 -736 475 0
39697 -473 -736 -475 0
42210 646 -463 0
42210 -646 463 0
54873 -646 -463 0
13984 707 451 -477 0
17480 707 -451 477 0
25870 707 -451 -477 0
6555 -707 451 477 0
18441 -707 451 -477 0
21413 -707 -451 477 0
28545 -707 -451 -477 0
2592 472 478 474 704 -476 0
6480 472 478 474 -704 476 0
7906 472 478 474 -704 -476 0
2592 472 478 -474 704 476 0
4717 472 478 -474 704 -476 0
7906 472 478 -474 -704 476 0
9075 472 478 -474 -704 -476 0
720 472 -478 474 704 476 0
3182 472 -478 474 704 -476 0
6876 472 -478 474 -704 476 0
8230 472 -478 474 -704 -476 0
3182 472 -478 -474 704 476 0
5202 472 -478 -474 704 -476 0
8230 472 -478 -474 -704 476 0
9341 472 -478 -474 -704 -476 0
3600 -472 478 474 704 476 0
5544 -472 478 474 704 -476 0
8460 -472 478 474 -704 476 0
9529 -472 478 474 -704 -476 0
5544 -472 478 -474 704 476 0
7138 -472 478 -474 704 -476 0
9529 -472 478 -474 -704 476 0
10406 -472 478 -474 -704 -476 0
4140 -472 -478 474 704 476 0
5987 -472 -478 474 704 -476 0
8757 -472 -478 474 -704 476 0
9773 -472 -478 474 -704 -476 0
5987 -472 -478 -474 704 476 0
7501 -472 -478 -474 704 -476 0
9773 -472 -478 -474 -704 476 0
10606 -472 -478 -474 -704 -476 0
4520 737 -479 0
2034 -737 479 0
5740 -737 -479 0
