p wcnf 77 303 1000000
1000000 1 0
1000000 2 -18 0
1000000 18 -60 -56 -1 0
1000000 14 -19 0
1000000 19 -63 -64 -57 -1 0
1000000 3 -20 0
1000000 20 -59 -62 -55 -1 0
1000000 7 -21 0
1000000 21 -61 -1 0
1000000 8 -22 0
1000000 22 -65 -69 -1 0
1000000 9 -23 0
1000000 23 -66 -1 0
1000000 15 -24 0
1000000 24 -59 -67 -57 -2 0
1000000 3 -25 0
1000000 25 -55 -58 -2 0
1000000 4 -26 0
1000000 26 -71 -2 0
1000000 8 -27 0
1000000 27 -56 -2 0
1000000 12 -28 0
1000000 28 -70 -11 0
1000000 13 -29 0
1000000 29 -60 -11 0
1000000 16 -30 0
1000000 30 -63 -64 -12 0
1000000 17 -31 0
1000000 31 -70 -65 -61 -12 0
1000000 16 -32 0
1000000 32 -68 -13 0
1000000 17 -33 0
1000000 33 -62 -13 0
1000000 15 -34 0
1000000 34 -68 -71 -14 0
1000000 16 -35 0
1000000 35 -58 -15 0
1000000 17 -36 0
1000000 36 -56 -57 -66 -16 0
1000000 11 -37 0
1000000 37 -63 -60 -67 -3 0
1000000 10 -38 0
1000000 38 -62 -69 -66 -3 0
1000000 5 -39 0
1000000 39 -58 -4 0
1000000 9 -40 0
1000000 40 -70 -55 -59 -4 0
1000000 12 -41 0
1000000 41 -67 -56 -65 -5 0
1000000 6 -42 0
1000000 42 -55 -59 -61 -5 0
1000000 8 -43 0
1000000 43 -69 -5 0
1000000 16 -44 0
1000000 44 -58 -60 -6 0
1000000 11 -45 0
1000000 45 -64 -7 0
1000000 12 -46 0
1000000 46 -61 -63 -7 0
1000000 11 -47 0
1000000 47 -68 -65 -8 0
1000000 16 -48 0
1000000 48 -71 -64 -8 0
1000000 17 -49 0
1000000 49 -67 -57 -70 -8 0
1000000 14 -50 0
1000000 50 -68 -9 0
1000000 16 -51 0
1000000 51 -55 -59 -62 -9 0
1000000 10 -52 0
1000000 52 -56 -71 -9 0
1000000 13 -53 0
1000000 53 -66 -64 -57 -10 0
1000000 17 -54 0
1000000 54 -61 -65 -62 -10 0
1000000 1 0
1000000 -2 18 0
1000000 -3 25 20 0
1000000 -4 26 0
1000000 -5 39 0
1000000 -6 42 0
1000000 -7 21 0
1000000 -8 27 43 22 0
1000000 -9 23 40 0
1000000 -10 52 38 0
1000000 -11 45 37 47 0
1000000 -12 41 46 28 0
1000000 -13 29 53 0
1000000 -14 19 50 0
1000000 -15 34 24 0
1000000 -16 44 51 35 30 32 48 0
1000000 -17 54 49 33 31 36 0
1000000 55 73 0
1000000 56 72 0
1000000 57 73 0
1000000 58 77 0
1000000 59 73 0
1000000 60 77 0
1000000 61 72 0
1000000 62 75 0
1000000 63 77 0
1000000 64 76 0
1000000 65 72 0
1000000 66 76 0
1000000 67 76 0
1000000 68 75 0
1000000 69 75 0
1000000 70 74 0
1000000 71 74 0
1000000 -55 -73 0
1000000 -56 -72 0
1000000 -57 -73 0
1000000 -58 -77 0
1000000 -59 -73 0
1000000 -60 -77 0
1000000 -61 -72 0
1000000 -62 -75 0
1000000 -63 -77 0
1000000 -64 -76 0
1000000 -65 -72 0
1000000 -66 -76 0
1000000 -67 -76 0
1000000 -68 -75 0
1000000 -69 -75 0
1000000 -70 -74 0
1000000 -71 -74 0
13400 -72 0
11600 -73 0
11200 -74 0
7400 -75 0
7400 -76 0
13400 -77 0
3200 55 0
3200 56 0
3200 57 0
1000 58 0
1900 59 0
1000 60 0
1000 61 0
3200 62 0
1300 63 0
1000 64 0
1900 65 0
1900 66 0
2700 67 0
1300 68 0
1900 69 0
1300 70 0
1600 71 0
13320 -18 0
4500 25 -20 0
2700 -25 20 0
6660 -25 -20 0
37485 -26 0
17824 -39 0
20520 -42 0
11250 -21 0
15540 27 43 -22 0
6475 27 -43 22 0
18130 27 -43 -22 0
1295 -27 43 22 0
16058 -27 43 -22 0
7446 -27 -43 22 0
18519 -27 -43 -22 0
8880 23 -40 0
31080 -23 40 0
33744 -23 -40 0
28050 52 -38 0
16320 -52 38 0
35394 -52 -38 0
866 45 37 -47 0
4330 45 -37 47 0
5109 45 -37 -47 0
12990 -45 37 47 0
13596 -45 37 -47 0
16021 -45 -37 47 0
16567 -45 -37 -47 0
12990 41 46 -28 0
23815 41 -46 28 0
29661 41 -46 -28 0
16454 -41 46 28 0
24508 -41 46 -28 0
31219 -41 -46 28 0
34844 -41 -46 -28 0
33670 29 -53 0
24050 -29 53 0
40885 -29 -53 0
15540 19 -50 0
23310 -19 50 0
24864 -19 -50 0
23840 34 -24 0
596 -34 24 0
23959 -34 -24 0
36805 44 51 35 30 32 -48 0
36805 44 51 35 30 -32 48 0
42326 44 51 35 30 -32 -48 0
16454 44 51 35 -30 32 48 0
39273 44 51 35 -30 32 -48 0
39273 44 51 35 -30 -32 48 0
42696 44 51 35 -30 -32 -48 0
2165 44 51 -35 30 32 48 0
37130 44 51 -35 30 32 -48 0
37130 44 51 -35 30 -32 48 0
42374 44 51 -35 30 -32 -48 0
17796 44 51 -35 -30 32 48 0
39474 44 51 -35 -30 32 -48 0
39474 44 51 -35 -30 -32 48 0
42726 44 51 -35 -30 -32 -48 0
19485 44 -51 35 30 32 48 0
39728 44 -51 35 30 32 -48 0
39728 44 -51 35 30 -32 48 0
42764 44 -51 35 30 -32 -48 0
28535 44 -51 35 -30 32 48 0
41085 44 -51 35 -30 32 -48 0
41085 44 -51 35 -30 -32 48 0
42968 44 -51 35 -30 -32 -48 0
20676 44 -51 -35 30 32 48 0
39906 44 -51 -35 30 32 -48 0
39906 44 -51 -35 30 -32 48 0
42791 44 -51 -35 30 -32 -48 0
29273 44 -51 -35 -30 32 48 0
41196 44 -51 -35 -30 32 -48 0
41196 44 -51 -35 -30 -32 48 0
42984 44 -51 -35 -30 -32 -48 0
32475 -44 51 35 30 32 48 0
41676 -44 51 35 30 32 -48 0
41676 -44 51 35 30 -32 48 0
43056 -44 51 35 30 -32 -48 0
36588 -44 51 35 -30 32 48 0
42293 -44 51 35 -30 32 -48 0
42293 -44 51 35 -30 -32 48 0
43149 -44 51 35 -30 -32 -48 0
33016 -44 51 -35 30 32 48 0
41757 -44 51 -35 30 32 -48 0
41757 -44 51 -35 30 -32 48 0
43069 -44 51 -35 30 -32 -48 0
36924 -44 51 -35 -30 32 48 0
42344 -44 51 -35 -30 32 -48 0
42344 -44 51 -35 -30 -32 48 0
43157 -44 51 -35 -30 -32 -48 0
37346 -44 -51 35 30 32 48 0
42407 -44 -51 35 30 32 -48 0
42407 -44 -51 35 30 -32 48 0
43166 -44 -51 35 30 -32 -48 0
39609 -44 -51 35 -30 32 48 0
42746 -44 -51 35 -30 32 -48 0
42746 -44 -51 35 -30 -32 48 0
43217 -44 -51 35 -30 -32 -48 0
37644 -44 -51 -35 30 32 48 0
42452 -44 -51 -35 30 32 -48 0
42452 -44 -51 -35 30 -32 48 0
43173 -44 -51 -35 30 -32 -48 0
39793 -44 -51 -35 -30 32 48 0
42774 -44 -51 -35 -30 32 -48 0
42774 -44 -51 -35 -30 -32 48 0
43221 -44 -51 -35 -30 -32 -48 0
13410 54 49 33 31 -36 0
20860 54 49 33 -31 36 0
24883 54 49 33 -31 -36 0
16390 54 49 -33 31 36 0
22424 54 49 -33 31 -36 0
25777 54 49 -33 -31 36 0
27587 54 49 -33 -31 -36 0
16390 54 -49 33 31 36 0
22424 54 -49 33 31 -36 0
25777 54 -49 33 -31 36 0
27587 54 -49 33 -31 -36 0
23766 54 -49 -33 31 36 0
26481 54 -49 -33 31 -36 0
27990 54 -49 -33 -31 36 0
28804 54 -49 -33 -31 -36 0
5960 -54 49 33 31 36 0
16688 -54 49 33 31 -36 0
22648 -54 49 33 -31 36 0
25866 -54 49 33 -31 -36 0
19072 -54 49 -33 31 36 0
23900 -54 49 -33 31 -36 0
26582 -54 49 -33 -31 36 0
28030 -54 49 -33 -31 -36 0
19072 -54 -49 33 31 36 0
23900 -54 -49 33 31 -36 0
26582 -54 -49 33 -31 36 0
28030 -54 -49 33 -31 -36 0
24972 -54 -49 -33 31 36 0
27145 -54 -49 -33 31 -36 0
28352 -54 -49 -33 -31 36 0
29003 -54 -49 -33 -31 -36 0
