p wcnf 73 261 1000000
1000000 1 0
1000000 2 -17 0
1000000 17 -52 -59 -53 -1 0
1000000 4 -18 0
1000000 18 -56 -60 -58 -1 0
1000000 7 -19 0
1000000 19 -54 -1 0
1000000 8 -20 0
1000000 20 -61 -1 0
1000000 10 -21 0
1000000 21 -57 -55 -1 0
1000000 12 -22 0
1000000 22 -64 -2 0
1000000 3 -23 0
1000000 23 -52 -63 -2 0
1000000 5 -24 0
1000000 24 -66 -56 -54 -2 0
1000000 10 -25 0
1000000 25 -67 -2 0
1000000 13 -26 0
1000000 26 -59 -60 -58 -11 0
1000000 14 -27 0
1000000 27 -61 -65 -57 -11 0
1000000 13 -28 0
1000000 28 -62 -12 0
1000000 14 -29 0
1000000 29 -65 -63 -12 0
1000000 16 -30 0
1000000 30 -62 -13 0
1000000 15 -31 0
1000000 31 -53 -14 0
1000000 16 -32 0
1000000 32 -66 -57 -55 -15 0
1000000 7 -33 0
1000000 33 -54 -52 -3 0
1000000 8 -34 0
1000000 34 -53 -61 -55 -3 0
1000000 9 -35 0
1000000 35 -58 -67 -64 -3 0
1000000 13 -36 0
1000000 36 -63 -59 -4 0
1000000 14 -37 0
1000000 37 -60 -4 0
1000000 6 -38 0
1000000 38 -56 -4 0
1000000 8 -39 0
1000000 39 -67 -65 -5 0
1000000 15 -40 0
1000000 40 -53 -52 -7 0
1000000 16 -41 0
1000000 41 -56 -55 -7 0
1000000 9 -42 0
1000000 42 -62 -7 0
1000000 15 -43 0
1000000 43 -66 -8 0
1000000 11 -44 0
1000000 44 -63 -64 -59 -9 0
1000000 12 -45 0
1000000 45 -57 -62 -9 0
1000000 13 -46 0
1000000 46 -58 -66 -64 -9 0
1000000 15 -47 0
1000000 47 -61 -9 0
1000000 16 -48 0
1000000 48 -55 -60 -57 -9 0
1000000 12 -49 0
1000000 49 -67 -10 0
1000000 13 -50 0
1000000 50 -52 -10 0
1000000 14 -51 0
1000000 51 -53 -60 -56 -10 0
1000000 1 0
1000000 -2 17 0
1000000 -3 23 0
1000000 -4 18 0
1000000 -5 24 0
1000000 -6 38 0
1000000 -7 19 33 0
1000000 -8 20 34 39 0
1000000 -9 42 35 0
1000000 -10 25 21 0
1000000 -11 44 0
1000000 -12 22 49 45 0
1000000 -13 28 50 36 46 26 0
1000000 -14 29 51 37 27 0
1000000 -15 40 47 43 31 0
1000000 -16 30 41 48 32 0
1000000 52 68 0
1000000 53 73 0
1000000 54 69 0
1000000 55 71 0
1000000 56 69 0
1000000 57 73 0
1000000 58 71 0
1000000 59 69 0
1000000 60 71 0
1000000 61 73 0
1000000 62 70 0
1000000 63 70 0
1000000 64 70 0
1000000 65 72 0
1000000 66 68 0
1000000 67 68 0
1000000 -52 -68 0
1000000 -53 -73 0
1000000 -54 -69 0
1000000 -55 -71 0
1000000 -56 -69 0
1000000 -57 -73 0
1000000 -58 -71 0
1000000 -59 -69 0
1000000 -60 -71 0
1000000 -61 -73 0
1000000 -62 -70 0
1000000 -63 -70 0
1000000 -64 -70 0
1000000 -65 -72 0
1000000 -66 -68 0
1000000 -67 -68 0
10800 -68 0
10800 -69 0
14100 -70 0
12200 -71 0
10800 -72 0
10800 -73 0
2100 52 0
3600 53 0
2100 54 0
1600 55 0
2100 56 0
3400 57 0
2600 58 0
3400 59 0
2600 60 0
3600 61 0
1300 62 0
2700 63 0
1700 64 0
2600 65 0
1300 66 0
2600 67 0
7600 -17 0
15540 -23 0
8310 -18 0
9525 -24 0
17760 -38 0
5250 19 -33 0
3150 -19 33 0
7455 -19 -33 0
12350 20 34 -39 0
6650 20 -34 39 0
14678 20 -34 -39 0
7220 -20 34 39 0
14877 -20 34 -39 0
11343 -20 -34 39 0
16320 -20 -34 -39 0
17760 42 -35 0
13320 -42 35 0
20424 -42 -35 0
3800 25 -21 0
15200 -25 21 0
15960 -25 -21 0
8380 -44 0
15240 22 49 -45 0
28575 22 -49 45 0
32385 22 -49 -45 0
3810 -22 49 45 0
17526 -22 49 -45 0
29528 -22 -49 45 0
32956 -22 -49 -45 0
20704 28 50 36 46 -26 0
16175 28 50 36 -46 26 0
31703 28 50 36 -46 -26 0
61465 28 50 -36 46 26 0
62500 28 50 -36 46 -26 0
62274 28 50 -36 -46 26 0
63050 28 50 -36 -46 -26 0
45290 28 -50 36 46 26 0
51501 28 -50 36 46 -26 0
50142 28 -50 36 -46 26 0
54801 28 -50 36 -46 -26 0
63729 28 -50 -36 46 26 0
64040 28 -50 -36 46 -26 0
63972 28 -50 -36 -46 26 0
64205 28 -50 -36 -46 -26 0
9705 -28 50 36 46 26 0
27303 -28 50 36 46 -26 0
23454 -28 50 36 -46 26 0
36653 -28 50 36 -46 -26 0
61950 -28 50 -36 46 26 0
62830 -28 50 -36 46 -26 0
62638 -28 50 -36 -46 26 0
63298 -28 50 -36 -46 -26 0
48201 -28 -50 36 46 26 0
53481 -28 -50 36 46 -26 0
52326 -28 -50 36 -46 26 0
56286 -28 -50 36 -46 -26 0
63875 -28 -50 -36 46 26 0
64139 -28 -50 -36 46 -26 0
64081 -28 -50 -36 -46 26 0
64279 -28 -50 -36 -46 -26 0
26820 29 51 37 -27 0
32780 29 51 -37 27 0
44849 29 51 -37 -27 0
38740 29 -51 37 27 0
48127 29 -51 37 -27 0
50213 29 -51 -37 27 0
54437 29 -51 -37 -27 0
38740 -29 51 37 27 0
48127 -29 51 37 -27 0
50213 -29 51 -37 27 0
54437 -29 51 -37 -27 0
52299 -29 -51 37 27 0
55584 -29 -51 37 -27 0
56315 -29 -51 -37 27 0
57793 -29 -51 -37 -27 0
32350 40 47 43 -31 0
54995 40 47 -43 31 0
59848 40 47 -43 -31 0
61465 40 -47 43 31 0
63082 40 -47 43 -31 0
64215 40 -47 -43 31 0
64457 40 -47 -43 -31 0
32350 -40 47 43 31 0
48525 -40 47 43 -31 0
59848 -40 47 -43 31 0
62274 -40 47 -43 -31 0
63082 -40 -47 43 31 0
63891 -40 -47 43 -31 0
64457 -40 -47 -43 31 0
64579 -40 -47 -43 -31 0
18870 30 41 48 -32 0
4440 30 41 -48 32 0
19536 30 41 -48 -32 0
17760 30 -41 48 32 0
21534 30 -41 48 -32 0
18648 30 -41 -48 32 0
21667 30 -41 -48 -32 0
16650 -30 41 48 32 0
21368 -30 41 48 -32 0
17760 -30 41 -48 32 0
21534 -30 41 -48 -32 0
21090 -30 -41 48 32 0
22034 -30 -41 48 -32 0
21312 -30 -41 -48 32 0
22067 -30 -41 -48 -32 0
