p wcnf 74 232 1000000
1000000 1 0
1000000 2 -18 0
1000000 18 -53 -54 -1 0
1000000 13 -19 0
1000000 19 -57 -59 -1 0
1000000 14 -20 0
1000000 20 -60 -62 -1 0
1000000 3 -21 0
1000000 21 -58 -1 0
1000000 4 -22 0
1000000 22 -63 -56 -1 0
1000000 5 -23 0
1000000 23 -66 -61 -1 0
1000000 4 -24 0
1000000 24 -55 -67 -2 0
1000000 5 -25 0
1000000 25 -58 -65 -54 -2 0
1000000 7 -26 0
1000000 26 -53 -68 -2 0
1000000 13 -27 0
1000000 27 -55 -11 0
1000000 15 -28 0
1000000 28 -64 -11 0
1000000 13 -29 0
1000000 29 -56 -61 -12 0
1000000 14 -30 0
1000000 30 -57 -13 0
1000000 16 -31 0
1000000 31 -60 -13 0
1000000 12 -32 0
1000000 32 -53 -68 -65 -3 0
1000000 14 -33 0
1000000 33 -59 -63 -3 0
1000000 6 -34 0
1000000 34 -64 -3 0
1000000 17 -35 0
1000000 35 -55 -57 -62 -4 0
1000000 6 -36 0
1000000 36 -61 -59 -58 -4 0
1000000 8 -37 0
1000000 37 -54 -65 -56 -4 0
1000000 9 -38 0
1000000 38 -60 -67 -54 -4 0
1000000 11 -39 0
1000000 39 -66 -62 -5 0
1000000 15 -40 0
1000000 40 -56 -67 -68 -5 0
1000000 16 -41 0
1000000 41 -63 -5 0
1000000 10 -42 0
1000000 42 -58 -55 -5 0
1000000 14 -43 0
1000000 43 -63 -60 -62 -6 0
1000000 8 -44 0
1000000 44 -66 -53 -6 0
1000000 10 -45 0
1000000 45 -57 -64 -6 0
1000000 12 -46 0
1000000 46 -64 -7 0
1000000 15 -47 0
1000000 47 -59 -61 -7 0
1000000 17 -48 0
1000000 48 -67 -7 0
1000000 9 -49 0
1000000 49 -54 -53 -8 0
1000000 16 -50 0
1000000 50 -68 -9 0
1000000 11 -51 0
1000000 51 -58 -66 -10 0
1000000 15 -52 0
1000000 52 -60 -59 -10 0
1000000 1 0
1000000 -2 18 0
1000000 -3 21 0
1000000 -4 22 24 0
1000000 -5 23 25 0
1000000 -6 34 36 0
1000000 -7 26 0
1000000 -8 44 37 0
1000000 -9 38 49 0
1000000 -10 42 45 0
1000000 -11 39 51 0
1000000 -12 32 46 0
1000000 -13 29 19 27 0
1000000 -14 30 33 20 43 0
1000000 -15 28 52 40 47 0
1000000 -16 50 31 41 0
1000000 -17 48 35 0
1000000 53 74 0
1000000 54 72 0
1000000 55 70 0
1000000 56 71 0
1000000 57 71 0
1000000 58 74 0
1000000 59 74 0
1000000 60 72 0
1000000 61 69 0
1000000 62 69 0
1000000 63 73 0
1000000 64 69 0
1000000 65 73 0
1000000 66 72 0
1000000 67 71 0
1000000 68 70 0
1000000 -53 -74 0
1000000 -54 -72 0
1000000 -55 -70 0
1000000 -56 -71 0
1000000 -57 -71 0
1000000 -58 -74 0
1000000 -59 -74 0
1000000 -60 -72 0
1000000 -61 -69 0
1000000 -62 -69 0
1000000 -63 -73 0
1000000 -64 -69 0
1000000 -65 -73 0
1000000 -66 -72 0
1000000 -67 -71 0
1000000 -68 -70 0
13800 -69 0
11100 -70 0
14000 -71 0
14000 -72 0
14000 -73 0
14000 -74 0
1100 53 0
800 54 0
1100 55 0
2500 56 0
1500 57 0
1800 58 0
800 59 0
800 60 0
1100 61 0
1500 62 0
800 63 0
1800 64 0
2500 65 0
2500 66 0
800 67 0
1400 68 0
15660 -18 0
63810 -21 0
2700 22 -24 0
8640 -22 24 0
9180 -22 -24 0
12725 23 -25 0
38175 -23 25 0
41356 -23 -25 0
1560 34 -36 0
8450 -34 36 0
8996 -34 -36 0
31250 -26 0
4160 44 -37 0
5850 -44 37 0
8138 -44 -37 0
59760 38 -49 0
59760 -38 49 0
65736 -38 -49 0
7500 42 -45 0
28125 -42 45 0
32250 -42 -45 0
1250 39 -51 0
43750 -39 51 0
44125 -39 -51 0
9100 32 -46 0
1300 -32 46 0
9490 -32 -46 0
2160 29 19 -27 0
1944 29 -19 27 0
3715 29 -19 -27 0
10260 -29 19 27 0
10368 -29 19 -27 0
10357 -29 -19 27 0
10446 -29 -19 -27 0
49630 30 33 20 -43 0
49630 30 33 -20 43 0
64519 30 33 -20 -43 0
35450 30 -33 20 43 0
60265 30 -33 20 -43 0
60265 30 -33 -20 43 0
67710 30 -33 -20 -43 0
63810 -30 33 20 43 0
68773 -30 33 20 -43 0
68773 -30 33 -20 43 0
70262 -30 33 -20 -43 0
67355 -30 -33 20 43 0
69837 -30 -33 20 -43 0
69837 -30 -33 -20 43 0
70581 -30 -33 -20 -43 0
43160 28 52 40 -47 0
56440 28 52 -40 47 0
62914 28 52 -40 -47 0
33200 28 -52 40 47 0
54780 28 -52 40 -47 0
61420 28 -52 -40 47 0
64657 28 -52 -40 -47 0
26560 -28 52 40 47 0
52456 -28 52 40 -47 0
60424 -28 52 -40 47 0
64308 -28 52 -40 -47 0
46480 -28 -52 40 47 0
59428 -28 -52 40 -47 0
63412 -28 -52 -40 47 0
65354 -28 -52 -40 -47 0
12160 50 31 -41 0
9120 50 -31 41 0
19456 50 -31 -41 0
24320 -50 31 41 0
31616 -50 31 -41 0
29792 -50 -31 41 0
35994 -50 -31 -41 0
3250 48 -35 0
9750 -48 35 0
10562 -48 -35 0
