p wcnf 53 164 1000000
1000000 1 0
1000000 2 -14 0
1000000 14 -39 -1 0
1000000 13 -15 0
1000000 15 -45 -47 -44 -1 0
1000000 3 -16 0
1000000 16 -42 -41 -40 -1 0
1000000 4 -17 0
1000000 17 -38 -49 -1 0
1000000 7 -18 0
1000000 18 -40 -38 -1 0
1000000 8 -19 0
1000000 19 -42 -39 -44 -1 0
1000000 8 -20 0
1000000 20 -43 -47 -48 -2 0
1000000 9 -21 0
1000000 21 -46 -2 0
1000000 13 -22 0
1000000 22 -45 -43 -11 0
1000000 11 -23 0
1000000 23 -41 -3 0
1000000 12 -24 0
1000000 24 -39 -38 -49 -3 0
1000000 4 -25 0
1000000 25 -48 -46 -3 0
1000000 6 -26 0
1000000 26 -45 -44 -3 0
1000000 8 -27 0
1000000 27 -41 -3 0
1000000 9 -28 0
1000000 28 -40 -46 -3 0
1000000 5 -29 0
1000000 29 -38 -49 -4 0
1000000 11 -30 0
1000000 30 -47 -48 -5 0
1000000 7 -31 0
1000000 31 -44 -46 -41 -5 0
1000000 7 -32 0
1000000 32 -39 -43 -6 0
1000000 8 -33 0
1000000 33 -43 -6 0
1000000 9 -34 0
1000000 34 -47 -49 -6 0
1000000 10 -35 0
1000000 35 -45 -9 0
1000000 12 -36 0
1000000 36 -48 -38 -10 0
1000000 13 -37 0
1000000 37 -39 -41 -44 -10 0
1000000 1 0
1000000 -2 14 0
1000000 -3 16 0
1000000 -4 25 17 0
1000000 -5 29 0
1000000 -6 26 0
1000000 -7 31 18 32 0
1000000 -8 20 19 33 27 0
1000000 -9 28 34 21 0
1000000 -10 35 0
1000000 -11 23 30 0
1000000 -12 36 24 0
1000000 -13 37 15 22 0
1000000 38 53 0
1000000 39 50 0
1000000 40 51 0
1000000 41 52 0
1000000 42 50 0
1000000 43 53 0
1000000 44 51 0
1000000 45 53 0
1000000 46 52 0
1000000 47 52 0
1000000 48 51 0
1000000 49 50 0
1000000 -38 -53 0
1000000 -39 -50 0
1000000 -40 -51 0
1000000 -41 -52 0
1000000 -42 -50 0
1000000 -43 -53 0
1000000 -44 -51 0
1000000 -45 -53 0
1000000 -46 -52 0
1000000 -47 -52 0
1000000 -48 -51 0
1000000 -49 -50 0
8500 -50 0
8500 -51 0
8500 -52 0
9200 -53 0
2400 38 0
2200 39 0
1500 40 0
3200 41 0
1500 42 0
2400 43 0
1500 44 0
1500 45 0
2900 46 0
2400 47 0
3200 48 0
3200 49 0
14460 -14 0
11772 -16 0
8700 25 -17 0
1740 -25 17 0
9135 -25 -17 0
18000 -29 0
14050 -26 0
35970 31 18 -32 0
62130 31 -18 32 0
63928 31 -18 -32 0
32700 -31 18 32 0
50685 -31 18 -32 0
63765 -31 -18 32 0
64664 -31 -18 -32 0
3585 20 19 33 -27 0
7648 20 19 -33 27 0
10086 20 19 -33 -27 0
478 20 -19 33 27 0
3991 20 -19 33 -27 0
7973 20 -19 -33 27 0
10362 20 -19 -33 -27 0
16730 -20 19 33 27 0
17806 -20 19 33 -27 0
19024 -20 19 -33 27 0
19756 -20 19 -33 -27 0
16873 -20 -19 33 27 0
17927 -20 -19 33 -27 0
19122 -20 -19 -33 27 0
19839 -20 -19 -33 -27 0
9520 28 34 -21 0
2720 28 -34 21 0
10336 28 -34 -21 0
1632 -28 34 21 0
10010 -28 34 -21 0
4026 -28 -34 21 0
10728 -28 -34 -21 0
5662 -35 0
21356 23 -30 0
11240 -23 30 0
28325 -23 -30 0
272 36 -24 0
9520 -36 24 0
9602 -36 -24 0
13510 37 15 -22 0
3860 37 -15 22 0
14668 37 -15 -22 0
3474 -37 15 22 0
14552 -37 15 -22 0
6639 -37 -15 22 0
15502 -37 -15 -22 0
