p wcnf 61 209 1000000
1000000 1 0
1000000 2 -16 0
1000000 16 -47 -45 -1 0
1000000 3 -17 0
1000000 17 -46 -49 -48 -1 0
1000000 5 -18 0
1000000 18 -55 -52 -43 -1 0
1000000 7 -19 0
1000000 19 -46 -43 -50 -1 0
1000000 8 -20 0
1000000 20 -51 -1 0
1000000 9 -21 0
1000000 21 -53 -1 0
1000000 10 -22 0
1000000 22 -54 -44 -1 0
1000000 11 -23 0
1000000 23 -47 -45 -2 0
1000000 12 -24 0
1000000 24 -56 -2 0
1000000 4 -25 0
1000000 25 -54 -55 -50 -2 0
1000000 13 -26 0
1000000 26 -49 -51 -48 -12 0
1000000 15 -27 0
1000000 27 -53 -56 -14 0
1000000 6 -28 0
1000000 28 -46 -45 -3 0
1000000 7 -29 0
1000000 29 -47 -49 -3 0
1000000 12 -30 0
1000000 30 -48 -52 -4 0
1000000 7 -31 0
1000000 31 -43 -44 -4 0
1000000 9 -32 0
1000000 32 -51 -54 -50 -4 0
1000000 11 -33 0
1000000 33 -53 -56 -5 0
1000000 12 -34 0
1000000 34 -49 -47 -55 -5 0
1000000 6 -35 0
1000000 35 -43 -46 -50 -5 0
1000000 7 -36 0
1000000 36 -52 -6 0
1000000 14 -37 0
1000000 37 -56 -45 -44 -7 0
1000000 11 -38 0
1000000 38 -54 -44 -9 0
1000000 12 -39 0
1000000 39 -52 -9 0
1000000 13 -40 0
1000000 40 -43 -53 -45 -9 0
1000000 11 -41 0
1000000 41 -44 -46 -52 -10 0
1000000 12 -42 0
1000000 42 -48 -10 0
1000000 1 0
1000000 -2 16 0
1000000 -3 17 0
1000000 -4 25 0
1000000 -5 18 0
1000000 -6 35 28 0
1000000 -7 29 31 19 36 0
1000000 -8 20 0
1000000 -9 21 32 0
1000000 -10 22 0
1000000 -11 41 38 33 23 0
1000000 -12 39 30 24 42 34 0
1000000 -13 26 40 0
1000000 -14 37 0
1000000 -15 27 0
1000000 43 61 0
1000000 44 57 0
1000000 45 60 0
1000000 46 60 0
1000000 47 61 0
1000000 48 59 0
1000000 49 57 0
1000000 50 61 0
1000000 51 57 0
1000000 52 58 0
1000000 53 60 0
1000000 54 59 0
1000000 55 58 0
1000000 56 59 0
1000000 -43 -61 0
1000000 -44 -57 0
1000000 -45 -60 0
1000000 -46 -60 0
1000000 -47 -61 0
1000000 -48 -59 0
1000000 -49 -57 0
1000000 -50 -61 0
1000000 -51 -57 0
1000000 -52 -58 0
1000000 -53 -60 0
1000000 -54 -59 0
1000000 -55 -58 0
1000000 -56 -59 0
8700 -57 0
10400 -58 0
11500 -59 0
8700 -60 0
13300 -61 0
1000 43 0
1000 44 0
1800 45 0
3300 46 0
1000 47 0
800 48 0
1800 49 0
1000 50 0
3300 51 0
800 52 0
3300 53 0
1800 54 0
800 55 0
800 56 0
24920 -16 0
6940 -17 0
6890 -25 0
4384 -18 0
16720 35 -28 0
12160 -35 28 0
22192 -35 -28 0
52050 29 31 19 -36 0
38170 29 31 -19 36 0
61592 29 31 -19 -36 0
38170 29 -31 19 36 0
61592 29 -31 19 -36 0
55347 29 -31 -19 36 0
65887 29 -31 -19 -36 0
52050 -29 31 19 36 0
65062 -29 31 19 -36 0
61592 -29 31 -19 36 0
67448 -29 31 -19 -36 0
61592 -29 -31 19 36 0
67448 -29 -31 19 -36 0
65887 -29 -31 -19 36 0
68522 -29 -31 -19 -36 0
8190 -20 0
52050 21 -32 0
10410 -21 32 0
54652 -21 -32 0
17350 -22 0
6080 41 38 33 -23 0
11552 41 38 -33 23 0
15322 41 38 -33 -23 0
9728 41 -38 33 23 0
13862 41 -38 33 -23 0
17583 41 -38 -33 23 0
20147 41 -38 -33 -23 0
11552 -41 38 33 23 0
15322 -41 38 33 -23 0
18714 -41 38 -33 23 0
21051 -41 38 -33 -23 0
17583 -41 -38 33 23 0
20147 -41 -38 33 -23 0
22454 -41 -38 -33 23 0
24043 -41 -38 -33 -23 0
21280 39 30 24 42 -34 0
24320 39 30 24 -42 34 0
28576 39 30 24 -42 -34 0
12160 39 30 -24 42 34 0
24928 39 30 -24 42 -34 0
26752 39 30 -24 -42 34 0
29306 39 30 -24 -42 -34 0
25840 39 -30 24 42 34 0
29032 39 -30 24 42 -34 0
29488 39 -30 24 -42 34 0
30126 39 -30 24 -42 -34 0
27664 39 -30 -24 42 34 0
29579 39 -30 -24 42 -34 0
29853 39 -30 -24 -42 34 0
30236 39 -30 -24 -42 -34 0
12160 -39 30 24 42 34 0
24928 -39 30 24 42 -34 0
26752 -39 30 24 -42 34 0
29306 -39 30 24 -42 -34 0
19456 -39 30 -24 42 34 0
27117 -39 30 -24 42 -34 0
28211 -39 30 -24 -42 34 0
29743 -39 30 -24 -42 -34 0
27664 -39 -30 24 42 34 0
29579 -39 -30 24 42 -34 0
29853 -39 -30 24 -42 34 0
30236 -39 -30 24 -42 -34 0
28758 -39 -30 -24 42 34 0
29908 -39 -30 -24 42 -34 0
30072 -39 -30 -24 -42 34 0
30302 -39 -30 -24 -42 -34 0
9010 26 -40 0
5830 -26 40 0
9884 -26 -40 0
12800 -37 0
33934 -27 0
