p wcnf 63 206 1000000
1000000 1 0
1000000 2 -15 0
1000000 15 -45 -48 -1 0
1000000 4 -16 0
1000000 16 -46 -1 0
1000000 7 -17 0
1000000 17 -51 -53 -1 0
1000000 8 -18 0
1000000 18 -58 -50 -49 -1 0
1000000 10 -19 0
1000000 19 -55 -45 -56 -1 0
1000000 11 -20 0
1000000 20 -52 -51 -54 -2 0
1000000 3 -21 0
1000000 21 -57 -47 -2 0
1000000 5 -22 0
1000000 22 -46 -2 0
1000000 6 -23 0
1000000 23 -52 -54 -50 -2 0
1000000 9 -24 0
1000000 24 -56 -55 -2 0
1000000 14 -25 0
1000000 25 -46 -57 -45 -11 0
1000000 14 -26 0
1000000 26 -48 -58 -53 -12 0
1000000 13 -27 0
1000000 27 -48 -3 0
1000000 6 -28 0
1000000 28 -49 -3 0
1000000 7 -29 0
1000000 29 -50 -52 -3 0
1000000 8 -30 0
1000000 30 -58 -53 -54 -3 0
1000000 12 -31 0
1000000 31 -47 -4 0
1000000 5 -32 0
1000000 32 -47 -4 0
1000000 6 -33 0
1000000 33 -56 -57 -4 0
1000000 9 -34 0
1000000 34 -47 -49 -5 0
1000000 7 -35 0
1000000 35 -51 -55 -6 0
1000000 9 -36 0
1000000 36 -51 -45 -46 -6 0
1000000 14 -37 0
1000000 37 -48 -7 0
1000000 10 -38 0
1000000 38 -52 -7 0
1000000 11 -39 0
1000000 39 -50 -49 -8 0
1000000 9 -40 0
1000000 40 -54 -8 0
1000000 13 -41 0
1000000 41 -53 -9 0
1000000 14 -42 0
1000000 42 -47 -56 -57 -9 0
1000000 10 -43 0
1000000 43 -58 -9 0
1000000 11 -44 0
1000000 44 -45 -10 0
1000000 1 0
1000000 -2 15 0
1000000 -3 21 0
1000000 -4 16 0
1000000 -5 32 22 0
1000000 -6 28 33 23 0
1000000 -7 17 29 35 0
1000000 -8 18 30 0
1000000 -9 24 40 34 36 0
1000000 -10 43 19 38 0
1000000 -11 20 39 44 0
1000000 -12 31 0
1000000 -13 41 27 0
1000000 -14 26 42 25 37 0
1000000 45 63 0
1000000 46 62 0
1000000 47 60 0
1000000 48 62 0
1000000 49 61 0
1000000 50 61 0
1000000 51 59 0
1000000 52 63 0
1000000 53 61 0
1000000 54 62 0
1000000 55 59 0
1000000 56 60 0
1000000 57 60 0
1000000 58 63 0
1000000 -45 -63 0
1000000 -46 -62 0
1000000 -47 -60 0
1000000 -48 -62 0
1000000 -49 -61 0
1000000 -50 -61 0
1000000 -51 -59 0
1000000 -52 -63 0
1000000 -53 -61 0
1000000 -54 -62 0
1000000 -55 -59 0
1000000 -56 -60 0
1000000 -57 -60 0
1000000 -58 -63 0
12500 -59 0
11900 -60 0
12500 -61 0
9100 -62 0
8300 -63 0
1300 45 0
3000 46 0
1300 47 0
1600 48 0
1600 49 0
3000 50 0
1600 51 0
2100 52 0
3000 53 0
1600 54 0
2100 55 0
3400 56 0
2700 57 0
3000 58 0
57870 -15 0
9000 -21 0
20045 -16 0
20440 32 -22 0
11096 -32 22 0
23769 -32 -22 0
12350 28 33 -23 0
14820 28 -33 23 0
19760 28 -33 -23 0
12350 -28 33 23 0
18525 -28 33 -23 0
19760 -28 -33 23 0
22230 -28 -33 -23 0
12080 17 29 -35 0
24160 17 -29 35 0
26576 17 -29 -35 0
6040 -17 29 35 0
15704 -17 29 -35 0
25368 -17 -29 35 0
27301 -17 -29 -35 0
15730 18 -30 0
22990 -18 30 0
23776 -18 -30 0
19810 24 40 34 -36 0
1415 24 40 -34 36 0
20234 24 40 -34 -36 0
7075 24 -40 34 36 0
21932 24 -40 34 -36 0
8136 24 -40 -34 36 0
22251 24 -40 -34 -36 0
2830 -24 40 34 36 0
20659 -24 40 34 -36 0
4104 -24 40 -34 36 0
21041 -24 40 -34 -36 0
9197 -24 -40 34 36 0
22569 -24 -40 34 -36 0
10153 -24 -40 -34 36 0
22856 -24 -40 -34 -36 0
15060 43 19 -38 0
8785 43 -19 38 0
18574 43 -19 -38 0
10040 -43 19 38 0
19076 -43 19 -38 0
15311 -43 -19 38 0
21184 -43 -19 -38 0
71250 20 39 -44 0
18750 20 -39 44 0
72187 20 -39 -44 0
7500 -20 39 44 0
71625 -20 39 -44 0
24375 -20 -39 44 0
72469 -20 -39 -44 0
3396 -31 0
9330 41 -27 0
21770 -41 27 0
24569 -41 -27 0
56250 26 42 25 -37 0
48750 26 42 -25 37 0
68438 26 42 -25 -37 0
41250 26 -42 25 37 0
66562 26 -42 25 -37 0
63188 26 -42 -25 37 0
72047 26 -42 -25 -37 0
9000 -26 42 25 37 0
58500 -26 42 25 -37 0
51900 -26 42 -25 37 0
69225 -26 42 -25 -37 0
45300 -26 -42 25 37 0
67575 -26 -42 25 -37 0
64605 -26 -42 -25 37 0
72401 -26 -42 -25 -37 0
