p wcnf 75 283 1000000
1000000 1 0
1000000 2 -17 0
1000000 17 -53 -54 -1 0
1000000 13 -18 0
1000000 18 -60 -58 -52 -1 0
1000000 16 -19 0
1000000 19 -56 -64 -57 -1 0
1000000 5 -20 0
1000000 20 -55 -62 -61 -1 0
1000000 9 -21 0
1000000 21 -63 -68 -1 0
1000000 14 -22 0
1000000 22 -66 -69 -2 0
1000000 3 -23 0
1000000 23 -55 -53 -65 -2 0
1000000 4 -24 0
1000000 24 -56 -54 -60 -2 0
1000000 5 -25 0
1000000 25 -52 -67 -2 0
1000000 10 -26 0
1000000 26 -57 -64 -59 -2 0
1000000 12 -27 0
1000000 27 -62 -66 -65 -11 0
1000000 14 -28 0
1000000 28 -61 -12 0
1000000 16 -29 0
1000000 29 -52 -67 -63 -12 0
1000000 15 -30 0
1000000 30 -68 -13 0
1000000 16 -31 0
1000000 31 -56 -58 -60 -13 0
1000000 11 -32 0
1000000 32 -69 -53 -54 -3 0
1000000 5 -33 0
1000000 33 -62 -64 -55 -3 0
1000000 7 -34 0
1000000 34 -65 -63 -68 -3 0
1000000 10 -35 0
1000000 35 -58 -3 0
1000000 15 -36 0
1000000 36 -61 -66 -67 -4 0
1000000 11 -37 0
1000000 37 -57 -53 -5 0
1000000 13 -38 0
1000000 38 -52 -5 0
1000000 14 -39 0
1000000 39 -69 -5 0
1000000 6 -40 0
1000000 40 -56 -57 -5 0
1000000 7 -41 0
1000000 41 -54 -5 0
1000000 8 -42 0
1000000 42 -59 -65 -64 -5 0
1000000 9 -43 0
1000000 43 -67 -55 -58 -6 0
1000000 10 -44 0
1000000 44 -66 -61 -6 0
1000000 8 -45 0
1000000 45 -59 -7 0
1000000 10 -46 0
1000000 46 -60 -62 -7 0
1000000 9 -47 0
1000000 47 -53 -68 -59 -8 0
1000000 10 -48 0
1000000 48 -55 -52 -8 0
1000000 12 -49 0
1000000 49 -54 -58 -9 0
1000000 10 -50 0
1000000 50 -59 -60 -61 -9 0
1000000 16 -51 0
1000000 51 -69 -10 0
1000000 1 0
1000000 -2 17 0
1000000 -3 23 0
1000000 -4 24 0
1000000 -5 20 25 33 0
1000000 -6 40 0
1000000 -7 34 41 0
1000000 -8 42 45 0
1000000 -9 43 21 47 0
1000000 -10 50 35 48 46 26 44 0
1000000 -11 37 32 0
1000000 -12 49 27 0
1000000 -13 38 18 0
1000000 -14 22 28 39 0
1000000 -15 30 36 0
1000000 -16 29 19 51 31 0
1000000 52 74 0
1000000 53 73 0
1000000 54 73 0
1000000 55 71 0
1000000 56 71 0
1000000 57 74 0
1000000 58 74 0
1000000 59 75 0
1000000 60 72 0
1000000 61 71 0
1000000 62 70 0
1000000 63 73 0
1000000 64 70 0
1000000 65 72 0
1000000 66 72 0
1000000 67 75 0
1000000 68 75 0
1000000 69 70 0
1000000 -52 -74 0
1000000 -53 -73 0
1000000 -54 -73 0
1000000 -55 -71 0
1000000 -56 -71 0
1000000 -57 -74 0
1000000 -58 -74 0
1000000 -59 -75 0
1000000 -60 -72 0
1000000 -61 -71 0
1000000 -62 -70 0
1000000 -63 -73 0
1000000 -64 -70 0
1000000 -65 -72 0
1000000 -66 -72 0
1000000 -67 -75 0
1000000 -68 -75 0
1000000 -69 -70 0
9500 -70 0
9900 -71 0
10200 -72 0
10200 -73 0
13800 -74 0
9500 -75 0
2100 52 0
3000 53 0
2100 54 0
800 55 0
2100 56 0
3000 57 0
3000 58 0
3000 59 0
3400 60 0
800 61 0
1000 62 0
800 63 0
3400 64 0
1600 65 0
2400 66 0
1000 67 0
3400 68 0
3400 69 0
21060 -17 0
23985 -23 0
21760 -24 0
9720 20 25 -33 0
21060 20 -25 33 0
24462 20 -25 -33 0
1620 -20 25 33 0
10854 -20 25 -33 0
21627 -20 -25 33 0
24859 -20 -25 -33 0
55790 -40 0
13325 34 -41 0
21320 -34 41 0
29315 -34 -41 0
4992 42 -45 0
15808 -42 45 0
18903 -42 -45 0
890 43 21 -47 0
31150 43 -21 47 0
31417 43 -21 -47 0
6675 -43 21 47 0
7432 -43 21 -47 0
33152 -43 -21 47 0
33379 -43 -21 -47 0
2665 50 35 48 46 26 -44 0
9594 50 35 48 46 -26 44 0
11779 50 35 48 46 -26 -44 0
9594 50 35 48 -46 26 44 0
11779 50 35 48 -46 26 -44 0
17461 50 35 48 -46 -26 44 0
19253 50 35 48 -46 -26 -44 0
1066 50 35 -48 46 26 44 0
3678 50 35 -48 46 26 -44 0
10468 50 35 -48 46 -26 44 0
12610 50 35 -48 46 -26 -44 0
10468 50 35 -48 -46 26 44 0
12610 50 35 -48 -46 26 -44 0
18178 50 35 -48 -46 -26 44 0
19934 50 35 -48 -46 -26 -44 0
26650 50 -35 48 46 26 44 0
27982 50 -35 48 46 26 -44 0
31447 50 -35 48 46 -26 44 0
32540 50 -35 48 46 -26 -44 0
31447 50 -35 48 -46 26 44 0
32540 50 -35 48 -46 26 -44 0
35381 50 -35 48 -46 -26 44 0
36277 50 -35 48 -46 -26 -44 0
27183 50 -35 -48 46 26 44 0
28489 50 -35 -48 46 26 -44 0
31884 50 -35 -48 46 -26 44 0
32955 50 -35 -48 46 -26 -44 0
31884 50 -35 -48 -46 26 44 0
32955 50 -35 -48 -46 26 -44 0
35739 50 -35 -48 -46 -26 44 0
36617 50 -35 -48 -46 -26 -44 0
6396 -50 35 48 46 26 44 0
8741 -50 35 48 46 26 -44 0
14839 -50 35 48 46 -26 44 0
16762 -50 35 48 46 -26 -44 0
14839 -50 35 48 -46 26 44 0
16762 -50 35 48 -46 26 -44 0
21762 -50 35 48 -46 -26 44 0
23339 -50 35 48 -46 -26 -44 0
7334 -50 35 -48 46 26 44 0
9632 -50 35 -48 46 26 -44 0
15608 -50 35 -48 46 -26 44 0
17493 -50 35 -48 46 -26 -44 0
15608 -50 35 -48 -46 26 44 0
17493 -50 35 -48 -46 26 -44 0
22393 -50 35 -48 -46 -26 44 0
23938 -50 35 -48 -46 -26 -44 0
29848 -50 -35 48 46 26 44 0
31021 -50 -35 48 46 26 -44 0
34069 -50 -35 48 46 -26 44 0
35031 -50 -35 48 46 -26 -44 0
34069 -50 -35 48 -46 26 44 0
35031 -50 -35 48 -46 26 -44 0
37531 -50 -35 48 -46 -26 44 0
38319 -50 -35 48 -46 -26 -44 0
30317 -50 -35 -48 46 26 44 0
31466 -50 -35 -48 46 26 -44 0
34454 -50 -35 -48 46 -26 44 0
35396 -50 -35 -48 46 -26 -44 0
34454 -50 -35 -48 -46 26 44 0
35396 -50 -35 -48 -46 26 -44 0
37846 -50 -35 -48 -46 -26 44 0
38619 -50 -35 -48 -46 -26 -44 0
24480 37 -32 0
35360 -37 32 0
43928 -37 -32 0
27200 49 -27 0
46240 -49 27 0
50320 -49 -27 0
21060 38 -18 0
648 -38 18 0
21287 -38 -18 0
10400 22 28 -39 0
12480 22 -28 39 0
19760 22 -28 -39 0
16640 -22 28 39 0
22880 -22 28 -39 0
24128 -22 -28 39 0
28496 -22 -28 -39 0
14706 30 -36 0
29025 -30 36 0
32701 -30 -36 0
17800 29 19 51 -31 0
8900 29 19 -51 31 0
23140 29 19 -51 -31 0
42275 29 -19 51 31 0
43165 29 -19 51 -31 0
42720 29 -19 -51 31 0
43432 29 -19 -51 -31 0
11125 -29 19 51 31 0
24475 -29 19 51 -31 0
17800 -29 19 -51 31 0
28480 -29 19 -51 -31 0
42831 -29 -19 51 31 0
43499 -29 -19 51 -31 0
43165 -29 -19 -51 31 0
43699 -29 -19 -51 -31 0
