p wcnf 61 203 1000000
1000000 1 0
1000000 2 -15 0
1000000 15 -49 -51 -52 -1 0
1000000 13 -16 0
1000000 16 -48 -50 -1 0
1000000 14 -17 0
1000000 17 -44 -1 0
1000000 3 -18 0
1000000 18 -47 -1 0
1000000 6 -19 0
1000000 19 -53 -45 -47 -1 0
1000000 7 -20 0
1000000 20 -46 -1 0
1000000 7 -21 0
1000000 21 -44 -55 -56 -2 0
1000000 8 -22 0
1000000 22 -46 -2 0
1000000 11 -23 0
1000000 23 -55 -54 -49 -3 0
1000000 12 -24 0
1000000 24 -44 -45 -54 -3 0
1000000 4 -25 0
1000000 25 -50 -3 0
1000000 10 -26 0
1000000 26 -56 -52 -3 0
1000000 13 -27 0
1000000 27 -46 -53 -48 -4 0
1000000 5 -28 0
1000000 28 -45 -4 0
1000000 6 -29 0
1000000 29 -51 -4 0
1000000 7 -30 0
1000000 30 -49 -4 0
1000000 8 -31 0
1000000 31 -52 -48 -56 -4 0
1000000 9 -32 0
1000000 32 -54 -46 -55 -4 0
1000000 11 -33 0
1000000 33 -47 -5 0
1000000 12 -34 0
1000000 34 -51 -5 0
1000000 6 -35 0
1000000 35 -53 -5 0
1000000 7 -36 0
1000000 36 -50 -5 0
1000000 12 -37 0
1000000 37 -44 -6 0
1000000 14 -38 0
1000000 38 -47 -6 0
1000000 11 -39 0
1000000 39 -48 -50 -7 0
1000000 14 -40 0
1000000 40 -45 -49 -56 -7 0
1000000 14 -41 0
1000000 41 -51 -54 -8 0
1000000 12 -42 0
1000000 42 -44 -55 -9 0
1000000 10 -43 0
1000000 43 -53 -9 0
1000000 1 0
1000000 -2 15 0
1000000 -3 18 0
1000000 -4 25 0
1000000 -5 28 0
1000000 -6 19 29 35 0
1000000 -7 30 36 21 20 0
1000000 -8 22 31 0
1000000 -9 32 0
1000000 -10 43 26 0
1000000 -11 23 39 33 0
1000000 -12 37 42 24 34 0
1000000 -13 16 27 0
1000000 -14 17 38 40 41 0
1000000 44 57 0
1000000 45 60 0
1000000 46 61 0
1000000 47 59 0
1000000 48 59 0
1000000 49 57 0
1000000 50 60 0
1000000 51 57 0
1000000 52 60 0
1000000 53 61 0
1000000 54 58 0
1000000 55 59 0
1000000 56 58 0
1000000 -44 -57 0
1000000 -45 -60 0
1000000 -46 -61 0
1000000 -47 -59 0
1000000 -48 -59 0
1000000 -49 -57 0
1000000 -50 -60 0
1000000 -51 -57 0
1000000 -52 -60 0
1000000 -53 -61 0
1000000 -54 -58 0
1000000 -55 -59 0
1000000 -56 -58 0
8500 -57 0
9400 -58 0
9100 -59 0
8800 -60 0
9200 -61 0
1200 44 0
3800 45 0
3800 46 0
3400 47 0
1200 48 0
3800 49 0
2800 50 0
1200 51 0
1200 52 0
1100 53 0
2800 54 0
1200 55 0
3800 56 0
3288 -15 0
10782 -18 0
6400 -25 0
19250 -28 0
20192 19 29 -35 0
59945 19 -29 35 0
60955 19 -29 -35 0
22085 -19 29 35 0
35210 -19 29 -35 0
61049 -19 -29 35 0
61705 -19 -29 -35 0
25025 30 36 21 -20 0
17290 30 36 -21 20 0
32806 30 36 -21 -20 0
29575 30 -36 21 20 0
38334 30 -36 21 -20 0
35626 30 -36 -21 20 0
41057 30 -36 -21 -20 0
11375 -30 36 21 20 0
30144 -30 36 21 -20 0
24343 -30 36 -21 20 0
35979 -30 36 -21 -20 0
33556 -30 -36 21 20 0
40125 -30 -36 21 -20 0
38095 -30 -36 -21 20 0
42168 -30 -36 -21 -20 0
33165 22 -31 0
29480 -22 31 0
49379 -22 -31 0
28240 -32 0
13920 43 -26 0
1160 -43 26 0
14384 -43 -26 0
11055 23 39 -33 0
1474 23 -39 33 0
12308 23 -39 -33 0
55275 -23 39 33 0
58039 -23 39 -33 0
55644 -23 -39 33 0
58352 -23 -39 -33 0
21240 37 42 24 -34 0
20178 37 42 -24 34 0
33347 37 42 -24 -34 0
1062 37 -42 24 34 0
21877 37 -42 24 -34 0
20836 37 -42 -24 34 0
33742 37 -42 -24 -34 0
42480 -37 42 24 34 0
46728 -37 42 24 -34 0
46516 -37 42 -24 34 0
49149 -37 42 -24 -34 0
42692 -37 -42 24 34 0
46855 -37 -42 24 -34 0
46647 -37 -42 -24 34 0
49228 -37 -42 -24 -34 0
12935 16 -27 0
3582 -16 27 0
14189 -16 -27 0
12330 17 38 40 -41 0
13700 17 38 -40 41 0
19865 17 38 -40 -41 0
548 17 -38 40 41 0
12631 17 -38 40 -41 0
13974 17 -38 -40 41 0
20016 17 -38 -40 -41 0
20550 -17 38 40 41 0
23633 -17 38 40 -41 0
23975 -17 38 -40 41 0
25516 -17 38 -40 -41 0
20687 -17 -38 40 41 0
23708 -17 -38 40 -41 0
24043 -17 -38 -40 41 0
25554 -17 -38 -40 -41 0
