p wcnf 49 148 1000000
1000000 1 0
1000000 2 -13 0
1000000 13 -39 -36 -1 0
1000000 3 -14 0
1000000 14 -44 -37 -35 -1 0
1000000 5 -15 0
1000000 15 -41 -1 0
1000000 8 -16 0
1000000 16 -38 -1 0
1000000 4 -17 0
1000000 17 -43 -40 -39 -2 0
1000000 9 -18 0
1000000 18 -42 -2 0
1000000 12 -19 0
1000000 19 -36 -3 0
1000000 6 -20 0
1000000 20 -45 -3 0
1000000 12 -21 0
1000000 21 -35 -4 0
1000000 5 -22 0
1000000 22 -38 -4 0
1000000 7 -23 0
1000000 23 -36 -37 -40 -4 0
1000000 11 -24 0
1000000 24 -42 -5 0
1000000 6 -25 0
1000000 25 -37 -43 -40 -5 0
1000000 8 -26 0
1000000 26 -44 -5 0
1000000 11 -27 0
1000000 27 -39 -43 -44 -6 0
1000000 7 -28 0
1000000 28 -39 -42 -45 -6 0
1000000 9 -29 0
1000000 29 -36 -43 -38 -6 0
1000000 11 -30 0
1000000 30 -37 -40 -44 -7 0
1000000 10 -31 0
1000000 31 -38 -42 -8 0
1000000 12 -32 0
1000000 32 -35 -9 0
1000000 10 -33 0
1000000 33 -42 -40 -36 -9 0
1000000 12 -34 0
1000000 34 -35 -10 0
1000000 1 0
1000000 -2 13 0
1000000 -3 14 0
1000000 -4 17 0
1000000 -5 22 15 0
1000000 -6 20 25 0
1000000 -7 23 28 0
1000000 -8 16 26 0
1000000 -9 18 29 0
1000000 -10 31 33 0
1000000 -11 27 24 30 0
1000000 -12 34 21 19 32 0
1000000 35 47 0
1000000 36 49 0
1000000 37 47 0
1000000 38 46 0
1000000 39 46 0
1000000 40 47 0
1000000 41 46 0
1000000 42 48 0
1000000 43 49 0
1000000 44 48 0
1000000 45 49 0
1000000 -35 -47 0
1000000 -36 -49 0
1000000 -37 -47 0
1000000 -38 -46 0
1000000 -39 -46 0
1000000 -40 -47 0
1000000 -41 -46 0
1000000 -42 -48 0
1000000 -43 -49 0
1000000 -44 -48 0
1000000 -45 -49 0
11800 -46 0
13200 -47 0
11800 -48 0
10600 -49 0
2700 35 0
3800 36 0
3800 37 0
3000 38 0
3000 39 0
3000 40 0
3300 41 0
3000 42 0
1600 43 0
3300 44 0
2700 45 0
15615 -13 0
13530 -14 0
37250 -17 0
8675 22 -15 0
12145 -22 15 0
17784 -22 -15 0
18656 20 -25 0
32065 -20 25 0
40460 -20 -25 0
24630 23 -28 0
20525 -23 28 0
38998 -23 -28 0
9870 16 -26 0
11844 -16 26 0
19937 -16 -26 0
7290 18 -29 0
10125 -18 29 0
15593 -18 -29 0
27360 31 -33 0
21600 -31 33 0
28440 -31 -33 0
1166 27 24 -30 0
10494 27 -24 30 0
11450 27 -24 -30 0
11660 -27 24 30 0
12593 -27 24 -30 0
20055 -27 -24 30 0
20820 -27 -24 -30 0
22350 34 21 19 -32 0
7450 34 21 -19 32 0
27565 34 21 -19 -32 0
26075 34 -21 19 32 0
40603 34 -21 19 -32 0
30917 34 -21 -19 32 0
43992 34 -21 -19 -32 0
11175 -34 21 19 32 0
30173 -34 21 19 -32 0
17507 -34 21 -19 32 0
34605 -34 21 -19 -32 0
33339 -34 -21 19 32 0
45687 -34 -21 19 -32 0
37455 -34 -21 -19 32 0
48568 -34 -21 -19 -32 0
