p wcnf 70 246 1000000
1000000 1 0
1000000 2 -16 0
1000000 16 -50 -51 -1 0
1000000 12 -17 0
1000000 17 -52 -1 0
1000000 3 -18 0
1000000 18 -55 -57 -54 -1 0
1000000 5 -19 0
1000000 19 -53 -1 0
1000000 3 -20 0
1000000 20 -59 -61 -2 0
1000000 7 -21 0
1000000 21 -49 -2 0
1000000 9 -22 0
1000000 22 -60 -50 -63 -2 0
1000000 10 -23 0
1000000 23 -54 -58 -62 -2 0
1000000 13 -24 0
1000000 24 -56 -64 -53 -11 0
1000000 15 -25 0
1000000 25 -60 -56 -59 -13 0
1000000 15 -26 0
1000000 26 -52 -58 -14 0
1000000 4 -27 0
1000000 27 -50 -62 -51 -3 0
1000000 8 -28 0
1000000 28 -51 -64 -53 -3 0
1000000 9 -29 0
1000000 29 -61 -56 -58 -3 0
1000000 15 -30 0
1000000 30 -49 -61 -55 -4 0
1000000 5 -31 0
1000000 31 -49 -4 0
1000000 8 -32 0
1000000 32 -52 -4 0
1000000 12 -33 0
1000000 33 -54 -5 0
1000000 6 -34 0
1000000 34 -57 -5 0
1000000 8 -35 0
1000000 35 -55 -62 -63 -5 0
1000000 9 -36 0
1000000 36 -59 -5 0
1000000 15 -37 0
1000000 37 -57 -50 -52 -6 0
1000000 12 -38 0
1000000 38 -60 -51 -7 0
1000000 15 -39 0
1000000 39 -64 -7 0
1000000 8 -40 0
1000000 40 -54 -53 -7 0
1000000 11 -41 0
1000000 41 -55 -8 0
1000000 12 -42 0
1000000 42 -49 -8 0
1000000 10 -43 0
1000000 43 -63 -64 -57 -8 0
1000000 13 -44 0
1000000 44 -61 -56 -9 0
1000000 14 -45 0
1000000 45 -62 -59 -9 0
1000000 10 -46 0
1000000 46 -51 -63 -52 -9 0
1000000 13 -47 0
1000000 47 -60 -53 -10 0
1000000 14 -48 0
1000000 48 -56 -58 -10 0
1000000 1 0
1000000 -2 16 0
1000000 -3 18 20 0
1000000 -4 27 0
1000000 -5 19 31 0
1000000 -6 34 0
1000000 -7 21 0
1000000 -8 35 32 40 28 0
1000000 -9 22 36 29 0
1000000 -10 23 46 43 0
1000000 -11 41 0
1000000 -12 38 42 17 33 0
1000000 -13 24 44 47 0
1000000 -14 45 48 0
1000000 -15 26 39 37 25 30 0
1000000 49 67 0
1000000 50 69 0
1000000 51 65 0
1000000 52 69 0
1000000 53 68 0
1000000 54 66 0
1000000 55 65 0
1000000 56 70 0
1000000 57 68 0
1000000 58 65 0
1000000 59 69 0
1000000 60 68 0
1000000 61 67 0
1000000 62 66 0
1000000 63 70 0
1000000 64 70 0
1000000 -49 -67 0
1000000 -50 -69 0
1000000 -51 -65 0
1000000 -52 -69 0
1000000 -53 -68 0
1000000 -54 -66 0
1000000 -55 -65 0
1000000 -56 -70 0
1000000 -57 -68 0
1000000 -58 -65 0
1000000 -59 -69 0
1000000 -60 -68 0
1000000 -61 -67 0
1000000 -62 -66 0
1000000 -63 -70 0
1000000 -64 -70 0
11600 -65 0
8700 -66 0
11500 -67 0
8700 -68 0
11300 -69 0
12300 -70 0
3500 49 0
1600 50 0
2900 51 0
2900 52 0
1600 53 0
1000 54 0
2200 55 0
2800 56 0
3500 57 0
1800 58 0
3500 59 0
1600 60 0
3500 61 0
1300 62 0
1300 63 0
1300 64 0
20250 -16 0
22950 18 -20 0
2700 -18 20 0
23355 -18 -20 0
27600 -27 0
30745 19 -31 0
4730 -19 31 0
32401 -19 -31 0
5856 -34 0
5020 -21 0
9150 35 32 40 -28 0
7320 35 32 -40 28 0
12810 35 32 -40 -28 0
4575 35 -32 40 28 0
11438 35 -32 40 -28 0
10065 35 -32 -40 28 0
14183 35 -32 -40 -28 0
3660 -35 32 40 28 0
10980 -35 32 40 -28 0
9516 -35 32 -40 28 0
13908 -35 32 -40 -28 0
7320 -35 -32 40 28 0
12810 -35 -32 40 -28 0
11712 -35 -32 -40 28 0
15006 -35 -32 -40 -28 0
17325 22 36 -29 0
1575 22 -36 29 0
18034 22 -36 -29 0
25200 -22 36 29 0
28665 -22 36 -29 0
25515 -22 -36 29 0
28807 -22 -36 -29 0
47690 23 46 -43 0
22590 23 -46 43 0
48819 23 -46 -43 0
10040 -23 46 43 0
48192 -23 46 -43 0
28112 -23 -46 43 0
49096 -23 -46 -43 0
1010 -41 0
5966 38 42 17 -33 0
7065 38 42 -17 33 0
10346 38 42 -17 -33 0
13345 38 -42 17 33 0
14240 38 -42 17 -33 0
14405 38 -42 -17 33 0
14897 38 -42 -17 -33 0
1884 -38 42 17 33 0
7134 -38 42 17 -33 0
8101 -38 42 -17 33 0
10989 -38 42 -17 -33 0
13628 -38 -42 17 33 0
14415 -38 -42 17 -33 0
14560 -38 -42 -17 33 0
14993 -38 -42 -17 -33 0
9954 24 44 -47 0
5530 24 -44 47 0
14489 24 -44 -47 0
8295 -24 44 47 0
16756 -24 44 -47 0
12995 -24 -44 47 0
20610 -24 -44 -47 0
12145 45 -48 0
13186 -45 48 0
20716 -45 -48 0
18180 26 39 37 25 -30 0
13130 26 39 37 -25 30 0
19493 26 39 37 -25 -30 0
9090 26 39 -37 25 30 0
19089 26 39 -37 25 -30 0
16312 26 39 -37 -25 30 0
19811 26 39 -37 -25 -30 0
9090 26 -39 37 25 30 0
19089 26 -39 37 25 -30 0
16312 26 -39 37 -25 30 0
19811 26 -39 37 -25 -30 0
14090 26 -39 -37 25 30 0
19589 26 -39 -37 25 -30 0
18061 26 -39 -37 -25 30 0
19986 26 -39 -37 -25 -30 0
3030 -26 39 37 25 30 0
18483 -26 39 37 25 -30 0
14191 -26 39 37 -25 30 0
19599 -26 39 37 -25 -30 0
10756 -26 39 -37 25 30 0
19256 -26 39 -37 25 -30 0
16895 -26 39 -37 -25 30 0
19869 -26 39 -37 -25 -30 0
10756 -26 -39 37 25 30 0
19256 -26 -39 37 25 -30 0
16895 -26 -39 37 -25 30 0
19869 -26 -39 37 -25 -30 0
15006 -26 -39 -37 25 30 0
19681 -26 -39 -37 25 -30 0
18382 -26 -39 -37 -25 30 0
20018 -26 -39 -37 -25 -30 0
