p wcnf 56 169 1000000
1000000 1 0
1000000 2 -14 0
1000000 14 -40 -1 0
1000000 13 -15 0
1000000 15 -45 -46 -43 -1 0
1000000 4 -16 0
1000000 16 -41 -1 0
1000000 11 -17 0
1000000 17 -39 -44 -51 -2 0
1000000 12 -18 0
1000000 18 -50 -49 -2 0
1000000 3 -19 0
1000000 19 -39 -48 -2 0
1000000 5 -20 0
1000000 20 -43 -47 -2 0
1000000 7 -21 0
1000000 21 -48 -46 -47 -2 0
1000000 8 -22 0
1000000 22 -44 -38 -42 -2 0
1000000 13 -23 0
1000000 23 -38 -50 -41 -12 0
1000000 5 -24 0
1000000 24 -40 -42 -38 -3 0
1000000 8 -25 0
1000000 25 -45 -3 0
1000000 9 -26 0
1000000 26 -39 -40 -3 0
1000000 10 -27 0
1000000 27 -45 -47 -51 -3 0
1000000 12 -28 0
1000000 28 -46 -44 -4 0
1000000 6 -29 0
1000000 29 -41 -4 0
1000000 7 -30 0
1000000 30 -51 -43 -4 0
1000000 10 -31 0
1000000 31 -43 -49 -42 -4 0
1000000 9 -32 0
1000000 32 -41 -44 -38 -5 0
1000000 11 -33 0
1000000 33 -46 -49 -45 -7 0
1000000 10 -34 0
1000000 34 -47 -40 -7 0
1000000 11 -35 0
1000000 35 -40 -42 -38 -8 0
1000000 10 -36 0
1000000 36 -48 -43 -42 -8 0
1000000 12 -37 0
1000000 37 -50 -39 -41 -10 0
1000000 1 0
1000000 -2 14 0
1000000 -3 19 0
1000000 -4 16 0
1000000 -5 20 24 0
1000000 -6 29 0
1000000 -7 21 30 0
1000000 -8 22 25 0
1000000 -9 32 26 0
1000000 -10 27 36 31 34 0
1000000 -11 35 17 33 0
1000000 -12 18 37 28 0
1000000 -13 15 23 0
1000000 38 52 0
1000000 39 53 0
1000000 40 54 0
1000000 41 56 0
1000000 42 56 0
1000000 43 52 0
1000000 44 53 0
1000000 45 53 0
1000000 46 56 0
1000000 47 52 0
1000000 48 55 0
1000000 49 55 0
1000000 50 55 0
1000000 51 54 0
1000000 -38 -52 0
1000000 -39 -53 0
1000000 -40 -54 0
1000000 -41 -56 0
1000000 -42 -56 0
1000000 -43 -52 0
1000000 -44 -53 0
1000000 -45 -53 0
1000000 -46 -56 0
1000000 -47 -52 0
1000000 -48 -55 0
1000000 -49 -55 0
1000000 -50 -55 0
1000000 -51 -54 0
12600 -52 0
11300 -53 0
12600 -54 0
13000 -55 0
7700 -56 0
1500 38 0
2400 39 0
1900 40 0
3000 41 0
1500 42 0
1800 43 0
1300 44 0
1800 45 0
1600 46 0
1300 47 0
1500 48 0
1200 49 0
1500 50 0
1500 51 0
966 -14 0
45120 -19 0
44640 -16 0
1156 20 -24 0
11560 -20 24 0
12485 -20 -24 0
5640 -29 0
8316 21 -30 0
6930 -21 30 0
13999 -21 -30 0
39200 22 -25 0
25200 -22 25 0
46760 -22 -25 0
12960 32 -26 0
10080 -32 26 0
13968 -32 -26 0
6550 27 36 31 -34 0
7205 27 36 -31 34 0
10153 27 36 -31 -34 0
5895 27 -36 31 34 0
9497 27 -36 31 -34 0
9858 27 -36 -31 34 0
11479 27 -36 -31 -34 0
4978 -27 36 31 34 0
9039 -27 36 31 -34 0
9445 -27 36 -31 34 0
11273 -27 36 -31 -34 0
8633 -27 -36 31 34 0
10866 -27 -36 31 -34 0
11090 -27 -36 -31 34 0
12095 -27 -36 -31 -34 0
4585 35 17 -33 0
10480 35 -17 33 0
11397 35 -17 -33 0
5895 -35 17 33 0
8417 -35 17 -33 0
11659 -35 -17 33 0
12163 -35 -17 -33 0
50400 18 37 -28 0
53200 18 -37 28 0
55720 18 -37 -28 0
8400 -18 37 28 0
51240 -18 37 -28 0
53620 -18 -37 28 0
55762 -18 -37 -28 0
39680 15 -23 0
32240 -15 23 0
46128 -15 -23 0
