p wcnf 54 172 1000000
1000000 1 0
1000000 2 -14 0
1000000 14 -39 -42 -40 -1 0
1000000 11 -15 0
1000000 15 -48 -49 -45 -1 0
1000000 5 -16 0
1000000 16 -43 -1 0
1000000 7 -17 0
1000000 17 -41 -46 -1 0
1000000 3 -18 0
1000000 18 -47 -39 -2 0
1000000 4 -19 0
1000000 19 -42 -41 -45 -2 0
1000000 7 -20 0
1000000 20 -44 -50 -49 -2 0
1000000 13 -21 0
1000000 21 -46 -48 -11 0
1000000 12 -22 0
1000000 22 -40 -42 -44 -3 0
1000000 4 -23 0
1000000 23 -39 -43 -47 -3 0
1000000 5 -24 0
1000000 24 -41 -3 0
1000000 7 -25 0
1000000 25 -43 -3 0
1000000 10 -26 0
1000000 26 -44 -3 0
1000000 7 -27 0
1000000 27 -50 -4 0
1000000 9 -28 0
1000000 28 -45 -4 0
1000000 6 -29 0
1000000 29 -46 -40 -5 0
1000000 9 -30 0
1000000 30 -40 -50 -5 0
1000000 10 -31 0
1000000 31 -49 -39 -47 -6 0
1000000 12 -32 0
1000000 32 -42 -7 0
1000000 8 -33 0
1000000 33 -41 -45 -7 0
1000000 13 -34 0
1000000 34 -46 -48 -8 0
1000000 13 -35 0
1000000 35 -39 -50 -40 -9 0
1000000 10 -36 0
1000000 36 -49 -47 -9 0
1000000 11 -37 0
1000000 37 -43 -10 0
1000000 13 -38 0
1000000 38 -44 -10 0
1000000 1 0
1000000 -2 14 0
1000000 -3 18 0
1000000 -4 23 19 0
1000000 -5 16 24 0
1000000 -6 29 0
1000000 -7 27 25 20 17 0
1000000 -8 33 0
1000000 -9 28 30 0
1000000 -10 36 31 26 0
1000000 -11 37 15 0
1000000 -12 22 32 0
1000000 -13 35 34 38 21 0
1000000 39 54 0
1000000 40 52 0
1000000 41 54 0
1000000 42 54 0
1000000 43 53 0
1000000 44 51 0
1000000 45 52 0
1000000 46 51 0
1000000 47 52 0
1000000 48 51 0
1000000 49 53 0
1000000 50 53 0
1000000 -39 -54 0
1000000 -40 -52 0
1000000 -41 -54 0
1000000 -42 -54 0
1000000 -43 -53 0
1000000 -44 -51 0
1000000 -45 -52 0
1000000 -46 -51 0
1000000 -47 -52 0
1000000 -48 -51 0
1000000 -49 -53 0
1000000 -50 -53 0
10100 -51 0
13700 -52 0
9400 -53 0
12200 -54 0
3200 39 0
800 40 0
3200 41 0
2200 42 0
3200 43 0
800 44 0
2200 45 0
3200 46 0
2700 47 0
2200 48 0
3400 49 0
3200 50 0
30660 -14 0
41300 -18 0
23895 23 -19 0
47790 -23 19 0
50180 -23 -19 0
20200 16 -24 0
40400 -16 24 0
44440 -16 -24 0
25156 -29 0
5110 27 25 20 -17 0
48545 27 25 -20 17 0
48800 27 25 -20 -17 0
40880 27 -25 20 17 0
41902 27 -25 20 -17 0
50589 27 -25 -20 17 0
50640 27 -25 -20 -17 0
1022 -27 25 20 17 0
6030 -27 25 20 -17 0
48596 -27 25 -20 17 0
48846 -27 25 -20 -17 0
41084 -27 -25 20 17 0
42086 -27 -25 20 -17 0
50599 -27 -25 -20 17 0
50649 -27 -25 -20 -17 0
4920 -33 0
35400 28 -30 0
18880 -28 30 0
42952 -28 -30 0
45500 36 31 -26 0
58500 36 -31 26 0
63050 36 -31 -26 0
16250 -36 31 26 0
50375 -36 31 -26 0
60125 -36 -31 26 0
63538 -36 -31 -26 0
700 37 -15 0
700 -37 15 0
1330 -37 -15 0
50660 22 -32 0
23840 -22 32 0
54236 -22 -32 0
3690 35 34 38 -21 0
2624 35 34 -38 21 0
5133 35 34 -38 -21 0
2460 35 -34 38 21 0
5043 35 -34 38 -21 0
4297 35 -34 -38 21 0
6053 35 -34 -38 -21 0
7790 -35 34 38 21 0
7974 -35 34 38 -21 0
7921 -35 34 -38 21 0
8047 -35 34 -38 -21 0
7913 -35 -34 38 21 0
8042 -35 -34 38 -21 0
8005 -35 -34 -38 21 0
8093 -35 -34 -38 -21 0
