p wcnf 67 208 1000000
1000000 1 0
1000000 2 -16 0
1000000 16 -46 -51 -53 -1 0
1000000 4 -17 0
1000000 17 -48 -1 0
1000000 10 -18 0
1000000 18 -50 -47 -56 -1 0
1000000 11 -19 0
1000000 19 -49 -52 -60 -2 0
1000000 13 -20 0
1000000 20 -54 -58 -57 -2 0
1000000 14 -21 0
1000000 21 -61 -59 -55 -2 0
1000000 3 -22 0
1000000 22 -46 -51 -2 0
1000000 4 -23 0
1000000 23 -47 -49 -2 0
1000000 5 -24 0
1000000 24 -53 -48 -2 0
1000000 6 -25 0
1000000 25 -50 -2 0
1000000 7 -26 0
1000000 26 -56 -59 -61 -2 0
1000000 13 -27 0
1000000 27 -54 -11 0
1000000 13 -28 0
1000000 28 -58 -57 -12 0
1000000 14 -29 0
1000000 29 -60 -12 0
1000000 15 -30 0
1000000 30 -47 -48 -53 -12 0
1000000 15 -31 0
1000000 31 -52 -13 0
1000000 13 -32 0
1000000 32 -54 -55 -50 -3 0
1000000 7 -33 0
1000000 33 -57 -58 -55 -3 0
1000000 8 -34 0
1000000 34 -49 -3 0
1000000 6 -35 0
1000000 35 -52 -4 0
1000000 7 -36 0
1000000 36 -46 -51 -4 0
1000000 8 -37 0
1000000 37 -61 -50 -56 -4 0
1000000 12 -38 0
1000000 38 -60 -5 0
1000000 9 -39 0
1000000 39 -47 -59 -5 0
1000000 11 -40 0
1000000 40 -46 -55 -52 -6 0
1000000 7 -41 0
1000000 41 -49 -59 -54 -6 0
1000000 9 -42 0
1000000 42 -51 -7 0
1000000 12 -43 0
1000000 43 -48 -46 -53 -9 0
1000000 10 -44 0
1000000 44 -56 -48 -61 -9 0
1000000 14 -45 0
1000000 45 -60 -50 -58 -10 0
1000000 1 0
1000000 -2 16 0
1000000 -3 22 0
1000000 -4 23 17 0
1000000 -5 24 0
1000000 -6 35 25 0
1000000 -7 33 26 41 36 0
1000000 -8 34 37 0
1000000 -9 39 42 0
1000000 -10 44 18 0
1000000 -11 19 40 0
1000000 -12 38 43 0
1000000 -13 27 32 28 20 0
1000000 -14 45 21 29 0
1000000 -15 31 30 0
1000000 46 67 0
1000000 47 65 0
1000000 48 62 0
1000000 49 67 0
1000000 50 63 0
1000000 51 62 0
1000000 52 62 0
1000000 53 67 0
1000000 54 65 0
1000000 55 64 0
1000000 56 64 0
1000000 57 63 0
1000000 58 63 0
1000000 59 66 0
1000000 60 65 0
1000000 61 66 0
1000000 -46 -67 0
1000000 -47 -65 0
1000000 -48 -62 0
1000000 -49 -67 0
1000000 -50 -63 0
1000000 -51 -62 0
1000000 -52 -62 0
1000000 -53 -67 0
1000000 -54 -65 0
1000000 -55 -64 0
1000000 -56 -64 0
1000000 -57 -63 0
1000000 -58 -63 0
1000000 -59 -66 0
1000000 -60 -65 0
1000000 -61 -66 0
7700 -62 0
11100 -63 0
11100 -64 0
8000 -65 0
11100 -66 0
7700 -67 0
3200 46 0
1300 47 0
3200 48 0
1300 49 0
2800 50 0
2400 51 0
2100 52 0
1300 53 0
2200 54 0
1900 55 0
2600 56 0
2200 57 0
2100 58 0
2100 59 0
1000 60 0
2400 61 0
31920 -16 0
34575 -22 0
15960 23 -17 0
9975 -23 17 0
21945 -23 -17 0
41940 -24 0
34575 35 -25 0
29965 -35 25 0
42066 -35 -25 0
27550 33 26 41 -36 0
23200 33 26 -41 36 0
41934 33 26 -41 -36 0
43500 33 -26 41 36 0
54520 33 -26 41 -36 0
52780 33 -26 -41 36 0
60274 33 -26 -41 -36 0
61625 -33 26 41 36 0
65758 -33 26 41 -36 0
65105 -33 26 -41 36 0
67915 -33 26 -41 -36 0
68150 -33 -26 41 36 0
69803 -33 -26 41 -36 0
69542 -33 -26 -41 36 0
70666 -33 -26 -41 -36 0
25630 34 -37 0
16310 -34 37 0
32969 -34 -37 0
63920 39 -42 0
3995 -39 42 0
64719 -39 -42 0
9330 44 -18 0
18660 -44 18 0
25191 -44 -18 0
2436 19 -40 0
15225 -19 40 0
15834 -19 -40 0
11250 38 -43 0
10000 -38 43 0
16750 -38 -43 0
14755 27 32 28 -20 0
7264 27 32 -28 20 0
17297 27 32 -28 -20 0
13620 27 -32 28 20 0
19522 27 -32 28 -20 0
16526 27 -32 -28 20 0
20539 27 -32 -28 -20 0
20430 -27 32 28 20 0
21906 -27 32 28 -20 0
21156 -27 32 -28 20 0
22160 -27 32 -28 -20 0
21792 -27 -32 28 20 0
22382 -27 -32 28 -20 0
22083 -27 -32 -28 20 0
22484 -27 -32 -28 -20 0
41940 45 21 -29 0
2330 45 -21 29 0
42173 45 -21 -29 0
11650 -45 21 29 0
43105 -45 21 -29 0
13398 -45 -21 29 0
43280 -45 -21 -29 0
35910 31 -30 0
17955 -31 30 0
41296 -31 -30 0
