p wcnf 83 283 1000000
1000000 1 0
1000000 2 -18 0
1000000 18 -60 -58 -1 0
1000000 11 -19 0
1000000 19 -65 -63 -62 -1 0
1000000 5 -20 0
1000000 20 -57 -1 0
1000000 8 -21 0
1000000 21 -67 -61 -69 -1 0
1000000 10 -22 0
1000000 22 -59 -64 -1 0
1000000 14 -23 0
1000000 23 -72 -76 -66 -2 0
1000000 3 -24 0
1000000 24 -74 -75 -2 0
1000000 4 -25 0
1000000 25 -68 -70 -2 0
1000000 5 -26 0
1000000 26 -73 -59 -62 -2 0
1000000 10 -27 0
1000000 27 -71 -57 -63 -2 0
1000000 12 -28 0
1000000 28 -67 -61 -68 -11 0
1000000 14 -29 0
1000000 29 -69 -64 -70 -11 0
1000000 15 -30 0
1000000 30 -60 -66 -72 -12 0
1000000 17 -31 0
1000000 31 -65 -12 0
1000000 15 -32 0
1000000 32 -71 -73 -13 0
1000000 15 -33 0
1000000 33 -74 -62 -60 -14 0
1000000 16 -34 0
1000000 34 -57 -75 -14 0
1000000 17 -35 0
1000000 35 -59 -58 -16 0
1000000 12 -36 0
1000000 36 -76 -3 0
1000000 16 -37 0
1000000 37 -66 -68 -61 -3 0
1000000 17 -38 0
1000000 38 -63 -3 0
1000000 4 -39 0
1000000 39 -58 -69 -73 -3 0
1000000 7 -40 0
1000000 40 -64 -3 0
1000000 5 -41 0
1000000 41 -67 -71 -75 -4 0
1000000 6 -42 0
1000000 42 -72 -4 0
1000000 7 -43 0
1000000 43 -59 -76 -70 -4 0
1000000 12 -44 0
1000000 44 -65 -57 -5 0
1000000 6 -45 0
1000000 45 -58 -5 0
1000000 11 -46 0
1000000 46 -61 -6 0
1000000 13 -47 0
1000000 47 -74 -62 -60 -6 0
1000000 7 -48 0
1000000 48 -71 -69 -66 -6 0
1000000 9 -49 0
1000000 49 -65 -7 0
1000000 10 -50 0
1000000 50 -68 -64 -67 -7 0
1000000 11 -51 0
1000000 51 -75 -74 -70 -8 0
1000000 12 -52 0
1000000 52 -59 -76 -72 -8 0
1000000 17 -53 0
1000000 53 -63 -60 -8 0
1000000 13 -54 0
1000000 54 -65 -57 -62 -9 0
1000000 12 -55 0
1000000 55 -68 -69 -67 -10 0
1000000 13 -56 0
1000000 56 -58 -63 -71 -10 0
1000000 1 0
1000000 -2 18 0
1000000 -3 24 0
1000000 -4 25 39 0
1000000 -5 41 26 20 0
1000000 -6 42 45 0
1000000 -7 40 48 43 0
1000000 -8 21 0
1000000 -9 49 0
1000000 -10 50 22 27 0
1000000 -11 19 51 46 0
1000000 -12 44 55 36 28 52 0
1000000 -13 54 56 47 0
1000000 -14 23 29 0
1000000 -15 30 33 32 0
1000000 -16 37 34 0
1000000 -17 53 38 31 35 0
1000000 57 81 0
1000000 58 82 0
1000000 59 78 0
1000000 60 78 0
1000000 61 80 0
1000000 62 82 0
1000000 63 81 0
1000000 64 77 0
1000000 65 79 0
1000000 66 80 0
1000000 67 83 0
1000000 68 77 0
1000000 69 81 0
1000000 70 77 0
1000000 71 80 0
1000000 72 82 0
1000000 73 78 0
1000000 74 83 0
1000000 75 79 0
1000000 76 83 0
1000000 -57 -81 0
1000000 -58 -82 0
1000000 -59 -78 0
1000000 -60 -78 0
1000000 -61 -80 0
1000000 -62 -82 0
1000000 -63 -81 0
1000000 -64 -77 0
1000000 -65 -79 0
1000000 -66 -80 0
1000000 -67 -83 0
1000000 -68 -77 0
1000000 -69 -81 0
1000000 -70 -77 0
1000000 -71 -80 0
1000000 -72 -82 0
1000000 -73 -78 0
1000000 -74 -83 0
1000000 -75 -79 0
1000000 -76 -83 0
9700 -77 0
9700 -78 0
7500 -79 0
12800 -80 0
11600 -81 0
11600 -82 0
7500 -83 0
2700 57 0
2200 58 0
900 59 0
2700 60 0
2200 61 0
2700 62 0
900 63 0
2200 64 0
2700 65 0
1100 66 0
2200 67 0
1300 68 0
2700 69 0
2700 70 0
1300 71 0
700 72 0
900 73 0
2700 74 0
2200 75 0
1800 76 0
252 -18 0
958 -24 0
5565 25 -39 0
16695 -25 39 0
19756 -25 -39 0
2268 41 26 -20 0
1890 41 -26 20 0
3818 41 -26 -20 0
7560 -41 26 20 0
8467 -41 26 -20 0
8316 -41 -26 20 0
9087 -41 -26 -20 0
5565 42 -45 0
14840 -42 45 0
18179 -42 -45 0
6360 40 48 -43 0
12720 40 -48 43 0
13992 40 -48 -43 0
7155 -40 48 43 0
10653 -40 48 -43 0
14151 -40 -48 43 0
14851 -40 -48 -43 0
16150 -21 0
5700 -49 0
14595 50 22 -27 0
13344 50 -22 27 0
23269 50 -22 -27 0
12510 -50 22 27 0
22727 -50 22 -27 0
21851 -50 -22 27 0
28798 -50 -22 -27 0
8520 19 51 -46 0
2840 19 -51 46 0
10508 19 -51 -46 0
26980 -19 51 46 0
27406 -19 51 -46 0
27122 -19 -51 46 0
27505 -19 -51 -46 0
29340 44 55 36 28 -52 0
3260 44 55 36 -28 52 0
29666 44 55 36 -28 -52 0
19560 44 55 -36 28 52 0
31296 44 55 -36 28 -52 0
20864 44 55 -36 -28 52 0
31426 44 55 -36 -28 -52 0
10432 44 -55 36 28 52 0
30383 44 -55 36 28 -52 0
12649 44 -55 36 -28 52 0
30605 44 -55 36 -28 -52 0
23733 44 -55 -36 28 52 0
31713 44 -55 -36 28 -52 0
24620 44 -55 -36 -28 52 0
31802 44 -55 -36 -28 -52 0
16300 -44 55 36 28 52 0
30970 -44 55 36 28 -52 0
17930 -44 55 36 -28 52 0
31133 -44 55 36 -28 -52 0
26080 -44 55 -36 28 52 0
31948 -44 55 -36 28 -52 0
26732 -44 55 -36 -28 52 0
32013 -44 55 -36 -28 -52 0
21516 -44 -55 36 28 52 0
31492 -44 -55 36 28 -52 0
22624 -44 -55 36 -28 52 0
31602 -44 -55 36 -28 -52 0
28166 -44 -55 -36 28 52 0
32157 -44 -55 -36 28 -52 0
28610 -44 -55 -36 -28 52 0
32201 -44 -55 -36 -28 -52 0
5510 54 56 -47 0
725 54 -56 47 0
5960 54 -56 -47 0
725 -54 56 47 0
5960 -54 56 -47 0
1414 -54 -56 47 0
6387 -54 -56 -47 0
7250 23 -29 0
290 -23 29 0
7395 -23 -29 0
3180 30 33 -32 0
7155 30 -33 32 0
8904 30 -33 -32 0
10335 -30 33 32 0
11448 -30 33 -32 0
12839 -30 -33 32 0
13451 -30 -33 -32 0
32400 37 -34 0
22275 -37 34 0
36855 -37 -34 0
4790 53 38 31 -35 0
33530 53 38 -31 35 0
34967 53 38 -31 -35 0
4790 53 -38 31 35 0
9101 53 -38 31 -35 0
34967 53 -38 -31 35 0
36260 53 -38 -31 -35 0
43110 -53 38 31 35 0
43589 -53 38 31 -35 0
46463 -53 38 -31 35 0
46607 -53 38 -31 -35 0
43589 -53 -38 31 35 0
44020 -53 -38 31 -35 0
46607 -53 -38 -31 35 0
46736 -53 -38 -31 -35 0
