p wcnf 926 3915 1000000
1000000 1 0
1000000 2 -169 0
1000000 169 -659 -660 -1 0
1000000 11 -170 0
1000000 170 -663 -666 -1 0
1000000 12 -171 0
1000000 171 -661 -667 -670 -1 0
1000000 134 -172 0
1000000 172 -664 -1 0
1000000 15 -173 0
1000000 173 -672 -668 -1 0
1000000 17 -174 0
1000000 174 -669 -674 -675 -1 0
1000000 3 -175 0
1000000 175 -665 -662 -673 -1 0
1000000 21 -176 0
1000000 176 -682 -683 -680 -1 0
1000000 4 -177 0
1000000 177 -671 -1 0
1000000 12 -178 0
1000000 178 -687 -681 -679 -2 0
1000000 14 -179 0
1000000 179 -677 -678 -689 -2 0
1000000 16 -180 0
1000000 180 -690 -693 -692 -2 0
1000000 4 -181 0
1000000 181 -684 -2 0
1000000 32 -182 0
1000000 182 -688 -686 -2 0
1000000 84 -183 0
1000000 183 -694 -691 -2 0
1000000 14 -184 0
1000000 184 -676 -11 0
1000000 141 -185 0
1000000 185 -696 -697 -701 -11 0
1000000 22 -186 0
1000000 186 -698 -700 -11 0
1000000 25 -187 0
1000000 187 -699 -703 -11 0
1000000 27 -188 0
1000000 188 -709 -707 -706 -11 0
1000000 88 -189 0
1000000 189 -712 -705 -710 -11 0
1000000 104 -190 0
1000000 190 -695 -704 -101 0
1000000 109 -191 0
1000000 191 -717 -711 -685 -101 0
1000000 127 -192 0
1000000 192 -719 -713 -720 -101 0
1000000 130 -193 0
1000000 193 -718 -716 -702 -101 0
1000000 104 -194 0
1000000 194 -724 -714 -726 -102 0
1000000 107 -195 0
1000000 195 -721 -722 -727 -102 0
1000000 107 -196 0
1000000 196 -729 -708 -103 0
1000000 111 -197 0
1000000 197 -730 -734 -723 -103 0
1000000 114 -198 0
1000000 198 -725 -735 -733 -103 0
1000000 106 -199 0
1000000 199 -738 -731 -736 -104 0
1000000 111 -200 0
1000000 200 -728 -104 0
1000000 109 -201 0
1000000 201 -737 -715 -105 0
1000000 121 -202 0
1000000 202 -740 -741 -105 0
1000000 107 -203 0
1000000 203 -739 -744 -106 0
1000000 109 -204 0
1000000 204 -745 -742 -106 0
1000000 108 -205 0
1000000 205 -748 -732 -746 -107 0
1000000 109 -206 0
1000000 206 -743 -752 -755 -107 0
1000000 117 -207 0
1000000 207 -751 -756 -757 -107 0
1000000 136 -208 0
1000000 208 -747 -754 -107 0
1000000 117 -209 0
1000000 209 -750 -108 0
1000000 123 -210 0
1000000 210 -758 -108 0
1000000 110 -211 0
1000000 211 -749 -761 -109 0
1000000 121 -212 0
1000000 212 -762 -764 -109 0
1000000 115 -213 0
1000000 213 -767 -760 -769 -110 0
1000000 117 -214 0
1000000 214 -768 -765 -772 -110 0
1000000 13 -215 0
1000000 215 -770 -766 -12 0
1000000 15 -216 0
1000000 216 -753 -12 0
1000000 158 -217 0
1000000 217 -773 -775 -12 0
1000000 29 -218 0
1000000 218 -771 -763 -12 0
1000000 112 -219 0
1000000 219 -774 -111 0
1000000 114 -220 0
1000000 220 -779 -781 -778 -111 0
1000000 116 -221 0
1000000 221 -759 -783 -776 -111 0
1000000 115 -222 0
1000000 222 -777 -786 -112 0
1000000 118 -223 0
1000000 223 -787 -780 -785 -112 0
1000000 117 -224 0
1000000 224 -789 -782 -113 0
1000000 121 -225 0
1000000 225 -795 -796 -793 -113 0
1000000 117 -226 0
1000000 226 -797 -798 -791 -114 0
1000000 119 -227 0
1000000 227 -790 -114 0
1000000 133 -228 0
1000000 228 -784 -114 0
1000000 119 -229 0
1000000 229 -799 -800 -803 -115 0
1000000 120 -230 0
1000000 230 -792 -115 0
1000000 119 -231 0
1000000 231 -788 -116 0
1000000 121 -232 0
1000000 232 -801 -116 0
1000000 122 -233 0
1000000 233 -807 -804 -117 0
1000000 124 -234 0
1000000 234 -805 -809 -806 -117 0
1000000 149 -235 0
1000000 235 -812 -808 -117 0
1000000 119 -236 0
1000000 236 -811 -794 -118 0
1000000 121 -237 0
1000000 237 -813 -118 0
1000000 124 -238 0
1000000 238 -802 -118 0
1000000 125 -239 0
1000000 239 -817 -821 -810 -119 0
1000000 126 -240 0
1000000 240 -814 -822 -816 -119 0
1000000 124 -241 0
1000000 241 -820 -819 -120 0
1000000 129 -242 0
1000000 242 -815 -120 0
1000000 124 -243 0
1000000 243 -818 -827 -13 0
1000000 14 -244 0
1000000 244 -823 -13 0
1000000 16 -245 0
1000000 245 -826 -828 -829 -13 0
1000000 36 -246 0
1000000 246 -830 -13 0
1000000 123 -247 0
1000000 247 -832 -834 -121 0
1000000 124 -248 0
1000000 248 -831 -121 0
1000000 125 -249 0
1000000 249 -833 -122 0
1000000 128 -250 0
1000000 250 -824 -838 -122 0
1000000 127 -251 0
1000000 251 -825 -123 0
1000000 128 -252 0
1000000 252 -836 -123 0
1000000 126 -253 0
1000000 253 -839 -124 0
1000000 127 -254 0
1000000 254 -841 -840 -124 0
1000000 126 -255 0
1000000 255 -842 -125 0
1000000 127 -256 0
1000000 256 -837 -845 -125 0
1000000 127 -257 0
1000000 257 -835 -126 0
1000000 129 -258 0
1000000 258 -848 -852 -843 -126 0
1000000 145 -259 0
1000000 259 -854 -847 -851 -126 0
1000000 129 -260 0
1000000 260 -846 -850 -853 -127 0
1000000 133 -261 0
1000000 261 -849 -127 0
1000000 147 -262 0
1000000 262 -858 -857 -127 0
1000000 130 -263 0
1000000 263 -859 -856 -661 -128 0
1000000 133 -264 0
1000000 264 -855 -128 0
1000000 131 -265 0
1000000 265 -844 -129 0
1000000 132 -266 0
1000000 266 -660 -129 0
1000000 135 -267 0
1000000 267 -663 -130 0
1000000 142 -268 0
1000000 268 -662 -130 0
1000000 15 -269 0
1000000 269 -664 -14 0
1000000 16 -270 0
1000000 270 -666 -14 0
1000000 166 -271 0
1000000 271 -667 -14 0
1000000 24 -272 0
1000000 272 -674 -668 -659 -14 0
1000000 53 -273 0
1000000 273 -675 -665 -673 -14 0
1000000 135 -274 0
1000000 274 -672 -676 -671 -131 0
1000000 139 -275 0
1000000 275 -669 -131 0
1000000 144 -276 0
1000000 276 -681 -677 -131 0
1000000 135 -277 0
1000000 277 -680 -678 -685 -132 0
1000000 150 -278 0
1000000 278 -683 -687 -689 -132 0
1000000 135 -279 0
1000000 279 -682 -670 -133 0
1000000 137 -280 0
1000000 280 -691 -686 -133 0
1000000 144 -281 0
1000000 281 -688 -134 0
1000000 151 -282 0
1000000 282 -679 -697 -696 -134 0
1000000 140 -283 0
1000000 283 -684 -135 0
1000000 148 -284 0
1000000 284 -690 -135 0
1000000 146 -285 0
1000000 285 -692 -702 -700 -136 0
1000000 147 -286 0
1000000 286 -704 -694 -703 -136 0
1000000 148 -287 0
1000000 287 -698 -136 0
1000000 140 -288 0
1000000 288 -708 -709 -699 -137 0
1000000 142 -289 0
1000000 289 -705 -701 -137 0
1000000 150 -290 0
1000000 290 -695 -138 0
1000000 167 -291 0
1000000 291 -712 -710 -138 0
1000000 145 -292 0
1000000 292 -713 -706 -716 -139 0
1000000 146 -293 0
1000000 293 -707 -711 -139 0
1000000 144 -294 0
1000000 294 -719 -693 -140 0
1000000 148 -295 0
1000000 295 -720 -718 -140 0
1000000 156 -296 0
1000000 296 -714 -140 0
1000000 22 -297 0
1000000 297 -723 -724 -15 0
1000000 26 -298 0
1000000 298 -715 -15 0
1000000 30 -299 0
1000000 299 -727 -726 -15 0
1000000 50 -300 0
1000000 300 -721 -722 -728 -15 0
1000000 75 -301 0
1000000 301 -717 -725 -734 -15 0
1000000 144 -302 0
1000000 302 -730 -141 0
1000000 148 -303 0
1000000 303 -736 -739 -738 -141 0
1000000 167 -304 0
1000000 304 -733 -732 -141 0
1000000 144 -305 0
1000000 305 -729 -737 -142 0
1000000 145 -306 0
1000000 306 -742 -731 -745 -142 0
1000000 147 -307 0
1000000 307 -743 -735 -746 -143 0
1000000 148 -308 0
1000000 308 -744 -143 0
1000000 152 -309 0
1000000 309 -749 -753 -750 -144 0
1000000 153 -310 0
1000000 310 -752 -755 -741 -144 0
1000000 150 -311 0
1000000 311 -740 -145 0
1000000 152 -312 0
1000000 312 -754 -747 -145 0
1000000 153 -313 0
1000000 313 -748 -145 0
1000000 148 -314 0
1000000 314 -751 -146 0
1000000 149 -315 0
1000000 315 -762 -758 -760 -146 0
1000000 151 -316 0
1000000 316 -767 -757 -766 -146 0
1000000 148 -317 0
1000000 317 -769 -765 -761 -147 0
1000000 149 -318 0
1000000 318 -771 -773 -763 -147 0
1000000 153 -319 0
1000000 319 -764 -148 0
1000000 154 -320 0
1000000 320 -759 -148 0
1000000 155 -321 0
1000000 321 -756 -775 -772 -149 0
1000000 159 -322 0
1000000 322 -774 -149 0
1000000 153 -323 0
1000000 323 -770 -768 -778 -150 0
1000000 154 -324 0
1000000 324 -780 -777 -150 0
1000000 160 -325 0
1000000 325 -786 -783 -787 -16 0
1000000 19 -326 0
1000000 326 -776 -16 0
1000000 29 -327 0
1000000 327 -791 -788 -790 -16 0
1000000 33 -328 0
1000000 328 -782 -16 0
1000000 37 -329 0
1000000 329 -795 -792 -794 -16 0
1000000 153 -330 0
1000000 330 -779 -151 0
1000000 155 -331 0
1000000 331 -785 -151 0
1000000 154 -332 0
1000000 332 -799 -784 -793 -152 0
1000000 160 -333 0
1000000 333 -798 -781 -152 0
1000000 155 -334 0
1000000 334 -802 -796 -153 0
1000000 159 -335 0
1000000 335 -797 -153 0
1000000 158 -336 0
1000000 336 -804 -808 -789 -154 0
1000000 167 -337 0
1000000 337 -807 -811 -800 -154 0
1000000 159 -338 0
1000000 338 -801 -155 0
1000000 160 -339 0
1000000 339 -806 -814 -803 -155 0
1000000 157 -340 0
1000000 340 -815 -818 -817 -156 0
1000000 159 -341 0
1000000 341 -809 -156 0
1000000 160 -342 0
1000000 342 -812 -821 -810 -157 0
1000000 168 -343 0
1000000 343 -816 -805 -824 -157 0
1000000 165 -344 0
1000000 344 -820 -819 -158 0
1000000 168 -345 0
1000000 345 -822 -826 -158 0
1000000 164 -346 0
1000000 346 -829 -823 -159 0
1000000 167 -347 0
1000000 347 -813 -827 -159 0
1000000 166 -348 0
1000000 348 -830 -831 -160 0
1000000 123 -349 0
1000000 349 -834 -833 -17 0
1000000 21 -350 0
1000000 350 -828 -17 0
1000000 23 -351 0
1000000 351 -836 -832 -17 0
1000000 27 -352 0
1000000 352 -838 -835 -17 0
1000000 28 -353 0
1000000 353 -839 -840 -17 0
1000000 47 -354 0
1000000 354 -844 -843 -17 0
1000000 163 -355 0
1000000 355 -847 -841 -846 -161 0
1000000 168 -356 0
1000000 356 -842 -851 -837 -162 0
1000000 164 -357 0
1000000 357 -825 -163 0
1000000 165 -358 0
1000000 358 -855 -854 -845 -163 0
1000000 125 -359 0
1000000 359 -849 -848 -18 0
1000000 137 -360 0
1000000 360 -850 -852 -660 -18 0
1000000 19 -361 0
1000000 361 -857 -856 -18 0
1000000 20 -362 0
1000000 362 -859 -659 -18 0
1000000 28 -363 0
1000000 363 -858 -661 -18 0
1000000 153 -364 0
1000000 364 -853 -19 0
1000000 22 -365 0
1000000 365 -663 -19 0
1000000 23 -366 0
1000000 366 -665 -668 -662 -19 0
1000000 25 -367 0
1000000 367 -666 -19 0
1000000 63 -368 0
1000000 368 -667 -19 0
1000000 26 -369 0
1000000 369 -669 -664 -671 -20 0
1000000 27 -370 0
1000000 370 -673 -676 -20 0
1000000 82 -371 0
1000000 371 -680 -677 -681 -20 0
1000000 110 -372 0
1000000 372 -672 -678 -3 0
1000000 12 -373 0
1000000 373 -682 -675 -683 -3 0
1000000 16 -374 0
1000000 374 -679 -687 -670 -3 0
1000000 152 -375 0
1000000 375 -688 -674 -3 0
1000000 38 -376 0
1000000 376 -686 -689 -3 0
1000000 7 -377 0
1000000 377 -685 -690 -3 0
1000000 8 -378 0
1000000 378 -691 -695 -693 -3 0
1000000 23 -379 0
1000000 379 -692 -21 0
1000000 25 -380 0
1000000 380 -701 -699 -694 -21 0
1000000 25 -381 0
1000000 381 -697 -22 0
1000000 26 -382 0
1000000 382 -703 -684 -696 -22 0
1000000 35 -383 0
1000000 383 -698 -22 0
1000000 40 -384 0
1000000 384 -707 -704 -22 0
1000000 52 -385 0
1000000 385 -702 -22 0
1000000 85 -386 0
1000000 386 -700 -708 -22 0
1000000 119 -387 0
1000000 387 -711 -712 -23 0
1000000 164 -388 0
1000000 388 -713 -706 -705 -23 0
1000000 31 -389 0
1000000 389 -715 -716 -23 0
1000000 33 -390 0
1000000 390 -718 -721 -719 -23 0
1000000 34 -391 0
1000000 391 -722 -710 -23 0
1000000 60 -392 0
1000000 392 -724 -714 -725 -23 0
1000000 118 -393 0
1000000 393 -726 -723 -24 0
1000000 26 -394 0
1000000 394 -709 -24 0
1000000 33 -395 0
1000000 395 -717 -24 0
1000000 42 -396 0
1000000 396 -720 -24 0
1000000 45 -397 0
1000000 397 -728 -24 0
1000000 27 -398 0
1000000 398 -727 -25 0
1000000 32 -399 0
1000000 399 -731 -25 0
1000000 44 -400 0
1000000 400 -734 -729 -25 0
1000000 122 -401 0
1000000 401 -733 -730 -26 0
1000000 29 -402 0
1000000 402 -732 -741 -735 -26 0
1000000 38 -403 0
1000000 403 -740 -736 -26 0
1000000 29 -404 0
1000000 404 -738 -27 0
1000000 30 -405 0
1000000 405 -744 -743 -27 0
1000000 58 -406 0
1000000 406 -749 -747 -742 -27 0
1000000 76 -407 0
1000000 407 -745 -737 -27 0
1000000 113 -408 0
1000000 408 -752 -750 -755 -28 0
1000000 131 -409 0
1000000 409 -751 -746 -28 0
1000000 33 -410 0
1000000 410 -739 -28 0
1000000 39 -411 0
1000000 411 -754 -28 0
1000000 31 -412 0
1000000 412 -756 -748 -29 0
1000000 32 -413 0
1000000 413 -757 -753 -760 -29 0
1000000 74 -414 0
1000000 414 -759 -29 0
1000000 32 -415 0
1000000 415 -762 -30 0
1000000 44 -416 0
1000000 416 -758 -30 0
1000000 5 -417 0
1000000 417 -761 -767 -4 0
1000000 6 -418 0
1000000 418 -765 -4 0
1000000 8 -419 0
1000000 419 -766 -773 -764 -4 0
1000000 36 -420 0
1000000 420 -768 -775 -774 -31 0
1000000 37 -421 0
1000000 421 -769 -778 -776 -31 0
1000000 54 -422 0
1000000 422 -781 -782 -779 -31 0
1000000 65 -423 0
1000000 423 -771 -784 -772 -31 0
1000000 112 -424 0
1000000 424 -785 -763 -32 0
1000000 135 -425 0
1000000 425 -770 -32 0
1000000 162 -426 0
1000000 426 -777 -32 0
1000000 33 -427 0
1000000 427 -780 -32 0
1000000 44 -428 0
1000000 428 -786 -789 -792 -32 0
1000000 35 -429 0
1000000 429 -787 -33 0
1000000 36 -430 0
1000000 430 -788 -33 0
1000000 45 -431 0
1000000 431 -791 -33 0
1000000 79 -432 0
1000000 432 -794 -790 -33 0
1000000 35 -433 0
1000000 433 -797 -795 -34 0
1000000 39 -434 0
1000000 434 -800 -803 -801 -34 0
1000000 66 -435 0
1000000 435 -793 -34 0
1000000 72 -436 0
1000000 436 -783 -34 0
1000000 99 -437 0
1000000 437 -806 -807 -805 -34 0
1000000 37 -438 0
1000000 438 -796 -35 0
1000000 46 -439 0
1000000 439 -802 -798 -35 0
1000000 51 -440 0
1000000 440 -809 -811 -799 -35 0
1000000 90 -441 0
1000000 441 -804 -814 -35 0
1000000 142 -442 0
1000000 442 -808 -36 0
1000000 38 -443 0
1000000 443 -813 -36 0
1000000 39 -444 0
1000000 444 -815 -817 -36 0
1000000 41 -445 0
1000000 445 -816 -37 0
1000000 43 -446 0
1000000 446 -821 -820 -812 -37 0
1000000 41 -447 0
1000000 447 -810 -818 -38 0
1000000 43 -448 0
1000000 448 -827 -828 -829 -38 0
1000000 51 -449 0
1000000 449 -832 -824 -831 -38 0
1000000 155 -450 0
1000000 450 -825 -823 -39 0
1000000 44 -451 0
1000000 451 -826 -833 -39 0
1000000 48 -452 0
1000000 452 -830 -838 -835 -39 0
1000000 59 -453 0
1000000 453 -822 -39 0
1000000 42 -454 0
1000000 454 -834 -40 0
1000000 43 -455 0
1000000 455 -837 -840 -836 -40 0
1000000 70 -456 0
1000000 456 -841 -40 0
1000000 6 -457 0
1000000 457 -845 -844 -5 0
1000000 7 -458 0
1000000 458 -848 -819 -846 -5 0
1000000 8 -459 0
1000000 459 -842 -849 -5 0
1000000 97 -460 0
1000000 460 -851 -847 -5 0
1000000 108 -461 0
1000000 461 -839 -41 0
1000000 46 -462 0
1000000 462 -850 -41 0
1000000 47 -463 0
1000000 463 -855 -852 -843 -41 0
1000000 43 -464 0
1000000 464 -858 -661 -854 -42 0
1000000 47 -465 0
1000000 465 -857 -42 0
1000000 49 -466 0
1000000 466 -859 -42 0
1000000 52 -467 0
1000000 467 -666 -853 -660 -43 0
1000000 53 -468 0
1000000 468 -856 -665 -43 0
1000000 45 -469 0
1000000 469 -662 -663 -44 0
1000000 47 -470 0
1000000 470 -669 -670 -44 0
1000000 61 -471 0
1000000 471 -671 -667 -674 -44 0
1000000 114 -472 0
1000000 472 -672 -664 -676 -45 0
1000000 154 -473 0
1000000 473 -668 -45 0
1000000 47 -474 0
1000000 474 -673 -678 -659 -45 0
1000000 49 -475 0
1000000 475 -680 -681 -675 -45 0
1000000 51 -476 0
1000000 476 -679 -684 -45 0
1000000 55 -477 0
1000000 477 -683 -690 -689 -46 0
1000000 60 -478 0
1000000 478 -687 -685 -46 0
1000000 67 -479 0
1000000 479 -682 -46 0
1000000 143 -480 0
1000000 480 -686 -47 0
1000000 48 -481 0
1000000 481 -677 -693 -697 -47 0
1000000 49 -482 0
1000000 482 -688 -696 -699 -47 0
1000000 96 -483 0
1000000 483 -701 -692 -694 -47 0
1000000 55 -484 0
1000000 484 -695 -48 0
1000000 60 -485 0
1000000 485 -698 -48 0
1000000 71 -486 0
1000000 486 -705 -703 -48 0
1000000 53 -487 0
1000000 487 -706 -710 -708 -49 0
1000000 62 -488 0
1000000 488 -700 -707 -49 0
1000000 77 -489 0
1000000 489 -711 -709 -702 -49 0
1000000 52 -490 0
1000000 490 -715 -716 -713 -50 0
1000000 57 -491 0
1000000 491 -718 -714 -50 0
1000000 58 -492 0
1000000 492 -712 -717 -50 0
1000000 14 -493 0
1000000 493 -720 -691 -722 -6 0
1000000 139 -494 0
1000000 494 -721 -704 -6 0
1000000 16 -495 0
1000000 495 -730 -728 -726 -6 0
1000000 163 -496 0
1000000 496 -733 -729 -723 -6 0
1000000 68 -497 0
1000000 497 -735 -734 -727 -6 0
1000000 55 -498 0
1000000 498 -736 -732 -51 0
1000000 58 -499 0
1000000 499 -731 -737 -739 -51 0
1000000 71 -500 0
1000000 500 -724 -51 0
1000000 146 -501 0
1000000 501 -725 -745 -742 -52 0
1000000 56 -502 0
1000000 502 -740 -741 -52 0
1000000 65 -503 0
1000000 503 -738 -52 0
1000000 61 -504 0
1000000 504 -719 -747 -53 0
1000000 62 -505 0
1000000 505 -744 -753 -752 -53 0
1000000 57 -506 0
1000000 506 -748 -54 0
1000000 62 -507 0
1000000 507 -746 -54 0
1000000 62 -508 0
1000000 508 -743 -750 -755 -55 0
1000000 67 -509 0
1000000 509 -756 -754 -55 0
1000000 115 -510 0
1000000 510 -758 -751 -56 0
1000000 62 -511 0
1000000 511 -759 -56 0
1000000 64 -512 0
1000000 512 -749 -56 0
1000000 69 -513 0
1000000 513 -757 -762 -56 0
1000000 95 -514 0
1000000 514 -764 -767 -765 -56 0
1000000 59 -515 0
1000000 515 -761 -57 0
1000000 63 -516 0
1000000 516 -763 -57 0
1000000 64 -517 0
1000000 517 -760 -57 0
1000000 83 -518 0
1000000 518 -769 -774 -766 -57 0
1000000 63 -519 0
1000000 519 -768 -58 0
1000000 64 -520 0
1000000 520 -775 -771 -58 0
1000000 63 -521 0
1000000 521 -777 -778 -59 0
1000000 67 -522 0
1000000 522 -770 -783 -773 -59 0
1000000 63 -523 0
1000000 523 -780 -782 -60 0
1000000 68 -524 0
1000000 524 -781 -776 -60 0
1000000 12 -525 0
1000000 525 -785 -772 -788 -7 0
1000000 13 -526 0
1000000 526 -789 -779 -784 -7 0
1000000 25 -527 0
1000000 527 -787 -7 0
1000000 41 -528 0
1000000 528 -791 -790 -7 0
1000000 48 -529 0
1000000 529 -795 -794 -7 0
1000000 9 -530 0
1000000 530 -799 -801 -797 -7 0
1000000 10 -531 0
1000000 531 -793 -7 0
1000000 104 -532 0
1000000 532 -805 -802 -800 -61 0
1000000 120 -533 0
1000000 533 -798 -786 -804 -61 0
1000000 159 -534 0
1000000 534 -810 -792 -807 -61 0
1000000 64 -535 0
1000000 535 -806 -61 0
1000000 65 -536 0
1000000 536 -803 -61 0
1000000 94 -537 0
1000000 537 -811 -816 -809 -61 0
1000000 66 -538 0
1000000 538 -796 -62 0
1000000 69 -539 0
1000000 539 -813 -820 -817 -62 0
1000000 84 -540 0
1000000 540 -812 -62 0
1000000 65 -541 0
1000000 541 -808 -63 0
1000000 77 -542 0
1000000 542 -814 -63 0
1000000 78 -543 0
1000000 543 -824 -823 -821 -63 0
1000000 66 -544 0
1000000 544 -815 -64 0
1000000 73 -545 0
1000000 545 -828 -822 -825 -64 0
1000000 74 -546 0
1000000 546 -819 -65 0
1000000 76 -547 0
1000000 547 -827 -65 0
1000000 71 -548 0
1000000 548 -829 -834 -830 -66 0
1000000 85 -549 0
1000000 549 -818 -66 0
1000000 91 -550 0
1000000 550 -831 -832 -66 0
1000000 102 -551 0
1000000 551 -840 -833 -835 -67 0
1000000 68 -552 0
1000000 552 -837 -836 -67 0
1000000 69 -553 0
1000000 553 -838 -67 0
1000000 73 -554 0
1000000 554 -841 -67 0
1000000 140 -555 0
1000000 555 -839 -846 -842 -68 0
1000000 70 -556 0
1000000 556 -844 -843 -850 -68 0
1000000 72 -557 0
1000000 557 -854 -851 -847 -68 0
1000000 132 -558 0
1000000 558 -826 -849 -852 -69 0
1000000 70 -559 0
1000000 559 -845 -856 -857 -69 0
1000000 76 -560 0
1000000 560 -848 -853 -69 0
1000000 75 -561 0
1000000 561 -859 -855 -70 0
1000000 76 -562 0
1000000 562 -858 -70 0
1000000 93 -563 0
1000000 563 -661 -70 0
1000000 15 -564 0
1000000 564 -659 -8 0
1000000 25 -565 0
1000000 565 -660 -663 -8 0
1000000 26 -566 0
1000000 566 -671 -662 -667 -8 0
1000000 27 -567 0
1000000 567 -664 -8 0
1000000 31 -568 0
1000000 568 -669 -674 -666 -8 0
1000000 56 -569 0
1000000 569 -677 -675 -676 -8 0
1000000 74 -570 0
1000000 570 -668 -673 -679 -71 0
1000000 75 -571 0
1000000 571 -681 -665 -71 0
1000000 86 -572 0
1000000 572 -672 -71 0
1000000 76 -573 0
1000000 573 -670 -72 0
1000000 77 -574 0
1000000 574 -680 -682 -72 0
1000000 81 -575 0
1000000 575 -684 -683 -687 -72 0
1000000 128 -576 0
1000000 576 -690 -689 -73 0
1000000 89 -577 0
1000000 577 -685 -73 0
1000000 90 -578 0
1000000 578 -678 -73 0
1000000 111 -579 0
1000000 579 -692 -694 -74 0
1000000 85 -580 0
1000000 580 -693 -688 -74 0
1000000 93 -581 0
1000000 581 -691 -74 0
1000000 76 -582 0
1000000 582 -698 -696 -699 -75 0
1000000 77 -583 0
1000000 583 -686 -75 0
1000000 78 -584 0
1000000 584 -705 -704 -695 -76 0
1000000 85 -585 0
1000000 585 -700 -701 -76 0
1000000 79 -586 0
1000000 586 -707 -702 -77 0
1000000 80 -587 0
1000000 587 -709 -703 -77 0
1000000 101 -588 0
1000000 588 -697 -710 -78 0
1000000 165 -589 0
1000000 589 -716 -706 -711 -78 0
1000000 80 -590 0
1000000 590 -708 -78 0
1000000 83 -591 0
1000000 591 -717 -712 -78 0
1000000 85 -592 0
1000000 592 -719 -718 -78 0
1000000 98 -593 0
1000000 593 -722 -713 -721 -78 0
1000000 168 -594 0
1000000 594 -720 -725 -79 0
1000000 88 -595 0
1000000 595 -724 -730 -723 -79 0
1000000 93 -596 0
1000000 596 -714 -79 0
1000000 81 -597 0
1000000 597 -728 -715 -80 0
1000000 84 -598 0
1000000 598 -727 -733 -80 0
1000000 92 -599 0
1000000 599 -731 -726 -80 0
1000000 18 -600 0
1000000 600 -734 -737 -9 0
1000000 19 -601 0
1000000 601 -738 -742 -741 -9 0
1000000 39 -602 0
1000000 602 -736 -729 -9 0
1000000 10 -603 0
1000000 603 -735 -732 -9 0
1000000 83 -604 0
1000000 604 -739 -744 -748 -81 0
1000000 85 -605 0
1000000 605 -740 -749 -81 0
1000000 87 -606 0
1000000 606 -747 -745 -81 0
1000000 106 -607 0
1000000 607 -750 -82 0
1000000 92 -608 0
1000000 608 -751 -82 0
1000000 94 -609 0
1000000 609 -743 -752 -754 -82 0
1000000 88 -610 0
1000000 610 -753 -83 0
1000000 90 -611 0
1000000 611 -746 -762 -758 -83 0
1000000 100 -612 0
1000000 612 -755 -760 -83 0
1000000 89 -613 0
1000000 613 -759 -84 0
1000000 96 -614 0
1000000 614 -761 -84 0
1000000 90 -615 0
1000000 615 -764 -763 -85 0
1000000 92 -616 0
1000000 616 -756 -85 0
1000000 87 -617 0
1000000 617 -772 -765 -766 -86 0
1000000 89 -618 0
1000000 618 -769 -757 -86 0
1000000 103 -619 0
1000000 619 -773 -767 -87 0
1000000 157 -620 0
1000000 620 -771 -87 0
1000000 93 -621 0
1000000 621 -775 -774 -87 0
1000000 94 -622 0
1000000 622 -768 -87 0
1000000 89 -623 0
1000000 623 -779 -770 -88 0
1000000 91 -624 0
1000000 624 -777 -88 0
1000000 117 -625 0
1000000 625 -783 -782 -785 -89 0
1000000 129 -626 0
1000000 626 -780 -776 -89 0
1000000 93 -627 0
1000000 627 -781 -788 -787 -89 0
1000000 94 -628 0
1000000 628 -786 -89 0
1000000 101 -629 0
1000000 629 -778 -90 0
1000000 99 -630 0
1000000 630 -789 -793 -792 -90 0
1000000 11 -631 0
1000000 631 -794 -798 -784 -10 0
1000000 13 -632 0
1000000 632 -795 -10 0
1000000 27 -633 0
1000000 633 -791 -10 0
1000000 89 -634 0
1000000 634 -799 -801 -10 0
1000000 105 -635 0
1000000 635 -797 -91 0
1000000 94 -636 0
1000000 636 -805 -796 -806 -91 0
1000000 96 -637 0
1000000 637 -804 -803 -91 0
1000000 94 -638 0
1000000 638 -809 -790 -810 -92 0
1000000 96 -639 0
1000000 639 -802 -800 -92 0
1000000 102 -640 0
1000000 640 -808 -93 0
1000000 103 -641 0
1000000 641 -812 -813 -93 0
1000000 101 -642 0
1000000 642 -817 -814 -94 0
1000000 105 -643 0
1000000 643 -807 -94 0
1000000 126 -644 0
1000000 644 -811 -815 -819 -94 0
1000000 106 -645 0
1000000 645 -820 -821 -95 0
1000000 138 -646 0
1000000 646 -822 -95 0
1000000 98 -647 0
1000000 647 -816 -826 -95 0
1000000 101 -648 0
1000000 648 -827 -830 -823 -96 0
1000000 105 -649 0
1000000 649 -828 -818 -96 0
1000000 107 -650 0
1000000 650 -825 -824 -97 0
1000000 161 -651 0
1000000 651 -829 -97 0
1000000 100 -652 0
1000000 652 -831 -832 -97 0
1000000 99 -653 0
1000000 653 -836 -837 -98 0
1000000 100 -654 0
1000000 654 -833 -98 0
1000000 102 -655 0
1000000 655 -842 -834 -841 -99 0
1000000 100 -656 0
1000000 656 -840 -844 -847 -99 0
1000000 111 -657 0
1000000 657 -849 -839 -843 -100 0
1000000 118 -658 0
1000000 658 -838 -845 -100 0
1000000 1 0
1000000 -2 169 0
1000000 -3 175 0
1000000 -4 177 181 0
1000000 -5 417 0
1000000 -6 418 457 0
1000000 -7 377 458 0
1000000 -8 378 419 459 0
1000000 -9 530 0
1000000 -10 531 603 0
1000000 -11 631 170 0
1000000 -12 171 178 373 525 0
1000000 -13 526 215 632 0
1000000 -14 493 179 244 184 0
1000000 -15 216 564 173 269 0
1000000 -16 374 270 180 245 495 0
1000000 -17 174 0
1000000 -18 600 0
1000000 -19 361 326 601 0
1000000 -20 362 0
1000000 -21 350 176 0
1000000 -22 186 297 365 0
1000000 -23 366 379 351 0
1000000 -24 272 0
1000000 -25 187 380 367 381 527 565 0
1000000 -26 394 566 369 382 298 0
1000000 -27 370 633 398 352 567 188 0
1000000 -28 363 353 0
1000000 -29 327 218 402 404 0
1000000 -30 405 299 0
1000000 -31 389 412 568 0
1000000 -32 415 182 399 413 0
1000000 -33 410 390 328 427 395 0
1000000 -34 391 0
1000000 -35 433 429 383 0
1000000 -36 420 430 246 0
1000000 -37 421 438 329 0
1000000 -38 443 376 403 0
1000000 -39 602 444 411 434 0
1000000 -40 384 0
1000000 -41 528 447 445 0
1000000 -42 454 396 0
1000000 -43 448 464 446 455 0
1000000 -44 416 451 400 428 0
1000000 -45 397 431 469 0
1000000 -46 462 439 0
1000000 -47 474 354 470 465 463 0
1000000 -48 529 452 481 0
1000000 -49 482 466 475 0
1000000 -50 300 0
1000000 -51 476 449 440 0
1000000 -52 467 385 490 0
1000000 -53 487 468 273 0
1000000 -54 422 0
1000000 -55 484 477 498 0
1000000 -56 502 569 0
1000000 -57 491 506 0
1000000 -58 406 492 499 0
1000000 -59 453 515 0
1000000 -60 392 478 485 0
1000000 -61 504 471 0
1000000 -62 488 508 511 505 507 0
1000000 -63 519 516 521 368 523 0
1000000 -64 517 512 520 535 0
1000000 -65 536 541 503 423 0
1000000 -66 544 538 435 0
1000000 -67 509 479 522 0
1000000 -68 497 524 552 0
1000000 -69 539 513 553 0
1000000 -70 456 556 559 0
1000000 -71 500 486 548 0
1000000 -72 436 557 0
1000000 -73 554 545 0
1000000 -74 546 570 414 0
1000000 -75 561 571 301 0
1000000 -76 560 582 573 562 547 407 0
1000000 -77 542 574 489 583 0
1000000 -78 584 543 0
1000000 -79 586 432 0
1000000 -80 587 590 0
1000000 -81 597 575 0
1000000 -82 371 0
1000000 -83 518 591 604 0
1000000 -84 183 598 540 0
1000000 -85 580 605 549 585 386 592 0
1000000 -86 572 0
1000000 -87 617 606 0
1000000 -88 595 610 189 0
1000000 -89 613 634 618 623 577 0
1000000 -90 441 611 615 578 0
1000000 -91 550 624 0
1000000 -92 616 608 599 0
1000000 -93 627 621 596 581 563 0
1000000 -94 628 609 622 636 537 638 0
1000000 -95 514 0
1000000 -96 614 639 483 637 0
1000000 -97 460 0
1000000 -98 647 593 0
1000000 -99 653 437 630 0
1000000 -100 654 656 612 652 0
1000000 -101 629 588 648 642 0
1000000 -102 655 640 551 0
1000000 -103 641 619 0
1000000 -104 532 194 190 0
1000000 -105 635 643 649 0
1000000 -106 645 607 199 0
1000000 -107 195 196 650 203 0
1000000 -108 461 205 0
1000000 -109 201 204 191 206 0
1000000 -110 211 372 0
1000000 -111 197 579 657 200 0
1000000 -112 424 219 0
1000000 -113 408 0
1000000 -114 472 198 220 0
1000000 -115 510 213 222 0
1000000 -116 221 0
1000000 -117 209 224 214 625 226 207 0
1000000 -118 393 223 658 0
1000000 -119 387 236 231 229 227 0
1000000 -120 533 230 0
1000000 -121 212 202 232 237 225 0
1000000 -122 233 401 0
1000000 -123 210 349 247 0
1000000 -124 248 243 241 234 238 0
1000000 -125 239 359 249 0
1000000 -126 255 644 253 240 0
1000000 -127 254 256 257 192 251 0
1000000 -128 576 250 252 0
1000000 -129 626 260 258 242 0
1000000 -130 263 193 0
1000000 -131 409 265 0
1000000 -132 266 558 0
1000000 -133 264 261 228 0
1000000 -134 172 0
1000000 -135 267 425 274 279 277 0
1000000 -136 208 0
1000000 -137 360 280 0
1000000 -138 646 0
1000000 -139 494 275 0
1000000 -140 283 288 555 0
1000000 -141 185 0
1000000 -142 289 268 442 0
1000000 -143 480 0
1000000 -144 294 305 302 276 281 0
1000000 -145 292 259 306 0
1000000 -146 293 501 285 0
1000000 -147 286 262 307 0
1000000 -148 314 287 303 317 295 308 284 0
1000000 -149 318 315 235 0
1000000 -150 290 311 278 0
1000000 -151 282 316 0
1000000 -152 309 375 312 0
1000000 -153 310 323 364 330 319 313 0
1000000 -154 324 332 473 320 0
1000000 -155 331 450 334 321 0
1000000 -156 296 0
1000000 -157 340 620 0
1000000 -158 336 217 0
1000000 -159 341 338 335 534 322 0
1000000 -160 342 339 325 333 0
1000000 -161 651 0
1000000 -162 426 0
1000000 -163 355 496 0
1000000 -164 388 357 346 0
1000000 -165 344 358 589 0
1000000 -166 348 271 0
1000000 -167 304 337 291 347 0
1000000 -168 345 343 594 356 0
1000000 659 866 0
1000000 660 865 0
1000000 661 883 0
1000000 662 881 0
1000000 663 880 0
1000000 664 926 0
1000000 665 885 0
1000000 666 881 0
1000000 667 924 0
1000000 668 920 0
1000000 669 878 0
1000000 670 913 0
1000000 671 885 0
1000000 672 889 0
1000000 673 876 0
1000000 674 888 0
1000000 675 895 0
1000000 676 876 0
1000000 677 876 0
1000000 678 886 0
1000000 679 907 0
1000000 680 918 0
1000000 681 865 0
1000000 682 872 0
1000000 683 903 0
1000000 684 897 0
1000000 685 866 0
1000000 686 868 0
1000000 687 919 0
1000000 688 906 0
1000000 689 887 0
1000000 690 917 0
1000000 691 887 0
1000000 692 885 0
1000000 693 926 0
1000000 694 881 0
1000000 695 896 0
1000000 696 875 0
1000000 697 905 0
1000000 698 890 0
1000000 699 899 0
1000000 700 902 0
1000000 701 869 0
1000000 702 863 0
1000000 703 903 0
1000000 704 911 0
1000000 705 863 0
1000000 706 878 0
1000000 707 917 0
1000000 708 884 0
1000000 709 871 0
1000000 710 920 0
1000000 711 910 0
1000000 712 873 0
1000000 713 898 0
1000000 714 893 0
1000000 715 907 0
1000000 716 862 0
1000000 717 882 0
1000000 718 905 0
1000000 719 917 0
1000000 720 926 0
1000000 721 900 0
1000000 722 870 0
1000000 723 861 0
1000000 724 872 0
1000000 725 862 0
1000000 726 894 0
1000000 727 868 0
1000000 728 893 0
1000000 729 903 0
1000000 730 913 0
1000000 731 905 0
1000000 732 912 0
1000000 733 865 0
1000000 734 904 0
1000000 735 860 0
1000000 736 916 0
1000000 737 922 0
1000000 738 901 0
1000000 739 923 0
1000000 740 922 0
1000000 741 904 0
1000000 742 863 0
1000000 743 868 0
1000000 744 895 0
1000000 745 884 0
1000000 746 925 0
1000000 747 923 0
1000000 748 924 0
1000000 749 870 0
1000000 750 892 0
1000000 751 899 0
1000000 752 902 0
1000000 753 878 0
1000000 754 922 0
1000000 755 915 0
1000000 756 862 0
1000000 757 925 0
1000000 758 914 0
1000000 759 920 0
1000000 760 895 0
1000000 761 870 0
1000000 762 897 0
1000000 763 874 0
1000000 764 915 0
1000000 765 907 0
1000000 766 914 0
1000000 767 892 0
1000000 768 898 0
1000000 769 875 0
1000000 770 899 0
1000000 771 896 0
1000000 772 912 0
1000000 773 880 0
1000000 774 875 0
1000000 775 896 0
1000000 776 909 0
1000000 777 882 0
1000000 778 898 0
1000000 779 921 0
1000000 780 918 0
1000000 781 901 0
1000000 782 883 0
1000000 783 894 0
1000000 784 915 0
1000000 785 924 0
1000000 786 874 0
1000000 787 919 0
1000000 788 866 0
1000000 789 906 0
1000000 790 882 0
1000000 791 890 0
1000000 792 912 0
1000000 793 889 0
1000000 794 874 0
1000000 795 901 0
1000000 796 869 0
1000000 797 890 0
1000000 798 873 0
1000000 799 888 0
1000000 800 925 0
1000000 801 892 0
1000000 802 904 0
1000000 803 886 0
1000000 804 900 0
1000000 805 888 0
1000000 806 886 0
1000000 807 867 0
1000000 808 923 0
1000000 809 887 0
1000000 810 900 0
1000000 811 869 0
1000000 812 879 0
1000000 813 880 0
1000000 814 877 0
1000000 815 860 0
1000000 816 908 0
1000000 817 884 0
1000000 818 902 0
1000000 819 879 0
1000000 820 860 0
1000000 821 921 0
1000000 822 893 0
1000000 823 909 0
1000000 824 911 0
1000000 825 916 0
1000000 826 911 0
1000000 827 879 0
1000000 828 889 0
1000000 829 871 0
1000000 830 918 0
1000000 831 913 0
1000000 832 916 0
1000000 833 873 0
1000000 834 871 0
1000000 835 919 0
1000000 836 861 0
1000000 837 872 0
1000000 838 908 0
1000000 839 906 0
1000000 840 891 0
1000000 841 908 0
1000000 842 914 0
1000000 843 861 0
1000000 844 894 0
1000000 845 909 0
1000000 846 921 0
1000000 847 864 0
1000000 848 910 0
1000000 849 883 0
1000000 850 877 0
1000000 851 897 0
1000000 852 864 0
1000000 853 877 0
1000000 854 867 0
1000000 855 910 0
1000000 856 864 0
1000000 857 867 0
1000000 858 891 0
1000000 859 891 0
1000000 -659 -866 0
1000000 -660 -865 0
1000000 -661 -883 0
1000000 -662 -881 0
1000000 -663 -880 0
1000000 -664 -926 0
1000000 -665 -885 0
1000000 -666 -881 0
1000000 -667 -924 0
1000000 -668 -920 0
1000000 -669 -878 0
1000000 -670 -913 0
1000000 -671 -885 0
1000000 -672 -889 0
1000000 -673 -876 0
1000000 -674 -888 0
1000000 -675 -895 0
1000000 -676 -876 0
1000000 -677 -876 0
1000000 -678 -886 0
1000000 -679 -907 0
1000000 -680 -918 0
1000000 -681 -865 0
1000000 -682 -872 0
1000000 -683 -903 0
1000000 -684 -897 0
1000000 -685 -866 0
1000000 -686 -868 0
1000000 -687 -919 0
1000000 -688 -906 0
1000000 -689 -887 0
1000000 -690 -917 0
1000000 -691 -887 0
1000000 -692 -885 0
1000000 -693 -926 0
1000000 -694 -881 0
1000000 -695 -896 0
1000000 -696 -875 0
1000000 -697 -905 0
1000000 -698 -890 0
1000000 -699 -899 0
1000000 -700 -902 0
1000000 -701 -869 0
1000000 -702 -863 0
1000000 -703 -903 0
1000000 -704 -911 0
1000000 -705 -863 0
1000000 -706 -878 0
1000000 -707 -917 0
1000000 -708 -884 0
1000000 -709 -871 0
1000000 -710 -920 0
1000000 -711 -910 0
1000000 -712 -873 0
1000000 -713 -898 0
1000000 -714 -893 0
1000000 -715 -907 0
1000000 -716 -862 0
1000000 -717 -882 0
1000000 -718 -905 0
1000000 -719 -917 0
1000000 -720 -926 0
1000000 -721 -900 0
1000000 -722 -870 0
1000000 -723 -861 0
1000000 -724 -872 0
1000000 -725 -862 0
1000000 -726 -894 0
1000000 -727 -868 0
1000000 -728 -893 0
1000000 -729 -903 0
1000000 -730 -913 0
1000000 -731 -905 0
1000000 -732 -912 0
1000000 -733 -865 0
1000000 -734 -904 0
1000000 -735 -860 0
1000000 -736 -916 0
1000000 -737 -922 0
1000000 -738 -901 0
1000000 -739 -923 0
1000000 -740 -922 0
1000000 -741 -904 0
1000000 -742 -863 0
1000000 -743 -868 0
1000000 -744 -895 0
1000000 -745 -884 0
1000000 -746 -925 0
1000000 -747 -923 0
1000000 -748 -924 0
1000000 -749 -870 0
1000000 -750 -892 0
1000000 -751 -899 0
1000000 -752 -902 0
1000000 -753 -878 0
1000000 -754 -922 0
1000000 -755 -915 0
1000000 -756 -862 0
1000000 -757 -925 0
1000000 -758 -914 0
1000000 -759 -920 0
1000000 -760 -895 0
1000000 -761 -870 0
1000000 -762 -897 0
1000000 -763 -874 0
1000000 -764 -915 0
1000000 -765 -907 0
1000000 -766 -914 0
1000000 -767 -892 0
1000000 -768 -898 0
1000000 -769 -875 0
1000000 -770 -899 0
1000000 -771 -896 0
1000000 -772 -912 0
1000000 -773 -880 0
1000000 -774 -875 0
1000000 -775 -896 0
1000000 -776 -909 0
1000000 -777 -882 0
1000000 -778 -898 0
1000000 -779 -921 0
1000000 -780 -918 0
1000000 -781 -901 0
1000000 -782 -883 0
1000000 -783 -894 0
1000000 -784 -915 0
1000000 -785 -924 0
1000000 -786 -874 0
1000000 -787 -919 0
1000000 -788 -866 0
1000000 -789 -906 0
1000000 -790 -882 0
1000000 -791 -890 0
1000000 -792 -912 0
1000000 -793 -889 0
1000000 -794 -874 0
1000000 -795 -901 0
1000000 -796 -869 0
1000000 -797 -890 0
1000000 -798 -873 0
1000000 -799 -888 0
1000000 -800 -925 0
1000000 -801 -892 0
1000000 -802 -904 0
1000000 -803 -886 0
1000000 -804 -900 0
1000000 -805 -888 0
1000000 -806 -886 0
1000000 -807 -867 0
1000000 -808 -923 0
1000000 -809 -887 0
1000000 -810 -900 0
1000000 -811 -869 0
1000000 -812 -879 0
1000000 -813 -880 0
1000000 -814 -877 0
1000000 -815 -860 0
1000000 -816 -908 0
1000000 -817 -884 0
1000000 -818 -902 0
1000000 -819 -879 0
1000000 -820 -860 0
1000000 -821 -921 0
1000000 -822 -893 0
1000000 -823 -909 0
1000000 -824 -911 0
1000000 -825 -916 0
1000000 -826 -911 0
1000000 -827 -879 0
1000000 -828 -889 0
1000000 -829 -871 0
1000000 -830 -918 0
1000000 -831 -913 0
1000000 -832 -916 0
1000000 -833 -873 0
1000000 -834 -871 0
1000000 -835 -919 0
1000000 -836 -861 0
1000000 -837 -872 0
1000000 -838 -908 0
1000000 -839 -906 0
1000000 -840 -891 0
1000000 -841 -908 0
1000000 -842 -914 0
1000000 -843 -861 0
1000000 -844 -894 0
1000000 -845 -909 0
1000000 -846 -921 0
1000000 -847 -864 0
1000000 -848 -910 0
1000000 -849 -883 0
1000000 -850 -877 0
1000000 -851 -897 0
1000000 -852 -864 0
1000000 -853 -877 0
1000000 -854 -867 0
1000000 -855 -910 0
1000000 -856 -864 0
1000000 -857 -867 0
1000000 -858 -891 0
1000000 -859 -891 0
10900 -860 0
12900 -861 0
7500 -862 0
11000 -863 0
14500 -864 0
6700 -865 0
6700 -866 0
10900 -867 0
7500 -868 0
12900 -869 0
10900 -870 0
11000 -871 0
12800 -872 0
6700 -873 0
11400 -874 0
7500 -875 0
12800 -876 0
14000 -877 0
11400 -878 0
11000 -879 0
6700 -880 0
12800 -881 0
7500 -882 0
6700 -883 0
11900 -884 0
9600 -885 0
7500 -886 0
10900 -887 0
9600 -888 0
9800 -889 0
11000 -890 0
14500 -891 0
11000 -892 0
11000 -893 0
14500 -894 0
11400 -895 0
14500 -896 0
12800 -897 0
11900 -898 0
12900 -899 0
11000 -900 0
11000 -901 0
14500 -902 0
12800 -903 0
11000 -904 0
12900 -905 0
7500 -906 0
12800 -907 0
7500 -908 0
7500 -909 0
10900 -910 0
14500 -911 0
12800 -912 0
11400 -913 0
10900 -914 0
12800 -915 0
12900 -916 0
12900 -917 0
9600 -918 0
6700 -919 0
9800 -920 0
10900 -921 0
7500 -922 0
14500 -923 0
9800 -924 0
7500 -925 0
11400 -926 0
2100 659 0
2800 660 0
3500 661 0
2500 662 0
3800 663 0
2100 664 0
2100 665 0
3500 666 0
2100 667 0
2800 668 0
3800 669 0
3800 670 0
2100 671 0
3500 672 0
2800 673 0
2500 674 0
2800 675 0
2400 676 0
3000 677 0
1900 678 0
2100 679 0
3500 680 0
2800 681 0
2500 682 0
2800 683 0
2100 684 0
2400 685 0
2200 686 0
2800 687 0
2200 688 0
2200 689 0
2200 690 0
3300 691 0
3300 692 0
2400 693 0
2400 694 0
2400 695 0
1900 696 0
2400 697 0
1900 698 0
2200 699 0
1900 700 0
2400 701 0
2200 702 0
2400 703 0
1700 704 0
2400 705 0
2200 706 0
1900 707 0
1700 708 0
2200 709 0
2200 710 0
2700 711 0
3300 712 0
3000 713 0
2700 714 0
3000 715 0
2700 716 0
1900 717 0
2200 718 0
3300 719 0
3000 720 0
1900 721 0
1900 722 0
1900 723 0
2200 724 0
3000 725 0
3300 726 0
1900 727 0
2400 728 0
3000 729 0
1900 730 0
3000 731 0
1900 732 0
2200 733 0
2200 734 0
2200 735 0
1900 736 0
2200 737 0
1900 738 0
3000 739 0
2200 740 0
2400 741 0
2700 742 0
3300 743 0
1900 744 0
3000 745 0
1700 746 0
1900 747 0
2200 748 0
3000 749 0
2400 750 0
2000 751 0
2700 752 0
3500 753 0
3300 754 0
3000 755 0
2000 756 0
3000 757 0
3000 758 0
2000 759 0
2200 760 0
3300 761 0
3000 762 0
3000 763 0
2400 764 0
2400 765 0
3300 766 0
2400 767 0
3000 768 0
2200 769 0
3000 770 0
2400 771 0
3500 772 0
2400 773 0
2000 774 0
2200 775 0
2000 776 0
1700 777 0
1700 778 0
2200 779 0
2200 780 0
2700 781 0
2200 782 0
1700 783 0
3500 784 0
2100 785 0
1700 786 0
2400 787 0
3800 788 0
2200 789 0
1900 790 0
2200 791 0
3000 792 0
2000 793 0
2500 794 0
3000 795 0
3000 796 0
1700 797 0
2800 798 0
2000 799 0
1700 800 0
3000 801 0
1700 802 0
2200 803 0
2200 804 0
1700 805 0
1700 806 0
2000 807 0
2200 808 0
3000 809 0
2000 810 0
3000 811 0
2400 812 0
2200 813 0
2200 814 0
2200 815 0
2200 816 0
2200 817 0
3000 818 0
1900 819 0
3000 820 0
1700 821 0
2000 822 0
3300 823 0
2700 824 0
1700 825 0
3300 826 0
1700 827 0
2500 828 0
2400 829 0
2700 830 0
2200 831 0
2200 832 0
2200 833 0
2200 834 0
2400 835 0
2200 836 0
2200 837 0
1900 838 0
1900 839 0
3000 840 0
3000 841 0
1900 842 0
2200 843 0
3300 844 0
3000 845 0
2200 846 0
1700 847 0
3000 848 0
2200 849 0
2500 850 0
3000 851 0
1900 852 0
2000 853 0
2700 854 0
2400 855 0
2000 856 0
2200 857 0
2200 858 0
2400 859 0
17760 -169 0
6420 -175 0
9472 177 -181 0
11840 -177 181 0
17523 -177 -181 0
25480 -417 0
1785 418 -457 0
9520 -418 457 0
9877 -418 -457 0
13088 377 -458 0
20450 -377 458 0
26994 -377 -458 0
8925 378 419 -459 0
5950 378 -419 459 0
10412 378 -419 -459 0
5355 -378 419 459 0
10264 -378 419 -459 0
8627 -378 -419 459 0
11082 -378 -419 -459 0
14840 -530 0
14840 531 -603 0
6360 -531 603 0
18974 -531 -603 0
6516 631 -170 0
16290 -631 170 0
19874 -631 -170 0
8925 171 178 373 -525 0
3360 171 178 -373 525 0
9429 171 178 -373 -525 0
3990 171 -178 373 525 0
9523 171 -178 373 -525 0
6073 171 -178 -373 525 0
9836 171 -178 -373 -525 0
9975 -171 178 373 525 0
10421 -171 178 373 -525 0
10143 -171 178 -373 525 0
10446 -171 178 -373 -525 0
10174 -171 -178 373 525 0
10451 -171 -178 373 -525 0
10279 -171 -178 -373 525 0
10467 -171 -178 -373 -525 0
10688 526 215 -632 0
18370 526 -215 632 0
23180 526 -215 -632 0
8350 -526 215 632 0
16366 -526 215 -632 0
22128 -526 -215 632 0
25735 -526 -215 -632 0
8350 493 179 244 -184 0
26720 493 179 -244 184 0
28390 493 179 -244 -184 0
4008 493 -179 244 184 0
11356 493 -179 244 -184 0
27522 493 -179 -244 184 0
28991 493 -179 -244 -184 0
23380 -493 179 244 184 0
25885 -493 179 244 -184 0
31396 -493 179 -244 184 0
31897 -493 179 -244 -184 0
24582 -493 -179 244 184 0
26787 -493 -179 244 -184 0
31636 -493 -179 -244 184 0
32077 -493 -179 -244 -184 0
16264 216 564 173 -269 0
4280 216 564 -173 269 0
18918 216 564 -173 -269 0
14980 216 -564 173 269 0
25552 216 -564 173 -269 0
17762 216 -564 -173 269 0
27276 216 -564 -173 -269 0
856 -216 564 173 269 0
16795 -216 564 173 -269 0
5050 -216 564 -173 269 0
19395 -216 564 -173 -269 0
15536 -216 -564 173 269 0
25897 -216 -564 173 -269 0
18263 -216 -564 -173 269 0
27587 -216 -564 -173 -269 0
14896 374 270 180 245 -495 0
784 374 270 180 -245 495 0
15382 374 270 180 -245 -495 0
17640 374 270 -180 245 495 0
25833 374 270 -180 245 -495 0
18071 374 270 -180 -245 495 0
26100 374 270 -180 -245 -495 0
5880 374 -270 180 245 495 0
18542 374 -270 180 245 -495 0
6546 374 -270 180 -245 495 0
18955 374 -270 180 -245 -495 0
20874 374 -270 -180 245 495 0
27838 374 -270 -180 245 -495 0
21241 374 -270 -180 -245 495 0
28065 374 -270 -180 -245 -495 0
1960 -374 270 180 245 495 0
16111 -374 270 180 245 -495 0
2705 -374 270 180 -245 495 0
16573 -374 270 180 -245 -495 0
18718 -374 270 -180 245 495 0
26501 -374 270 -180 245 -495 0
19128 -374 270 -180 -245 495 0
26755 -374 270 -180 -245 -495 0
7546 -374 -270 180 245 495 0
19575 -374 -270 180 245 -495 0
8179 -374 -270 180 -245 495 0
19967 -374 -270 180 -245 -495 0
21790 -374 -270 -180 245 495 0
28406 -374 -270 -180 245 -495 0
22138 -374 -270 -180 -245 495 0
28622 -374 -270 -180 -245 -495 0
1050 -174 0
8980 -600 0
11552 361 326 -601 0
722 361 -326 601 0
12043 361 -326 -601 0
3610 -361 326 601 0
14007 -361 326 -601 0
4260 -361 -326 601 0
14449 -361 -326 -601 0
14700 -362 0
24290 350 -176 0
6940 -350 176 0
26372 -350 -176 0
4760 186 297 -365 0
238 186 -297 365 0
4903 186 -297 -365 0
4522 -186 297 365 0
7473 -186 297 -365 0
4670 -186 -297 365 0
7562 -186 -297 -365 0
23520 366 379 -351 0
37240 366 -379 351 0
38416 366 -379 -351 0
23520 -366 379 351 0
32928 -366 379 -351 0
38416 -366 -379 351 0
38886 -366 -379 -351 0
22150 -272 0
25480 187 380 367 381 527 -565 0
19600 187 380 367 381 -527 565 0
32340 187 380 367 381 -527 -565 0
13720 187 380 367 -381 527 565 0
30282 187 380 367 -381 527 -565 0
26460 187 380 367 -381 -527 565 0
34741 187 380 367 -381 -527 -565 0
14896 187 380 -367 381 527 565 0
30694 187 380 -367 381 527 -565 0
27048 187 380 -367 381 -527 565 0
34947 187 380 -367 381 -527 -565 0
23402 187 380 -367 -381 527 565 0
33671 187 380 -367 -381 527 -565 0
31301 187 380 -367 -381 -527 565 0
36435 187 380 -367 -381 -527 -565 0
37240 187 -380 367 381 527 565 0
38514 187 -380 367 381 527 -565 0
38220 187 -380 367 381 -527 565 0
38857 187 -380 367 381 -527 -565 0
37926 187 -380 367 -381 527 565 0
38754 187 -380 367 -381 527 -565 0
38563 187 -380 367 -381 -527 565 0
38977 187 -380 367 -381 -527 -565 0
37985 187 -380 -367 381 527 565 0
38775 187 -380 -367 381 527 -565 0
38592 187 -380 -367 381 -527 565 0
38987 187 -380 -367 381 -527 -565 0
38410 187 -380 -367 -381 527 565 0
38924 187 -380 -367 -381 527 -565 0
38805 187 -380 -367 -381 -527 565 0
39062 187 -380 -367 -381 -527 -565 0
3920 -187 380 367 381 527 565 0
26852 -187 380 367 381 527 -565 0
21560 -187 380 367 381 -527 565 0
33026 -187 380 367 381 -527 -565 0
16268 -187 380 367 -381 527 565 0
31174 -187 380 367 -381 527 -565 0
27734 -187 380 367 -381 -527 565 0
35187 -187 380 367 -381 -527 -565 0
17326 -187 380 -367 381 527 565 0
31544 -187 380 -367 381 527 -565 0
28263 -187 380 -367 381 -527 565 0
35372 -187 380 -367 381 -527 -565 0
24982 -187 380 -367 -381 527 565 0
34224 -187 380 -367 -381 527 -565 0
32091 -187 380 -367 -381 -527 565 0
36712 -187 380 -367 -381 -527 -565 0
37436 -187 -380 367 381 527 565 0
38583 -187 -380 367 381 527 -565 0
38318 -187 -380 367 381 -527 565 0
38891 -187 -380 367 381 -527 -565 0
38053 -187 -380 367 -381 527 565 0
38799 -187 -380 367 -381 527 -565 0
38627 -187 -380 367 -381 -527 565 0
38999 -187 -380 367 -381 -527 -565 0
38106 -187 -380 -367 381 527 565 0
38817 -187 -380 -367 381 527 -565 0
38653 -187 -380 -367 381 -527 565 0
39009 -187 -380 -367 381 -527 -565 0
38489 -187 -380 -367 -381 527 565 0
38951 -187 -380 -367 -381 527 -565 0
38845 -187 -380 -367 -381 -527 565 0
39076 -187 -380 -367 -381 -527 -565 0
19320 394 566 369 382 -298 0
45885 394 566 369 -382 298 0
46851 394 566 369 -382 -298 0
4830 394 566 -369 382 298 0
22218 394 566 -369 382 -298 0
46126 394 566 -369 -382 298 0
46996 394 566 -369 -382 -298 0
31395 394 -566 369 382 298 0
38157 394 -566 369 382 -298 0
47455 394 -566 369 -382 298 0
47793 394 -566 369 -382 -298 0
33086 394 -566 -369 382 298 0
39171 394 -566 -369 382 -298 0
47539 394 -566 -369 -382 298 0
47844 394 -566 -369 -382 -298 0
966 -394 566 369 382 298 0
19900 -394 566 369 382 -298 0
45933 -394 566 369 -382 298 0
46880 -394 566 369 -382 -298 0
5699 -394 566 -369 382 298 0
22740 -394 566 -369 382 -298 0
46170 -394 566 -369 -382 298 0
47022 -394 566 -369 -382 -298 0
31733 -394 -566 369 382 298 0
38360 -394 -566 369 382 -298 0
47472 -394 -566 369 -382 298 0
47803 -394 -566 369 -382 -298 0
33390 -394 -566 -369 382 298 0
39354 -394 -566 -369 382 -298 0
47554 -394 -566 -369 -382 298 0
47853 -394 -566 -369 -382 -298 0
32720 370 633 398 352 567 -188 0
4090 370 633 398 352 -567 188 0
33538 370 633 398 352 -567 -188 0
30675 370 633 398 -352 567 188 0
38855 370 633 398 -352 567 -188 0
31698 370 633 398 -352 -567 188 0
39059 370 633 398 -352 -567 -188 0
8180 370 633 -398 352 567 188 0
34356 370 633 -398 352 567 -188 0
11452 370 633 -398 352 -567 188 0
35010 370 633 -398 352 -567 -188 0
32720 370 633 -398 -352 567 188 0
39264 370 633 -398 -352 567 -188 0
33538 370 633 -398 -352 -567 188 0
39428 370 633 -398 -352 -567 -188 0
10225 370 -633 398 352 567 188 0
34765 370 -633 398 352 567 -188 0
13292 370 -633 398 352 -567 188 0
35378 370 -633 398 352 -567 -188 0
33231 370 -633 398 -352 567 188 0
39366 370 -633 398 -352 567 -188 0
33998 370 -633 398 -352 -567 188 0
39520 370 -633 398 -352 -567 -188 0
16360 370 -633 -398 352 567 188 0
35992 370 -633 -398 352 567 -188 0
18814 370 -633 -398 352 -567 188 0
36483 370 -633 -398 352 -567 -188 0
34765 370 -633 -398 -352 567 188 0
39673 370 -633 -398 -352 567 -188 0
35378 370 -633 -398 -352 -567 188 0
39796 370 -633 -398 -352 -567 -188 0
13088 -370 633 398 352 567 188 0
35338 -370 633 398 352 567 -188 0
15869 -370 633 398 352 -567 188 0
35894 -370 633 398 352 -567 -188 0
33947 -370 633 398 -352 567 188 0
39509 -370 633 398 -352 567 -188 0
34642 -370 633 398 -352 -567 188 0
39648 -370 633 398 -352 -567 -188 0
18650 -370 633 -398 352 567 188 0
36450 -370 633 -398 352 567 -188 0
20875 -370 633 -398 352 -567 188 0
36895 -370 633 -398 352 -567 -188 0
35338 -370 633 -398 -352 567 188 0
39788 -370 633 -398 -352 567 -188 0
35894 -370 633 -398 -352 -567 188 0
39899 -370 633 -398 -352 -567 -188 0
20041 -370 -633 398 352 567 188 0
36728 -370 -633 398 352 567 -188 0
22127 -370 -633 398 352 -567 188 0
37145 -370 -633 398 352 -567 -188 0
35685 -370 -633 398 -352 567 188 0
39857 -370 -633 398 -352 567 -188 0
36207 -370 -633 398 -352 -567 188 0
39961 -370 -633 398 -352 -567 -188 0
24213 -370 -633 -398 352 567 188 0
37563 -370 -633 -398 352 567 -188 0
25882 -370 -633 -398 352 -567 188 0
37896 -370 -633 -398 352 -567 -188 0
36728 -370 -633 -398 -352 567 188 0
40066 -370 -633 -398 -352 567 -188 0
37145 -370 -633 -398 -352 -567 188 0
40149 -370 -633 -398 -352 -567 -188 0
818 363 -353 0
34765 -363 353 0
34888 -363 -353 0
5355 327 218 402 -404 0
1190 327 218 -402 404 0
6009 327 218 -402 -404 0
4165 327 -218 402 404 0
7646 327 -218 402 -404 0
4938 327 -218 -402 404 0
8071 327 -218 -402 -404 0
3570 -327 218 402 404 0
7319 -327 218 402 -404 0
4403 -327 218 -402 404 0
7777 -327 218 -402 -404 0
6486 -327 -218 402 404 0
8922 -327 -218 402 -404 0
7027 -327 -218 -402 404 0
9220 -327 -218 -402 -404 0
7840 405 -299 0
17640 -405 299 0
21952 -405 -299 0
13290 389 412 -568 0
6645 389 -412 568 0
17942 389 -412 -568 0
17720 -389 412 568 0
25694 -389 412 -568 0
21707 -389 -412 568 0
28485 -389 -412 -568 0
31730 415 182 399 -413 0
5010 415 182 -399 413 0
31981 415 182 -399 -413 0
21710 415 -182 399 413 0
32815 415 -182 399 -413 0
23463 415 -182 -399 413 0
32903 415 -182 -399 -413 0
31730 -415 182 399 413 0
33316 -415 182 399 -413 0
31981 -415 182 -399 413 0
33329 -415 182 -399 -413 0
32815 -415 -182 399 413 0
33371 -415 -182 399 -413 0
32903 -415 -182 -399 413 0
33375 -415 -182 -399 -413 0
31010 410 390 328 427 -395 0
11075 410 390 328 -427 395 0
34332 410 390 328 -427 -395 0
28795 410 390 -328 427 395 0
39649 410 390 -328 427 -395 0
32671 410 390 -328 -427 395 0
40811 410 390 -328 -427 -395 0
17720 410 -390 328 427 395 0
36326 410 -390 328 427 -395 0
24365 410 -390 328 -427 395 0
38319 410 -390 328 -427 -395 0
34997 410 -390 -328 427 395 0
41509 410 -390 -328 427 -395 0
37323 410 -390 -328 -427 395 0
42207 410 -390 -328 -427 -395 0
42085 -410 390 328 427 395 0
43636 -410 390 328 427 -395 0
42639 -410 390 328 -427 395 0
43802 -410 390 328 -427 -395 0
43525 -410 390 -328 427 395 0
44067 -410 390 -328 427 -395 0
43719 -410 390 -328 -427 395 0
44126 -410 390 -328 -427 -395 0
42971 -410 -390 328 427 395 0
43901 -410 -390 328 427 -395 0
43303 -410 -390 328 -427 395 0
44001 -410 -390 328 -427 -395 0
43835 -410 -390 -328 427 395 0
44160 -410 -390 -328 427 -395 0
43951 -410 -390 -328 -427 395 0
44195 -410 -390 -328 -427 -395 0
6498 -391 0
4430 433 429 -383 0
31010 433 -429 383 0
32339 433 -429 -383 0
6645 -433 429 383 0
10410 -433 429 -383 0
33004 -433 -429 383 0
34133 -433 -429 -383 0
28795 420 430 -246 0
6645 420 -430 246 0
31121 420 -430 -246 0
13290 -420 430 246 0
33446 -420 430 -246 0
17942 -420 -430 246 0
35075 -420 -430 -246 0
10460 421 438 -329 0
16736 421 -438 329 0
23849 421 -438 -329 0
41840 -421 438 329 0
43932 -421 438 -329 0
45187 -421 -438 329 0
46610 -421 -438 -329 0
668 443 376 -403 0
16700 443 -376 403 0
17034 443 -376 -403 0
31730 -443 376 403 0
31763 -443 376 -403 0
32565 -443 -376 403 0
32582 -443 -376 -403 0
5316 602 444 411 -434 0
6645 602 444 -411 434 0
11164 602 444 -411 -434 0
24365 602 -444 411 434 0
26757 602 -444 411 -434 0
27355 602 -444 -411 434 0
29389 602 -444 -411 -434 0
22150 -602 444 411 434 0
24808 -602 444 411 -434 0
25472 -602 444 -411 434 0
27732 -602 444 -411 -434 0
34332 -602 -444 411 434 0
35529 -602 -444 411 -434 0
35828 -602 -444 -411 434 0
36844 -602 -444 -411 -434 0
15690 -384 0
31800 528 447 -445 0
848 528 -447 445 0
32012 528 -447 -445 0
38160 -528 447 445 0
41340 -528 447 -445 0
38245 -528 -447 445 0
41361 -528 -447 -445 0
39865 454 -396 0
7035 -454 396 0
40920 -454 -396 0
10600 448 464 446 -455 0
29680 448 464 -446 455 0
32860 448 464 -446 -455 0
31800 448 -464 446 455 0
34450 448 -464 446 -455 0
39220 448 -464 -446 455 0
40015 448 -464 -446 -455 0
7632 -448 464 446 455 0
16324 -448 464 446 -455 0
31970 -448 464 -446 455 0
34577 -448 464 -446 -455 0
33708 -448 -464 446 455 0
35881 -448 -464 446 -455 0
39792 -448 -464 -446 455 0
40444 -448 -464 -446 -455 0
12255 416 451 400 -428 0
8385 416 451 -400 428 0
12674 416 451 -400 -428 0
9030 416 -451 400 428 0
12706 416 -451 400 -428 0
11545 416 -451 -400 428 0
12832 416 -451 -400 -428 0
5160 -416 451 400 428 0
12513 -416 451 400 -428 0
10191 -416 451 -400 428 0
12765 -416 451 -400 -428 0
10578 -416 -451 400 428 0
12784 -416 -451 400 -428 0
12087 -416 -451 -400 428 0
12859 -416 -451 -400 -428 0
2448 397 431 -469 0
1360 397 -431 469 0
3563 397 -431 -469 0
9520 -397 431 469 0
10254 -397 431 -469 0
9928 -397 -431 469 0
10589 -397 -431 -469 0
9520 462 -439 0
7480 -462 439 0
11764 -462 -439 0
20450 474 354 470 465 -463 0
13088 474 354 470 -465 463 0
26994 474 354 470 -465 -463 0
818 474 354 -470 465 463 0
20859 474 354 -470 465 -463 0
13644 474 354 -470 -465 463 0
27272 474 354 -470 -465 -463 0
2045 474 -354 470 465 463 0
21473 474 -354 470 465 -463 0
14479 474 -354 470 -465 463 0
27689 474 -354 470 -465 -463 0
2822 474 -354 -470 465 463 0
21861 474 -354 -470 465 -463 0
15007 474 -354 -470 -465 463 0
27954 474 -354 -470 -465 -463 0
38855 -474 354 470 465 463 0
39877 -474 354 470 465 -463 0
39509 -474 354 470 -465 463 0
40205 -474 354 470 -465 -463 0
38896 -474 354 -470 465 463 0
39898 -474 354 -470 465 -463 0
39537 -474 354 -470 -465 463 0
40219 -474 354 -470 -465 -463 0
38957 -474 -354 470 465 463 0
39929 -474 -354 470 465 -463 0
39579 -474 -354 470 -465 463 0
40239 -474 -354 470 -465 -463 0
38996 -474 -354 -470 465 463 0
39948 -474 -354 -470 465 -463 0
39605 -474 -354 -470 -465 463 0
40253 -474 -354 -470 -465 -463 0
20920 529 452 -481 0
41840 529 -452 481 0
46024 529 -452 -481 0
31380 -529 452 481 0
39748 -529 452 -481 0
48116 -529 -452 481 0
49790 -529 -452 -481 0
23535 482 466 -475 0
23535 482 -466 475 0
36479 482 -466 -475 0
20920 -482 466 475 0
35041 -482 466 -475 0
35041 -482 -466 475 0
42808 -482 -466 -475 0
15030 -300 0
31800 476 449 -440 0
31800 476 -449 440 0
39750 476 -449 -440 0
14840 -476 449 440 0
35510 -476 449 -440 0
35510 -476 -449 440 0
40677 -476 -449 -440 0
4332 467 385 -490 0
16245 467 -385 490 0
18628 467 -385 -490 0
18050 -467 385 490 0
20216 -467 385 -490 0
26172 -467 -385 490 0
27364 -467 -385 -490 0
33225 487 468 -273 0
33225 487 -468 273 0
41531 487 -468 -273 0
6645 -487 468 273 0
34886 -487 468 -273 0
34886 -487 -468 273 0
41947 -487 -468 -273 0
10880 -422 0
47005 484 477 -498 0
21014 484 -477 498 0
50157 484 -477 -498 0
41475 -484 477 498 0
53226 -484 477 -498 0
46728 -484 -477 498 0
54014 -484 -477 -498 0
5316 502 -569 0
886 -502 569 0
6096 -502 -569 0
27075 491 -506 0
30685 -491 506 0
34746 -491 -506 0
10965 406 492 -499 0
1548 406 -492 499 0
11197 406 -492 -499 0
5805 -406 492 499 0
11836 -406 492 -499 0
6656 -406 -492 499 0
11963 -406 -492 -499 0
15715 453 -515 0
42655 -453 515 0
43441 -453 -515 0
21660 392 478 -485 0
23465 392 -478 485 0
31046 392 -478 -485 0
11552 -392 478 485 0
26281 -392 478 -485 0
27508 -392 -478 485 0
32663 -392 -478 -485 0
6120 504 -471 0
5168 -504 471 0
8962 -504 -471 0
2765 488 508 511 505 -507 0
9954 488 508 511 -505 507 0
12221 488 508 511 -505 -507 0
19355 488 508 -511 505 507 0
21152 488 508 -511 505 -507 0
25825 488 508 -511 -505 507 0
27299 488 508 -511 -505 -507 0
24885 488 -508 511 505 507 0
26406 488 -508 511 505 -507 0
30360 488 -508 511 -505 507 0
31607 488 -508 511 -505 -507 0
35530 488 -508 -511 505 507 0
36519 488 -508 -511 505 -507 0
39089 488 -508 -511 -505 507 0
39899 488 -508 -511 -505 -507 0
27650 -488 508 511 505 507 0
29032 -488 508 511 505 -507 0
32627 -488 508 511 -505 507 0
33761 -488 508 511 -505 -507 0
37328 -488 508 -511 505 507 0
38226 -488 508 -511 505 -507 0
40563 -488 508 -511 -505 507 0
41299 -488 508 -511 -505 -507 0
40093 -488 -508 511 505 507 0
40853 -488 -508 511 505 -507 0
42830 -488 -508 511 -505 507 0
43453 -488 -508 511 -505 -507 0
45415 -488 -508 -511 505 507 0
45909 -488 -508 -511 505 -507 0
47194 -488 -508 -511 -505 507 0
47600 -488 -508 -511 -505 -507 0
9550 519 516 521 368 -523 0
1910 519 516 521 -368 523 0
10983 519 516 521 -368 -523 0
6876 519 516 -521 368 523 0
14707 519 516 -521 368 -523 0
8442 519 516 -521 -368 523 0
15882 519 516 -521 -368 -523 0
17190 519 -516 521 368 523 0
22442 519 -516 521 368 -523 0
18241 519 -516 521 -368 523 0
23230 519 -516 521 -368 -523 0
20972 519 -516 -521 368 523 0
25279 519 -516 -521 368 -523 0
21833 519 -516 -521 -368 523 0
25925 519 -516 -521 -368 -523 0
7640 -519 516 521 368 523 0
15280 -519 516 521 368 -523 0
9168 -519 516 521 -368 523 0
16426 -519 516 521 -368 -523 0
13141 -519 516 -521 368 523 0
19406 -519 516 -521 368 -523 0
14394 -519 516 -521 -368 523 0
20345 -519 516 -521 -368 -523 0
21392 -519 -516 521 368 523 0
25594 -519 -516 521 368 -523 0
22232 -519 -516 521 -368 523 0
26224 -519 -516 521 -368 -523 0
24417 -519 -516 -521 368 523 0
27863 -519 -516 -521 368 -523 0
25107 -519 -516 -521 -368 523 0
28380 -519 -516 -521 -368 -523 0
7035 517 512 520 -535 0
39865 517 512 -520 535 0
40920 517 512 -520 -535 0
7035 517 -512 520 535 0
13015 517 -512 520 -535 0
40920 517 -512 -520 535 0
41817 517 -512 -520 -535 0
39865 -517 512 520 535 0
40920 -517 512 520 -535 0
45845 -517 512 -520 535 0
46003 -517 512 -520 -535 0
40920 -517 -512 520 535 0
41817 -517 -512 520 -535 0
46003 -517 -512 -520 535 0
46138 -517 -512 -520 -535 0
7035 536 541 503 -423 0
14070 536 541 -503 423 0
18995 536 541 -503 -423 0
28140 536 -541 503 423 0
30954 536 -541 503 -423 0
33768 536 -541 -503 423 0
35738 536 -541 -503 -423 0
8442 -536 541 503 423 0
14211 -536 541 503 -423 0
19979 -536 541 -503 423 0
24017 -536 541 -503 -423 0
31517 -536 -541 503 423 0
33824 -536 -541 503 -423 0
36132 -536 -541 -503 423 0
37747 -536 -541 -503 -423 0
28140 544 538 -435 0
11725 544 -538 435 0
32830 544 -538 -435 0
37520 -544 538 435 0
43148 -544 538 -435 0
39865 -544 -538 435 0
44086 -544 -538 -435 0
36750 509 479 -522 0
15680 509 -479 522 0
40670 509 -479 -522 0
26950 -509 479 522 0
43488 -509 479 -522 0
34006 -509 -479 522 0
45251 -509 -479 -522 0
7974 497 524 -552 0
14176 497 -524 552 0
19598 497 -524 -552 0
15505 -497 524 552 0
20688 -497 524 -552 0
24719 -497 -524 552 0
28244 -497 -524 -552 0
25795 539 513 -553 0
14070 539 -513 553 0
32127 539 -513 -553 0
30485 -539 513 553 0
39513 -539 513 -553 0
35410 -539 -513 553 0
41729 -539 -513 -553 0
22120 456 556 -559 0
52535 456 -556 559 0
53641 456 -556 -559 0
6636 -456 556 559 0
26102 -456 556 -559 0
52867 -456 -556 559 0
53840 -456 -556 -559 0
9550 500 486 -548 0
11460 500 -486 548 0
18145 500 -486 -548 0
26740 -500 486 548 0
29605 -500 486 -548 0
30178 -500 -486 548 0
32184 -500 -486 -548 0
9954 436 -557 0
8295 -436 557 0
16756 -436 -557 0
30485 554 -545 0
35175 -554 545 0
42796 -554 -545 0
49685 546 570 -414 0
7845 546 -570 414 0
50077 546 -570 -414 0
10460 -546 570 414 0
50208 -546 570 -414 0
16736 -546 -570 414 0
50522 -546 -570 -414 0
12692 561 571 -301 0
28390 561 -571 301 0
30294 561 -571 -301 0
28390 -561 571 301 0
30294 -561 571 -301 0
32649 -561 -571 301 0
32934 -561 -571 -301 0
32490 560 582 573 562 547 -407 0
28880 560 582 573 562 -547 407 0
35378 560 582 573 562 -547 -407 0
1805 560 582 573 -562 547 407 0
32670 560 582 573 -562 547 -407 0
29241 560 582 573 -562 -547 407 0
35414 560 582 573 -562 -547 -407 0
34295 560 582 -573 562 547 407 0
35919 560 582 -573 562 547 -407 0
35739 560 582 -573 562 -547 407 0
36064 560 582 -573 562 -547 -407 0
34385 560 582 -573 -562 547 407 0
35929 560 582 -573 -562 547 -407 0
35757 560 582 -573 -562 -547 407 0
36066 560 582 -573 -562 -547 -407 0
23465 560 -582 573 562 547 407 0
34837 560 -582 573 562 547 -407 0
33573 560 -582 573 562 -547 407 0
35847 560 -582 573 562 -547 -407 0
24097 560 -582 573 -562 547 407 0
34900 560 -582 573 -562 547 -407 0
33699 560 -582 573 -562 -547 407 0
35860 560 -582 573 -562 -547 -407 0
35468 560 -582 -573 562 547 407 0
36037 560 -582 -573 562 547 -407 0
35974 560 -582 -573 562 -547 407 0
36087 560 -582 -573 562 -547 -407 0
35500 560 -582 -573 -562 547 407 0
36040 560 -582 -573 -562 547 -407 0
35980 560 -582 -573 -562 -547 407 0
36088 560 -582 -573 -562 -547 -407 0
34295 -560 582 573 562 547 407 0
35919 -560 582 573 562 547 -407 0
35739 -560 582 573 562 -547 407 0
36064 -560 582 573 562 -547 -407 0
34385 -560 582 573 -562 547 407 0
35929 -560 582 573 -562 547 -407 0
35757 -560 582 573 -562 -547 407 0
36066 -560 582 573 -562 -547 -407 0
36010 -560 582 -573 562 547 407 0
36091 -560 582 -573 562 547 -407 0
36082 -560 582 -573 562 -547 407 0
36098 -560 582 -573 562 -547 -407 0
36014 -560 582 -573 -562 547 407 0
36091 -560 582 -573 -562 547 -407 0
36083 -560 582 -573 -562 -547 407 0
36098 -560 582 -573 -562 -547 -407 0
35468 -560 -582 573 562 547 407 0
36037 -560 -582 573 562 547 -407 0
35974 -560 -582 573 562 -547 407 0
36087 -560 -582 573 562 -547 -407 0
35500 -560 -582 573 -562 547 407 0
36040 -560 -582 573 -562 547 -407 0
35980 -560 -582 573 -562 -547 407 0
36088 -560 -582 573 -562 -547 -407 0
36068 -560 -582 -573 562 547 407 0
36097 -560 -582 -573 562 547 -407 0
36094 -560 -582 -573 562 -547 407 0
36099 -560 -582 -573 562 -547 -407 0
36070 -560 -582 -573 -562 547 407 0
36097 -560 -582 -573 -562 547 -407 0
36094 -560 -582 -573 -562 -547 407 0
36099 -560 -582 -573 -562 -547 -407 0
19874 542 574 489 -583 0
20920 542 574 -489 583 0
32844 542 574 -489 -583 0
36610 542 -574 489 583 0
42572 542 -574 489 -583 0
42886 542 -574 -489 583 0
46463 542 -574 -489 -583 0
18305 -542 574 489 583 0
31223 -542 574 489 -583 0
31903 -542 574 -489 583 0
39654 -542 574 -489 -583 0
42101 -542 -574 489 583 0
45977 -542 -574 489 -583 0
46181 -542 -574 -489 583 0
48506 -542 -574 -489 -583 0
44240 584 -543 0
6636 -584 543 0
45567 -584 -543 0
938 586 -432 0
17822 -586 432 0
18404 -586 -432 0
12224 587 -590 0
30560 -587 590 0
33005 -587 -590 0
39865 597 -575 0
32830 -597 575 0
44789 -597 -575 0
44925 -371 0
1632 518 591 -604 0
4080 518 -591 604 0
5222 518 -591 -604 0
1632 -518 591 604 0
3068 -518 591 -604 0
5222 -518 -591 604 0
6228 -518 -591 -604 0
27440 183 598 -540 0
1960 183 -598 540 0
28028 183 -598 -540 0
31360 -183 598 540 0
36848 -183 598 -540 0
31752 -183 -598 540 0
36966 -183 -598 -540 0
27075 580 605 549 585 386 -592 0
13718 580 605 549 585 -386 592 0
30505 580 605 549 585 -386 -592 0
14440 580 605 549 -585 386 592 0
30685 580 605 549 -585 386 -592 0
22671 580 605 549 -585 -386 592 0
32743 580 605 549 -585 -386 -592 0
1805 580 605 -549 585 386 592 0
27526 580 605 -549 585 386 -592 0
14837 580 605 -549 585 -386 592 0
30784 580 605 -549 585 -386 -592 0
15523 580 605 -549 -585 386 592 0
30956 580 605 -549 -585 386 -592 0
23342 580 605 -549 -585 -386 592 0
32911 580 605 -549 -585 -386 -592 0
5415 580 -605 549 585 386 592 0
28429 580 -605 549 585 386 -592 0
17075 580 -605 549 585 -386 592 0
31344 580 -605 549 585 -386 -592 0
17689 580 -605 549 -585 386 592 0
31497 580 -605 549 -585 386 -592 0
24685 580 -605 549 -585 -386 592 0
33246 580 -605 549 -585 -386 -592 0
6949 580 -605 -549 585 386 592 0
28812 580 -605 -549 585 386 -592 0
18027 580 -605 -549 585 -386 592 0
31582 580 -605 -549 585 -386 -592 0
18610 580 -605 -549 -585 386 592 0
31727 580 -605 -549 -585 386 -592 0
25256 580 -605 -549 -585 -386 592 0
33389 580 -605 -549 -585 -386 -592 0
4332 -580 605 549 585 386 592 0
28158 -580 605 549 585 386 -592 0
16404 -580 605 549 585 -386 592 0
31176 -580 605 549 585 -386 -592 0
17039 -580 605 549 -585 386 592 0
31335 -580 605 549 -585 386 -592 0
24282 -580 605 549 -585 -386 592 0
33146 -580 605 549 -585 -386 -592 0
5920 -580 605 -549 585 386 592 0
28555 -580 605 -549 585 386 -592 0
17389 -580 605 -549 585 -386 592 0
31422 -580 605 -549 585 -386 -592 0
17992 -580 605 -549 -585 386 592 0
31573 -580 605 -549 -585 386 -592 0
24873 -580 605 -549 -585 -386 592 0
33293 -580 605 -549 -585 -386 -592 0
9097 -580 -605 549 585 386 592 0
29349 -580 -605 549 585 386 -592 0
19358 -580 -605 549 585 -386 592 0
31915 -580 -605 549 585 -386 -592 0
19898 -580 -605 549 -585 386 592 0
32050 -580 -605 549 -585 386 -592 0
26055 -580 -605 549 -585 -386 592 0
33589 -580 -605 549 -585 -386 -592 0
10447 -580 -605 -549 585 386 592 0
29687 -580 -605 -549 585 386 -592 0
20195 -580 -605 -549 585 -386 592 0
32124 -580 -605 -549 585 -386 -592 0
20708 -580 -605 -549 -585 386 592 0
32252 -580 -605 -549 -585 386 -592 0
26557 -580 -605 -549 -585 -386 592 0
33714 -580 -605 -549 -585 -386 -592 0
34680 -572 0
34020 617 -606 0
38880 -617 606 0
45684 -617 -606 0
11690 595 610 -189 0
10020 595 -610 189 0
18203 595 -610 -189 0
26720 -595 610 189 0
29058 -595 610 -189 0
28724 -595 -610 189 0
30361 -595 -610 -189 0
3870 613 634 618 623 -577 0
1290 613 634 618 -623 577 0
4773 613 634 618 -623 -577 0
2580 613 634 -618 623 577 0
5676 613 634 -618 623 -577 0
3612 613 634 -618 -623 577 0
6398 613 634 -618 -623 -577 0
5805 613 -634 618 623 577 0
7933 613 -634 618 623 -577 0
6514 613 -634 618 -623 577 0
8430 613 -634 618 -623 -577 0
7224 613 -634 -618 623 577 0
8927 613 -634 -618 623 -577 0
7792 613 -634 -618 -623 577 0
9324 613 -634 -618 -623 -577 0
2580 -613 634 618 623 577 0
5676 -613 634 618 623 -577 0
3612 -613 634 618 -623 577 0
6398 -613 634 618 -623 -577 0
4644 -613 634 -618 623 577 0
7121 -613 634 -618 623 -577 0
5470 -613 634 -618 -623 577 0
7699 -613 634 -618 -623 -577 0
7224 -613 -634 618 623 577 0
8927 -613 -634 618 623 -577 0
7792 -613 -634 618 -623 577 0
9324 -613 -634 618 -623 -577 0
8359 -613 -634 -618 623 577 0
9721 -613 -634 -618 623 -577 0
8813 -613 -634 -618 -623 577 0
10039 -613 -634 -618 -623 -577 0
33675 441 611 615 -578 0
13470 441 611 -615 578 0
37042 441 611 -615 -578 0
5388 441 -611 615 578 0
35022 441 -611 615 -578 0
17242 441 -611 -615 578 0
37985 441 -611 -615 -578 0
20205 -441 611 615 578 0
38726 -441 611 615 -578 0
27613 -441 611 -615 578 0
40578 -441 611 -615 -578 0
23168 -441 -611 615 578 0
39467 -441 -611 615 -578 0
29688 -441 -611 -615 578 0
41097 -441 -611 -615 -578 0
16960 550 -624 0
16112 -550 624 0
26627 -550 -624 0
41475 616 608 -599 0
16590 616 -608 599 0
45622 616 -608 -599 0
41475 -616 608 599 0
51844 -616 608 -599 0
45622 -616 -608 599 0
52881 -616 -608 -599 0
21010 627 621 596 581 -563 0
11460 627 621 596 -581 563 0
26167 627 621 596 -581 -563 0
13370 627 621 -596 581 563 0
27026 627 621 -596 581 -563 0
20819 627 621 -596 -581 563 0
30379 627 621 -596 -581 -563 0
21010 627 -621 596 581 563 0
30465 627 -621 596 581 -563 0
26167 627 -621 596 -581 563 0
32785 627 -621 596 -581 -563 0
27026 627 -621 -596 581 563 0
33172 627 -621 -596 581 -563 0
30379 627 -621 -596 -581 563 0
34680 627 -621 -596 -581 -563 0
30560 -627 621 596 581 563 0
34762 -627 621 596 581 -563 0
32852 -627 621 596 -581 563 0
35793 -627 621 596 -581 -563 0
33234 -627 621 -596 581 563 0
35965 -627 621 -596 581 -563 0
34724 -627 621 -596 -581 563 0
36636 -627 621 -596 -581 -563 0
34762 -627 -621 596 581 563 0
36653 -627 -621 596 581 -563 0
35793 -627 -621 596 -581 563 0
37117 -627 -621 596 -581 -563 0
35965 -627 -621 -596 581 563 0
37194 -627 -621 -596 581 -563 0
36636 -627 -621 -596 -581 563 0
37496 -627 -621 -596 -581 -563 0
37520 628 609 622 636 537 -638 0
32830 628 609 622 636 -537 638 0
44086 628 609 622 636 -537 -638 0
4690 628 609 622 -636 537 638 0
38458 628 609 622 -636 537 -638 0
34237 628 609 622 -636 -537 638 0
44367 628 609 622 -636 -537 -638 0
25795 628 609 -622 636 537 638 0
42679 628 609 -622 636 537 -638 0
40569 628 609 -622 636 -537 638 0
45634 628 609 -622 636 -537 -638 0
27906 628 609 -622 -636 537 638 0
43101 628 609 -622 -636 537 -638 0
41202 628 609 -622 -636 -537 638 0
45760 628 609 -622 -636 -537 -638 0
16415 628 -609 622 636 537 638 0
40803 628 -609 622 636 537 -638 0
37754 628 -609 622 636 -537 638 0
45071 628 -609 622 636 -537 -638 0
19463 628 -609 622 -636 537 638 0
41413 628 -609 622 -636 537 -638 0
38669 628 -609 622 -636 -537 638 0
45254 628 -609 622 -636 -537 -638 0
33182 628 -609 -622 636 537 638 0
44156 628 -609 -622 636 537 -638 0
42785 628 -609 -622 636 -537 638 0
46077 628 -609 -622 636 -537 -638 0
34554 628 -609 -622 -636 537 638 0
44431 628 -609 -622 -636 537 -638 0
43196 628 -609 -622 -636 -537 638 0
46159 628 -609 -622 -636 -537 -638 0
32830 -628 609 622 636 537 638 0
44086 -628 609 622 636 537 -638 0
42679 -628 609 622 636 -537 638 0
46056 -628 609 622 636 -537 -638 0
34237 -628 609 622 -636 537 638 0
44367 -628 609 622 -636 537 -638 0
43101 -628 609 622 -636 -537 638 0
46140 -628 609 622 -636 -537 -638 0
40569 -628 609 -622 636 537 638 0
45634 -628 609 -622 636 537 -638 0
45001 -628 609 -622 636 -537 638 0
46520 -628 609 -622 636 -537 -638 0
41202 -628 609 -622 -636 537 638 0
45760 -628 609 -622 -636 537 -638 0
45190 -628 609 -622 -636 -537 638 0
46558 -628 609 -622 -636 -537 -638 0
37754 -628 -609 622 636 537 638 0
45071 -628 -609 622 636 537 -638 0
44156 -628 -609 622 636 -537 638 0
46351 -628 -609 622 636 -537 -638 0
38669 -628 -609 622 -636 537 638 0
45254 -628 -609 622 -636 537 -638 0
44431 -628 -609 622 -636 -537 638 0
46406 -628 -609 622 -636 -537 -638 0
42785 -628 -609 -622 636 537 638 0
46077 -628 -609 -622 636 537 -638 0
45665 -628 -609 -622 636 -537 638 0
46653 -628 -609 -622 636 -537 -638 0
43196 -628 -609 -622 -636 537 638 0
46159 -628 -609 -622 -636 537 -638 0
45789 -628 -609 -622 -636 -537 638 0
46678 -628 -609 -622 -636 -537 -638 0
14070 -514 0
8480 614 639 483 -637 0
2120 614 639 -483 637 0
10176 614 639 -483 -637 0
33920 614 -639 483 637 0
35616 614 -639 483 -637 0
34344 614 -639 -483 637 0
35955 614 -639 -483 -637 0
2120 -614 639 483 637 0
10176 -614 639 483 -637 0
4134 -614 639 -483 637 0
11787 -614 639 -483 -637 0
34344 -614 -639 483 637 0
35955 -614 -639 483 -637 0
34747 -614 -639 -483 637 0
36277 -614 -639 -483 -637 0
28765 -460 0
12070 647 -593 0
4970 -647 593 0
12816 -647 -593 0
4584 653 437 -630 0
28650 653 -437 630 0
29796 653 -437 -630 0
19100 -653 437 630 0
21392 -653 437 -630 0
33425 -653 -437 630 0
33998 -653 -437 -630 0
13370 654 656 612 -652 0
12224 654 656 -612 652 0
21316 654 656 -612 -652 0
30560 654 -656 612 652 0
33234 654 -656 612 -652 0
33005 654 -656 -612 652 0
34823 654 -656 -612 -652 0
7640 -654 656 612 652 0
18336 -654 656 612 -652 0
17419 -654 656 -612 652 0
24692 -654 656 -612 -652 0
32088 -654 -656 612 652 0
34227 -654 -656 612 -652 0
34044 -654 -656 -612 652 0
35498 -654 -656 -612 -652 0
29185 629 588 648 -642 0
17062 629 588 -648 642 0
35157 629 588 -648 -642 0
29185 629 -588 648 642 0
39400 629 -588 648 -642 0
35157 629 -588 -648 642 0
41490 629 -588 -648 -642 0
6735 -629 588 648 642 0
31542 -629 588 648 -642 0
21238 -629 588 -648 642 0
36618 -629 588 -648 -642 0
31542 -629 -588 648 642 0
40225 -629 -588 648 -642 0
36618 -629 -588 -648 642 0
42001 -629 -588 -648 -642 0
18760 655 640 -551 0
39865 655 -640 551 0
42679 655 -640 -551 0
5628 -655 640 551 0
22137 -655 640 -551 0
40709 -655 -640 551 0
43186 -655 -640 -551 0
9380 641 -619 0
11725 -641 619 0
18760 -641 -619 0
4788 532 194 -190 0
5985 532 -194 190 0
10055 532 -194 -190 0
23940 -532 194 190 0
25855 -532 194 -190 0
26334 -532 -194 190 0
27962 -532 -194 -190 0
6636 635 643 -649 0
5530 635 -643 649 0
11502 635 -643 -649 0
11060 -635 643 649 0
16369 -635 643 -649 0
15484 -635 -643 649 0
20262 -635 -643 -649 0
39865 645 607 -199 0
8442 645 -607 199 0
41131 645 -607 -199 0
21105 -645 607 199 0
43031 -645 607 -199 0
25748 -645 -607 199 0
43727 -645 -607 -199 0
26740 195 196 650 -203 0
3820 195 196 -650 203 0
27886 195 196 -650 -203 0
3820 195 -196 650 203 0
27886 195 -196 650 -203 0
7258 195 -196 -650 203 0
28917 195 -196 -650 -203 0
13370 -195 196 650 203 0
30751 -195 196 650 -203 0
15853 -195 196 -650 203 0
31496 -195 196 -650 -203 0
15853 -195 -196 650 203 0
31496 -195 -196 650 -203 0
18088 -195 -196 -650 203 0
32166 -195 -196 -650 -203 0
17062 461 -205 0
35920 -461 205 0
39332 -461 -205 0
28140 201 204 191 -206 0
2345 201 204 -191 206 0
29078 201 204 -191 -206 0
39865 201 -204 191 206 0
44086 201 -204 191 -206 0
40217 201 -204 -191 206 0
44227 201 -204 -191 -206 0
28140 -201 204 191 206 0
39396 -201 204 191 -206 0
29078 -201 204 -191 206 0
39771 -201 204 -191 -206 0
44086 -201 -204 191 206 0
45774 -201 -204 191 -206 0
44227 -201 -204 -191 206 0
45831 -201 -204 -191 -206 0
35280 211 -372 0
17640 -211 372 0
37044 -211 -372 0
24885 197 579 657 -200 0
5530 197 579 -657 200 0
27926 197 579 -657 -200 0
22120 197 -579 657 200 0
37051 197 -579 657 -200 0
25438 197 -579 -657 200 0
38876 197 -579 -657 -200 0
19355 -197 579 657 200 0
35530 -197 579 657 -200 0
22949 -197 579 -657 200 0
37507 -197 579 -657 -200 0
33733 -197 -579 657 200 0
43438 -197 -579 657 -200 0
35890 -197 -579 -657 200 0
44624 -197 -579 -657 -200 0
1805 424 -219 0
3610 -424 219 0
5235 -424 -219 0
23535 -408 0
43350 472 198 -220 0
52020 472 -198 220 0
56355 472 -198 -220 0
31790 -472 198 220 0
51298 -472 198 -220 0
55199 -472 -198 220 0
57150 -472 -198 -220 0
5316 510 213 -222 0
19935 510 -213 222 0
22859 510 -213 -222 0
39870 -510 213 222 0
40402 -510 213 -222 0
41864 -510 -213 222 0
42156 -510 -213 -222 0
21105 -221 0
25440 209 224 214 625 226 -207 0
5088 209 224 214 625 -226 207 0
27475 209 224 214 625 -226 -207 0
33920 209 224 214 -625 226 207 0
39008 209 224 214 -625 226 -207 0
34938 209 224 214 -625 -226 207 0
39415 209 224 214 -625 -226 -207 0
40280 209 224 -214 625 226 207 0
41552 209 224 -214 625 226 -207 0
40534 209 224 -214 625 -226 207 0
41654 209 224 -214 625 -226 -207 0
41976 209 224 -214 -625 226 207 0
42230 209 224 -214 -625 226 -207 0
42027 209 224 -214 -625 -226 207 0
42251 209 224 -214 -625 -226 -207 0
29680 209 -224 214 625 226 207 0
37312 209 -224 214 625 226 -207 0
31206 209 -224 214 625 -226 207 0
37923 209 -224 214 625 -226 -207 0
39856 209 -224 214 -625 226 207 0
41382 209 -224 214 -625 226 -207 0
40161 209 -224 214 -625 -226 207 0
41505 209 -224 214 -625 -226 -207 0
41764 209 -224 -214 625 226 207 0
42146 209 -224 -214 625 226 -207 0
41840 209 -224 -214 625 -226 207 0
42176 209 -224 -214 625 -226 -207 0
42273 209 -224 -214 -625 226 207 0
42349 209 -224 -214 -625 226 -207 0
42288 209 -224 -214 -625 -226 207 0
42355 209 -224 -214 -625 -226 -207 0
33920 -209 224 214 625 226 207 0
39008 -209 224 214 625 226 -207 0
34938 -209 224 214 625 -226 207 0
39415 -209 224 214 625 -226 -207 0
40704 -209 224 214 -625 226 207 0
41722 -209 224 214 -625 226 -207 0
40908 -209 224 214 -625 -226 207 0
41803 -209 224 214 -625 -226 -207 0
41976 -209 224 -214 625 226 207 0
42230 -209 224 -214 625 226 -207 0
42027 -209 224 -214 625 -226 207 0
42251 -209 224 -214 625 -226 -207 0
42315 -209 224 -214 -625 226 207 0
42366 -209 224 -214 -625 226 -207 0
42325 -209 224 -214 -625 -226 207 0
42370 -209 224 -214 -625 -226 -207 0
39856 -209 -224 214 625 226 207 0
41382 -209 -224 214 625 226 -207 0
40161 -209 -224 214 625 -226 207 0
41505 -209 -224 214 625 -226 -207 0
41891 -209 -224 214 -625 226 207 0
42196 -209 -224 214 -625 226 -207 0
41952 -209 -224 214 -625 -226 207 0
42221 -209 -224 214 -625 -226 -207 0
42273 -209 -224 -214 625 226 207 0
42349 -209 -224 -214 625 226 -207 0
42288 -209 -224 -214 625 -226 207 0
42355 -209 -224 -214 625 -226 -207 0
42375 -209 -224 -214 -625 226 207 0
42390 -209 -224 -214 -625 226 -207 0
42378 -209 -224 -214 -625 -226 207 0
42391 -209 -224 -214 -625 -226 -207 0
8840 393 223 -658 0
6800 393 -223 658 0
11220 393 -223 -658 0
272 -393 223 658 0
8935 -393 223 -658 0
6936 -393 -223 658 0
11268 -393 -223 -658 0
18305 387 236 231 229 -227 0
49685 387 236 231 -229 227 0
50600 387 236 231 -229 -227 0
18305 387 236 -231 229 227 0
30203 387 236 -231 229 -227 0
50600 387 236 -231 -229 227 0
51195 387 236 -231 -229 -227 0
49685 387 -236 231 229 227 0
50600 387 -236 231 229 -227 0
52169 387 -236 231 -229 227 0
52215 387 -236 231 -229 -227 0
50600 387 -236 -231 229 227 0
51195 387 -236 -231 229 -227 0
52215 387 -236 -231 -229 227 0
52245 387 -236 -231 -229 -227 0
6276 -387 236 231 229 227 0
22384 -387 236 231 229 -227 0
49999 -387 236 231 -229 227 0
50804 -387 236 231 -229 -227 0
22384 -387 236 -231 229 227 0
32855 -387 236 -231 229 -227 0
50804 -387 236 -231 -229 227 0
51328 -387 236 -231 -229 -227 0
49999 -387 -236 231 229 227 0
50804 -387 -236 231 229 -227 0
52185 -387 -236 231 -229 227 0
52225 -387 -236 231 -229 -227 0
50804 -387 -236 -231 229 227 0
51328 -387 -236 -231 229 -227 0
52225 -387 -236 -231 -229 227 0
52251 -387 -236 -231 -229 -227 0
680 533 -230 0
5168 -533 230 0
5590 -533 -230 0
5628 212 202 232 237 -225 0
28140 212 202 232 -237 225 0
30391 212 202 232 -237 -225 0
8442 212 202 -232 237 225 0
13057 212 202 -232 237 -225 0
31517 212 202 -232 -237 225 0
33363 212 202 -232 -237 -225 0
30485 212 -202 232 237 225 0
32455 212 -202 232 237 -225 0
40334 212 -202 232 -237 225 0
41122 212 -202 232 -237 -225 0
33440 212 -202 -232 237 225 0
35055 212 -202 -232 237 -225 0
41516 212 -202 -232 -237 225 0
42162 212 -202 -232 -237 -225 0
39865 -212 202 232 237 225 0
40709 -212 202 232 237 -225 0
44086 -212 202 232 -237 225 0
44424 -212 202 232 -237 -225 0
41131 -212 202 -232 237 225 0
41824 -212 202 -232 237 -225 0
44593 -212 202 -232 -237 225 0
44869 -212 202 -232 -237 -225 0
44438 -212 -202 232 237 225 0
44733 -212 -202 232 237 -225 0
45915 -212 -202 232 -237 225 0
46033 -212 -202 232 -237 -225 0
44881 -212 -202 -232 237 225 0
45123 -212 -202 -232 237 -225 0
46092 -212 -202 -232 -237 225 0
46189 -212 -202 -232 -237 -225 0
11075 233 -401 0
37655 -233 401 0
39316 -233 -401 0
22495 210 349 -247 0
30675 210 -349 247 0
36299 210 -349 -247 0
20450 -210 349 247 0
31698 -210 349 -247 0
35788 -210 -349 247 0
38599 -210 -349 -247 0
28765 248 243 241 234 -238 0
23535 248 243 241 -234 238 0
39356 248 243 241 -234 -238 0
6276 248 243 -241 234 238 0
31589 248 243 -241 234 -238 0
26987 248 243 -241 -234 238 0
40909 248 243 -241 -234 -238 0
10460 248 -243 241 234 238 0
33472 248 -243 241 234 -238 0
29288 248 -243 241 -234 238 0
41945 248 -243 241 -234 -238 0
15481 248 -243 -241 234 238 0
35731 248 -243 -241 234 -238 0
32049 248 -243 -241 -234 238 0
43187 248 -243 -241 -234 -238 0
18305 -248 243 241 234 238 0
37002 -248 243 241 234 -238 0
33603 -248 243 241 -234 238 0
43886 -248 243 241 -234 -238 0
22384 -248 243 -241 234 238 0
38838 -248 243 -241 234 -238 0
35846 -248 243 -241 -234 238 0
44896 -248 243 -241 -234 -238 0
25104 -248 -243 241 234 238 0
40062 -248 -243 241 234 -238 0
37342 -248 -243 241 -234 238 0
45569 -248 -243 241 -234 -238 0
28368 -248 -243 -241 234 238 0
41530 -248 -243 -241 234 -238 0
39137 -248 -243 -241 -234 238 0
46377 -248 -243 -241 -234 -238 0
7035 239 359 -249 0
23450 239 -359 249 0
26967 239 -359 -249 0
42210 -239 359 249 0
42913 -239 359 -249 0
44555 -239 -359 249 0
44907 -239 -359 -249 0
28140 255 644 253 -240 0
4690 255 644 -253 240 0
30016 255 644 -253 -240 0
30485 255 -644 253 240 0
40334 255 -644 253 -240 0
32127 255 -644 -253 240 0
40991 255 -644 -253 -240 0
44555 -255 644 253 240 0
45962 -255 644 253 -240 0
44789 -255 644 -253 240 0
46056 -255 644 -253 -240 0
46079 -255 -644 253 240 0
46572 -255 -644 253 -240 0
46161 -255 -644 -253 240 0
46605 -255 -644 -253 -240 0
9414 254 256 257 192 -251 0
10460 254 256 257 -192 251 0
17991 254 256 257 -192 -251 0
16736 254 256 -257 192 251 0
23138 254 256 -257 192 -251 0
23849 254 256 -257 -192 251 0
28970 254 256 -257 -192 -251 0
39225 254 -256 257 192 251 0
41578 254 -256 257 192 -251 0
41840 254 -256 257 -192 251 0
43723 254 -256 257 -192 -251 0
43409 254 -256 -257 192 251 0
45009 254 -256 -257 192 -251 0
45187 254 -256 -257 -192 251 0
46468 254 -256 -257 -192 -251 0
2615 -254 256 257 192 251 0
11558 -254 256 257 192 -251 0
12552 -254 256 257 -192 251 0
19707 -254 256 257 -192 -251 0
18514 -254 256 -257 192 251 0
24596 -254 256 -257 192 -251 0
25271 -254 256 -257 -192 251 0
30137 -254 256 -257 -192 -251 0
39879 -254 -256 257 192 251 0
42115 -254 -256 257 192 -251 0
42363 -254 -256 257 -192 251 0
44152 -254 -256 257 -192 -251 0
43854 -254 -256 -257 192 251 0
45374 -254 -256 -257 192 -251 0
45543 -254 -256 -257 -192 251 0
46759 -254 -256 -257 -192 -251 0
4128 576 250 -252 0
10965 576 -250 252 0
11584 576 -250 -252 0
2580 -576 250 252 0
5882 -576 250 -252 0
11352 -576 -250 252 0
11847 -576 -250 -252 0
13825 626 260 258 -242 0
2765 626 260 -258 242 0
15899 626 260 -258 -242 0
41475 626 -260 258 242 0
44931 626 -260 258 -242 0
42166 626 -260 -258 242 0
45450 626 -260 -258 -242 0
1106 -626 260 258 242 0
14655 -626 260 258 -242 0
3816 -626 260 -258 242 0
16687 -626 260 -258 -242 0
41751 -626 -260 258 242 0
45139 -626 -260 258 -242 0
42429 -626 -260 -258 242 0
45647 -626 -260 -258 -242 0
8840 263 -193 0
4080 -263 193 0
10268 -263 -193 0
2580 409 -265 0
9030 -409 265 0
9804 -409 -265 0
11560 266 -558 0
37570 -266 558 0
41616 -266 -558 0
6120 264 261 -228 0
11560 264 -261 228 0
12478 264 -261 -228 0
5168 -264 261 228 0
8962 -264 261 -228 0
12335 -264 -261 228 0
12904 -264 -261 -228 0
6516 -172 0
33225 267 425 274 279 -277 0
14176 267 425 274 -279 277 0
36769 267 425 274 -279 -277 0
2215 267 425 -274 279 277 0
33779 267 425 -274 279 -277 0
15682 267 425 -274 -279 277 0
37146 267 425 -274 -279 -277 0
2215 267 -425 274 279 277 0
33779 267 -425 274 279 -277 0
15682 267 -425 274 -279 277 0
37146 267 -425 274 -279 -277 0
4319 267 -425 -274 279 277 0
34305 267 -425 -274 279 -277 0
17113 267 -425 -274 -279 277 0
37503 267 -425 -274 -279 -277 0
8860 -267 425 274 279 277 0
35440 -267 425 274 279 -277 0
20201 -267 425 274 -279 277 0
38275 -267 425 274 -279 -277 0
10632 -267 425 -274 279 277 0
35883 -267 425 -274 279 -277 0
21406 -267 425 -274 -279 277 0
38576 -267 425 -274 -279 -277 0
10632 -267 -425 274 279 277 0
35883 -267 -425 274 279 -277 0
21406 -267 -425 274 -279 277 0
38576 -267 -425 274 -279 -277 0
12315 -267 -425 -274 279 277 0
36304 -267 -425 -274 279 -277 0
22550 -267 -425 -274 -279 277 0
38863 -267 -425 -274 -279 -277 0
17955 -208 0
17955 360 -280 0
7980 -360 280 0
22344 -360 -280 0
18496 -646 0
34295 494 -275 0
1805 -494 275 0
34385 -494 -275 0
36290 283 288 -555 0
36290 283 -288 555 0
38104 283 -288 -555 0
17190 -283 288 555 0
37149 -283 288 -555 0
37149 -283 -288 555 0
38147 -283 -288 -555 0
41055 -185 0
30485 289 268 -442 0
17822 289 -268 442 0
36723 289 -268 -442 0
32830 -289 268 442 0
41975 -289 268 -442 0
38177 -289 -268 442 0
43847 -289 -268 -442 0
14176 -480 0
5796 294 305 302 276 -281 0
15456 294 305 302 -276 281 0
19397 294 305 302 -276 -281 0
28980 294 305 -302 276 281 0
31298 294 305 -302 276 -281 0
35162 294 305 -302 -276 281 0
36739 294 305 -302 -276 -281 0
45885 294 -305 302 276 281 0
46175 294 -305 302 276 -281 0
46658 294 -305 302 -276 281 0
46855 294 -305 302 -276 -281 0
47334 294 -305 -302 276 281 0
47450 294 -305 -302 276 -281 0
47643 294 -305 -302 -276 281 0
47722 294 -305 -302 -276 -281 0
14490 -294 305 302 276 281 0
18547 -294 305 302 276 -281 0
25309 -294 305 302 -276 281 0
28068 -294 305 302 -276 -281 0
34776 -294 305 -302 276 281 0
36399 -294 305 -302 276 -281 0
39104 -294 305 -302 -276 281 0
40207 -294 305 -302 -276 -281 0
46609 -294 -305 302 276 281 0
46812 -294 -305 302 276 -281 0
47150 -294 -305 302 -276 281 0
47288 -294 -305 302 -276 -281 0
47624 -294 -305 -302 276 281 0
47705 -294 -305 -302 276 -281 0
47840 -294 -305 -302 -276 281 0
47895 -294 -305 -302 -276 -281 0
35175 292 259 -306 0
37520 292 -259 306 0
44555 292 -259 -306 0
25795 -292 259 306 0
41624 -292 259 -306 0
42679 -292 -259 306 0
45845 -292 -259 -306 0
30415 293 501 -285 0
8295 293 -501 285 0
34148 293 -501 -285 0
13825 -293 501 285 0
36636 -293 501 -285 0
20046 -293 -501 285 0
39436 -293 -501 -285 0
35920 286 262 -307 0
898 286 -262 307 0
36100 286 -262 -307 0
13470 -286 262 307 0
38614 -286 262 -307 0
14099 -286 -262 307 0
38740 -286 -262 -307 0
4902 314 287 303 317 295 308 -284 0
4515 314 287 303 317 295 -308 284 0
7701 314 287 303 317 295 -308 -284 0
5160 314 287 303 317 -295 308 284 0
8101 314 287 303 317 -295 308 -284 0
7869 314 287 303 317 -295 -308 284 0
9781 314 287 303 317 -295 -308 -284 0
3225 314 287 303 -317 295 308 284 0
6902 314 287 303 -317 295 308 -284 0
6611 314 287 303 -317 295 -308 284 0
9001 314 287 303 -317 295 -308 -284 0
7095 314 287 303 -317 -295 308 284 0
9301 314 287 303 -317 -295 308 -284 0
9127 314 287 303 -317 -295 -308 284 0
10561 314 287 303 -317 -295 -308 -284 0
1290 314 287 -303 317 295 308 284 0
5702 314 287 -303 317 295 308 -284 0
5353 314 287 -303 317 295 -308 284 0
8221 314 287 -303 317 295 -308 -284 0
5934 314 287 -303 317 -295 308 284 0
8581 314 287 -303 317 -295 308 -284 0
8372 314 287 -303 317 -295 -308 284 0
10093 314 287 -303 317 -295 -308 -284 0
4192 314 287 -303 -317 295 308 284 0
7501 314 287 -303 -317 295 308 -284 0
7240 314 287 -303 -317 295 -308 284 0
9391 314 287 -303 -317 295 -308 -284 0
7675 314 287 -303 -317 -295 308 284 0
9661 314 287 -303 -317 -295 308 -284 0
9504 314 287 -303 -317 -295 -308 284 0
10795 314 287 -303 -317 -295 -308 -284 0
645 314 -287 303 317 295 308 284 0
5302 314 -287 303 317 295 308 -284 0
4934 314 -287 303 317 295 -308 284 0
7961 314 -287 303 317 295 -308 -284 0
5547 314 -287 303 317 -295 308 284 0
8341 314 -287 303 317 -295 308 -284 0
8121 314 -287 303 317 -295 -308 284 0
9937 314 -287 303 317 -295 -308 -284 0
3709 314 -287 303 -317 295 308 284 0
7201 314 -287 303 -317 295 308 -284 0
6926 314 -287 303 -317 295 -308 284 0
9196 314 -287 303 -317 295 -308 -284 0
7385 314 -287 303 -317 -295 308 284 0
9481 314 -287 303 -317 -295 308 -284 0
9315 314 -287 303 -317 -295 -308 284 0
10678 314 -287 303 -317 -295 -308 -284 0
1871 314 -287 -303 317 295 308 284 0
6062 314 -287 -303 317 295 308 -284 0
5731 314 -287 -303 317 295 -308 284 0
8455 314 -287 -303 317 295 -308 -284 0
6282 314 -287 -303 317 -295 308 284 0
8797 314 -287 -303 317 -295 308 -284 0
8598 314 -287 -303 317 -295 -308 284 0
10233 314 -287 -303 317 -295 -308 -284 0
4628 314 -287 -303 -317 295 308 284 0
7771 314 -287 -303 -317 295 308 -284 0
7523 314 -287 -303 -317 295 -308 284 0
9566 314 -287 -303 -317 295 -308 -284 0
7937 314 -287 -303 -317 -295 308 284 0
9823 314 -287 -303 -317 -295 308 -284 0
9674 314 -287 -303 -317 -295 -308 284 0
10900 314 -287 -303 -317 -295 -308 -284 0
1290 -314 287 303 317 295 308 284 0
5702 -314 287 303 317 295 308 -284 0
5353 -314 287 303 317 295 -308 284 0
8221 -314 287 303 317 295 -308 -284 0
5934 -314 287 303 317 -295 308 284 0
8581 -314 287 303 317 -295 308 -284 0
8372 -314 287 303 317 -295 -308 284 0
10093 -314 287 303 317 -295 -308 -284 0
4192 -314 287 303 -317 295 308 284 0
7501 -314 287 303 -317 295 308 -284 0
7240 -314 287 303 -317 295 -308 284 0
9391 -314 287 303 -317 295 -308 -284 0
7675 -314 287 303 -317 -295 308 284 0
9661 -314 287 303 -317 -295 308 -284 0
9504 -314 287 303 -317 -295 -308 284 0
10795 -314 287 303 -317 -295 -308 -284 0
2451 -314 287 -303 317 295 308 284 0
6422 -314 287 -303 317 295 308 -284 0
6108 -314 287 -303 317 295 -308 284 0
8689 -314 287 -303 317 295 -308 -284 0
6631 -314 287 -303 317 -295 308 284 0
9013 -314 287 -303 317 -295 308 -284 0
8825 -314 287 -303 317 -295 -308 284 0
10373 -314 287 -303 317 -295 -308 -284 0
5063 -314 287 -303 -317 295 308 284 0
8041 -314 287 -303 -317 295 308 -284 0
7806 -314 287 -303 -317 295 -308 284 0
9742 -314 287 -303 -317 295 -308 -284 0
8198 -314 287 -303 -317 -295 308 284 0
9985 -314 287 -303 -317 -295 308 -284 0
9844 -314 287 -303 -317 -295 -308 284 0
11005 -314 287 -303 -317 -295 -308 -284 0
1871 -314 -287 303 317 295 308 284 0
6062 -314 -287 303 317 295 308 -284 0
5731 -314 -287 303 317 295 -308 284 0
8455 -314 -287 303 317 295 -308 -284 0
6282 -314 -287 303 317 -295 308 284 0
8797 -314 -287 303 317 -295 308 -284 0
8598 -314 -287 303 317 -295 -308 284 0
10233 -314 -287 303 317 -295 -308 -284 0
4628 -314 -287 303 -317 295 308 284 0
7771 -314 -287 303 -317 295 308 -284 0
7523 -314 -287 303 -317 295 -308 284 0
9566 -314 -287 303 -317 295 -308 -284 0
7937 -314 -287 303 -317 -295 308 284 0
9823 -314 -287 303 -317 -295 308 -284 0
9674 -314 -287 303 -317 -295 -308 284 0
10900 -314 -287 303 -317 -295 -308 -284 0
2973 -314 -287 -303 317 295 308 284 0
6746 -314 -287 -303 317 295 308 -284 0
6448 -314 -287 -303 317 295 -308 284 0
8900 -314 -287 -303 317 295 -308 -284 0
6944 -314 -287 -303 317 -295 308 284 0
9207 -314 -287 -303 317 -295 308 -284 0
9029 -314 -287 -303 317 -295 -308 284 0
10500 -314 -287 -303 317 -295 -308 -284 0
5455 -314 -287 -303 -317 295 308 284 0
8284 -314 -287 -303 -317 295 308 -284 0
8061 -314 -287 -303 -317 295 -308 284 0
9900 -314 -287 -303 -317 295 -308 -284 0
8433 -314 -287 -303 -317 -295 308 284 0
10130 -314 -287 -303 -317 -295 308 -284 0
9996 -314 -287 -303 -317 -295 -308 284 0
11100 -314 -287 -303 -317 -295 -308 -284 0
21010 318 315 -235 0
6876 318 -315 235 0
24104 318 -315 -235 0
17190 -318 315 235 0
28745 -318 315 -235 0
20972 -318 -315 235 0
30447 -318 -315 -235 0
49130 290 311 -278 0
5780 290 -311 278 0
49997 290 -311 -278 0
54910 -290 311 278 0
57366 -290 311 -278 0
55199 -290 -311 278 0
57410 -290 -311 -278 0
6680 282 -316 0
15030 -282 316 0
18704 -282 -316 0
18370 309 375 -312 0
25050 309 -375 312 0
29643 309 -375 -312 0
16700 -309 375 312 0
25885 -309 375 -312 0
29225 -309 -375 312 0
31521 -309 -375 -312 0
10830 310 323 364 330 319 -313 0
19855 310 323 364 330 -319 313 0
24729 310 323 364 330 -319 -313 0
23465 310 323 364 -330 319 313 0
27256 310 323 364 -330 319 -313 0
30414 310 323 364 -330 -319 313 0
32120 310 323 364 -330 -319 -313 0
28880 310 323 -364 330 319 313 0
31046 310 323 -364 330 319 -313 0
32851 310 323 -364 330 -319 313 0
33826 310 323 -364 330 -319 -313 0
33573 310 323 -364 -330 319 313 0
34331 310 323 -364 -330 319 -313 0
34963 310 323 -364 -330 -319 313 0
35304 310 323 -364 -330 -319 -313 0
4332 310 -323 364 330 319 313 0
13862 310 -323 364 330 319 -313 0
21804 310 -323 364 330 -319 313 0
26093 310 -323 364 330 -319 -313 0
24981 310 -323 364 -330 319 313 0
28317 310 -323 364 -330 319 -313 0
31097 310 -323 364 -330 -319 313 0
32598 310 -323 364 -330 -319 -313 0
29746 310 -323 -364 330 319 313 0
31652 310 -323 -364 330 319 -313 0
33241 310 -323 -364 330 -319 313 0
34099 310 -323 -364 330 -319 -313 0
33876 310 -323 -364 -330 319 313 0
34543 310 -323 -364 -330 319 -313 0
35099 310 -323 -364 -330 -319 313 0
35400 310 -323 -364 -330 -319 -313 0
3610 -310 323 364 330 319 313 0
13357 -310 323 364 330 319 -313 0
21479 -310 323 364 330 -319 313 0
25866 -310 323 364 330 -319 -313 0
24729 -310 323 364 -330 319 313 0
28140 -310 323 364 -330 319 -313 0
30983 -310 323 364 -330 -319 313 0
32518 -310 323 364 -330 -319 -313 0
29602 -310 323 -364 330 319 313 0
31551 -310 323 -364 330 319 -313 0
33176 -310 323 -364 330 -319 313 0
34053 -310 323 -364 330 -319 -313 0
33826 -310 323 -364 -330 319 313 0
34508 -310 323 -364 -330 319 -313 0
35077 -310 323 -364 -330 -319 313 0
35384 -310 323 -364 -330 -319 -313 0
7509 -310 -323 364 330 319 313 0
16086 -310 -323 364 330 319 -313 0
23234 -310 -323 364 330 -319 313 0
27094 -310 -323 364 330 -319 -313 0
26093 -310 -323 364 -330 319 313 0
29095 -310 -323 364 -330 319 -313 0
31597 -310 -323 364 -330 -319 313 0
32948 -310 -323 364 -330 -319 -313 0
30382 -310 -323 -364 330 319 313 0
32097 -310 -323 -364 330 319 -313 0
33527 -310 -323 -364 330 -319 313 0
34299 -310 -323 -364 330 -319 -313 0
34099 -310 -323 -364 -330 319 313 0
34699 -310 -323 -364 -330 319 -313 0
35199 -310 -323 -364 -330 -319 313 0
35470 -310 -323 -364 -330 -319 -313 0
7220 324 332 473 -320 0
19855 324 332 -473 320 0
23104 324 332 -473 -320 0
19855 324 -332 473 320 0
23104 324 -332 473 -320 0
28790 324 -332 -473 320 0
30252 324 -332 -473 -320 0
27075 -324 332 473 320 0
28880 -324 332 473 -320 0
32039 -324 332 -473 320 0
32851 -324 332 -473 -320 0
32039 -324 -332 473 320 0
32851 -324 -332 473 -320 0
34272 -324 -332 -473 320 0
34638 -324 -332 -473 -320 0
14176 331 450 334 -321 0
15505 331 450 -334 321 0
24719 331 450 -334 -321 0
28795 331 -450 334 321 0
33757 331 -450 334 -321 0
34222 331 -450 -334 321 0
37447 331 -450 -334 -321 0
16834 -331 450 334 321 0
25623 -331 450 334 -321 0
26447 -331 450 -334 321 0
32160 -331 450 -334 -321 0
34687 -331 -450 334 321 0
37763 -331 -450 334 -321 0
38051 -331 -450 -334 321 0
40051 -331 -450 -334 -321 0
2450 -296 0
41310 340 -620 0
21870 -340 620 0
44590 -340 -620 0
6680 336 -217 0
1670 -336 217 0
8016 -336 -217 0
764 341 338 335 534 -322 0
4584 341 338 335 -534 322 0
5256 341 338 335 -534 -322 0
15280 341 338 -335 534 322 0
15738 341 338 -335 534 -322 0
18030 341 338 -335 -534 322 0
18434 341 338 -335 -534 -322 0
30560 341 -338 335 534 322 0
30713 341 -338 335 534 -322 0
31477 341 -338 335 -534 322 0
31611 341 -338 335 -534 -322 0
33616 341 -338 -335 534 322 0
33708 341 -338 -335 534 -322 0
34166 341 -338 -335 -534 322 0
34247 341 -338 -335 -534 -322 0
13370 -341 338 335 534 322 0
13867 -341 338 335 534 -322 0
16350 -341 338 335 -534 322 0
16787 -341 338 335 -534 -322 0
23302 -341 338 -335 534 322 0
23600 -341 338 -335 534 -322 0
25090 -341 338 -335 -534 322 0
25352 -341 338 -335 -534 -322 0
33234 -341 -338 335 534 322 0
33333 -341 -338 335 534 -322 0
33830 -341 -338 335 -534 322 0
33917 -341 -338 335 -534 -322 0
35220 -341 -338 -335 534 322 0
35280 -341 -338 -335 534 -322 0
35578 -341 -338 -335 -534 322 0
35630 -341 -338 -335 -534 -322 0
2580 342 339 325 -333 0
9030 342 339 -325 333 0
9804 342 339 -325 -333 0
9030 342 -339 325 333 0
9804 342 -339 325 -333 0
11739 342 -339 -325 333 0
11971 342 -339 -325 -333 0
8385 -342 339 325 333 0
9288 -342 339 325 -333 0
11545 -342 339 -325 333 0
11816 -342 339 -325 -333 0
11545 -342 -339 325 333 0
11816 -342 -339 325 -333 0
12494 -342 -339 -325 333 0
12575 -342 -339 -325 -333 0
12240 -651 0
36610 -426 0
41840 355 -496 0
33995 -355 496 0
48639 -355 -496 0
886 388 357 -346 0
2215 388 -357 346 0
3057 388 -357 -346 0
39870 -388 357 346 0
39959 -388 357 -346 0
40092 -388 -357 346 0
40176 -388 -357 -346 0
9025 344 358 -589 0
14440 344 -358 589 0
19855 344 -358 -589 0
722 -344 358 589 0
9567 -344 358 -589 0
14873 -344 -358 589 0
20180 -344 -358 -589 0
2580 348 -271 0
645 -348 271 0
3096 -348 -271 0
4128 304 337 291 -347 0
11610 304 337 -291 347 0
12023 304 337 -291 -347 0
10965 304 -337 291 347 0
11584 304 -337 291 -347 0
12706 304 -337 -291 347 0
12768 304 -337 -291 -347 0
4902 -304 337 291 347 0
7461 -304 337 291 -347 0
12100 -304 337 -291 347 0
12356 -304 337 -291 -347 0
11700 -304 -337 291 347 0
12084 -304 -337 291 -347 0
12780 -304 -337 -291 347 0
12818 -304 -337 -291 -347 0
9030 345 343 594 -356 0
11610 345 343 -594 356 0
12513 345 343 -594 -356 0
4902 345 -343 594 356 0
10501 345 -343 594 -356 0
12100 345 -343 -594 356 0
12660 345 -343 -594 -356 0
1548 -345 343 594 356 0
9494 -345 343 594 -356 0
11765 -345 343 -594 356 0
12559 -345 343 -594 -356 0
5862 -345 -343 594 356 0
10789 -345 -343 594 -356 0
12196 -345 -343 -594 356 0
12689 -345 -343 -594 -356 0
