p wcnf 58 172 1000000
1000000 1 0
1000000 2 -14 0
1000000 14 -41 -1 0
1000000 3 -15 0
1000000 15 -40 -45 -1 0
1000000 4 -16 0
1000000 16 -46 -48 -44 -1 0
1000000 9 -17 0
1000000 17 -42 -49 -52 -1 0
1000000 13 -18 0
1000000 18 -41 -53 -51 -2 0
1000000 4 -19 0
1000000 19 -43 -2 0
1000000 5 -20 0
1000000 20 -46 -47 -45 -2 0
1000000 6 -21 0
1000000 21 -43 -42 -48 -2 0
1000000 7 -22 0
1000000 22 -39 -3 0
1000000 9 -23 0
1000000 23 -44 -40 -52 -3 0
1000000 7 -24 0
1000000 24 -49 -47 -53 -4 0
1000000 8 -25 0
1000000 25 -40 -41 -39 -4 0
1000000 10 -26 0
1000000 26 -42 -44 -50 -4 0
1000000 12 -27 0
1000000 27 -50 -46 -49 -5 0
1000000 6 -28 0
1000000 28 -43 -51 -50 -5 0
1000000 13 -29 0
1000000 29 -45 -39 -41 -6 0
1000000 7 -30 0
1000000 30 -52 -51 -6 0
1000000 9 -31 0
1000000 31 -53 -6 0
1000000 11 -32 0
1000000 32 -48 -45 -43 -7 0
1000000 8 -33 0
1000000 33 -47 -39 -50 -7 0
1000000 10 -34 0
1000000 34 -47 -52 -42 -7 0
1000000 11 -35 0
1000000 35 -40 -51 -9 0
1000000 12 -36 0
1000000 36 -40 -49 -46 -9 0
1000000 13 -37 0
1000000 37 -48 -53 -9 0
1000000 12 -38 0
1000000 38 -39 -41 -10 0
1000000 1 0
1000000 -2 14 0
1000000 -3 15 0
1000000 -4 16 19 0
1000000 -5 20 0
1000000 -6 21 28 0
1000000 -7 24 30 22 0
1000000 -8 33 25 0
1000000 -9 23 17 31 0
1000000 -10 26 34 0
1000000 -11 35 32 0
1000000 -12 36 27 38 0
1000000 -13 37 29 18 0
1000000 39 54 0
1000000 40 56 0
1000000 41 54 0
1000000 42 56 0
1000000 43 55 0
1000000 44 54 0
1000000 45 55 0
1000000 46 57 0
1000000 47 56 0
1000000 48 55 0
1000000 49 57 0
1000000 50 57 0
1000000 51 58 0
1000000 52 58 0
1000000 53 58 0
1000000 -39 -54 0
1000000 -40 -56 0
1000000 -41 -54 0
1000000 -42 -56 0
1000000 -43 -55 0
1000000 -44 -54 0
1000000 -45 -55 0
1000000 -46 -57 0
1000000 -47 -56 0
1000000 -48 -55 0
1000000 -49 -57 0
1000000 -50 -57 0
1000000 -51 -58 0
1000000 -52 -58 0
1000000 -53 -58 0
9600 -54 0
9600 -55 0
9600 -56 0
9600 -57 0
12600 -58 0
1100 39 0
2700 40 0
2700 41 0
2100 42 0
1500 43 0
2100 44 0
1600 45 0
1600 46 0
1100 47 0
1500 48 0
2100 49 0
1200 50 0
2000 51 0
2200 52 0
2200 53 0
13260 -14 0
10140 -15 0
63540 16 -19 0
17650 -16 19 0
65305 -16 -19 0
9590 -20 0
7106 21 -28 0
3366 -21 28 0
9193 -21 -28 0
4220 24 30 -22 0
54860 24 -30 22 0
56337 24 -30 -22 0
10128 -24 30 22 0
13842 -24 30 -22 0
58405 -24 -30 22 0
59705 -24 -30 -22 0
37980 33 -25 0
21100 -33 25 0
49585 -33 -25 0
12708 23 17 -31 0
3530 23 -17 31 0
15603 23 -17 -31 0
21180 -23 17 31 0
30076 -23 17 -31 0
23651 -23 -17 31 0
32102 -23 -17 -31 0
27968 26 -34 0
13248 -26 34 0
36182 -26 -34 0
6850 35 -32 0
23290 -35 32 0
24317 -35 -32 0
22080 36 27 -38 0
13248 36 -27 38 0
31354 36 -27 -38 0
66240 -36 27 38 0
68448 -36 27 -38 0
67565 -36 -27 38 0
69375 -36 -27 -38 0
9350 37 29 -18 0
8415 37 -29 18 0
13557 37 -29 -18 0
3366 -37 29 18 0
11033 -37 29 -18 0
10266 -37 -29 18 0
14483 -37 -29 -18 0
