p wcnf 901 3678 1000000
1000000 1 0
1000000 2 -166 0
1000000 166 -645 -1 0
1000000 15 -167 0
1000000 167 -651 -649 -650 -1 0
1000000 21 -168 0
1000000 168 -653 -652 -644 -1 0
1000000 4 -169 0
1000000 169 -655 -654 -657 -1 0
1000000 5 -170 0
1000000 170 -658 -659 -646 -1 0
1000000 7 -171 0
1000000 171 -661 -656 -1 0
1000000 9 -172 0
1000000 172 -664 -647 -1 0
1000000 10 -173 0
1000000 173 -648 -662 -1 0
1000000 103 -174 0
1000000 174 -665 -2 0
1000000 3 -175 0
1000000 175 -660 -671 -663 -2 0
1000000 4 -176 0
1000000 176 -666 -2 0
1000000 5 -177 0
1000000 177 -670 -668 -2 0
1000000 6 -178 0
1000000 178 -673 -667 -672 -2 0
1000000 64 -179 0
1000000 179 -674 -2 0
1000000 66 -180 0
1000000 180 -675 -669 -2 0
1000000 119 -181 0
1000000 181 -678 -681 -683 -11 0
1000000 13 -182 0
1000000 182 -677 -11 0
1000000 16 -183 0
1000000 183 -682 -680 -11 0
1000000 18 -184 0
1000000 184 -676 -11 0
1000000 28 -185 0
1000000 185 -687 -686 -679 -11 0
1000000 68 -186 0
1000000 186 -685 -11 0
1000000 104 -187 0
1000000 187 -690 -689 -101 0
1000000 110 -188 0
1000000 188 -695 -684 -693 -101 0
1000000 103 -189 0
1000000 189 -691 -102 0
1000000 106 -190 0
1000000 190 -694 -102 0
1000000 104 -191 0
1000000 191 -696 -103 0
1000000 108 -192 0
1000000 192 -692 -700 -103 0
1000000 109 -193 0
1000000 193 -704 -699 -703 -104 0
1000000 116 -194 0
1000000 194 -688 -104 0
1000000 106 -195 0
1000000 195 -697 -105 0
1000000 108 -196 0
1000000 196 -702 -105 0
1000000 113 -197 0
1000000 197 -709 -710 -706 -106 0
1000000 129 -198 0
1000000 198 -708 -707 -698 -106 0
1000000 156 -199 0
1000000 199 -711 -106 0
1000000 114 -200 0
1000000 200 -712 -701 -714 -107 0
1000000 118 -201 0
1000000 201 -713 -107 0
1000000 113 -202 0
1000000 202 -715 -108 0
1000000 115 -203 0
1000000 203 -722 -720 -718 -108 0
1000000 110 -204 0
1000000 204 -721 -723 -705 -109 0
1000000 115 -205 0
1000000 205 -727 -725 -716 -109 0
1000000 119 -206 0
1000000 206 -729 -724 -726 -109 0
1000000 141 -207 0
1000000 207 -730 -717 -109 0
1000000 111 -208 0
1000000 208 -735 -719 -737 -110 0
1000000 112 -209 0
1000000 209 -728 -734 -110 0
1000000 14 -210 0
1000000 210 -741 -731 -739 -12 0
1000000 18 -211 0
1000000 211 -740 -732 -738 -12 0
1000000 19 -212 0
1000000 212 -742 -743 -12 0
1000000 20 -213 0
1000000 213 -746 -745 -733 -12 0
1000000 30 -214 0
1000000 214 -748 -744 -12 0
1000000 92 -215 0
1000000 215 -749 -12 0
1000000 116 -216 0
1000000 216 -753 -756 -752 -111 0
1000000 118 -217 0
1000000 217 -750 -747 -754 -111 0
1000000 116 -218 0
1000000 218 -736 -112 0
1000000 120 -219 0
1000000 219 -751 -112 0
1000000 114 -220 0
1000000 220 -764 -755 -757 -113 0
1000000 115 -221 0
1000000 221 -766 -765 -767 -113 0
1000000 160 -222 0
1000000 222 -760 -113 0
1000000 118 -223 0
1000000 223 -758 -759 -114 0
1000000 121 -224 0
1000000 224 -763 -772 -769 -114 0
1000000 116 -225 0
1000000 225 -761 -115 0
1000000 118 -226 0
1000000 226 -777 -771 -774 -115 0
1000000 125 -227 0
1000000 227 -778 -773 -768 -116 0
1000000 128 -228 0
1000000 228 -770 -762 -116 0
1000000 152 -229 0
1000000 229 -783 -785 -782 -116 0
1000000 119 -230 0
1000000 230 -775 -787 -784 -117 0
1000000 120 -231 0
1000000 231 -780 -117 0
1000000 130 -232 0
1000000 232 -779 -117 0
1000000 122 -233 0
1000000 233 -781 -118 0
1000000 125 -234 0
1000000 234 -789 -790 -786 -118 0
1000000 126 -235 0
1000000 235 -788 -118 0
1000000 127 -236 0
1000000 236 -791 -119 0
1000000 128 -237 0
1000000 237 -795 -798 -776 -119 0
1000000 132 -238 0
1000000 238 -793 -802 -794 -119 0
1000000 125 -239 0
1000000 239 -803 -792 -797 -120 0
1000000 128 -240 0
1000000 240 -796 -805 -120 0
1000000 15 -241 0
1000000 241 -799 -13 0
1000000 20 -242 0
1000000 242 -804 -808 -800 -13 0
1000000 21 -243 0
1000000 243 -801 -13 0
1000000 27 -244 0
1000000 244 -807 -13 0
1000000 122 -245 0
1000000 245 -812 -810 -121 0
1000000 132 -246 0
1000000 246 -806 -814 -121 0
1000000 124 -247 0
1000000 247 -813 -122 0
1000000 126 -248 0
1000000 248 -811 -817 -122 0
1000000 125 -249 0
1000000 249 -819 -815 -820 -123 0
1000000 127 -250 0
1000000 250 -822 -824 -823 -123 0
1000000 163 -251 0
1000000 251 -809 -123 0
1000000 125 -252 0
1000000 252 -821 -124 0
1000000 127 -253 0
1000000 253 -816 -124 0
1000000 127 -254 0
1000000 254 -829 -828 -831 -125 0
1000000 128 -255 0
1000000 255 -818 -832 -826 -125 0
1000000 131 -256 0
1000000 256 -827 -125 0
1000000 151 -257 0
1000000 257 -825 -125 0
1000000 135 -258 0
1000000 258 -834 -644 -646 -126 0
1000000 140 -259 0
1000000 259 -833 -647 -126 0
1000000 129 -260 0
1000000 260 -836 -645 -835 -127 0
1000000 135 -261 0
1000000 261 -648 -127 0
1000000 129 -262 0
1000000 262 -651 -650 -128 0
1000000 131 -263 0
1000000 263 -658 -655 -653 -128 0
1000000 133 -264 0
1000000 264 -649 -129 0
1000000 138 -265 0
1000000 265 -654 -129 0
1000000 136 -266 0
1000000 266 -659 -661 -663 -130 0
1000000 141 -267 0
1000000 267 -652 -130 0
1000000 108 -268 0
1000000 268 -664 -657 -14 0
1000000 17 -269 0
1000000 269 -656 -14 0
1000000 18 -270 0
1000000 270 -662 -14 0
1000000 25 -271 0
1000000 271 -830 -14 0
1000000 37 -272 0
1000000 272 -666 -14 0
1000000 86 -273 0
1000000 273 -667 -660 -668 -14 0
1000000 87 -274 0
1000000 274 -675 -673 -676 -14 0
1000000 132 -275 0
1000000 275 -672 -669 -131 0
1000000 133 -276 0
1000000 276 -665 -131 0
1000000 137 -277 0
1000000 277 -670 -131 0
1000000 134 -278 0
1000000 278 -671 -132 0
1000000 139 -279 0
1000000 279 -677 -678 -132 0
1000000 136 -280 0
1000000 280 -679 -133 0
1000000 142 -281 0
1000000 281 -683 -680 -133 0
1000000 143 -282 0
1000000 282 -674 -686 -133 0
1000000 157 -283 0
1000000 283 -681 -685 -133 0
1000000 147 -284 0
1000000 284 -688 -689 -134 0
1000000 159 -285 0
1000000 285 -687 -134 0
1000000 140 -286 0
1000000 286 -682 -135 0
1000000 143 -287 0
1000000 287 -693 -690 -135 0
1000000 146 -288 0
1000000 288 -694 -684 -135 0
1000000 148 -289 0
1000000 289 -692 -695 -136 0
1000000 153 -290 0
1000000 290 -696 -699 -136 0
1000000 141 -291 0
1000000 291 -702 -697 -698 -137 0
1000000 146 -292 0
1000000 292 -701 -706 -707 -137 0
1000000 140 -293 0
1000000 293 -703 -708 -138 0
1000000 141 -294 0
1000000 294 -691 -138 0
1000000 144 -295 0
1000000 295 -713 -704 -709 -138 0
1000000 140 -296 0
1000000 296 -700 -139 0
1000000 144 -297 0
1000000 297 -705 -710 -139 0
1000000 143 -298 0
1000000 298 -716 -717 -720 -140 0
1000000 148 -299 0
1000000 299 -722 -711 -715 -140 0
1000000 112 -300 0
1000000 300 -714 -719 -15 0
1000000 20 -301 0
1000000 301 -718 -15 0
1000000 22 -302 0
1000000 302 -725 -723 -15 0
1000000 47 -303 0
1000000 303 -712 -15 0
1000000 142 -304 0
1000000 304 -728 -721 -141 0
1000000 147 -305 0
1000000 305 -727 -141 0
1000000 146 -306 0
1000000 306 -734 -733 -729 -142 0
1000000 148 -307 0
1000000 307 -730 -732 -142 0
1000000 150 -308 0
1000000 308 -731 -143 0
1000000 155 -309 0
1000000 309 -735 -736 -143 0
1000000 154 -310 0
1000000 310 -740 -726 -738 -144 0
1000000 156 -311 0
1000000 311 -737 -741 -144 0
1000000 162 -312 0
1000000 312 -742 -144 0
1000000 153 -313 0
1000000 313 -724 -145 0
1000000 154 -314 0
1000000 314 -744 -145 0
1000000 148 -315 0
1000000 315 -739 -749 -747 -146 0
1000000 152 -316 0
1000000 316 -752 -751 -748 -146 0
1000000 148 -317 0
1000000 317 -746 -147 0
1000000 149 -318 0
1000000 318 -745 -147 0
1000000 151 -319 0
1000000 319 -750 -743 -754 -148 0
1000000 152 -320 0
1000000 320 -756 -759 -760 -148 0
1000000 150 -321 0
1000000 321 -757 -762 -753 -149 0
1000000 151 -322 0
1000000 322 -761 -149 0
1000000 151 -323 0
1000000 323 -758 -150 0
1000000 152 -324 0
1000000 324 -764 -150 0
1000000 17 -325 0
1000000 325 -768 -767 -16 0
1000000 19 -326 0
1000000 326 -755 -16 0
1000000 153 -327 0
1000000 327 -765 -766 -151 0
1000000 157 -328 0
1000000 328 -763 -773 -774 -151 0
1000000 160 -329 0
1000000 329 -770 -152 0
1000000 161 -330 0
1000000 330 -771 -775 -152 0
1000000 164 -331 0
1000000 331 -779 -769 -152 0
1000000 154 -332 0
1000000 332 -776 -153 0
1000000 161 -333 0
1000000 333 -777 -772 -153 0
1000000 160 -334 0
1000000 334 -784 -781 -154 0
1000000 162 -335 0
1000000 335 -778 -783 -788 -154 0
1000000 157 -336 0
1000000 336 -789 -782 -155 0
1000000 158 -337 0
1000000 337 -791 -786 -156 0
1000000 164 -338 0
1000000 338 -792 -794 -796 -156 0
1000000 160 -339 0
1000000 339 -795 -787 -798 -158 0
1000000 161 -340 0
1000000 340 -790 -159 0
1000000 162 -341 0
1000000 341 -793 -159 0
1000000 20 -342 0
1000000 342 -797 -17 0
1000000 23 -343 0
1000000 343 -785 -799 -17 0
1000000 40 -344 0
1000000 344 -800 -803 -17 0
1000000 49 -345 0
1000000 345 -805 -806 -17 0
1000000 27 -346 0
1000000 346 -802 -18 0
1000000 35 -347 0
1000000 347 -780 -18 0
1000000 59 -348 0
1000000 348 -801 -18 0
1000000 21 -349 0
1000000 349 -808 -19 0
1000000 22 -350 0
1000000 350 -812 -815 -809 -19 0
1000000 150 -351 0
1000000 351 -810 -20 0
1000000 24 -352 0
1000000 352 -811 -807 -20 0
1000000 27 -353 0
1000000 353 -813 -818 -820 -20 0
1000000 65 -354 0
1000000 354 -817 -819 -20 0
1000000 11 -355 0
1000000 355 -814 -821 -3 0
1000000 12 -356 0
1000000 356 -816 -804 -828 -3 0
1000000 146 -357 0
1000000 357 -823 -827 -831 -3 0
1000000 6 -358 0
1000000 358 -822 -3 0
1000000 8 -359 0
1000000 359 -825 -830 -3 0
1000000 25 -360 0
1000000 360 -824 -21 0
1000000 26 -361 0
1000000 361 -836 -826 -833 -21 0
1000000 32 -362 0
1000000 362 -829 -21 0
1000000 44 -363 0
1000000 363 -646 -644 -648 -21 0
1000000 48 -364 0
1000000 364 -652 -651 -835 -21 0
1000000 82 -365 0
1000000 365 -834 -647 -21 0
1000000 25 -366 0
1000000 366 -653 -655 -649 -22 0
1000000 30 -367 0
1000000 367 -645 -22 0
1000000 105 -368 0
1000000 368 -832 -23 0
1000000 113 -369 0
1000000 369 -656 -23 0
1000000 24 -370 0
1000000 370 -657 -23 0
1000000 26 -371 0
1000000 371 -650 -658 -23 0
1000000 26 -372 0
1000000 372 -663 -659 -24 0
1000000 27 -373 0
1000000 373 -654 -24 0
1000000 29 -374 0
1000000 374 -662 -24 0
1000000 26 -375 0
1000000 375 -660 -25 0
1000000 29 -376 0
1000000 376 -664 -661 -25 0
1000000 38 -377 0
1000000 377 -669 -665 -25 0
1000000 58 -378 0
1000000 378 -666 -25 0
1000000 78 -379 0
1000000 379 -670 -668 -25 0
1000000 29 -380 0
1000000 380 -671 -673 -26 0
1000000 33 -381 0
1000000 381 -675 -676 -26 0
1000000 37 -382 0
1000000 382 -677 -674 -26 0
1000000 67 -383 0
1000000 383 -682 -667 -681 -26 0
1000000 29 -384 0
1000000 384 -679 -672 -27 0
1000000 35 -385 0
1000000 385 -686 -689 -678 -27 0
1000000 40 -386 0
1000000 386 -684 -27 0
1000000 30 -387 0
1000000 387 -680 -683 -691 -28 0
1000000 34 -388 0
1000000 388 -687 -685 -28 0
1000000 51 -389 0
1000000 389 -698 -696 -694 -28 0
1000000 138 -390 0
1000000 390 -690 -695 -29 0
1000000 30 -391 0
1000000 391 -692 -29 0
1000000 32 -392 0
1000000 392 -701 -699 -29 0
1000000 159 -393 0
1000000 393 -703 -697 -30 0
1000000 42 -394 0
1000000 394 -706 -707 -708 -30 0
1000000 53 -395 0
1000000 395 -702 -700 -30 0
1000000 97 -396 0
1000000 396 -688 -704 -705 -30 0
1000000 24 -397 0
1000000 397 -693 -712 -4 0
1000000 34 -398 0
1000000 398 -710 -711 -4 0
1000000 5 -399 0
1000000 399 -714 -4 0
1000000 7 -400 0
1000000 400 -715 -718 -4 0
1000000 36 -401 0
1000000 401 -716 -31 0
1000000 41 -402 0
1000000 402 -719 -713 -31 0
1000000 131 -403 0
1000000 403 -709 -32 0
1000000 37 -404 0
1000000 404 -720 -723 -32 0
1000000 40 -405 0
1000000 405 -726 -725 -32 0
1000000 46 -406 0
1000000 406 -721 -32 0
1000000 53 -407 0
1000000 407 -724 -729 -32 0
1000000 56 -408 0
1000000 408 -730 -731 -32 0
1000000 98 -409 0
1000000 409 -736 -732 -728 -32 0
1000000 120 -410 0
1000000 410 -727 -33 0
1000000 36 -411 0
1000000 411 -735 -717 -33 0
1000000 38 -412 0
1000000 412 -737 -739 -722 -33 0
1000000 115 -413 0
1000000 413 -733 -34 0
1000000 133 -414 0
1000000 414 -734 -34 0
1000000 37 -415 0
1000000 415 -738 -34 0
1000000 42 -416 0
1000000 416 -740 -742 -743 -34 0
1000000 83 -417 0
1000000 417 -748 -747 -741 -34 0
1000000 129 -418 0
1000000 418 -746 -750 -744 -35 0
1000000 36 -419 0
1000000 419 -753 -754 -749 -35 0
1000000 39 -420 0
1000000 420 -752 -758 -760 -35 0
1000000 40 -421 0
1000000 421 -751 -756 -35 0
1000000 41 -422 0
1000000 422 -757 -35 0
1000000 43 -423 0
1000000 423 -759 -35 0
1000000 38 -424 0
1000000 424 -761 -762 -36 0
1000000 41 -425 0
1000000 425 -766 -755 -745 -36 0
1000000 63 -426 0
1000000 426 -764 -36 0
1000000 39 -427 0
1000000 427 -763 -37 0
1000000 40 -428 0
1000000 428 -765 -37 0
1000000 41 -429 0
1000000 429 -768 -769 -37 0
1000000 45 -430 0
1000000 430 -776 -773 -772 -38 0
1000000 46 -431 0
1000000 431 -767 -38 0
1000000 50 -432 0
1000000 432 -774 -770 -38 0
1000000 41 -433 0
1000000 433 -777 -771 -780 -39 0
1000000 42 -434 0
1000000 434 -782 -779 -39 0
1000000 44 -435 0
1000000 435 -783 -788 -775 -39 0
1000000 69 -436 0
1000000 436 -784 -790 -785 -39 0
1000000 80 -437 0
1000000 437 -778 -39 0
1000000 165 -438 0
1000000 438 -781 -40 0
1000000 47 -439 0
1000000 439 -789 -40 0
1000000 49 -440 0
1000000 440 -791 -40 0
1000000 52 -441 0
1000000 441 -795 -787 -40 0
1000000 11 -442 0
1000000 442 -794 -792 -5 0
1000000 22 -443 0
1000000 443 -802 -798 -801 -5 0
1000000 23 -444 0
1000000 444 -793 -800 -803 -5 0
1000000 38 -445 0
1000000 445 -797 -5 0
1000000 7 -446 0
1000000 446 -806 -786 -5 0
1000000 8 -447 0
1000000 447 -799 -807 -808 -5 0
1000000 10 -448 0
1000000 448 -804 -796 -5 0
1000000 47 -449 0
1000000 449 -809 -41 0
1000000 54 -450 0
1000000 450 -815 -814 -805 -41 0
1000000 45 -451 0
1000000 451 -811 -816 -810 -42 0
1000000 52 -452 0
1000000 452 -817 -42 0
1000000 75 -453 0
1000000 453 -820 -813 -42 0
1000000 47 -454 0
1000000 454 -826 -821 -812 -43 0
1000000 53 -455 0
1000000 455 -829 -824 -825 -43 0
1000000 56 -456 0
1000000 456 -828 -827 -831 -44 0
1000000 58 -457 0
1000000 457 -830 -822 -44 0
1000000 85 -458 0
1000000 458 -834 -833 -44 0
1000000 100 -459 0
1000000 459 -836 -819 -835 -44 0
1000000 46 -460 0
1000000 460 -818 -45 0
1000000 50 -461 0
1000000 461 -645 -832 -644 -45 0
1000000 54 -462 0
1000000 462 -649 -646 -650 -45 0
1000000 55 -463 0
1000000 463 -823 -45 0
1000000 62 -464 0
1000000 464 -654 -652 -45 0
1000000 47 -465 0
1000000 465 -657 -653 -659 -46 0
1000000 48 -466 0
1000000 466 -655 -651 -46 0
1000000 107 -467 0
1000000 467 -656 -47 0
1000000 123 -468 0
1000000 468 -647 -661 -47 0
1000000 60 -469 0
1000000 469 -666 -658 -667 -47 0
1000000 64 -470 0
1000000 470 -660 -47 0
1000000 106 -471 0
1000000 471 -668 -670 -669 -48 0
1000000 57 -472 0
1000000 472 -662 -48 0
1000000 60 -473 0
1000000 473 -664 -672 -48 0
1000000 72 -474 0
1000000 474 -677 -673 -663 -48 0
1000000 55 -475 0
1000000 475 -665 -674 -671 -49 0
1000000 57 -476 0
1000000 476 -675 -680 -49 0
1000000 59 -477 0
1000000 477 -682 -678 -49 0
1000000 57 -478 0
1000000 478 -648 -676 -50 0
1000000 61 -479 0
1000000 479 -681 -685 -50 0
1000000 62 -480 0
1000000 480 -684 -50 0
1000000 15 -481 0
1000000 481 -683 -6 0
1000000 7 -482 0
1000000 482 -686 -687 -6 0
1000000 53 -483 0
1000000 483 -692 -679 -51 0
1000000 57 -484 0
1000000 484 -691 -690 -695 -51 0
1000000 53 -485 0
1000000 485 -689 -696 -52 0
1000000 54 -486 0
1000000 486 -693 -52 0
1000000 55 -487 0
1000000 487 -698 -703 -688 -53 0
1000000 58 -488 0
1000000 488 -699 -53 0
1000000 88 -489 0
1000000 489 -697 -702 -700 -53 0
1000000 99 -490 0
1000000 490 -705 -704 -53 0
1000000 59 -491 0
1000000 491 -708 -711 -712 -54 0
1000000 62 -492 0
1000000 492 -710 -706 -54 0
1000000 118 -493 0
1000000 493 -694 -55 0
1000000 56 -494 0
1000000 494 -701 -55 0
1000000 59 -495 0
1000000 495 -718 -713 -715 -55 0
1000000 79 -496 0
1000000 496 -709 -719 -55 0
1000000 58 -497 0
1000000 497 -721 -707 -56 0
1000000 65 -498 0
1000000 498 -726 -723 -716 -56 0
1000000 74 -499 0
1000000 499 -717 -56 0
1000000 161 -500 0
1000000 500 -714 -724 -57 0
1000000 59 -501 0
1000000 501 -722 -57 0
1000000 60 -502 0
1000000 502 -730 -727 -57 0
1000000 84 -503 0
1000000 503 -728 -57 0
1000000 147 -504 0
1000000 504 -720 -58 0
1000000 61 -505 0
1000000 505 -731 -735 -732 -58 0
1000000 65 -506 0
1000000 506 -734 -733 -725 -58 0
1000000 60 -507 0
1000000 507 -737 -739 -59 0
1000000 66 -508 0
1000000 508 -738 -59 0
1000000 71 -509 0
1000000 509 -740 -59 0
1000000 90 -510 0
1000000 510 -741 -59 0
1000000 65 -511 0
1000000 511 -747 -729 -736 -60 0
1000000 75 -512 0
1000000 512 -746 -743 -60 0
1000000 13 -513 0
1000000 513 -742 -751 -744 -7 0
1000000 135 -514 0
1000000 514 -753 -754 -756 -7 0
1000000 71 -515 0
1000000 515 -748 -755 -7 0
1000000 9 -516 0
1000000 516 -750 -7 0
1000000 145 -517 0
1000000 517 -759 -745 -61 0
1000000 63 -518 0
1000000 518 -749 -760 -752 -61 0
1000000 66 -519 0
1000000 519 -763 -762 -61 0
1000000 77 -520 0
1000000 520 -768 -766 -769 -61 0
1000000 65 -521 0
1000000 521 -757 -772 -765 -62 0
1000000 81 -522 0
1000000 522 -770 -767 -62 0
1000000 88 -523 0
1000000 523 -771 -758 -62 0
1000000 64 -524 0
1000000 524 -761 -774 -63 0
1000000 65 -525 0
1000000 525 -776 -775 -63 0
1000000 65 -526 0
1000000 526 -781 -782 -778 -64 0
1000000 67 -527 0
1000000 527 -764 -783 -785 -64 0
1000000 89 -528 0
1000000 528 -773 -786 -64 0
1000000 68 -529 0
1000000 529 -777 -65 0
1000000 71 -530 0
1000000 530 -784 -779 -65 0
1000000 136 -531 0
1000000 531 -787 -780 -794 -66 0
1000000 70 -532 0
1000000 532 -793 -797 -789 -66 0
1000000 71 -533 0
1000000 533 -792 -790 -66 0
1000000 128 -534 0
1000000 534 -798 -800 -788 -67 0
1000000 153 -535 0
1000000 535 -796 -67 0
1000000 158 -536 0
1000000 536 -802 -803 -806 -67 0
1000000 73 -537 0
1000000 537 -791 -67 0
1000000 81 -538 0
1000000 538 -799 -804 -67 0
1000000 101 -539 0
1000000 539 -808 -811 -801 -68 0
1000000 69 -540 0
1000000 540 -814 -805 -807 -68 0
1000000 82 -541 0
1000000 541 -795 -68 0
1000000 73 -542 0
1000000 542 -816 -817 -815 -69 0
1000000 75 -543 0
1000000 543 -810 -69 0
1000000 72 -544 0
1000000 544 -819 -820 -70 0
1000000 75 -545 0
1000000 545 -812 -822 -825 -70 0
1000000 13 -546 0
1000000 546 -818 -821 -8 0
1000000 155 -547 0
1000000 547 -813 -8 0
1000000 17 -548 0
1000000 548 -823 -826 -8 0
1000000 162 -549 0
1000000 549 -828 -809 -8 0
1000000 22 -550 0
1000000 550 -829 -834 -833 -8 0
1000000 73 -551 0
1000000 551 -827 -8 0
1000000 9 -552 0
1000000 552 -824 -8 0
1000000 10 -553 0
1000000 553 -644 -836 -830 -8 0
1000000 87 -554 0
1000000 554 -649 -832 -645 -71 0
1000000 89 -555 0
1000000 555 -648 -831 -71 0
1000000 73 -556 0
1000000 556 -655 -651 -652 -72 0
1000000 78 -557 0
1000000 557 -647 -72 0
1000000 102 -558 0
1000000 558 -835 -73 0
1000000 74 -559 0
1000000 559 -654 -657 -73 0
1000000 76 -560 0
1000000 560 -653 -73 0
1000000 78 -561 0
1000000 561 -646 -74 0
1000000 82 -562 0
1000000 562 -656 -658 -74 0
1000000 78 -563 0
1000000 563 -663 -661 -666 -75 0
1000000 79 -564 0
1000000 564 -662 -660 -75 0
1000000 114 -565 0
1000000 565 -659 -664 -76 0
1000000 79 -566 0
1000000 566 -665 -673 -667 -76 0
1000000 83 -567 0
1000000 567 -675 -671 -650 -76 0
1000000 117 -568 0
1000000 568 -669 -679 -676 -77 0
1000000 78 -569 0
1000000 569 -674 -681 -682 -77 0
1000000 83 -570 0
1000000 570 -668 -77 0
1000000 93 -571 0
1000000 571 -672 -78 0
1000000 94 -572 0
1000000 572 -684 -678 -78 0
1000000 95 -573 0
1000000 573 -686 -683 -78 0
1000000 109 -574 0
1000000 574 -690 -689 -677 -79 0
1000000 80 -575 0
1000000 575 -680 -79 0
1000000 83 -576 0
1000000 576 -691 -695 -693 -79 0
1000000 84 -577 0
1000000 577 -687 -670 -80 0
1000000 86 -578 0
1000000 578 -692 -80 0
1000000 12 -579 0
1000000 579 -688 -9 0
1000000 148 -580 0
1000000 580 -702 -694 -699 -9 0
1000000 17 -581 0
1000000 581 -697 -700 -9 0
1000000 31 -582 0
1000000 582 -698 -685 -703 -9 0
1000000 45 -583 0
1000000 583 -704 -707 -9 0
1000000 70 -584 0
1000000 584 -709 -705 -9 0
1000000 140 -585 0
1000000 585 -710 -711 -81 0
1000000 83 -586 0
1000000 586 -701 -713 -696 -81 0
1000000 99 -587 0
1000000 587 -706 -715 -81 0
1000000 86 -588 0
1000000 588 -714 -82 0
1000000 88 -589 0
1000000 589 -716 -717 -719 -82 0
1000000 149 -590 0
1000000 590 -712 -720 -723 -83 0
1000000 91 -591 0
1000000 591 -708 -83 0
1000000 96 -592 0
1000000 592 -724 -726 -83 0
1000000 100 -593 0
1000000 593 -721 -83 0
1000000 88 -594 0
1000000 594 -725 -84 0
1000000 90 -595 0
1000000 595 -718 -84 0
1000000 91 -596 0
1000000 596 -728 -727 -84 0
1000000 89 -597 0
1000000 597 -730 -85 0
1000000 93 -598 0
1000000 598 -729 -732 -722 -85 0
1000000 104 -599 0
1000000 599 -731 -740 -734 -86 0
1000000 90 -600 0
1000000 600 -736 -738 -86 0
1000000 95 -601 0
1000000 601 -739 -735 -86 0
1000000 111 -602 0
1000000 602 -733 -87 0
1000000 125 -603 0
1000000 603 -741 -87 0
1000000 126 -604 0
1000000 604 -742 -745 -744 -87 0
1000000 91 -605 0
1000000 605 -747 -737 -87 0
1000000 93 -606 0
1000000 606 -753 -749 -752 -87 0
1000000 139 -607 0
1000000 607 -754 -751 -746 -88 0
1000000 90 -608 0
1000000 608 -750 -743 -88 0
1000000 91 -609 0
1000000 609 -759 -757 -760 -88 0
1000000 92 -610 0
1000000 610 -748 -762 -89 0
1000000 94 -611 0
1000000 611 -763 -755 -767 -89 0
1000000 101 -612 0
1000000 612 -761 -764 -90 0
1000000 104 -613 0
1000000 613 -758 -765 -90 0
1000000 15 -614 0
1000000 614 -768 -769 -774 -10 0
1000000 18 -615 0
1000000 615 -770 -10 0
1000000 21 -616 0
1000000 616 -771 -10 0
1000000 76 -617 0
1000000 617 -773 -766 -10 0
1000000 95 -618 0
1000000 618 -777 -776 -10 0
1000000 101 -619 0
1000000 619 -772 -779 -91 0
1000000 124 -620 0
1000000 620 -784 -782 -781 -91 0
1000000 95 -621 0
1000000 621 -778 -91 0
1000000 105 -622 0
1000000 622 -775 -787 -756 -92 0
1000000 97 -623 0
1000000 623 -788 -780 -92 0
1000000 111 -624 0
1000000 624 -786 -93 0
1000000 95 -625 0
1000000 625 -785 -93 0
1000000 96 -626 0
1000000 626 -790 -789 -794 -93 0
1000000 95 -627 0
1000000 627 -792 -94 0
1000000 96 -628 0
1000000 628 -793 -791 -94 0
1000000 106 -629 0
1000000 629 -783 -797 -95 0
1000000 107 -630 0
1000000 630 -801 -804 -796 -95 0
1000000 97 -631 0
1000000 631 -795 -798 -799 -96 0
1000000 99 -632 0
1000000 632 -803 -96 0
1000000 104 -633 0
1000000 633 -800 -808 -97 0
1000000 116 -634 0
1000000 634 -809 -813 -812 -97 0
1000000 134 -635 0
1000000 635 -806 -97 0
1000000 99 -636 0
1000000 636 -807 -814 -97 0
1000000 101 -637 0
1000000 637 -815 -811 -98 0
1000000 100 -638 0
1000000 638 -802 -816 -98 0
1000000 104 -639 0
1000000 639 -805 -818 -823 -99 0
1000000 105 -640 0
1000000 640 -810 -819 -99 0
1000000 106 -641 0
1000000 641 -821 -100 0
1000000 108 -642 0
1000000 642 -820 -826 -100 0
1000000 121 -643 0
1000000 643 -827 -825 -100 0
1000000 1 0
1000000 -2 166 0
1000000 -3 175 0
1000000 -4 169 176 0
1000000 -5 177 399 170 0
1000000 -6 358 178 0
1000000 -7 171 446 400 482 0
1000000 -8 359 447 0
1000000 -9 172 516 552 0
1000000 -10 553 173 448 0
1000000 -11 355 442 0
1000000 -12 356 579 0
1000000 -13 546 182 513 0
1000000 -14 210 0
1000000 -15 614 241 167 481 0
1000000 -16 183 0
1000000 -17 581 325 548 269 0
1000000 -18 270 211 615 184 0
1000000 -19 212 326 0
1000000 -20 301 342 213 242 0
1000000 -21 168 243 616 349 0
1000000 -22 350 550 443 302 0
1000000 -23 343 444 0
1000000 -24 352 397 370 0
1000000 -25 366 271 360 0
1000000 -26 361 371 372 375 0
1000000 -27 353 346 244 373 0
1000000 -28 185 0
1000000 -29 380 384 374 376 0
1000000 -30 367 387 214 391 0
1000000 -31 582 0
1000000 -32 362 392 0
1000000 -33 381 0
1000000 -34 388 398 0
1000000 -35 347 385 0
1000000 -36 401 419 411 0
1000000 -37 382 272 415 404 0
1000000 -38 377 412 424 445 0
1000000 -39 420 427 0
1000000 -40 405 386 344 421 428 0
1000000 -41 402 433 425 422 429 0
1000000 -42 394 416 434 0
1000000 -43 423 0
1000000 -44 435 363 0
1000000 -45 430 583 451 0
1000000 -46 406 431 460 0
1000000 -47 439 454 449 303 465 0
1000000 -48 364 466 0
1000000 -49 440 345 0
1000000 -50 461 432 0
1000000 -51 389 0
1000000 -52 441 452 0
1000000 -53 483 395 455 485 407 0
1000000 -54 462 486 450 0
1000000 -55 463 475 487 0
1000000 -56 408 456 494 0
1000000 -57 476 478 484 472 0
1000000 -58 488 457 497 378 0
1000000 -59 495 491 477 501 348 0
1000000 -60 502 469 507 473 0
1000000 -61 505 479 0
1000000 -62 492 480 464 0
1000000 -63 426 518 0
1000000 -64 179 524 470 0
1000000 -65 521 498 506 525 526 511 354 0
1000000 -66 519 180 508 0
1000000 -67 383 527 0
1000000 -68 186 529 0
1000000 -69 540 436 0
1000000 -70 584 532 0
1000000 -71 530 515 533 509 0
1000000 -72 474 544 0
1000000 -73 537 551 556 542 0
1000000 -74 499 559 0
1000000 -75 543 453 512 545 0
1000000 -76 560 617 0
1000000 -77 520 0
1000000 -78 379 569 557 561 563 0
1000000 -79 564 566 496 0
1000000 -80 437 575 0
1000000 -81 522 538 0
1000000 -82 562 365 541 0
1000000 -83 417 570 576 567 586 0
1000000 -84 503 577 0
1000000 -85 458 0
1000000 -86 578 588 273 0
1000000 -87 274 554 0
1000000 -88 594 523 589 489 0
1000000 -89 597 528 555 0
1000000 -90 600 608 595 510 0
1000000 -91 609 596 605 591 0
1000000 -92 215 610 0
1000000 -93 571 598 606 0
1000000 -94 611 572 0
1000000 -95 625 621 601 627 573 618 0
1000000 -96 628 592 626 0
1000000 -97 623 631 396 0
1000000 -98 409 0
1000000 -99 636 632 490 587 0
1000000 -100 459 593 638 0
1000000 -101 612 539 637 619 0
1000000 -102 558 0
1000000 -103 189 174 0
1000000 -104 633 613 191 599 639 187 0
1000000 -105 640 622 368 0
1000000 -106 195 641 471 190 629 0
1000000 -107 630 467 0
1000000 -108 642 268 192 196 0
1000000 -109 193 574 0
1000000 -110 204 188 0
1000000 -111 602 624 208 0
1000000 -112 300 209 0
1000000 -113 202 369 197 0
1000000 -114 565 220 200 0
1000000 -115 221 203 413 205 0
1000000 -116 218 634 216 194 225 0
1000000 -117 568 0
1000000 -118 223 217 201 493 226 0
1000000 -119 206 181 230 0
1000000 -120 410 219 231 0
1000000 -121 643 224 0
1000000 -122 233 245 0
1000000 -123 468 0
1000000 -124 247 620 0
1000000 -125 249 234 239 252 227 603 0
1000000 -126 604 248 235 0
1000000 -127 253 236 254 250 0
1000000 -128 240 534 228 237 255 0
1000000 -129 260 418 198 262 0
1000000 -130 232 0
1000000 -131 256 263 403 0
1000000 -132 275 238 246 0
1000000 -133 276 264 414 0
1000000 -134 278 635 0
1000000 -135 514 261 258 0
1000000 -136 266 280 531 0
1000000 -137 277 0
1000000 -138 265 390 0
1000000 -139 279 607 0
1000000 -140 286 259 585 293 296 0
1000000 -141 267 294 207 291 0
1000000 -142 304 281 0
1000000 -143 298 287 282 0
1000000 -144 297 295 0
1000000 -145 517 0
1000000 -146 306 292 357 288 0
1000000 -147 305 504 284 0
1000000 -148 307 299 580 289 317 315 0
1000000 -149 590 318 0
1000000 -150 321 351 308 0
1000000 -151 322 257 323 319 0
1000000 -152 320 229 316 324 0
1000000 -153 313 535 290 327 0
1000000 -154 310 332 314 0
1000000 -155 547 309 0
1000000 -156 199 311 0
1000000 -157 336 328 283 0
1000000 -158 337 536 0
1000000 -159 393 285 0
1000000 -160 222 339 334 329 0
1000000 -161 340 500 330 333 0
1000000 -162 549 335 312 341 0
1000000 -163 251 0
1000000 -164 338 331 0
1000000 -165 438 0
1000000 644 896 0
1000000 645 870 0
1000000 646 866 0
1000000 647 871 0
1000000 648 890 0
1000000 649 871 0
1000000 650 847 0
1000000 651 881 0
1000000 652 893 0
1000000 653 898 0
1000000 654 896 0
1000000 655 864 0
1000000 656 876 0
1000000 657 887 0
1000000 658 860 0
1000000 659 850 0
1000000 660 842 0
1000000 661 850 0
1000000 662 867 0
1000000 663 860 0
1000000 664 880 0
1000000 665 861 0
1000000 666 840 0
1000000 667 893 0
1000000 668 890 0
1000000 669 859 0
1000000 670 877 0
1000000 671 890 0
1000000 672 839 0
1000000 673 900 0
1000000 674 869 0
1000000 675 845 0
1000000 676 866 0
1000000 677 841 0
1000000 678 873 0
1000000 679 883 0
1000000 680 861 0
1000000 681 874 0
1000000 682 892 0
1000000 683 888 0
1000000 684 838 0
1000000 685 893 0
1000000 686 847 0
1000000 687 869 0
1000000 688 860 0
1000000 689 881 0
1000000 690 844 0
1000000 691 845 0
1000000 692 866 0
1000000 693 859 0
1000000 694 891 0
1000000 695 859 0
1000000 696 848 0
1000000 697 876 0
1000000 698 877 0
1000000 699 891 0
1000000 700 892 0
1000000 701 895 0
1000000 702 886 0
1000000 703 868 0
1000000 704 847 0
1000000 705 849 0
1000000 706 837 0
1000000 707 852 0
1000000 708 865 0
1000000 709 868 0
1000000 710 855 0
1000000 711 877 0
1000000 712 857 0
1000000 713 900 0
1000000 714 872 0
1000000 715 841 0
1000000 716 884 0
1000000 717 852 0
1000000 718 883 0
1000000 719 882 0
1000000 720 878 0
1000000 721 842 0
1000000 722 870 0
1000000 723 873 0
1000000 724 875 0
1000000 725 874 0
1000000 726 889 0
1000000 727 874 0
1000000 728 864 0
1000000 729 884 0
1000000 730 896 0
1000000 731 862 0
1000000 732 838 0
1000000 733 861 0
1000000 734 841 0
1000000 735 892 0
1000000 736 867 0
1000000 737 868 0
1000000 738 898 0
1000000 739 853 0
1000000 740 891 0
1000000 741 894 0
1000000 742 862 0
1000000 743 899 0
1000000 744 875 0
1000000 745 854 0
1000000 746 858 0
1000000 747 843 0
1000000 748 867 0
1000000 749 846 0
1000000 750 846 0
1000000 751 864 0
1000000 752 900 0
1000000 753 852 0
1000000 754 898 0
1000000 755 886 0
1000000 756 846 0
1000000 757 865 0
1000000 758 885 0
1000000 759 887 0
1000000 760 848 0
1000000 761 879 0
1000000 762 884 0
1000000 763 839 0
1000000 764 885 0
1000000 765 889 0
1000000 766 886 0
1000000 767 856 0
1000000 768 894 0
1000000 769 881 0
1000000 770 883 0
1000000 771 848 0
1000000 772 873 0
1000000 773 899 0
1000000 774 840 0
1000000 775 845 0
1000000 776 872 0
1000000 777 837 0
1000000 778 862 0
1000000 779 894 0
1000000 780 854 0
1000000 781 888 0
1000000 782 840 0
1000000 783 844 0
1000000 784 888 0
1000000 785 857 0
1000000 786 899 0
1000000 787 854 0
1000000 788 878 0
1000000 789 887 0
1000000 790 870 0
1000000 791 869 0
1000000 792 853 0
1000000 793 858 0
1000000 794 895 0
1000000 795 901 0
1000000 796 855 0
1000000 797 882 0
1000000 798 855 0
1000000 799 885 0
1000000 800 844 0
1000000 801 837 0
1000000 802 843 0
1000000 803 865 0
1000000 804 876 0
1000000 805 853 0
1000000 806 878 0
1000000 807 858 0
1000000 808 889 0
1000000 809 850 0
1000000 810 879 0
1000000 811 872 0
1000000 812 842 0
1000000 813 897 0
1000000 814 857 0
1000000 815 875 0
1000000 816 838 0
1000000 817 880 0
1000000 818 863 0
1000000 819 882 0
1000000 820 897 0
1000000 821 871 0
1000000 822 851 0
1000000 823 851 0
1000000 824 839 0
1000000 825 879 0
1000000 826 851 0
1000000 827 849 0
1000000 828 849 0
1000000 829 843 0
1000000 830 897 0
1000000 831 895 0
1000000 832 856 0
1000000 833 901 0
1000000 834 856 0
1000000 835 863 0
1000000 836 901 0
1000000 -644 -896 0
1000000 -645 -870 0
1000000 -646 -866 0
1000000 -647 -871 0
1000000 -648 -890 0
1000000 -649 -871 0
1000000 -650 -847 0
1000000 -651 -881 0
1000000 -652 -893 0
1000000 -653 -898 0
1000000 -654 -896 0
1000000 -655 -864 0
1000000 -656 -876 0
1000000 -657 -887 0
1000000 -658 -860 0
1000000 -659 -850 0
1000000 -660 -842 0
1000000 -661 -850 0
1000000 -662 -867 0
1000000 -663 -860 0
1000000 -664 -880 0
1000000 -665 -861 0
1000000 -666 -840 0
1000000 -667 -893 0
1000000 -668 -890 0
1000000 -669 -859 0
1000000 -670 -877 0
1000000 -671 -890 0
1000000 -672 -839 0
1000000 -673 -900 0
1000000 -674 -869 0
1000000 -675 -845 0
1000000 -676 -866 0
1000000 -677 -841 0
1000000 -678 -873 0
1000000 -679 -883 0
1000000 -680 -861 0
1000000 -681 -874 0
1000000 -682 -892 0
1000000 -683 -888 0
1000000 -684 -838 0
1000000 -685 -893 0
1000000 -686 -847 0
1000000 -687 -869 0
1000000 -688 -860 0
1000000 -689 -881 0
1000000 -690 -844 0
1000000 -691 -845 0
1000000 -692 -866 0
1000000 -693 -859 0
1000000 -694 -891 0
1000000 -695 -859 0
1000000 -696 -848 0
1000000 -697 -876 0
1000000 -698 -877 0
1000000 -699 -891 0
1000000 -700 -892 0
1000000 -701 -895 0
1000000 -702 -886 0
1000000 -703 -868 0
1000000 -704 -847 0
1000000 -705 -849 0
1000000 -706 -837 0
1000000 -707 -852 0
1000000 -708 -865 0
1000000 -709 -868 0
1000000 -710 -855 0
1000000 -711 -877 0
1000000 -712 -857 0
1000000 -713 -900 0
1000000 -714 -872 0
1000000 -715 -841 0
1000000 -716 -884 0
1000000 -717 -852 0
1000000 -718 -883 0
1000000 -719 -882 0
1000000 -720 -878 0
1000000 -721 -842 0
1000000 -722 -870 0
1000000 -723 -873 0
1000000 -724 -875 0
1000000 -725 -874 0
1000000 -726 -889 0
1000000 -727 -874 0
1000000 -728 -864 0
1000000 -729 -884 0
1000000 -730 -896 0
1000000 -731 -862 0
1000000 -732 -838 0
1000000 -733 -861 0
1000000 -734 -841 0
1000000 -735 -892 0
1000000 -736 -867 0
1000000 -737 -868 0
1000000 -738 -898 0
1000000 -739 -853 0
1000000 -740 -891 0
1000000 -741 -894 0
1000000 -742 -862 0
1000000 -743 -899 0
1000000 -744 -875 0
1000000 -745 -854 0
1000000 -746 -858 0
1000000 -747 -843 0
1000000 -748 -867 0
1000000 -749 -846 0
1000000 -750 -846 0
1000000 -751 -864 0
1000000 -752 -900 0
1000000 -753 -852 0
1000000 -754 -898 0
1000000 -755 -886 0
1000000 -756 -846 0
1000000 -757 -865 0
1000000 -758 -885 0
1000000 -759 -887 0
1000000 -760 -848 0
1000000 -761 -879 0
1000000 -762 -884 0
1000000 -763 -839 0
1000000 -764 -885 0
1000000 -765 -889 0
1000000 -766 -886 0
1000000 -767 -856 0
1000000 -768 -894 0
1000000 -769 -881 0
1000000 -770 -883 0
1000000 -771 -848 0
1000000 -772 -873 0
1000000 -773 -899 0
1000000 -774 -840 0
1000000 -775 -845 0
1000000 -776 -872 0
1000000 -777 -837 0
1000000 -778 -862 0
1000000 -779 -894 0
1000000 -780 -854 0
1000000 -781 -888 0
1000000 -782 -840 0
1000000 -783 -844 0
1000000 -784 -888 0
1000000 -785 -857 0
1000000 -786 -899 0
1000000 -787 -854 0
1000000 -788 -878 0
1000000 -789 -887 0
1000000 -790 -870 0
1000000 -791 -869 0
1000000 -792 -853 0
1000000 -793 -858 0
1000000 -794 -895 0
1000000 -795 -901 0
1000000 -796 -855 0
1000000 -797 -882 0
1000000 -798 -855 0
1000000 -799 -885 0
1000000 -800 -844 0
1000000 -801 -837 0
1000000 -802 -843 0
1000000 -803 -865 0
1000000 -804 -876 0
1000000 -805 -853 0
1000000 -806 -878 0
1000000 -807 -858 0
1000000 -808 -889 0
1000000 -809 -850 0
1000000 -810 -879 0
1000000 -811 -872 0
1000000 -812 -842 0
1000000 -813 -897 0
1000000 -814 -857 0
1000000 -815 -875 0
1000000 -816 -838 0
1000000 -817 -880 0
1000000 -818 -863 0
1000000 -819 -882 0
1000000 -820 -897 0
1000000 -821 -871 0
1000000 -822 -851 0
1000000 -823 -851 0
1000000 -824 -839 0
1000000 -825 -879 0
1000000 -826 -851 0
1000000 -827 -849 0
1000000 -828 -849 0
1000000 -829 -843 0
1000000 -830 -897 0
1000000 -831 -895 0
1000000 -832 -856 0
1000000 -833 -901 0
1000000 -834 -856 0
1000000 -835 -863 0
1000000 -836 -901 0
12200 -837 0
11200 -838 0
6600 -839 0
7500 -840 0
11400 -841 0
13700 -842 0
12800 -843 0
7400 -844 0
12800 -845 0
12200 -846 0
10000 -847 0
10000 -848 0
8400 -849 0
6600 -850 0
7400 -851 0
8400 -852 0
7400 -853 0
8400 -854 0
11400 -855 0
13700 -856 0
13700 -857 0
7400 -858 0
8400 -859 0
7500 -860 0
12800 -861 0
11200 -862 0
7400 -863 0
7500 -864 0
13700 -865 0
6600 -866 0
12200 -867 0
7400 -868 0
10000 -869 0
10000 -870 0
12200 -871 0
10000 -872 0
13700 -873 0
11200 -874 0
13700 -875 0
6600 -876 0
10000 -877 0
6600 -878 0
8400 -879 0
11400 -880 0
6600 -881 0
7400 -882 0
12200 -883 0
13700 -884 0
12200 -885 0
13700 -886 0
12200 -887 0
12200 -888 0
12200 -889 0
10000 -890 0
11200 -891 0
11200 -892 0
12200 -893 0
7500 -894 0
8400 -895 0
10000 -896 0
12200 -897 0
7500 -898 0
11400 -899 0
8400 -900 0
10000 -901 0
2200 644 0
1000 645 0
1100 646 0
3500 647 0
3800 648 0
3800 649 0
3800 650 0
2200 651 0
3500 652 0
1100 653 0
1000 654 0
3500 655 0
2200 656 0
3500 657 0
1100 658 0
3500 659 0
900 660 0
3800 661 0
1000 662 0
2000 663 0
3500 664 0
3100 665 0
3500 666 0
900 667 0
1000 668 0
900 669 0
1100 670 0
2000 671 0
3100 672 0
900 673 0
900 674 0
1000 675 0
900 676 0
1000 677 0
3000 678 0
1800 679 0
800 680 0
3000 681 0
800 682 0
2200 683 0
2800 684 0
3100 685 0
1100 686 0
3500 687 0
3100 688 0
3000 689 0
800 690 0
1000 691 0
3100 692 0
900 693 0
1000 694 0
3100 695 0
800 696 0
3300 697 0
3100 698 0
1000 699 0
3300 700 0
1000 701 0
3100 702 0
900 703 0
2000 704 0
900 705 0
800 706 0
3100 707 0
1800 708 0
1000 709 0
900 710 0
2000 711 0
1000 712 0
3000 713 0
1100 714 0
3800 715 0
2800 716 0
2800 717 0
3500 718 0
2000 719 0
1800 720 0
1800 721 0
3100 722 0
3300 723 0
900 724 0
3100 725 0
800 726 0
800 727 0
3100 728 0
800 729 0
1000 730 0
2800 731 0
2000 732 0
3300 733 0
3100 734 0
2000 735 0
2800 736 0
900 737 0
900 738 0
900 739 0
3300 740 0
2800 741 0
3100 742 0
800 743 0
1000 744 0
3100 745 0
3300 746 0
900 747 0
1000 748 0
1000 749 0
1000 750 0
900 751 0
3000 752 0
1000 753 0
900 754 0
1000 755 0
900 756 0
1800 757 0
1800 758 0
900 759 0
1800 760 0
1000 761 0
900 762 0
3100 763 0
2800 764 0
900 765 0
2000 766 0
3300 767 0
3800 768 0
2200 769 0
3300 770 0
1000 771 0
3300 772 0
3100 773 0
3500 774 0
2000 775 0
3300 776 0
3300 777 0
3100 778 0
3100 779 0
900 780 0
1800 781 0
3000 782 0
1000 783 0
3100 784 0
1000 785 0
2200 786 0
800 787 0
3300 788 0
2000 789 0
3300 790 0
800 791 0
2000 792 0
2000 793 0
2000 794 0
900 795 0
1100 796 0
3300 797 0
2000 798 0
3500 799 0
2000 800 0
3800 801 0
900 802 0
1000 803 0
1100 804 0
1800 805 0
2200 806 0
3100 807 0
3500 808 0
900 809 0
3100 810 0
900 811 0
3300 812 0
800 813 0
3300 814 0
3300 815 0
900 816 0
3000 817 0
3300 818 0
900 819 0
900 820 0
900 821 0
1000 822 0
2000 823 0
2200 824 0
1000 825 0
1000 826 0
3000 827 0
1000 828 0
1000 829 0
3500 830 0
1800 831 0
3000 832 0
1000 833 0
3300 834 0
900 835 0
3800 836 0
24310 -166 0
10710 -175 0
11585 169 -176 0
26480 -169 176 0
28797 -169 -176 0
11440 177 399 -170 0
14300 177 -399 170 0
20020 177 -399 -170 0
14300 -177 399 170 0
20020 -177 399 -170 0
21450 -177 -399 170 0
24310 -177 -399 -170 0
1440 358 -178 0
240 -358 178 0
1651 -358 -178 0
10720 171 446 400 -482 0
4288 171 446 -400 482 0
11578 171 446 -400 -482 0
5092 171 -446 400 482 0
11738 171 -446 400 -482 0
7751 171 -446 -400 482 0
12270 171 -446 -400 -482 0
4690 -171 446 400 482 0
11658 -171 446 400 -482 0
7477 -171 446 -400 482 0
12215 -171 446 -400 -482 0
8000 -171 -446 400 482 0
12320 -171 -446 400 -482 0
9728 -171 -446 -400 482 0
12666 -171 -446 -400 -482 0
24115 359 -447 0
1855 -359 447 0
24764 -359 -447 0
10050 172 516 -552 0
11390 172 -516 552 0
12897 172 -516 -552 0
1340 -172 516 552 0
10385 -172 516 -552 0
11591 -172 -516 552 0
12948 -172 -516 -552 0
8704 553 173 -448 0
12240 553 -173 448 0
17027 553 -173 -448 0
2720 -553 173 448 0
10554 -553 173 -448 0
13736 -553 -173 448 0
18044 -553 -173 -448 0
6040 355 -442 0
1510 -355 442 0
6946 -355 -442 0
612 356 -579 0
3672 -356 579 0
4211 -356 -579 0
1200 546 182 -513 0
6600 546 -182 513 0
7140 546 -182 -513 0
9000 -546 182 513 0
9300 -546 182 -513 0
10650 -546 -182 513 0
10785 -546 -182 -513 0
21450 -210 0
24825 614 241 167 -481 0
10592 614 241 -167 481 0
27473 614 241 -167 -481 0
11585 614 -241 167 481 0
27721 614 -241 167 -481 0
18470 614 -241 -167 481 0
29442 614 -241 -167 -481 0
9930 -614 241 167 481 0
27307 -614 241 167 -481 0
17344 -614 241 -167 481 0
29161 -614 241 -167 -481 0
18040 -614 -241 167 481 0
29335 -614 -241 167 -481 0
22859 -614 -241 -167 481 0
30540 -614 -241 -167 -481 0
1735 -183 0
13770 581 325 548 -269 0
3060 581 325 -548 269 0
15453 581 325 -548 -269 0
1530 581 -325 548 269 0
14612 581 -325 548 -269 0
4437 581 -325 -548 269 0
16210 581 -325 -548 -269 0
27540 -581 325 548 269 0
28917 -581 325 548 -269 0
27846 -581 325 -548 269 0
29085 -581 325 -548 -269 0
27693 -581 -325 548 269 0
29001 -581 -325 548 -269 0
27984 -581 -325 -548 269 0
29161 -581 -325 -548 -269 0
3672 270 211 615 -184 0
15300 270 211 -615 184 0
17136 270 211 -615 -184 0
16830 270 -211 615 184 0
18482 270 -211 615 -184 0
23715 270 -211 -615 184 0
24541 270 -211 -615 -184 0
612 -270 211 615 184 0
4211 -270 211 615 -184 0
15606 -270 211 -615 184 0
17405 -270 211 -615 -184 0
17105 -270 -211 615 184 0
18725 -270 -211 615 -184 0
23853 -270 -211 -615 184 0
24662 -270 -211 -615 -184 0
5216 212 -326 0
3260 -212 326 0
7433 -212 -326 0
12985 301 342 213 -242 0
16695 301 342 -213 242 0
23837 301 342 -213 -242 0
31535 301 -342 213 242 0
33483 301 -342 213 -242 0
34039 301 -342 -213 242 0
35111 301 -342 -213 -242 0
3710 -301 342 213 242 0
15396 -301 342 213 -242 0
18735 -301 342 -213 242 0
25163 -301 342 -213 -242 0
32092 -301 -342 213 242 0
33844 -301 -342 213 -242 0
34345 -301 -342 -213 242 0
35309 -301 -342 -213 -242 0
2720 168 243 616 -349 0
14960 168 243 -616 349 0
16184 168 243 -616 -349 0
13600 168 -243 616 349 0
14960 168 -243 616 -349 0
21080 168 -243 -616 349 0
21692 168 -243 -616 -349 0
5440 -168 243 616 349 0
7616 -168 243 616 -349 0
17408 -168 243 -616 349 0
18387 -168 243 -616 -349 0
16320 -168 -243 616 349 0
17408 -168 -243 616 -349 0
22304 -168 -243 -616 349 0
22794 -168 -243 -616 -349 0
22540 350 550 443 -302 0
16100 350 550 -443 302 0
27370 350 550 -443 -302 0
20930 350 -550 443 302 0
28819 350 -550 443 -302 0
26565 350 -550 -443 302 0
30510 350 -550 -443 -302 0
8050 -350 550 443 302 0
24955 -350 550 443 -302 0
20125 -350 550 -443 302 0
28577 -350 550 -443 -302 0
23748 -350 -550 443 302 0
29664 -350 -550 443 -302 0
27974 -350 -550 -443 302 0
30932 -350 -550 -443 -302 0
10800 343 -444 0
1200 -343 444 0
10920 -343 -444 0
11130 352 397 -370 0
7420 352 -397 370 0
16324 352 -397 -370 0
6678 -352 397 370 0
15805 -352 397 -370 0
12762 -352 -397 370 0
20064 -352 -397 -370 0
20405 366 271 -360 0
31535 366 -271 360 0
34596 366 -271 -360 0
16695 -366 271 360 0
27918 -366 271 -360 0
34039 -366 -271 360 0
35723 -366 -271 -360 0
4200 361 371 372 -375 0
9000 361 371 -372 375 0
10050 361 371 -372 -375 0
2400 361 -371 372 375 0
5760 361 -371 372 -375 0
9600 361 -371 -372 375 0
10440 361 -371 -372 -375 0
11400 -361 371 372 375 0
11610 -361 371 372 -375 0
11850 -361 371 -372 375 0
11902 -361 371 -372 -375 0
11520 -361 -371 372 375 0
11688 -361 -371 372 -375 0
11880 -361 -371 -372 375 0
11922 -361 -371 -372 -375 0
36000 353 346 244 -373 0
6000 353 346 -244 373 0
36600 353 346 -244 -373 0
12000 353 -346 244 373 0
37200 353 -346 244 -373 0
16200 353 -346 -244 373 0
37620 353 -346 -244 -373 0
2000 -353 346 244 373 0
36200 -353 346 244 -373 0
7700 -353 346 -244 373 0
36770 -353 346 -244 -373 0
13400 -353 -346 244 373 0
37340 -353 -346 244 -373 0
17390 -353 -346 -244 373 0
37739 -353 -346 -244 -373 0
6520 -185 0
13040 380 384 374 -376 0
2934 380 384 -374 376 0
13627 380 384 -374 -376 0
14670 380 -384 374 376 0
15974 380 -384 374 -376 0
14963 380 -384 -374 376 0
16033 380 -384 -374 -376 0
8150 -380 384 374 376 0
14670 -380 384 374 -376 0
9617 -380 384 -374 376 0
14963 -380 384 -374 -376 0
15485 -380 -384 374 376 0
16137 -380 -384 374 -376 0
15632 -380 -384 -374 376 0
16166 -380 -384 -374 -376 0
7335 367 387 214 -391 0
14670 367 387 -214 391 0
15403 367 387 -214 -391 0
815 367 -387 214 391 0
7783 367 -387 214 -391 0
14752 367 -387 -214 391 0
15448 367 -387 -214 -391 0
4890 -367 387 214 391 0
10025 -367 387 214 -391 0
15159 -367 387 -214 391 0
15672 -367 387 -214 -391 0
5461 -367 -387 214 391 0
10338 -367 -387 214 -391 0
15216 -367 -387 -214 391 0
15704 -367 -387 -214 -391 0
5738 -582 0
10200 362 -392 0
4560 -362 392 0
10884 -362 -392 0
14670 -381 0
14345 388 -398 0
12080 -388 398 0
14949 -388 -398 0
21450 347 -385 0
21450 -347 385 0
28958 -347 -385 0
11104 401 419 -411 0
6940 401 -419 411 0
15823 401 -419 -411 0
24290 -401 419 411 0
27621 -401 419 -411 0
26372 -401 -419 411 0
29037 -401 -419 -411 0
28000 382 272 415 -404 0
4000 382 272 -415 404 0
29200 382 272 -415 -404 0
4800 382 -272 415 404 0
29440 382 -272 415 -404 0
8320 382 -272 -415 404 0
30496 382 -272 -415 -404 0
18000 -382 272 415 404 0
33400 -382 272 415 -404 0
20200 -382 272 -415 404 0
34060 -382 272 -415 -404 0
20640 -382 -272 415 404 0
34192 -382 -272 415 -404 0
22576 -382 -272 -415 404 0
34773 -382 -272 -415 -404 0
3840 377 412 424 -445 0
6000 377 412 -424 445 0
7920 377 412 -424 -445 0
4800 377 -412 424 445 0
7104 377 -412 424 -445 0
8400 377 -412 -424 445 0
9552 377 -412 -424 -445 0
7800 -377 412 424 445 0
9144 -377 412 424 -445 0
9900 -377 412 -424 445 0
10572 -377 412 -424 -445 0
9480 -377 -412 424 445 0
10286 -377 -412 424 -445 0
10740 -377 -412 -424 445 0
11143 -377 -412 -424 -445 0
4230 420 -427 0
10575 -420 427 0
13747 -420 -427 0
9030 405 386 344 421 -428 0
10320 405 386 344 -421 428 0
12126 405 386 344 -421 -428 0
1290 405 386 -344 421 428 0
9417 405 386 -344 421 -428 0
10578 405 386 -344 -421 428 0
12203 405 386 -344 -421 -428 0
8385 405 -386 344 421 428 0
11545 405 -386 344 421 -428 0
11997 405 -386 344 -421 428 0
12629 405 -386 344 -421 -428 0
8837 405 -386 -344 421 428 0
11681 405 -386 -344 421 -428 0
12087 405 -386 -344 -421 428 0
12656 405 -386 -344 -421 -428 0
6450 -405 386 344 421 428 0
10965 -405 386 344 421 -428 0
11610 -405 386 344 -421 428 0
12513 -405 386 344 -421 -428 0
7095 -405 386 -344 421 428 0
11158 -405 386 -344 421 -428 0
11739 -405 386 -344 -421 428 0
12552 -405 386 -344 -421 -428 0
10642 -405 -386 344 421 428 0
12223 -405 -386 344 421 -428 0
12448 -405 -386 344 -421 428 0
12765 -405 -386 344 -421 -428 0
10868 -405 -386 -344 421 428 0
12290 -405 -386 -344 421 -428 0
12494 -405 -386 -344 -421 428 0
12778 -405 -386 -344 -421 -428 0
8385 402 433 425 422 -429 0
5160 402 433 425 -422 429 0
10191 402 433 425 -422 -429 0
2322 402 433 -425 422 429 0
9198 402 433 -425 422 -429 0
6553 402 433 -425 -422 429 0
10679 402 433 -425 -422 -429 0
8385 402 -433 425 422 429 0
11320 402 -433 425 422 -429 0
10191 402 -433 425 -422 429 0
11952 402 -433 425 -422 -429 0
9198 402 -433 -425 422 429 0
11604 402 -433 -425 422 -429 0
10679 402 -433 -425 -422 429 0
12123 402 -433 -425 -422 -429 0
6450 -402 433 425 422 429 0
10642 -402 433 425 422 -429 0
9030 -402 433 425 -422 429 0
11545 -402 433 425 -422 -429 0
7611 -402 433 -425 422 429 0
11049 -402 433 -425 422 -429 0
9727 -402 433 -425 -422 429 0
11789 -402 433 -425 -422 -429 0
10642 -402 -433 425 422 429 0
12110 -402 -433 425 422 -429 0
11545 -402 -433 425 -422 429 0
12426 -402 -433 425 -422 -429 0
11049 -402 -433 -425 422 429 0
12252 -402 -433 -425 422 -429 0
11789 -402 -433 -425 -422 429 0
12511 -402 -433 -425 -422 -429 0
26000 394 416 -434 0
16000 394 -416 434 0
31600 394 -416 -434 0
10000 -394 416 434 0
29500 -394 416 -434 0
22000 -394 -416 434 0
33700 -394 -416 -434 0
16340 -423 0
25970 435 -363 0
742 -435 363 0
26193 -435 -363 0
27540 430 583 -451 0
19890 430 -583 451 0
29529 430 -583 -451 0
29070 -430 583 451 0
30447 -430 583 -451 0
30064 -430 -583 451 0
30546 -430 -583 -451 0
9780 406 431 -460 0
6520 406 -431 460 0
12388 406 -431 -460 0
6194 -406 431 460 0
12258 -406 431 -460 0
10236 -406 -431 460 0
13875 -406 -431 -460 0
16830 439 454 449 303 -465 0
13770 439 454 449 -303 465 0
23026 439 454 449 -303 -465 0
612 439 454 -449 303 465 0
17105 439 454 -449 303 -465 0
14107 439 454 -449 -303 465 0
23178 439 454 -449 -303 -465 0
4590 439 -454 449 303 465 0
18896 439 -454 449 303 -465 0
16294 439 -454 449 -303 465 0
24163 439 -454 449 -303 -465 0
5110 439 -454 -449 303 465 0
19130 439 -454 -449 303 -465 0
16581 439 -454 -449 -303 465 0
24291 439 -454 -449 -303 -465 0
9792 -439 454 449 303 465 0
21236 -439 454 449 303 -465 0
19156 -439 454 449 -303 465 0
25450 -439 454 449 -303 -465 0
10208 -439 454 -449 303 465 0
21424 -439 454 -449 303 -465 0
19384 -439 454 -449 -303 465 0
25553 -439 454 -449 -303 -465 0
12913 -439 -454 449 303 465 0
22641 -439 -454 449 303 -465 0
20872 -439 -454 449 -303 465 0
26223 -439 -454 449 -303 -465 0
13267 -439 -454 -449 303 465 0
22800 -439 -454 -449 303 -465 0
21067 -439 -454 -449 -303 465 0
26310 -439 -454 -449 -303 -465 0
11628 364 -466 0
7650 -364 466 0
16371 -364 -466 0
5216 440 -345 0
4075 -440 345 0
7987 -440 -345 0
36000 461 -432 0
12800 -461 432 0
37280 -461 -432 0
8460 -389 0
14805 441 -452 0
16920 -441 452 0
25803 -441 -452 0
24750 483 395 455 485 -407 0
9900 483 395 455 -485 407 0
27225 483 395 455 -485 -407 0
26400 483 395 -455 485 407 0
31350 483 395 -455 485 -407 0
28380 483 395 -455 -485 407 0
31845 483 395 -455 -485 -407 0
5940 483 -395 455 485 407 0
26235 483 -395 455 485 -407 0
14058 483 -395 455 -485 407 0
28265 483 -395 455 -485 -407 0
27588 483 -395 -455 485 407 0
31647 483 -395 -455 485 -407 0
29212 483 -395 -455 -485 407 0
32053 483 -395 -455 -485 -407 0
8250 -483 395 455 485 407 0
26812 -483 395 455 485 -407 0
15675 -483 395 455 -485 407 0
28669 -483 395 455 -485 -407 0
28050 -483 395 -455 485 407 0
31762 -483 395 -455 485 -407 0
29535 -483 395 -455 -485 407 0
32134 -483 395 -455 -485 -407 0
12705 -483 -395 455 485 407 0
27926 -483 -395 455 485 -407 0
18794 -483 -395 455 -485 407 0
29448 -483 -395 455 -485 -407 0
28941 -483 -395 -455 485 407 0
31985 -483 -395 -455 485 -407 0
30159 -483 -395 -455 -485 407 0
32290 -483 -395 -455 -485 -407 0
16500 462 486 -450 0
21450 462 -486 450 0
27225 462 -486 -450 0
660 -462 486 450 0
16830 -462 486 -450 0
21681 -462 -486 450 0
27341 -462 -486 -450 0
13880 463 475 -487 0
19085 463 -475 487 0
25331 463 -475 -487 0
26025 -463 475 487 0
29495 -463 475 -487 0
30796 -463 -475 487 0
32358 -463 -475 -487 0
4128 408 456 -494 0
10965 408 -456 494 0
11584 408 -456 -494 0
1935 -408 456 494 0
5444 -408 456 -494 0
11255 -408 -456 494 0
11782 -408 -456 -494 0
1956 476 478 484 -472 0
13040 476 478 -484 472 0
13431 476 478 -484 -472 0
815 476 -478 484 472 0
2673 476 -478 484 -472 0
13203 476 -478 -484 472 0
13575 476 -478 -484 -472 0
1956 -476 478 484 472 0
3677 -476 478 484 -472 0
13431 -476 478 -484 472 0
13775 -476 478 -484 -472 0
2673 -476 -478 484 472 0
4308 -476 -478 484 -472 0
13575 -476 -478 -484 472 0
13902 -476 -478 -484 -472 0
5940 488 457 497 -378 0
4950 488 457 -497 378 0
9999 488 457 -497 -378 0
19800 488 -457 497 378 0
22176 488 -457 497 -378 0
21780 488 -457 -497 378 0
23800 488 -457 -497 -378 0
6600 -488 457 497 378 0
11352 -488 457 497 -378 0
10560 -488 457 -497 378 0
14599 -488 457 -497 -378 0
22440 -488 -457 497 378 0
24341 -488 -457 497 -378 0
24024 -488 -457 -497 378 0
25640 -488 -457 -497 -378 0
815 495 491 477 501 -348 0
11410 495 491 477 -501 348 0
11655 495 491 477 -501 -348 0
815 495 491 -477 501 348 0
1589 495 491 -477 501 -348 0
11655 495 491 -477 -501 348 0
11887 495 491 -477 -501 -348 0
12225 495 -491 477 501 348 0
12429 495 -491 477 501 -348 0
15078 495 -491 477 -501 348 0
15139 495 -491 477 -501 -348 0
12429 495 -491 -477 501 348 0
12622 495 -491 -477 501 -348 0
15139 495 -491 -477 -501 348 0
15197 495 -491 -477 -501 -348 0
6194 -495 491 477 501 348 0
6699 -495 491 477 501 -348 0
13268 -495 491 477 -501 348 0
13420 -495 491 477 -501 -348 0
6699 -495 491 -477 501 348 0
7179 -495 491 -477 501 -348 0
13420 -495 491 -477 -501 348 0
13564 -495 491 -477 -501 -348 0
13773 -495 -491 477 501 348 0
13900 -495 -491 477 501 -348 0
15542 -495 -491 477 -501 348 0
15580 -495 -491 477 -501 -348 0
13900 -495 -491 -477 501 348 0
14020 -495 -491 -477 501 -348 0
15580 -495 -491 -477 -501 348 0
15616 -495 -491 -477 -501 -348 0
13200 502 469 507 -473 0
24750 502 469 -507 473 0
28050 502 469 -507 -473 0
5940 502 -469 507 473 0
16764 502 -469 507 -473 0
26235 502 -469 -507 473 0
28941 502 -469 -507 -473 0
3300 -502 469 507 473 0
15180 -502 469 507 -473 0
25575 -502 469 -507 473 0
28545 -502 469 -507 -473 0
8646 -502 -469 507 473 0
18388 -502 -469 507 -473 0
26912 -502 -469 -507 473 0
29347 -502 -469 -507 -473 0
1632 505 -479 0
2720 -505 479 0
4026 -505 -479 0
10965 492 480 -464 0
258 492 -480 464 0
11004 492 -480 -464 0
12255 -492 480 464 0
12803 -492 480 -464 0
12268 -492 -480 464 0
12805 -492 -480 -464 0
6960 426 -518 0
33060 -426 518 0
33408 -426 -518 0
35245 179 524 -470 0
9275 179 -524 470 0
35709 179 -524 -470 0
22260 -179 524 470 0
36358 -179 524 -470 0
25970 -179 -524 470 0
36544 -179 -524 -470 0
34000 521 498 506 525 526 511 -354 0
26000 521 498 506 525 526 -511 354 0
37900 521 498 506 525 526 -511 -354 0
7200 521 498 506 525 -526 511 354 0
35080 521 498 506 525 -526 511 -354 0
28520 521 498 506 525 -526 -511 354 0
38278 521 498 506 525 -526 -511 -354 0
24000 521 498 506 -525 526 511 354 0
37600 521 498 506 -525 526 511 -354 0
34400 521 498 506 -525 526 -511 354 0
39160 521 498 506 -525 526 -511 -354 0
26880 521 498 506 -525 -526 511 354 0
38032 521 498 506 -525 -526 511 -354 0
35408 521 498 506 -525 -526 -511 354 0
39311 521 498 506 -525 -526 -511 -354 0
12000 521 498 -506 525 526 511 354 0
35800 521 498 -506 525 526 511 -354 0
30200 521 498 -506 525 526 -511 354 0
38530 521 498 -506 525 526 -511 -354 0
17040 521 498 -506 525 -526 511 354 0
36556 521 498 -506 525 -526 511 -354 0
31964 521 498 -506 525 -526 -511 354 0
38795 521 498 -506 525 -526 -511 -354 0
28800 521 498 -506 -525 526 511 354 0
38320 521 498 -506 -525 526 511 -354 0
36080 521 498 -506 -525 526 -511 354 0
39412 521 498 -506 -525 526 -511 -354 0
30816 521 498 -506 -525 -526 511 354 0
38622 521 498 -506 -525 -526 511 -354 0
36786 521 498 -506 -525 -526 -511 354 0
39518 521 498 -506 -525 -526 -511 -354 0
26000 521 -498 506 525 526 511 354 0
37900 521 -498 506 525 526 511 -354 0
35100 521 -498 506 525 526 -511 354 0
39265 521 -498 506 525 526 -511 -354 0
28520 521 -498 506 525 -526 511 354 0
38278 521 -498 506 525 -526 511 -354 0
35982 521 -498 506 525 -526 -511 354 0
39397 521 -498 506 525 -526 -511 -354 0
34400 521 -498 506 -525 526 511 354 0
39160 521 -498 506 -525 526 511 -354 0
38040 521 -498 506 -525 526 -511 354 0
39706 521 -498 506 -525 526 -511 -354 0
35408 521 -498 506 -525 -526 511 354 0
39311 521 -498 506 -525 -526 511 -354 0
38393 521 -498 506 -525 -526 -511 354 0
39759 521 -498 506 -525 -526 -511 -354 0
30200 521 -498 -506 525 526 511 354 0
38530 521 -498 -506 525 526 511 -354 0
36570 521 -498 -506 525 526 -511 354 0
39486 521 -498 -506 525 526 -511 -354 0
31964 521 -498 -506 525 -526 511 354 0
38795 521 -498 -506 525 -526 511 -354 0
37187 521 -498 -506 525 -526 -511 354 0
39578 521 -498 -506 525 -526 -511 -354 0
36080 521 -498 -506 -525 526 511 354 0
39412 521 -498 -506 -525 526 511 -354 0
38628 521 -498 -506 -525 526 -511 354 0
39794 521 -498 -506 -525 526 -511 -354 0
36786 521 -498 -506 -525 -526 511 354 0
39518 521 -498 -506 -525 -526 511 -354 0
38875 521 -498 -506 -525 -526 -511 354 0
39831 521 -498 -506 -525 -526 -511 -354 0
34000 -521 498 506 525 526 511 354 0
39100 -521 498 506 525 526 511 -354 0
37900 -521 498 506 525 526 -511 354 0
39685 -521 498 506 525 526 -511 -354 0
35080 -521 498 506 525 -526 511 354 0
39262 -521 498 506 525 -526 511 -354 0
38278 -521 498 506 525 -526 -511 354 0
39742 -521 498 506 525 -526 -511 -354 0
37600 -521 498 506 -525 526 511 354 0
39640 -521 498 506 -525 526 511 -354 0
39160 -521 498 506 -525 526 -511 354 0
39874 -521 498 506 -525 526 -511 -354 0
38032 -521 498 506 -525 -526 511 354 0
39705 -521 498 506 -525 -526 511 -354 0
39311 -521 498 506 -525 -526 -511 354 0
39897 -521 498 506 -525 -526 -511 -354 0
35800 -521 498 -506 525 526 511 354 0
39370 -521 498 -506 525 526 511 -354 0
38530 -521 498 -506 525 526 -511 354 0
39779 -521 498 -506 525 526 -511 -354 0
36556 -521 498 -506 525 -526 511 354 0
39483 -521 498 -506 525 -526 511 -354 0
38795 -521 498 -506 525 -526 -511 354 0
39819 -521 498 -506 525 -526 -511 -354 0
38320 -521 498 -506 -525 526 511 354 0
39748 -521 498 -506 -525 526 511 -354 0
39412 -521 498 -506 -525 526 -511 354 0
39912 -521 498 -506 -525 526 -511 -354 0
38622 -521 498 -506 -525 -526 511 354 0
39793 -521 498 -506 -525 -526 511 -354 0
39518 -521 498 -506 -525 -526 -511 354 0
39928 -521 498 -506 -525 -526 -511 -354 0
37900 -521 -498 506 525 526 511 354 0
39685 -521 -498 506 525 526 511 -354 0
39265 -521 -498 506 525 526 -511 354 0
39890 -521 -498 506 525 526 -511 -354 0
38278 -521 -498 506 525 -526 511 354 0
39742 -521 -498 506 525 -526 511 -354 0
39397 -521 -498 506 525 -526 -511 354 0
39910 -521 -498 506 525 -526 -511 -354 0
39160 -521 -498 506 -525 526 511 354 0
39874 -521 -498 506 -525 526 511 -354 0
39706 -521 -498 506 -525 526 -511 354 0
39956 -521 -498 506 -525 526 -511 -354 0
39311 -521 -498 506 -525 -526 511 354 0
39897 -521 -498 506 -525 -526 511 -354 0
39759 -521 -498 506 -525 -526 -511 354 0
39964 -521 -498 506 -525 -526 -511 -354 0
38530 -521 -498 -506 525 526 511 354 0
39779 -521 -498 -506 525 526 511 -354 0
39486 -521 -498 -506 525 526 -511 354 0
39923 -521 -498 -506 525 526 -511 -354 0
38795 -521 -498 -506 525 -526 511 354 0
39819 -521 -498 -506 525 -526 511 -354 0
39578 -521 -498 -506 525 -526 -511 354 0
39937 -521 -498 -506 525 -526 -511 -354 0
39412 -521 -498 -506 -525 526 511 354 0
39912 -521 -498 -506 -525 526 511 -354 0
39794 -521 -498 -506 -525 526 -511 354 0
39969 -521 -498 -506 -525 526 -511 -354 0
39518 -521 -498 -506 -525 -526 511 354 0
39928 -521 -498 -506 -525 -526 511 -354 0
39831 -521 -498 -506 -525 -526 -511 354 0
39975 -521 -498 -506 -525 -526 -511 -354 0
27370 519 180 -508 0
4830 519 -180 508 0
28094 519 -180 -508 0
10304 -519 180 508 0
28916 -519 180 -508 0
13588 -519 -180 508 0
29408 -519 -180 -508 0
24290 383 -527 0
5205 -383 527 0
25851 -383 -527 0
12800 186 -529 0
34000 -186 529 0
35920 -186 -529 0
31110 540 -436 0
7320 -540 436 0
32208 -540 -436 0
3020 584 -532 0
9815 -584 532 0
10872 -584 -532 0
9600 530 515 533 -509 0
240 530 515 -533 509 0
9648 530 515 -533 -509 0
6000 530 -515 533 509 0
10800 530 -515 533 -509 0
6120 530 -515 -533 509 0
10824 530 -515 -533 -509 0
8400 -530 515 533 509 0
11280 -530 515 533 -509 0
8472 -530 515 -533 509 0
11294 -530 515 -533 -509 0
10200 -530 -515 533 509 0
11640 -530 -515 533 -509 0
10236 -530 -515 -533 509 0
11647 -530 -515 -533 -509 0
6450 474 -544 0
3870 -474 544 0
8385 -474 -544 0
13186 537 551 556 -542 0
13880 537 551 -556 542 0
21792 537 551 -556 -542 0
17350 537 -551 556 542 0
23943 537 -551 556 -542 0
24290 537 -551 -556 542 0
28246 537 -551 -556 -542 0
27760 -537 551 556 542 0
30397 -537 551 556 -542 0
30536 -537 551 -556 542 0
32118 -537 551 -556 -542 0
31230 -537 -551 556 542 0
32549 -537 -551 556 -542 0
32618 -537 -551 -556 542 0
33409 -537 -551 -556 -542 0
16920 499 -559 0
16920 -499 559 0
27072 -499 -559 0
694 543 453 512 -545 0
5205 543 453 -512 545 0
5795 543 453 -512 -545 0
29495 543 -453 512 545 0
29599 543 -453 512 -545 0
30276 543 -453 -512 545 0
30364 543 -453 -512 -545 0
3470 -543 453 512 545 0
4095 -543 453 512 -545 0
8155 -543 453 -512 545 0
8685 -543 453 -512 -545 0
30015 -543 -453 512 545 0
30109 -543 -453 512 -545 0
30718 -543 -453 -512 545 0
30798 -543 -453 -512 -545 0
27825 560 -617 0
7420 -560 617 0
29680 -560 -617 0
1420 -520 0
20820 379 569 557 561 -563 0
27760 379 569 557 -561 563 0
31924 379 569 557 -561 -563 0
13880 379 569 -557 561 563 0
26372 379 569 -557 561 -563 0
30536 379 569 -557 -561 563 0
33034 379 569 -557 -561 -563 0
17350 379 -569 557 561 563 0
27760 379 -569 557 561 -563 0
31230 379 -569 557 -561 563 0
33312 379 -569 557 -561 -563 0
24290 379 -569 -557 561 563 0
30536 379 -569 -557 561 -563 0
32618 379 -569 -557 -561 563 0
33867 379 -569 -557 -561 -563 0
27760 -379 569 557 561 563 0
31924 -379 569 557 561 -563 0
33312 -379 569 557 -561 563 0
34145 -379 569 557 -561 -563 0
30536 -379 569 -557 561 563 0
33034 -379 569 -557 561 -563 0
33867 -379 569 -557 -561 563 0
34367 -379 569 -557 -561 -563 0
31230 -379 -569 557 561 563 0
33312 -379 -569 557 561 -563 0
34006 -379 -569 557 -561 563 0
34422 -379 -569 557 -561 -563 0
32618 -379 -569 -557 561 563 0
33867 -379 -569 -557 561 -563 0
34284 -379 -569 -557 -561 563 0
34533 -379 -569 -557 -561 -563 0
2000 564 566 -496 0
20000 564 -566 496 0
21000 564 -566 -496 0
16000 -564 566 496 0
17200 -564 566 -496 0
28000 -564 -566 496 0
28600 -564 -566 -496 0
4760 437 -575 0
11560 -437 575 0
12274 -437 -575 0
4230 522 -538 0
27495 -522 538 0
28975 -522 -538 0
7550 562 365 -541 0
6795 562 -365 541 0
10947 562 -365 -541 0
2718 -562 365 541 0
8909 -562 365 -541 0
8290 -562 -365 541 0
11695 -562 -365 -541 0
4164 417 570 576 567 -586 0
29495 417 570 576 -567 586 0
30120 417 570 576 -567 -586 0
27760 417 570 -576 567 586 0
28593 417 570 -576 567 -586 0
33659 417 570 -576 -567 586 0
33784 417 570 -576 -567 -586 0
24290 417 -570 576 567 586 0
25539 417 -570 576 567 -586 0
33138 417 -570 576 -567 586 0
33326 417 -570 576 -567 -586 0
32618 417 -570 -576 567 586 0
32868 417 -570 -576 567 -586 0
34388 417 -570 -576 -567 586 0
34425 417 -570 -576 -567 -586 0
32965 -417 570 576 567 586 0
33173 -417 570 576 567 -586 0
34440 -417 570 576 -567 586 0
34471 -417 570 576 -567 -586 0
34353 -417 570 -576 567 586 0
34395 -417 570 -576 567 -586 0
34648 -417 570 -576 -567 586 0
34654 -417 570 -576 -567 -586 0
34180 -417 -570 576 567 586 0
34242 -417 -570 576 567 -586 0
34622 -417 -570 576 -567 586 0
34631 -417 -570 576 -567 -586 0
34596 -417 -570 -576 567 586 0
34608 -417 -570 -576 567 -586 0
34684 -417 -570 -576 -567 586 0
34686 -417 -570 -576 -567 -586 0
6588 503 -577 0
1830 -503 577 0
8089 -503 -577 0
4800 -458 0
20820 578 588 -273 0
22555 578 -588 273 0
29842 578 -588 -273 0
31230 -578 588 273 0
33312 -578 588 -273 0
33485 -578 -588 273 0
34214 -578 -588 -273 0
10560 274 -554 0
26400 -274 554 0
28512 -274 -554 0
19085 594 523 589 -489 0
32965 594 523 -589 489 0
33919 594 523 -589 -489 0
31230 594 -523 589 489 0
33139 594 -523 589 -489 0
34526 594 -523 -589 489 0
34622 594 -523 -589 -489 0
11104 -594 523 589 489 0
24082 -594 523 589 -489 0
33520 -594 523 -589 489 0
34169 -594 523 -589 -489 0
32340 -594 -523 589 489 0
33638 -594 -523 589 -489 0
34582 -594 -523 -589 489 0
34647 -594 -523 -589 -489 0
645 597 528 -555 0
645 597 -528 555 0
1258 597 -528 -555 0
6450 -597 528 555 0
6773 -597 528 -555 0
6773 -597 -528 555 0
7079 -597 -528 -555 0
4392 600 608 595 -510 0
9150 600 608 -595 510 0
12444 600 608 -595 -510 0
31110 600 -608 595 510 0
31769 600 -608 595 -510 0
32482 600 -608 -595 510 0
32977 600 -608 -595 -510 0
16470 -600 608 595 510 0
18886 -600 608 595 -510 0
21502 -600 608 -595 510 0
23314 -600 608 -595 -510 0
33581 -600 -608 595 510 0
33943 -600 -608 595 -510 0
34335 -600 -608 -595 510 0
34607 -600 -608 -595 -510 0
2064 609 596 605 -591 0
1720 609 596 -605 591 0
3578 609 596 -605 -591 0
5160 609 -596 605 591 0
6605 609 -596 605 -591 0
6364 609 -596 -605 591 0
7664 609 -596 -605 -591 0
12040 -609 596 605 591 0
12659 -609 596 605 -591 0
12556 -609 596 -605 591 0
13113 -609 596 -605 -591 0
13588 -609 -596 605 591 0
14021 -609 -596 605 -591 0
13949 -609 -596 -605 591 0
14339 -609 -596 -605 -591 0
7200 215 -610 0
18000 -215 610 0
21960 -215 -610 0
16074 571 598 -606 0
27495 571 -598 606 0
33121 571 -598 -606 0
10575 -571 598 606 0
22631 -571 598 -606 0
31196 -571 -598 606 0
35416 -571 -598 -606 0
12810 611 -572 0
23790 -611 572 0
28274 -611 -572 0
9060 625 621 601 627 573 -618 0
13590 625 621 601 627 -573 618 0
14496 625 621 601 627 -573 -618 0
3020 625 621 601 -627 573 618 0
10268 625 621 601 -627 573 -618 0
13892 625 621 601 -627 -573 618 0
14617 625 621 601 -627 -573 -618 0
14345 625 621 -601 627 573 618 0
14798 625 621 -601 627 573 -618 0
15025 625 621 -601 627 -573 618 0
15070 625 621 -601 627 -573 -618 0
14496 625 621 -601 -627 573 618 0
14858 625 621 -601 -627 573 -618 0
15040 625 621 -601 -627 -573 618 0
15076 625 621 -601 -627 -573 -618 0
2265 625 -621 601 627 573 618 0
9966 625 -621 601 627 573 -618 0
13816 625 -621 601 627 -573 618 0
14587 625 -621 601 627 -573 -618 0
4832 625 -621 601 -627 573 618 0
10993 625 -621 601 -627 573 -618 0
14073 625 -621 601 -627 -573 618 0
14689 625 -621 601 -627 -573 -618 0
14458 625 -621 -601 627 573 618 0
14843 625 -621 -601 627 573 -618 0
15036 625 -621 -601 627 -573 618 0
15074 625 -621 -601 627 -573 -618 0
14587 625 -621 -601 -627 573 618 0
14895 625 -621 -601 -627 573 -618 0
15049 625 -621 -601 -627 -573 618 0
15079 625 -621 -601 -627 -573 -618 0
5738 -625 621 601 627 573 618 0
11355 -625 621 601 627 573 -618 0
14164 -625 621 601 627 -573 618 0
14726 -625 621 601 627 -573 -618 0
7610 -625 621 601 -627 573 618 0
12104 -625 621 601 -627 573 -618 0
14351 -625 621 601 -627 -573 618 0
14800 -625 621 601 -627 -573 -618 0
14632 -625 621 -601 627 573 618 0
14913 -625 621 -601 627 573 -618 0
15053 -625 621 -601 627 -573 618 0
15081 -625 621 -601 627 -573 -618 0
14726 -625 621 -601 -627 573 618 0
14950 -625 621 -601 -627 573 -618 0
15063 -625 621 -601 -627 -573 618 0
15085 -625 621 -601 -627 -573 -618 0
7142 -625 -621 601 627 573 618 0
11917 -625 -621 601 627 573 -618 0
14304 -625 -621 601 627 -573 618 0
14782 -625 -621 601 627 -573 -618 0
8734 -625 -621 601 -627 573 618 0
12554 -625 -621 601 -627 573 -618 0
14463 -625 -621 601 -627 -573 618 0
14845 -625 -621 601 -627 -573 -618 0
14702 -625 -621 -601 627 573 618 0
14941 -625 -621 -601 627 573 -618 0
15060 -625 -621 -601 627 -573 618 0
15084 -625 -621 -601 627 -573 -618 0
14782 -625 -621 -601 -627 573 618 0
14973 -625 -621 -601 -627 573 -618 0
15068 -625 -621 -601 -627 -573 618 0
15087 -625 -621 -601 -627 -573 -618 0
2448 628 592 -626 0
4352 628 -592 626 0
6017 628 -592 -626 0
5168 -628 592 626 0
6686 -628 592 -626 0
7866 -628 -592 626 0
8898 -628 -592 -626 0
3660 623 631 -396 0
18300 623 -631 396 0
20130 623 -631 -396 0
1830 -623 631 396 0
5307 -623 631 -396 0
19215 -623 -631 396 0
20953 -623 -631 -396 0
11104 -409 0
8840 636 632 490 -587 0
2720 636 632 -490 587 0
9792 636 632 -490 -587 0
10880 636 -632 490 587 0
12648 636 -632 490 -587 0
11424 636 -632 -490 587 0
12838 636 -632 -490 -587 0
7480 -636 632 490 587 0
11458 -636 632 490 -587 0
8704 -636 632 -490 587 0
11886 -636 632 -490 -587 0
12376 -636 -632 490 587 0
13172 -636 -632 490 -587 0
12621 -636 -632 -490 587 0
13257 -636 -632 -490 -587 0
12255 459 593 -638 0
8385 459 -593 638 0
12674 459 -593 -638 0
7740 -459 593 638 0
12642 -459 593 -638 0
11094 -459 -593 638 0
12810 -459 -593 -638 0
23790 612 539 637 -619 0
9150 612 539 -637 619 0
26993 612 539 -637 -619 0
21960 612 -539 637 619 0
31476 612 -539 637 -619 0
25620 612 -539 -637 619 0
32757 612 -539 -637 -619 0
34770 -612 539 637 619 0
35959 -612 539 637 -619 0
35227 -612 539 -637 619 0
36120 -612 539 -637 -619 0
35868 -612 -539 637 619 0
36344 -612 -539 637 -619 0
36051 -612 -539 -637 619 0
36408 -612 -539 -637 -619 0
12920 -558 0
3220 189 -174 0
12236 -189 174 0
14232 -189 -174 0
15615 633 613 191 599 639 -187 0
1735 633 613 191 599 -639 187 0
16569 633 613 191 599 -639 -187 0
15615 633 613 191 -599 639 187 0
24203 633 613 191 -599 639 -187 0
16569 633 613 191 -599 -639 187 0
24728 633 613 191 -599 -639 -187 0
29495 633 613 -191 599 639 187 0
31837 633 613 -191 599 639 -187 0
29755 633 613 -191 599 -639 187 0
31980 633 613 -191 599 -639 -187 0
31837 633 613 -191 -599 639 187 0
33125 633 613 -191 -599 639 -187 0
31980 633 613 -191 -599 -639 187 0
33204 633 613 -191 -599 -639 -187 0
694 633 -613 191 599 639 187 0
15997 633 -613 191 599 639 -187 0
2394 633 -613 191 599 -639 187 0
16932 633 -613 191 599 -639 -187 0
15997 633 -613 191 -599 639 187 0
24413 633 -613 191 -599 639 -187 0
16932 633 -613 191 -599 -639 187 0
24928 633 -613 191 -599 -639 -187 0
29599 633 -613 -191 599 639 187 0
31895 633 -613 -191 599 639 -187 0
29854 633 -613 -191 599 -639 187 0
32035 633 -613 -191 599 -639 -187 0
31895 633 -613 -191 -599 639 187 0
33157 633 -613 -191 -599 639 -187 0
32035 633 -613 -191 -599 -639 187 0
33234 633 -613 -191 -599 -639 -187 0
3470 -633 613 191 599 639 187 0
17523 -633 613 191 599 639 -187 0
5032 -633 613 191 599 -639 187 0
18382 -633 613 191 599 -639 -187 0
17523 -633 613 191 -599 639 187 0
25253 -633 613 191 -599 639 -187 0
18382 -633 613 191 -599 -639 187 0
25725 -633 613 191 -599 -639 -187 0
30015 -633 613 -191 599 639 187 0
32124 -633 613 -191 599 639 -187 0
30250 -633 613 -191 599 -639 187 0
32252 -633 613 -191 599 -639 -187 0
32124 -633 613 -191 -599 639 187 0
33283 -633 613 -191 -599 639 -187 0
32252 -633 613 -191 -599 -639 187 0
33354 -633 613 -191 -599 -639 -187 0
4095 -633 -613 191 599 639 187 0
17867 -633 -613 191 599 639 -187 0
5625 -633 -613 191 599 -639 187 0
18709 -633 -613 191 599 -639 -187 0
17867 -633 -613 191 -599 639 187 0
25442 -633 -613 191 -599 639 -187 0
18709 -633 -613 191 -599 -639 187 0
25905 -633 -613 191 -599 -639 -187 0
30109 -633 -613 -191 599 639 187 0
32175 -633 -613 -191 599 639 -187 0
30339 -633 -613 -191 599 -639 187 0
32301 -633 -613 -191 599 -639 -187 0
32175 -633 -613 -191 -599 639 187 0
33311 -633 -613 -191 -599 639 -187 0
32301 -633 -613 -191 -599 -639 187 0
33381 -633 -613 -191 -599 -639 -187 0
6000 640 622 -368 0
10000 640 -622 368 0
14500 640 -622 -368 0
7200 -640 622 368 0
12120 -640 622 -368 0
15400 -640 -622 368 0
19090 -640 -622 -368 0
9675 195 641 471 190 -629 0
1290 195 641 471 -190 629 0
9998 195 641 471 -190 -629 0
12255 195 641 -471 190 629 0
12739 195 641 -471 190 -629 0
12319 195 641 -471 -190 629 0
12755 195 641 -471 -190 -629 0
3225 195 -641 471 190 629 0
10481 195 -641 471 190 -629 0
4192 195 -641 471 -190 629 0
10723 195 -641 471 -190 -629 0
12416 195 -641 -471 190 629 0
12779 195 -641 -471 190 -629 0
12465 195 -641 -471 -190 629 0
12791 195 -641 -471 -190 -629 0
6450 -195 641 471 190 629 0
11288 -195 641 471 190 -629 0
7095 -195 641 471 -190 629 0
11449 -195 641 471 -190 -629 0
12577 -195 641 -471 190 629 0
12819 -195 641 -471 190 -629 0
12610 -195 641 -471 -190 629 0
12827 -195 641 -471 -190 -629 0
8062 -195 -641 471 190 629 0
11691 -195 -641 471 190 -629 0
8546 -195 -641 471 -190 629 0
11812 -195 -641 471 -190 -629 0
12658 -195 -641 -471 190 629 0
12840 -195 -641 -471 190 -629 0
12682 -195 -641 -471 -190 629 0
12846 -195 -641 -471 -190 -629 0
10000 630 -467 0
800 -630 467 0
10600 -630 -467 0
1956 642 268 192 -196 0
4890 642 268 -192 196 0
6259 642 268 -192 -196 0
2934 642 -268 192 196 0
4538 642 -268 192 -196 0
6944 642 -268 -192 196 0
8067 642 -268 -192 -196 0
9780 -642 268 192 196 0
10562 -642 268 192 -196 0
11736 -642 268 -192 196 0
12284 -642 268 -192 -196 0
10954 -642 -268 192 196 0
11595 -642 -268 192 -196 0
12558 -642 -268 -192 196 0
13007 -642 -268 -192 -196 0
1830 193 -574 0
13908 -193 574 0
15043 -193 -574 0
32670 204 -188 0
30855 -204 188 0
35756 -204 -188 0
16340 602 624 -208 0
3096 602 -624 208 0
16495 602 -624 -208 0
8600 -602 624 208 0
16770 -602 624 -208 0
10148 -602 -624 208 0
16847 -602 -624 -208 0
12985 300 -209 0
5565 -300 209 0
16602 -300 -209 0
8385 202 369 -197 0
4515 202 -369 197 0
9965 202 -369 -197 0
3870 -202 369 197 0
9739 -202 369 -197 0
7031 -202 -369 197 0
10846 -202 -369 -197 0
21450 565 220 -200 0
4950 565 -220 200 0
23183 565 -220 -200 0
13200 -565 220 200 0
26070 -565 220 -200 0
16170 -565 -220 200 0
27110 -565 -220 -200 0
326 221 203 413 -205 0
1630 221 203 -413 205 0
1923 221 203 -413 -205 0
4890 221 -203 413 205 0
5118 221 -203 413 -205 0
6031 221 -203 -413 205 0
6236 221 -203 -413 -205 0
3260 -221 203 413 205 0
3521 -221 203 413 -205 0
4564 -221 203 -413 205 0
4799 -221 203 -413 -205 0
7172 -221 -203 413 205 0
7355 -221 -203 413 -205 0
8085 -221 -203 -413 205 0
8249 -221 -203 -413 -205 0
1935 218 634 216 194 -225 0
7095 218 634 216 -194 225 0
7966 218 634 216 -194 -225 0
2580 218 634 -216 194 225 0
4128 218 634 -216 194 -225 0
8256 218 634 -216 -194 225 0
8953 218 634 -216 -194 -225 0
1935 218 -634 216 194 225 0
3580 218 -634 216 194 -225 0
7966 218 -634 216 -194 225 0
8706 218 -634 216 -194 -225 0
4128 218 -634 -216 194 225 0
5444 218 -634 -216 194 -225 0
8953 218 -634 -216 -194 225 0
9545 218 -634 -216 -194 -225 0
5805 -218 634 216 194 225 0
6869 -218 634 216 194 -225 0
9707 -218 634 216 -194 225 0
10186 -218 634 216 -194 -225 0
7224 -218 634 -216 194 225 0
8075 -218 634 -216 194 -225 0
10346 -218 634 -216 -194 225 0
10729 -218 634 -216 -194 -225 0
6869 -218 -634 216 194 225 0
7774 -218 -634 216 194 -225 0
10186 -218 -634 216 -194 225 0
10593 -218 -634 216 -194 -225 0
8075 -218 -634 -216 194 225 0
8799 -218 -634 -216 194 -225 0
10729 -218 -634 -216 -194 225 0
11055 -218 -634 -216 -194 -225 0
13825 -568 0
2040 223 217 201 493 -226 0
6120 223 217 201 -493 226 0
7242 223 217 201 -493 -226 0
4760 223 217 -201 493 226 0
6086 223 217 -201 493 -226 0
8738 223 217 -201 -493 226 0
9467 223 217 -201 -493 -226 0
6120 223 -217 201 493 226 0
7242 223 -217 201 493 -226 0
9486 223 -217 201 -493 226 0
10103 223 -217 201 -493 -226 0
8738 223 -217 -201 493 226 0
9467 223 -217 -201 493 -226 0
10926 223 -217 -201 -493 226 0
11327 223 -217 -201 -493 -226 0
272 -223 217 201 493 226 0
2271 -223 217 201 493 -226 0
6270 -223 217 201 -493 226 0
7369 -223 217 201 -493 -226 0
4937 -223 217 -201 493 226 0
6236 -223 217 -201 493 -226 0
8835 -223 217 -201 -493 226 0
9550 -223 217 -201 -493 -226 0
6270 -223 -217 201 493 226 0
7369 -223 -217 201 493 -226 0
9568 -223 -217 201 -493 226 0
10173 -223 -217 201 -493 -226 0
8835 -223 -217 -201 493 226 0
9550 -223 -217 -201 493 -226 0
10979 -223 -217 -201 -493 226 0
11372 -223 -217 -201 -493 -226 0
13880 206 181 -230 0
15615 206 -181 230 0
23249 206 -181 -230 0
32965 -206 181 230 0
33659 -206 181 -230 0
33746 -206 -181 230 0
34127 -206 -181 -230 0
2000 410 219 -231 0
15200 410 -219 231 0
16440 410 -219 -231 0
8000 -410 219 231 0
9600 -410 219 -231 0
20160 -410 -219 231 0
21152 -410 -219 -231 0
1632 643 -224 0
5440 -643 224 0
6419 -643 -224 0
9075 233 -245 0
27225 -233 245 0
29494 -233 -245 0
9780 -468 0
3222 247 -620 0
9845 -247 620 0
11295 -247 -620 0
17400 249 234 239 252 227 -603 0
11136 249 234 239 252 -227 603 0
22968 249 234 239 252 -227 -603 0
3480 249 234 239 -252 227 603 0
19140 249 234 239 -252 227 -603 0
13502 249 234 239 -252 -227 603 0
24151 249 234 239 -252 -227 -603 0
20880 249 234 -239 252 227 603 0
27840 249 234 -239 252 227 -603 0
25334 249 234 -239 252 -227 603 0
30067 249 234 -239 252 -227 -603 0
22272 249 234 -239 -252 227 603 0
28536 249 234 -239 -252 227 -603 0
26281 249 234 -239 -252 -227 603 0
30540 249 234 -239 -252 -227 -603 0
1740 249 -234 239 252 227 603 0
18270 249 -234 239 252 227 -603 0
12319 249 -234 239 252 -227 603 0
23560 249 -234 239 252 -227 -603 0
5046 249 -234 239 -252 227 603 0
19923 249 -234 239 -252 227 -603 0
14567 249 -234 239 -252 -227 603 0
24684 249 -234 239 -252 -227 -603 0
21576 249 -234 -239 252 227 603 0
28188 249 -234 -239 252 227 -603 0
25808 249 -234 -239 252 -227 603 0
30304 249 -234 -239 252 -227 -603 0
22898 249 -234 -239 -252 227 603 0
28849 249 -234 -239 -252 227 -603 0
26707 249 -234 -239 -252 -227 603 0
30753 249 -234 -239 -252 -227 -603 0
8700 -249 234 239 252 227 603 0
21750 -249 234 239 252 227 -603 0
17052 -249 234 239 252 -227 603 0
25926 -249 234 239 252 -227 -603 0
11310 -249 234 239 -252 227 603 0
23055 -249 234 239 -252 227 -603 0
18827 -249 234 239 -252 -227 603 0
26813 -249 234 239 -252 -227 -603 0
24360 -249 234 -239 252 227 603 0
29580 -249 234 -239 252 227 -603 0
27701 -249 234 -239 252 -227 603 0
31250 -249 234 -239 252 -227 -603 0
25404 -249 234 -239 -252 227 603 0
30102 -249 234 -239 -252 227 -603 0
28411 -249 234 -239 -252 -227 603 0
31605 -249 234 -239 -252 -227 -603 0
10005 -249 -234 239 252 227 603 0
22403 -249 -234 239 252 227 -603 0
17939 -249 -234 239 252 -227 603 0
26370 -249 -234 239 252 -227 -603 0
12484 -249 -234 239 -252 227 603 0
23642 -249 -234 239 -252 227 -603 0
19625 -249 -234 239 -252 -227 603 0
27213 -249 -234 239 -252 -227 -603 0
24882 -249 -234 -239 252 227 603 0
29841 -249 -234 -239 252 227 -603 0
28056 -249 -234 -239 252 -227 603 0
31428 -249 -234 -239 252 -227 -603 0
25874 -249 -234 -239 -252 227 603 0
30337 -249 -234 -239 -252 227 -603 0
28730 -249 -234 -239 -252 -227 603 0
31765 -249 -234 -239 -252 -227 -603 0
12900 604 248 -235 0
9460 604 -248 235 0
15265 604 -248 -235 0
13760 -604 248 235 0
16340 -604 248 -235 0
15652 -604 -248 235 0
16813 -604 -248 -235 0
6880 253 236 254 -250 0
11180 253 236 -254 250 0
13588 253 236 -254 -250 0
12040 253 -236 254 250 0
14104 253 -236 254 -250 0
15394 253 -236 -254 250 0
16116 253 -236 -254 -250 0
11180 -253 236 254 250 0
13588 -253 236 254 -250 0
15093 -253 236 -254 250 0
15936 -253 236 -254 -250 0
15394 -253 -236 254 250 0
16116 -253 -236 254 -250 0
16568 -253 -236 -254 250 0
16821 -253 -236 -254 -250 0
2580 240 534 228 237 -255 0
14620 240 534 228 -237 255 0
15007 240 534 228 -237 -255 0
7740 240 534 -228 237 255 0
9159 240 534 -228 237 -255 0
15781 240 534 -228 -237 255 0
15994 240 534 -228 -237 -255 0
9460 240 -534 228 237 255 0
10621 240 -534 228 237 -255 0
16039 240 -534 228 -237 255 0
16213 240 -534 228 -237 -255 0
12943 240 -534 -228 237 255 0
13582 240 -534 -228 237 -255 0
16561 240 -534 -228 -237 255 0
16657 240 -534 -228 -237 -255 0
3096 -240 534 228 237 255 0
5212 -240 534 228 237 -255 0
15084 -240 534 228 -237 255 0
15402 -240 534 228 -237 -255 0
9443 -240 534 -228 237 255 0
10606 -240 534 -228 237 -255 0
16036 -240 534 -228 -237 255 0
16211 -240 534 -228 -237 -255 0
10853 -240 -534 228 237 255 0
11805 -240 -534 228 237 -255 0
16248 -240 -534 228 -237 255 0
16391 -240 -534 228 -237 -255 0
13709 -240 -534 -228 237 255 0
14233 -240 -534 -228 237 -255 0
16676 -240 -534 -228 -237 255 0
16755 -240 -534 -228 -237 -255 0
6264 260 418 198 -262 0
31320 260 418 -198 262 0
31946 260 418 -198 -262 0
6960 260 -418 198 262 0
11971 260 -418 198 -262 0
32016 260 -418 -198 262 0
32517 260 -418 -198 -262 0
20880 -260 418 198 262 0
23386 -260 418 198 -262 0
33408 -260 418 -198 262 0
33659 -260 418 -198 -262 0
23664 -260 -418 198 262 0
25668 -260 -418 198 -262 0
33686 -260 -418 -198 262 0
33887 -260 -418 -198 -262 0
5640 -232 0
29495 256 263 -403 0
6940 256 -263 403 0
30536 256 -263 -403 0
32965 -256 263 403 0
34440 -256 263 -403 0
33312 -256 -263 403 0
34492 -256 -263 -403 0
5168 275 238 -246 0
5168 275 -238 246 0
8372 275 -238 -246 0
2040 -275 238 246 0
6433 -275 238 -246 0
6433 -275 -238 246 0
9156 -275 -238 -246 0
6600 276 264 -414 0
24750 276 -264 414 0
26400 276 -264 -414 0
23100 -276 264 414 0
25080 -276 264 -414 0
30525 -276 -264 414 0
31020 -276 -264 -414 0
32470 278 -635 0
3820 -278 635 0
33043 -278 -635 0
27540 514 261 -258 0
1530 514 -261 258 0
27693 514 -261 -258 0
7650 -514 261 258 0
28305 -514 261 -258 0
8798 -514 -261 258 0
28420 -514 -261 -258 0
3870 266 280 -531 0
4515 266 -280 531 0
7031 266 -280 -531 0
4515 -266 280 531 0
7031 -266 280 -531 0
7450 -266 -280 531 0
9085 -266 -280 -531 0
5220 -277 0
8840 265 -390 0
4352 -265 390 0
10363 -265 -390 0
31725 279 -607 0
12690 -279 607 0
34897 -279 -607 0
28000 286 259 585 293 -296 0
800 286 259 585 -293 296 0
28240 286 259 585 -293 -296 0
7200 286 259 -585 293 296 0
30160 286 259 -585 293 -296 0
7856 286 259 -585 -293 296 0
30357 286 259 -585 -293 -296 0
34000 286 -259 585 293 296 0
38200 286 -259 585 293 -296 0
34120 286 -259 585 -293 296 0
38236 286 -259 585 -293 -296 0
35080 286 -259 -585 293 296 0
38524 286 -259 -585 293 -296 0
35178 286 -259 -585 -293 296 0
38554 286 -259 -585 -293 -296 0
20000 -286 259 585 293 296 0
34000 -286 259 585 293 -296 0
20400 -286 259 585 -293 296 0
34120 -286 259 585 -293 -296 0
23600 -286 259 -585 293 296 0
35080 -286 259 -585 293 -296 0
23928 -286 259 -585 -293 296 0
35178 -286 259 -585 -293 -296 0
37000 -286 -259 585 293 296 0
39100 -286 -259 585 293 -296 0
37060 -286 -259 585 -293 296 0
39118 -286 -259 585 -293 -296 0
37540 -286 -259 -585 293 296 0
39262 -286 -259 -585 293 -296 0
37589 -286 -259 -585 -293 296 0
39277 -286 -259 -585 -293 -296 0
8820 267 294 207 -291 0
33075 267 294 -207 291 0
35280 267 294 -207 -291 0
882 267 -294 207 291 0
9526 267 -294 207 -291 0
33295 267 -294 -207 291 0
35456 267 -294 -207 -291 0
6615 -267 294 207 291 0
14112 -267 294 207 -291 0
34729 -267 294 -207 291 0
36603 -267 294 -207 -291 0
7365 -267 -294 207 291 0
14712 -267 -294 207 -291 0
34916 -267 -294 -207 291 0
36753 -267 -294 -207 -291 0
12900 304 -281 0
6020 -304 281 0
14405 -304 -281 0
1630 298 287 -282 0
11410 298 -287 282 0
11899 298 -287 -282 0
3260 -298 287 282 0
4564 -298 287 -282 0
12388 -298 -287 282 0
12779 -298 -287 -282 0
26740 297 -295 0
9550 -297 295 0
29605 -297 -295 0
12705 -517 0
10410 306 292 357 -288 0
1735 306 292 -357 288 0
11625 306 292 -357 -288 0
19085 306 -292 357 288 0
23770 306 -292 357 -288 0
19866 306 -292 -357 288 0
24316 306 -292 -357 -288 0
13186 -306 292 357 288 0
19640 -306 292 357 -288 0
14262 -306 292 -357 288 0
20393 -306 292 -357 -288 0
25019 -306 -292 357 288 0
27923 -306 -292 357 -288 0
25503 -306 -292 -357 288 0
28262 -306 -292 -357 -288 0
34770 305 504 -284 0
32940 305 -504 284 0
36417 305 -504 -284 0
25620 -305 504 284 0
36051 -305 504 -284 0
35502 -305 -504 284 0
36545 -305 -504 -284 0
19890 307 299 580 289 317 -315 0
13770 307 299 580 289 -317 315 0
24709 307 299 580 289 -317 -315 0
4590 307 299 580 -289 317 315 0
21497 307 299 580 -289 317 -315 0
16294 307 299 580 -289 -317 315 0
25593 307 299 580 -289 -317 -315 0
5508 307 299 -580 289 317 315 0
21818 307 299 -580 289 317 -315 0
16799 307 299 -580 289 -317 315 0
25770 307 299 -580 289 -317 -315 0
9272 307 299 -580 -289 317 315 0
23135 307 299 -580 -289 317 -315 0
18869 307 299 -580 -289 -317 315 0
26494 307 299 -580 -289 -317 -315 0
26010 307 -299 580 289 317 315 0
28994 307 -299 580 289 317 -315 0
28075 307 -299 580 289 -317 315 0
29716 307 -299 580 289 -317 -315 0
26699 307 -299 580 -289 317 315 0
29234 307 -299 580 -289 317 -315 0
28454 307 -299 580 -289 -317 315 0
29849 307 -299 580 -289 -317 -315 0
26836 307 -299 -580 289 317 315 0
29283 307 -299 -580 289 317 -315 0
28530 307 -299 -580 289 -317 315 0
29875 307 -299 -580 289 -317 -315 0
27401 307 -299 -580 -289 317 315 0
29480 307 -299 -580 -289 317 -315 0
28840 307 -299 -580 -289 -317 315 0
29984 307 -299 -580 -289 -317 -315 0
9792 -307 299 580 289 317 315 0
23317 -307 299 580 289 317 -315 0
19156 -307 299 580 289 -317 315 0
26594 -307 299 580 289 -317 -315 0
12913 -307 299 580 -289 317 315 0
24410 -307 299 580 -289 317 -315 0
20872 -307 299 580 -289 -317 315 0
27195 -307 299 580 -289 -317 -315 0
13537 -307 299 -580 289 317 315 0
24628 -307 299 -580 289 317 -315 0
21216 -307 299 -580 289 -317 315 0
27315 -307 299 -580 289 -317 -315 0
16097 -307 299 -580 -289 317 315 0
25524 -307 299 -580 -289 317 -315 0
22623 -307 299 -580 -289 -317 315 0
27808 -307 299 -580 -289 -317 -315 0
27479 -307 -299 580 289 317 315 0
29508 -307 -299 580 289 317 -315 0
28883 -307 -299 580 289 -317 315 0
29999 -307 -299 580 289 -317 -315 0
27947 -307 -299 580 -289 317 315 0
29671 -307 -299 580 -289 317 -315 0
29141 -307 -299 580 -289 -317 315 0
30089 -307 -299 580 -289 -317 -315 0
28041 -307 -299 -580 289 317 315 0
29704 -307 -299 -580 289 317 -315 0
29192 -307 -299 -580 289 -317 315 0
30107 -307 -299 -580 289 -317 -315 0
28425 -307 -299 -580 -289 317 315 0
29839 -307 -299 -580 -289 317 -315 0
29403 -307 -299 -580 -289 -317 315 0
30181 -307 -299 -580 -289 -317 -315 0
26100 590 -318 0
6264 -590 318 0
27666 -590 -318 0
31350 321 351 -308 0
28050 321 -351 308 0
32752 321 -351 -308 0
19800 -321 351 308 0
32340 -321 351 -308 0
31020 -321 -351 308 0
32901 -321 -351 -308 0
7200 322 257 323 -319 0
16000 322 257 -323 319 0
20320 322 257 -323 -319 0
26000 322 -257 323 319 0
28520 322 -257 323 -319 0
31600 322 -257 -323 319 0
33112 322 -257 -323 -319 0
4000 -322 257 323 319 0
10480 -322 257 323 -319 0
18400 -322 257 -323 319 0
22288 -322 257 -323 -319 0
27400 -322 -257 323 319 0
29668 -322 -257 323 -319 0
32440 -322 -257 -323 319 0
33801 -322 -257 -323 -319 0
26000 320 229 316 -324 0
16000 320 229 -316 324 0
31600 320 229 -316 -324 0
32000 320 -229 316 324 0
37200 320 -229 316 -324 0
35200 320 -229 -316 324 0
38320 320 -229 -316 -324 0
20000 -320 229 316 324 0
33000 -320 229 316 -324 0
28000 -320 229 -316 324 0
35800 -320 229 -316 -324 0
36000 -320 -229 316 324 0
38600 -320 -229 316 -324 0
37600 -320 -229 -316 324 0
39160 -320 -229 -316 -324 0
25620 313 535 290 -327 0
9150 313 535 -290 327 0
28365 313 535 -290 -327 0
34770 313 -535 290 327 0
36051 313 -535 290 -327 0
35227 313 -535 -290 327 0
36188 313 -535 -290 -327 0
14640 -313 535 290 327 0
30012 -313 535 290 -327 0
20130 -313 535 -290 327 0
31659 -313 535 -290 -327 0
35502 -313 -535 290 327 0
36271 -313 -535 290 -327 0
35776 -313 -535 -290 327 0
36353 -313 -535 -290 -327 0
35280 310 332 -314 0
7938 310 -332 314 0
36868 310 -332 -314 0
30870 -310 332 314 0
41454 -310 332 -314 0
33251 -310 -332 314 0
41930 -310 -332 -314 0
1650 547 -309 0
5940 -547 309 0
7293 -547 -309 0
6345 199 -311 0
31725 -199 311 0
33311 -199 -311 0
1740 336 328 -283 0
3480 336 -328 283 0
5046 336 -328 -283 0
4176 -336 328 283 0
5707 -336 328 -283 0
7238 -336 -328 283 0
8616 -336 -328 -283 0
11180 337 -536 0
2580 -337 536 0
12083 -337 -536 0
10320 393 -285 0
7740 -393 285 0
13416 -393 -285 0
13920 222 339 334 -329 0
29580 222 339 -334 329 0
31668 222 339 -334 -329 0
6960 222 -339 334 329 0
18096 222 -339 334 -329 0
30624 222 -339 -334 329 0
32294 222 -339 -334 -329 0
11136 -222 339 334 329 0
20602 -222 339 334 -329 0
31250 -222 339 -334 329 0
32670 -222 339 -334 -329 0
15869 -222 -339 334 329 0
23441 -222 -339 334 -329 0
31960 -222 -339 -334 329 0
33096 -222 -339 -334 -329 0
3660 340 500 330 -333 0
32940 340 500 -330 333 0
33306 340 500 -330 -333 0
34770 340 -500 330 333 0
34953 340 -500 330 -333 0
36417 340 -500 -330 333 0
36435 340 -500 -330 -333 0
11712 -340 500 330 333 0
14201 -340 500 330 -333 0
34111 -340 500 -330 333 0
34360 -340 500 -330 -333 0
35356 -340 -500 330 333 0
35480 -340 -500 330 -333 0
36476 -340 -500 -330 333 0
36488 -340 -500 -330 -333 0
30000 549 335 312 -341 0
12800 549 335 -312 341 0
33200 549 335 -312 -341 0
20000 549 -335 312 341 0
35000 549 -335 312 -341 0
26400 549 -335 -312 341 0
36600 549 -335 -312 -341 0
28000 -549 335 312 341 0
37000 -549 335 312 -341 0
31840 -549 335 -312 341 0
37960 -549 335 -312 -341 0
34000 -549 -335 312 341 0
38500 -549 -335 312 -341 0
35920 -549 -335 -312 341 0
38980 -549 -335 -312 -341 0
680 -251 0
27840 338 -331 0
1740 -338 331 0
28188 -338 -331 0
5220 -438 0
