p wcnf 59 200 1000000
1000000 1 0
1000000 2 -14 0
1000000 14 -44 -1 0
1000000 3 -15 0
1000000 15 -45 -1 0
1000000 6 -16 0
1000000 16 -46 -43 -50 -1 0
1000000 7 -17 0
1000000 17 -48 -42 -1 0
1000000 8 -18 0
1000000 18 -47 -2 0
1000000 9 -19 0
1000000 19 -53 -52 -2 0
1000000 10 -20 0
1000000 20 -46 -49 -51 -2 0
1000000 12 -21 0
1000000 21 -43 -11 0
1000000 12 -22 0
1000000 22 -48 -42 -3 0
1000000 4 -23 0
1000000 23 -53 -54 -52 -3 0
1000000 6 -24 0
1000000 24 -50 -51 -3 0
1000000 9 -25 0
1000000 25 -44 -42 -3 0
1000000 11 -26 0
1000000 26 -49 -54 -4 0
1000000 13 -27 0
1000000 27 -49 -51 -44 -4 0
1000000 5 -28 0
1000000 28 -47 -52 -50 -4 0
1000000 6 -29 0
1000000 29 -48 -43 -4 0
1000000 7 -30 0
1000000 30 -47 -4 0
1000000 10 -31 0
1000000 31 -42 -54 -4 0
1000000 6 -32 0
1000000 32 -45 -46 -49 -5 0
1000000 7 -33 0
1000000 33 -44 -47 -5 0
1000000 10 -34 0
1000000 34 -43 -5 0
1000000 11 -35 0
1000000 35 -50 -45 -6 0
1000000 12 -36 0
1000000 36 -53 -48 -7 0
1000000 9 -37 0
1000000 37 -45 -7 0
1000000 11 -38 0
1000000 38 -52 -8 0
1000000 10 -39 0
1000000 39 -51 -8 0
1000000 13 -40 0
1000000 40 -54 -9 0
1000000 12 -41 0
1000000 41 -53 -43 -49 -10 0
1000000 1 0
1000000 -2 14 0
1000000 -3 15 0
1000000 -4 23 0
1000000 -5 28 0
1000000 -6 16 24 32 29 0
1000000 -7 33 30 17 0
1000000 -8 18 0
1000000 -9 37 19 25 0
1000000 -10 39 31 20 34 0
1000000 -11 35 38 26 0
1000000 -12 36 41 22 21 0
1000000 -13 40 27 0
1000000 42 58 0
1000000 43 59 0
1000000 44 59 0
1000000 45 59 0
1000000 46 55 0
1000000 47 58 0
1000000 48 58 0
1000000 49 57 0
1000000 50 55 0
1000000 51 57 0
1000000 52 56 0
1000000 53 57 0
1000000 54 55 0
1000000 -42 -58 0
1000000 -43 -59 0
1000000 -44 -59 0
1000000 -45 -59 0
1000000 -46 -55 0
1000000 -47 -58 0
1000000 -48 -58 0
1000000 -49 -57 0
1000000 -50 -55 0
1000000 -51 -57 0
1000000 -52 -56 0
1000000 -53 -57 0
1000000 -54 -55 0
8800 -55 0
15500 -56 0
13300 -57 0
8700 -58 0
8700 -59 0
2000 42 0
2600 43 0
2200 44 0
2000 45 0
2200 46 0
2000 47 0
1600 48 0
1600 49 0
2600 50 0
2600 51 0
1300 52 0
1600 53 0
900 54 0
32010 -14 0
49000 -15 0
18050 -23 0
4175 -28 0
52500 16 24 32 -29 0
12600 16 24 -32 29 0
55650 16 24 -32 -29 0
56000 16 -24 32 29 0
66500 16 -24 32 -29 0
58520 16 -24 -32 29 0
67130 16 -24 -32 -29 0
8400 -16 24 32 29 0
54600 -16 24 32 -29 0
19488 -16 24 -32 29 0
57372 -16 24 -32 -29 0
57680 -16 -24 32 29 0
66920 -16 -24 32 -29 0
59898 -16 -24 -32 29 0
67474 -16 -24 -32 -29 0
6480 33 30 -17 0
6156 33 -30 17 0
10174 33 -30 -17 0
324 -33 30 17 0
6674 -33 30 -17 0
6357 -33 -30 17 0
10294 -33 -30 -17 0
14706 -18 0
304 37 19 -25 0
5320 37 -19 25 0
5518 37 -19 -25 0
8360 -37 19 25 0
8497 -37 19 -25 0
10754 -37 -19 25 0
10843 -37 -19 -25 0
19075 39 31 20 -34 0
19075 39 31 -20 34 0
33381 39 31 -20 -34 0
49595 39 -31 20 34 0
56271 39 -31 20 -34 0
56271 39 -31 -20 34 0
61278 39 -31 -20 -34 0
9156 -39 31 20 34 0
25942 -39 31 20 -34 0
25942 -39 31 -20 34 0
38531 -39 31 -20 -34 0
52800 -39 -31 20 34 0
58675 -39 -31 20 -34 0
58675 -39 -31 -20 34 0
63081 -39 -31 -20 -34 0
25840 35 38 -26 0
13600 35 -38 26 0
34272 35 -38 -26 0
47600 -35 38 26 0
55352 -35 38 -26 0
51680 -35 -38 26 0
57882 -35 -38 -26 0
13680 36 41 22 -21 0
7600 36 41 -22 21 0
14440 36 41 -22 -21 0
12160 36 -41 22 21 0
14896 36 -41 22 -21 0
13680 36 -41 -22 21 0
15048 36 -41 -22 -21 0
8360 -36 41 22 21 0
14516 -36 41 22 -21 0
11780 -36 41 -22 21 0
14858 -36 41 -22 -21 0
13832 -36 -41 22 21 0
15063 -36 -41 22 -21 0
14516 -36 -41 -22 21 0
15132 -36 -41 -22 -21 0
3762 40 -27 0
12540 -40 27 0
14045 -40 -27 0
