p wcnf 61 212 1000000
1000000 1 0
1000000 2 -14 0
1000000 14 -46 -45 -50 -1 0
1000000 3 -15 0
1000000 15 -48 -42 -1 0
1000000 6 -16 0
1000000 16 -43 -44 -1 0
1000000 3 -17 0
1000000 17 -56 -42 -47 -2 0
1000000 4 -18 0
1000000 18 -44 -51 -54 -2 0
1000000 5 -19 0
1000000 19 -53 -52 -2 0
1000000 6 -20 0
1000000 20 -46 -55 -2 0
1000000 10 -21 0
1000000 21 -43 -2 0
1000000 11 -22 0
1000000 22 -48 -47 -3 0
1000000 12 -23 0
1000000 23 -54 -51 -52 -3 0
1000000 13 -24 0
1000000 24 -43 -42 -53 -3 0
1000000 5 -25 0
1000000 25 -49 -55 -44 -3 0
1000000 6 -26 0
1000000 26 -52 -48 -47 -3 0
1000000 12 -27 0
1000000 27 -46 -56 -4 0
1000000 10 -28 0
1000000 28 -54 -45 -4 0
1000000 12 -29 0
1000000 29 -51 -45 -5 0
1000000 6 -30 0
1000000 30 -55 -56 -5 0
1000000 7 -31 0
1000000 31 -43 -50 -5 0
1000000 9 -32 0
1000000 32 -45 -42 -5 0
1000000 13 -33 0
1000000 33 -51 -52 -44 -6 0
1000000 10 -34 0
1000000 34 -48 -47 -6 0
1000000 8 -35 0
1000000 35 -50 -42 -49 -7 0
1000000 12 -36 0
1000000 36 -55 -50 -8 0
1000000 13 -37 0
1000000 37 -46 -54 -43 -8 0
1000000 9 -38 0
1000000 38 -53 -8 0
1000000 11 -39 0
1000000 39 -46 -53 -9 0
1000000 12 -40 0
1000000 40 -49 -44 -9 0
1000000 11 -41 0
1000000 41 -49 -50 -10 0
1000000 1 0
1000000 -2 14 0
1000000 -3 17 15 0
1000000 -4 18 0
1000000 -5 19 25 0
1000000 -6 16 30 26 20 0
1000000 -7 31 0
1000000 -8 35 0
1000000 -9 38 32 0
1000000 -10 21 28 34 0
1000000 -11 41 22 39 0
1000000 -12 36 29 23 40 27 0
1000000 -13 37 33 24 0
1000000 42 60 0
1000000 43 57 0
1000000 44 59 0
1000000 45 59 0
1000000 46 59 0
1000000 47 61 0
1000000 48 61 0
1000000 49 57 0
1000000 50 60 0
1000000 51 58 0
1000000 52 60 0
1000000 53 61 0
1000000 54 57 0
1000000 55 58 0
1000000 56 58 0
1000000 -42 -60 0
1000000 -43 -57 0
1000000 -44 -59 0
1000000 -45 -59 0
1000000 -46 -59 0
1000000 -47 -61 0
1000000 -48 -61 0
1000000 -49 -57 0
1000000 -50 -60 0
1000000 -51 -58 0
1000000 -52 -60 0
1000000 -53 -61 0
1000000 -54 -57 0
1000000 -55 -58 0
1000000 -56 -58 0
8100 -57 0
13000 -58 0
13000 -59 0
9500 -60 0
9500 -61 0
3400 42 0
1800 43 0
1800 44 0
2100 45 0
2100 46 0
2100 47 0
2100 48 0
1500 49 0
1600 50 0
1800 51 0
2000 52 0
1400 53 0
1600 54 0
2100 55 0
3400 56 0
23030 -14 0
49230 17 -15 0
2735 -17 15 0
49504 -17 -15 0
25200 -18 0
9475 19 -25 0
22740 -19 25 0
26530 -19 -25 0
752 16 30 26 -20 0
1880 16 30 -26 20 0
2594 16 30 -26 -20 0
15040 16 -30 26 20 0
15491 16 -30 26 -20 0
16168 16 -30 -26 20 0
16597 16 -30 -26 -20 0
15040 -16 30 26 20 0
15491 -16 30 26 -20 0
16168 -16 30 -26 20 0
16597 -16 30 -26 -20 0
24064 -16 -30 26 20 0
24335 -16 -30 26 -20 0
24741 -16 -30 -26 20 0
24998 -16 -30 -26 -20 0
946 -31 0
6700 -35 0
16555 38 -32 0
5676 -38 32 0
20244 -38 -32 0
7580 21 28 -34 0
30320 21 -28 34 0
31836 21 -28 -34 0
758 -21 28 34 0
8186 -21 28 -34 0
30472 -21 -28 34 0
31957 -21 -28 -34 0
16454 41 22 -39 0
36805 41 -22 39 0
39273 41 -22 -39 0
7794 -41 22 39 0
21286 -41 22 -39 0
37974 -41 -22 39 0
39998 -41 -22 -39 0
3780 36 29 23 40 -27 0
4725 36 29 23 -40 27 0
7938 36 29 23 -40 -27 0
18900 36 29 -23 40 27 0
20412 36 29 -23 40 -27 0
20790 36 29 -23 -40 27 0
22075 36 29 -23 -40 -27 0
22050 36 -29 23 40 27 0
23184 36 -29 23 40 -27 0
23468 36 -29 23 -40 27 0
24431 36 -29 23 -40 -27 0
27720 36 -29 -23 40 27 0
28174 36 -29 -23 40 -27 0
28287 36 -29 -23 -40 27 0
28673 36 -29 -23 -40 -27 0
10080 -36 29 23 40 27 0
12650 -36 29 23 40 -27 0
13293 -36 29 23 -40 27 0
15478 -36 29 23 -40 -27 0
22932 -36 29 -23 40 27 0
23960 -36 29 -23 40 -27 0
24217 -36 29 -23 -40 27 0
25091 -36 29 -23 -40 -27 0
25074 -36 -29 23 40 27 0
25845 -36 -29 23 40 -27 0
26038 -36 -29 23 -40 27 0
26693 -36 -29 23 -40 -27 0
28930 -36 -29 -23 40 27 0
29238 -36 -29 -23 40 -27 0
29315 -36 -29 -23 -40 27 0
29577 -36 -29 -23 -40 -27 0
34595 37 33 -24 0
37740 37 -33 24 0
51578 37 -33 -24 0
3145 -37 33 24 0
36010 -37 33 -24 0
38998 -37 -33 24 0
52144 -37 -33 -24 0
