p wcnf 53 169 1000000
1000000 1 0
1000000 2 -13 0
1000000 13 -39 -1 0
1000000 3 -14 0
1000000 14 -41 -45 -47 -1 0
1000000 6 -15 0
1000000 15 -44 -38 -1 0
1000000 3 -16 0
1000000 16 -39 -48 -40 -2 0
1000000 5 -17 0
1000000 17 -43 -49 -2 0
1000000 9 -18 0
1000000 18 -43 -42 -45 -2 0
1000000 10 -19 0
1000000 19 -40 -2 0
1000000 4 -20 0
1000000 20 -49 -39 -44 -3 0
1000000 5 -21 0
1000000 21 -46 -3 0
1000000 6 -22 0
1000000 22 -38 -3 0
1000000 8 -23 0
1000000 23 -47 -38 -3 0
1000000 11 -24 0
1000000 24 -46 -47 -43 -4 0
1000000 7 -25 0
1000000 25 -45 -44 -4 0
1000000 9 -26 0
1000000 26 -48 -4 0
1000000 6 -27 0
1000000 27 -41 -5 0
1000000 7 -28 0
1000000 28 -41 -5 0
1000000 8 -29 0
1000000 29 -38 -42 -5 0
1000000 11 -30 0
1000000 30 -40 -6 0
1000000 8 -31 0
1000000 31 -48 -43 -42 -6 0
1000000 9 -32 0
1000000 32 -46 -41 -6 0
1000000 10 -33 0
1000000 33 -49 -39 -6 0
1000000 10 -34 0
1000000 34 -42 -7 0
1000000 11 -35 0
1000000 35 -45 -8 0
1000000 9 -36 0
1000000 36 -40 -8 0
1000000 12 -37 0
1000000 37 -38 -39 -46 -10 0
1000000 1 0
1000000 -2 13 0
1000000 -3 16 14 0
1000000 -4 20 0
1000000 -5 21 17 0
1000000 -6 15 22 27 0
1000000 -7 25 28 0
1000000 -8 23 29 31 0
1000000 -9 36 18 32 26 0
1000000 -10 34 19 33 0
1000000 -11 24 35 30 0
1000000 -12 37 0
1000000 38 51 0
1000000 39 51 0
1000000 40 50 0
1000000 41 52 0
1000000 42 51 0
1000000 43 53 0
1000000 44 50 0
1000000 45 53 0
1000000 46 53 0
1000000 47 50 0
1000000 48 52 0
1000000 49 52 0
1000000 -38 -51 0
1000000 -39 -51 0
1000000 -40 -50 0
1000000 -41 -52 0
1000000 -42 -51 0
1000000 -43 -53 0
1000000 -44 -50 0
1000000 -45 -53 0
1000000 -46 -53 0
1000000 -47 -50 0
1000000 -48 -52 0
1000000 -49 -52 0
7600 -50 0
10200 -51 0
7800 -52 0
10200 -53 0
3300 38 0
2700 39 0
3300 40 0
2200 41 0
1400 42 0
2200 43 0
1800 44 0
2700 45 0
2600 46 0
2200 47 0
2200 48 0
2700 49 0
10760 -13 0
9684 16 -14 0
34970 -16 14 0
38359 -16 -14 0
23826 -20 0
26235 21 -17 0
954 -21 17 0
26664 -21 -17 0
940 15 22 -27 0
39950 15 -22 27 0
40091 15 -22 -27 0
7050 -15 22 27 0
7849 -15 22 -27 0
41008 -15 -22 27 0
41127 -15 -22 -27 0
42350 25 -28 0
42350 -25 28 0
55055 -25 -28 0
37620 23 29 -31 0
53295 23 -29 31 0
58938 23 -29 -31 0
53295 -23 29 31 0
58938 -23 29 -31 0
61289 -23 -29 31 0
62136 -23 -29 -31 0
20862 36 18 32 -26 0
35685 36 18 -32 26 0
42987 36 18 -32 -26 0
52155 36 -18 32 26 0
53198 36 -18 32 -26 0
53939 36 -18 -32 26 0
54304 36 -18 -32 -26 0
21960 -36 18 32 26 0
34477 -36 18 32 -26 0
43371 -36 18 -32 26 0
47752 -36 18 -32 -26 0
53253 -36 -18 32 26 0
53879 -36 -18 32 -26 0
54324 -36 -18 -32 26 0
54543 -36 -18 -32 -26 0
5724 34 19 -33 0
38160 34 -19 33 0
39305 34 -19 -33 0
35775 -34 19 33 0
37206 -34 19 -33 0
45315 -34 -19 33 0
45601 -34 -19 -33 0
1582 24 35 -30 0
43505 24 -35 30 0
44217 24 -35 -30 0
3955 -24 35 30 0
5458 -24 35 -30 0
45285 -24 -35 30 0
45961 -24 -35 -30 0
58735 -37 0
