p wcnf 51 159 1000000
1000000 1 0
1000000 2 -13 0
1000000 13 -42 -36 -41 -1 0
1000000 5 -14 0
1000000 14 -43 -37 -1 0
1000000 7 -15 0
1000000 15 -37 -46 -44 -1 0
1000000 10 -16 0
1000000 16 -38 -45 -40 -1 0
1000000 3 -17 0
1000000 17 -36 -41 -2 0
1000000 4 -18 0
1000000 18 -39 -2 0
1000000 6 -19 0
1000000 19 -39 -45 -42 -2 0
1000000 7 -20 0
1000000 20 -37 -39 -43 -2 0
1000000 10 -21 0
1000000 21 -43 -38 -36 -2 0
1000000 12 -22 0
1000000 22 -41 -40 -38 -11 0
1000000 12 -23 0
1000000 23 -44 -47 -3 0
1000000 5 -24 0
1000000 24 -37 -46 -36 -3 0
1000000 12 -25 0
1000000 25 -42 -4 0
1000000 5 -26 0
1000000 26 -41 -47 -39 -4 0
1000000 9 -27 0
1000000 27 -44 -4 0
1000000 10 -28 0
1000000 28 -40 -4 0
1000000 6 -29 0
1000000 29 -44 -42 -40 -5 0
1000000 7 -30 0
1000000 30 -38 -36 -47 -5 0
1000000 8 -31 0
1000000 31 -45 -46 -5 0
1000000 10 -32 0
1000000 32 -45 -5 0
1000000 11 -33 0
1000000 33 -46 -8 0
1000000 9 -34 0
1000000 34 -37 -8 0
1000000 11 -35 0
1000000 35 -39 -38 -9 0
1000000 1 0
1000000 -2 13 0
1000000 -3 17 0
1000000 -4 18 0
1000000 -5 14 26 24 0
1000000 -6 29 19 0
1000000 -7 30 20 15 0
1000000 -8 31 0
1000000 -9 27 34 0
1000000 -10 21 16 32 28 0
1000000 -11 33 35 0
1000000 -12 25 22 23 0
1000000 36 51 0
1000000 37 48 0
1000000 38 49 0
1000000 39 48 0
1000000 40 49 0
1000000 41 49 0
1000000 42 51 0
1000000 43 48 0
1000000 44 50 0
1000000 45 51 0
1000000 46 50 0
1000000 47 50 0
1000000 -36 -51 0
1000000 -37 -48 0
1000000 -38 -49 0
1000000 -39 -48 0
1000000 -40 -49 0
1000000 -41 -49 0
1000000 -42 -51 0
1000000 -43 -48 0
1000000 -44 -50 0
1000000 -45 -51 0
1000000 -46 -50 0
1000000 -47 -50 0
9000 -48 0
9000 -49 0
9000 -50 0
9000 -51 0
2900 36 0
1000 37 0
1700 38 0
3200 39 0
3600 40 0
1700 41 0
1000 42 0
1700 43 0
3600 44 0
3200 45 0
1000 46 0
3600 47 0
4560 -13 0
35505 -17 0
1066 -18 0
418 14 26 -24 0
18810 14 -26 24 0
18852 14 -26 -24 0
8360 -14 26 24 0
8611 -14 26 -24 0
19646 -14 -26 24 0
19671 -14 -26 -24 0
12150 29 -19 0
7290 -29 19 0
15795 -29 -19 0
43320 30 20 -15 0
9120 30 -20 15 0
43776 30 -20 -15 0
31920 -30 20 15 0
44916 -30 20 -15 0
34656 -30 -20 15 0
45053 -30 -20 -15 0
8505 -31 0
4824 27 -34 0
10184 -27 34 0
13175 -27 -34 0
652 21 16 32 -28 0
1630 21 16 -32 28 0
2249 21 16 -32 -28 0
27710 21 -16 32 28 0
27808 21 -16 32 -28 0
27954 21 -16 -32 28 0
28047 21 -16 -32 -28 0
21190 -21 16 32 28 0
21418 -21 16 32 -28 0
21760 -21 16 -32 28 0
21977 -21 16 -32 -28 0
30888 -21 -16 32 28 0
30923 -21 -16 32 -28 0
30974 -21 -16 -32 28 0
31007 -21 -16 -32 -28 0
8040 33 -35 0
12060 -33 35 0
16482 -33 -35 0
22306 25 22 -23 0
7044 25 -22 23 0
26673 25 -22 -23 0
22306 -25 22 23 0
36136 -25 22 -23 0
26673 -25 -22 23 0
38843 -25 -22 -23 0
