p wcnf 927 3787 1000000
1000000 1 0
1000000 2 -167 0
1000000 167 -654 -655 -1 0
1000000 129 -168 0
1000000 168 -659 -660 -1 0
1000000 3 -169 0
1000000 169 -657 -658 -1 0
1000000 24 -170 0
1000000 170 -661 -1 0
1000000 4 -171 0
1000000 171 -669 -656 -664 -1 0
1000000 5 -172 0
1000000 172 -663 -670 -666 -1 0
1000000 42 -173 0
1000000 173 -667 -1 0
1000000 81 -174 0
1000000 174 -668 -1 0
1000000 11 -175 0
1000000 175 -674 -672 -665 -2 0
1000000 119 -176 0
1000000 176 -675 -680 -673 -2 0
1000000 13 -177 0
1000000 177 -671 -2 0
1000000 58 -178 0
1000000 178 -662 -682 -681 -2 0
1000000 7 -179 0
1000000 179 -684 -676 -687 -2 0
1000000 76 -180 0
1000000 180 -688 -686 -679 -2 0
1000000 9 -181 0
1000000 181 -677 -2 0
1000000 12 -182 0
1000000 182 -685 -691 -11 0
1000000 15 -183 0
1000000 183 -690 -693 -695 -11 0
1000000 16 -184 0
1000000 184 -696 -683 -11 0
1000000 20 -185 0
1000000 185 -689 -11 0
1000000 102 -186 0
1000000 186 -678 -101 0
1000000 117 -187 0
1000000 187 -699 -692 -703 -101 0
1000000 103 -188 0
1000000 188 -698 -704 -701 -102 0
1000000 104 -189 0
1000000 189 -694 -706 -697 -102 0
1000000 147 -190 0
1000000 190 -707 -705 -102 0
1000000 154 -191 0
1000000 191 -712 -714 -709 -102 0
1000000 106 -192 0
1000000 192 -708 -711 -716 -103 0
1000000 113 -193 0
1000000 193 -700 -103 0
1000000 105 -194 0
1000000 194 -710 -104 0
1000000 113 -195 0
1000000 195 -721 -715 -718 -104 0
1000000 114 -196 0
1000000 196 -723 -702 -720 -104 0
1000000 106 -197 0
1000000 197 -713 -105 0
1000000 113 -198 0
1000000 198 -719 -722 -105 0
1000000 122 -199 0
1000000 199 -717 -725 -106 0
1000000 126 -200 0
1000000 200 -727 -729 -106 0
1000000 111 -201 0
1000000 201 -726 -724 -107 0
1000000 113 -202 0
1000000 202 -728 -107 0
1000000 117 -203 0
1000000 203 -737 -738 -733 -108 0
1000000 122 -204 0
1000000 204 -734 -730 -108 0
1000000 110 -205 0
1000000 205 -732 -741 -740 -109 0
1000000 112 -206 0
1000000 206 -731 -109 0
1000000 149 -207 0
1000000 207 -739 -742 -109 0
1000000 155 -208 0
1000000 208 -746 -748 -745 -109 0
1000000 111 -209 0
1000000 209 -736 -110 0
1000000 113 -210 0
1000000 210 -750 -743 -747 -110 0
1000000 18 -211 0
1000000 211 -735 -754 -749 -12 0
1000000 29 -212 0
1000000 212 -751 -12 0
1000000 50 -213 0
1000000 213 -757 -756 -752 -12 0
1000000 114 -214 0
1000000 214 -755 -111 0
1000000 118 -215 0
1000000 215 -744 -761 -111 0
1000000 119 -216 0
1000000 216 -766 -762 -760 -111 0
1000000 114 -217 0
1000000 217 -759 -112 0
1000000 118 -218 0
1000000 218 -765 -753 -764 -112 0
1000000 117 -219 0
1000000 219 -758 -769 -113 0
1000000 120 -220 0
1000000 220 -763 -113 0
1000000 135 -221 0
1000000 221 -773 -772 -113 0
1000000 116 -222 0
1000000 222 -774 -771 -114 0
1000000 120 -223 0
1000000 223 -768 -114 0
1000000 119 -224 0
1000000 224 -776 -781 -770 -115 0
1000000 121 -225 0
1000000 225 -778 -780 -115 0
1000000 133 -226 0
1000000 226 -779 -783 -115 0
1000000 117 -227 0
1000000 227 -767 -787 -785 -116 0
1000000 120 -228 0
1000000 228 -777 -789 -786 -116 0
1000000 121 -229 0
1000000 229 -775 -788 -792 -116 0
1000000 137 -230 0
1000000 230 -796 -794 -784 -116 0
1000000 123 -231 0
1000000 231 -791 -117 0
1000000 128 -232 0
1000000 232 -793 -117 0
1000000 128 -233 0
1000000 233 -799 -798 -118 0
1000000 139 -234 0
1000000 234 -795 -118 0
1000000 123 -235 0
1000000 235 -801 -790 -119 0
1000000 125 -236 0
1000000 236 -804 -805 -797 -119 0
1000000 158 -237 0
1000000 237 -802 -119 0
1000000 122 -238 0
1000000 238 -782 -120 0
1000000 129 -239 0
1000000 239 -808 -809 -120 0
1000000 126 -240 0
1000000 240 -803 -807 -13 0
1000000 161 -241 0
1000000 241 -800 -13 0
1000000 20 -242 0
1000000 242 -813 -811 -13 0
1000000 25 -243 0
1000000 243 -810 -815 -812 -13 0
1000000 51 -244 0
1000000 244 -806 -13 0
1000000 126 -245 0
1000000 245 -817 -819 -818 -121 0
1000000 142 -246 0
1000000 246 -820 -121 0
1000000 130 -247 0
1000000 247 -814 -122 0
1000000 135 -248 0
1000000 248 -821 -824 -822 -122 0
1000000 125 -249 0
1000000 249 -823 -123 0
1000000 126 -250 0
1000000 250 -832 -831 -826 -123 0
1000000 128 -251 0
1000000 251 -835 -828 -834 -124 0
1000000 131 -252 0
1000000 252 -833 -816 -124 0
1000000 139 -253 0
1000000 253 -837 -827 -840 -124 0
1000000 127 -254 0
1000000 254 -829 -125 0
1000000 135 -255 0
1000000 255 -842 -830 -843 -125 0
1000000 127 -256 0
1000000 256 -844 -839 -836 -126 0
1000000 129 -257 0
1000000 257 -825 -850 -846 -126 0
1000000 143 -258 0
1000000 258 -848 -849 -127 0
1000000 151 -259 0
1000000 259 -855 -851 -853 -127 0
1000000 132 -260 0
1000000 260 -857 -845 -854 -128 0
1000000 144 -261 0
1000000 261 -841 -128 0
1000000 136 -262 0
1000000 262 -847 -129 0
1000000 138 -263 0
1000000 263 -655 -852 -654 -129 0
1000000 132 -264 0
1000000 264 -838 -858 -660 -130 0
1000000 139 -265 0
1000000 265 -659 -657 -130 0
1000000 23 -266 0
1000000 266 -661 -663 -14 0
1000000 26 -267 0
1000000 267 -658 -664 -14 0
1000000 28 -268 0
1000000 268 -667 -656 -670 -14 0
1000000 134 -269 0
1000000 269 -666 -662 -131 0
1000000 138 -270 0
1000000 270 -856 -671 -674 -131 0
1000000 139 -271 0
1000000 271 -669 -131 0
1000000 136 -272 0
1000000 272 -675 -665 -132 0
1000000 138 -273 0
1000000 273 -672 -678 -132 0
1000000 144 -274 0
1000000 274 -673 -133 0
1000000 145 -275 0
1000000 275 -668 -681 -133 0
1000000 135 -276 0
1000000 276 -682 -684 -686 -134 0
1000000 144 -277 0
1000000 277 -688 -679 -676 -134 0
1000000 136 -278 0
1000000 278 -683 -687 -135 0
1000000 137 -279 0
1000000 279 -685 -677 -135 0
1000000 151 -280 0
1000000 280 -693 -689 -680 -136 0
1000000 152 -281 0
1000000 281 -699 -695 -697 -136 0
1000000 138 -282 0
1000000 282 -692 -137 0
1000000 148 -283 0
1000000 283 -700 -698 -696 -137 0
1000000 146 -284 0
1000000 284 -706 -704 -694 -138 0
1000000 148 -285 0
1000000 285 -691 -138 0
1000000 155 -286 0
1000000 286 -690 -138 0
1000000 140 -287 0
1000000 287 -711 -707 -710 -139 0
1000000 149 -288 0
1000000 288 -703 -708 -714 -139 0
1000000 141 -289 0
1000000 289 -712 -701 -140 0
1000000 143 -290 0
1000000 290 -709 -716 -705 -140 0
1000000 19 -291 0
1000000 291 -713 -15 0
1000000 28 -292 0
1000000 292 -719 -722 -718 -15 0
1000000 66 -293 0
1000000 293 -702 -15 0
1000000 67 -294 0
1000000 294 -720 -715 -15 0
1000000 75 -295 0
1000000 295 -725 -717 -15 0
1000000 142 -296 0
1000000 296 -723 -141 0
1000000 145 -297 0
1000000 297 -727 -721 -730 -141 0
1000000 145 -298 0
1000000 298 -732 -724 -142 0
1000000 155 -299 0
1000000 299 -731 -733 -142 0
1000000 147 -300 0
1000000 300 -728 -143 0
1000000 149 -301 0
1000000 301 -734 -738 -729 -143 0
1000000 149 -302 0
1000000 302 -742 -740 -739 -144 0
1000000 153 -303 0
1000000 303 -736 -144 0
1000000 156 -304 0
1000000 304 -741 -726 -746 -145 0
1000000 159 -305 0
1000000 305 -748 -744 -745 -145 0
1000000 149 -306 0
1000000 306 -735 -146 0
1000000 156 -307 0
1000000 307 -747 -743 -146 0
1000000 149 -308 0
1000000 308 -753 -749 -147 0
1000000 154 -309 0
1000000 309 -752 -758 -750 -147 0
1000000 151 -310 0
1000000 310 -757 -751 -755 -148 0
1000000 154 -311 0
1000000 311 -754 -764 -760 -148 0
1000000 153 -312 0
1000000 312 -763 -759 -149 0
1000000 158 -313 0
1000000 313 -761 -765 -767 -149 0
1000000 151 -314 0
1000000 314 -766 -756 -150 0
1000000 162 -315 0
1000000 315 -737 -770 -762 -150 0
1000000 166 -316 0
1000000 316 -773 -768 -150 0
1000000 17 -317 0
1000000 317 -769 -16 0
1000000 19 -318 0
1000000 318 -772 -16 0
1000000 22 -319 0
1000000 319 -771 -778 -16 0
1000000 29 -320 0
1000000 320 -777 -781 -782 -16 0
1000000 39 -321 0
1000000 321 -774 -16 0
1000000 152 -322 0
1000000 322 -779 -151 0
1000000 153 -323 0
1000000 323 -776 -151 0
1000000 154 -324 0
1000000 324 -787 -775 -780 -152 0
1000000 162 -325 0
1000000 325 -789 -783 -152 0
1000000 158 -326 0
1000000 326 -785 -791 -153 0
1000000 165 -327 0
1000000 327 -792 -784 -153 0
1000000 159 -328 0
1000000 328 -788 -154 0
1000000 160 -329 0
1000000 329 -790 -793 -154 0
1000000 159 -330 0
1000000 330 -786 -155 0
1000000 165 -331 0
1000000 331 -799 -796 -155 0
1000000 160 -332 0
1000000 332 -794 -156 0
1000000 162 -333 0
1000000 333 -800 -802 -156 0
1000000 158 -334 0
1000000 334 -797 -157 0
1000000 160 -335 0
1000000 335 -798 -807 -805 -157 0
1000000 162 -336 0
1000000 336 -795 -811 -804 -158 0
1000000 163 -337 0
1000000 337 -806 -813 -809 -158 0
1000000 160 -338 0
1000000 338 -812 -801 -159 0
1000000 162 -339 0
1000000 339 -817 -803 -810 -159 0
1000000 164 -340 0
1000000 340 -821 -822 -818 -160 0
1000000 166 -341 0
1000000 341 -825 -814 -820 -160 0
1000000 18 -342 0
1000000 342 -815 -827 -816 -17 0
1000000 20 -343 0
1000000 343 -819 -17 0
1000000 24 -344 0
1000000 344 -808 -17 0
1000000 34 -345 0
1000000 345 -824 -823 -17 0
1000000 41 -346 0
1000000 346 -832 -835 -834 -17 0
1000000 165 -347 0
1000000 347 -829 -161 0
1000000 166 -348 0
1000000 348 -838 -836 -839 -162 0
1000000 162 -349 0
1000000 349 -837 -831 -18 0
1000000 19 -350 0
1000000 350 -833 -843 -842 -18 0
1000000 33 -351 0
1000000 351 -830 -18 0
1000000 35 -352 0
1000000 352 -841 -845 -18 0
1000000 40 -353 0
1000000 353 -826 -18 0
1000000 57 -354 0
1000000 354 -849 -846 -847 -18 0
1000000 142 -355 0
1000000 355 -853 -852 -854 -19 0
1000000 21 -356 0
1000000 356 -848 -844 -857 -19 0
1000000 22 -357 0
1000000 357 -654 -850 -858 -19 0
1000000 35 -358 0
1000000 358 -856 -851 -19 0
1000000 44 -359 0
1000000 359 -828 -19 0
1000000 61 -360 0
1000000 360 -661 -657 -840 -19 0
1000000 63 -361 0
1000000 361 -855 -19 0
1000000 69 -362 0
1000000 362 -656 -19 0
1000000 28 -363 0
1000000 363 -658 -659 -20 0
1000000 29 -364 0
1000000 364 -667 -662 -668 -20 0
1000000 89 -365 0
1000000 365 -669 -663 -665 -20 0
1000000 100 -366 0
1000000 366 -660 -20 0
1000000 11 -367 0
1000000 367 -655 -670 -3 0
1000000 13 -368 0
1000000 368 -672 -666 -664 -3 0
1000000 25 -369 0
1000000 369 -673 -678 -674 -3 0
1000000 27 -370 0
1000000 370 -671 -681 -682 -3 0
1000000 4 -371 0
1000000 371 -677 -3 0
1000000 5 -372 0
1000000 372 -680 -676 -686 -3 0
1000000 7 -373 0
1000000 373 -687 -683 -3 0
1000000 10 -374 0
1000000 374 -684 -3 0
1000000 101 -375 0
1000000 375 -693 -675 -685 -21 0
1000000 23 -376 0
1000000 376 -679 -696 -688 -21 0
1000000 26 -377 0
1000000 377 -690 -21 0
1000000 23 -378 0
1000000 378 -700 -697 -699 -22 0
1000000 27 -379 0
1000000 379 -691 -22 0
1000000 30 -380 0
1000000 380 -694 -22 0
1000000 36 -381 0
1000000 381 -702 -692 -701 -22 0
1000000 37 -382 0
1000000 382 -707 -708 -695 -22 0
1000000 98 -383 0
1000000 383 -705 -704 -22 0
1000000 138 -384 0
1000000 384 -689 -706 -23 0
1000000 156 -385 0
1000000 385 -712 -698 -703 -23 0
1000000 28 -386 0
1000000 386 -709 -23 0
1000000 34 -387 0
1000000 387 -714 -710 -23 0
1000000 47 -388 0
1000000 388 -716 -717 -23 0
1000000 132 -389 0
1000000 389 -715 -718 -24 0
1000000 26 -390 0
1000000 390 -721 -713 -720 -24 0
1000000 29 -391 0
1000000 391 -711 -24 0
1000000 59 -392 0
1000000 392 -723 -24 0
1000000 136 -393 0
1000000 393 -724 -25 0
1000000 31 -394 0
1000000 394 -722 -25 0
1000000 34 -395 0
1000000 395 -728 -729 -25 0
1000000 91 -396 0
1000000 396 -719 -727 -730 -25 0
1000000 30 -397 0
1000000 397 -731 -26 0
1000000 36 -398 0
1000000 398 -732 -26 0
1000000 52 -399 0
1000000 399 -725 -26 0
1000000 29 -400 0
1000000 400 -733 -27 0
1000000 31 -401 0
1000000 401 -726 -737 -27 0
1000000 35 -402 0
1000000 402 -743 -734 -741 -28 0
1000000 37 -403 0
1000000 403 -735 -742 -28 0
1000000 49 -404 0
1000000 404 -739 -736 -28 0
1000000 38 -405 0
1000000 405 -744 -29 0
1000000 42 -406 0
1000000 406 -745 -746 -748 -29 0
1000000 68 -407 0
1000000 407 -738 -29 0
1000000 95 -408 0
1000000 408 -747 -750 -29 0
1000000 99 -409 0
1000000 409 -749 -29 0
1000000 32 -410 0
1000000 410 -752 -30 0
1000000 33 -411 0
1000000 411 -753 -30 0
1000000 127 -412 0
1000000 412 -740 -4 0
1000000 128 -413 0
1000000 413 -754 -758 -751 -4 0
1000000 15 -414 0
1000000 414 -756 -4 0
1000000 16 -415 0
1000000 415 -760 -759 -4 0
1000000 34 -416 0
1000000 416 -761 -755 -767 -4 0
1000000 6 -417 0
1000000 417 -762 -763 -4 0
1000000 32 -418 0
1000000 418 -768 -770 -772 -31 0
1000000 34 -419 0
1000000 419 -757 -765 -31 0
1000000 49 -420 0
1000000 420 -769 -775 -777 -31 0
1000000 160 -421 0
1000000 421 -766 -773 -32 0
1000000 39 -422 0
1000000 422 -774 -776 -32 0
1000000 43 -423 0
1000000 423 -780 -779 -32 0
1000000 66 -424 0
1000000 424 -771 -33 0
1000000 76 -425 0
1000000 425 -764 -787 -778 -33 0
1000000 164 -426 0
1000000 426 -781 -34 0
1000000 37 -427 0
1000000 427 -785 -786 -34 0
1000000 39 -428 0
1000000 428 -782 -790 -783 -34 0
1000000 88 -429 0
1000000 429 -796 -794 -792 -34 0
1000000 38 -430 0
1000000 430 -791 -788 -35 0
1000000 39 -431 0
1000000 431 -784 -35 0
1000000 102 -432 0
1000000 432 -795 -36 0
1000000 38 -433 0
1000000 433 -793 -36 0
1000000 39 -434 0
1000000 434 -798 -800 -789 -36 0
1000000 40 -435 0
1000000 435 -799 -804 -802 -37 0
1000000 43 -436 0
1000000 436 -801 -37 0
1000000 44 -437 0
1000000 437 -797 -810 -806 -37 0
1000000 62 -438 0
1000000 438 -813 -811 -812 -37 0
1000000 123 -439 0
1000000 439 -807 -38 0
1000000 49 -440 0
1000000 440 -808 -38 0
1000000 60 -441 0
1000000 441 -814 -805 -803 -38 0
1000000 64 -442 0
1000000 442 -822 -818 -809 -38 0
1000000 45 -443 0
1000000 443 -816 -821 -820 -39 0
1000000 49 -444 0
1000000 444 -823 -824 -39 0
1000000 56 -445 0
1000000 445 -815 -39 0
1000000 42 -446 0
1000000 446 -825 -828 -40 0
1000000 46 -447 0
1000000 447 -819 -40 0
1000000 21 -448 0
1000000 448 -817 -5 0
1000000 28 -449 0
1000000 449 -826 -831 -827 -5 0
1000000 6 -450 0
1000000 450 -832 -833 -5 0
1000000 7 -451 0
1000000 451 -834 -840 -837 -5 0
1000000 9 -452 0
1000000 452 -836 -835 -5 0
1000000 140 -453 0
1000000 453 -839 -830 -843 -41 0
1000000 42 -454 0
1000000 454 -848 -844 -838 -41 0
1000000 45 -455 0
1000000 455 -829 -842 -847 -41 0
1000000 47 -456 0
1000000 456 -841 -41 0
1000000 73 -457 0
1000000 457 -852 -851 -41 0
1000000 80 -458 0
1000000 458 -854 -855 -857 -41 0
1000000 48 -459 0
1000000 459 -846 -42 0
1000000 53 -460 0
1000000 460 -845 -42 0
1000000 55 -461 0
1000000 461 -850 -654 -42 0
1000000 45 -462 0
1000000 462 -858 -856 -849 -43 0
1000000 46 -463 0
1000000 463 -853 -656 -657 -43 0
1000000 70 -464 0
1000000 464 -658 -43 0
1000000 49 -465 0
1000000 465 -663 -659 -44 0
1000000 56 -466 0
1000000 466 -655 -660 -44 0
1000000 50 -467 0
1000000 467 -666 -664 -45 0
1000000 58 -468 0
1000000 468 -667 -662 -671 -45 0
1000000 48 -469 0
1000000 469 -665 -46 0
1000000 51 -470 0
1000000 470 -669 -46 0
1000000 48 -471 0
1000000 471 -672 -670 -47 0
1000000 49 -472 0
1000000 472 -677 -673 -679 -47 0
1000000 50 -473 0
1000000 473 -661 -676 -681 -48 0
1000000 53 -474 0
1000000 474 -675 -48 0
1000000 77 -475 0
1000000 475 -680 -668 -48 0
1000000 90 -476 0
1000000 476 -682 -684 -48 0
1000000 60 -477 0
1000000 477 -685 -683 -687 -49 0
1000000 74 -478 0
1000000 478 -674 -49 0
1000000 163 -479 0
1000000 479 -691 -678 -50 0
1000000 58 -480 0
1000000 480 -689 -695 -696 -50 0
1000000 59 -481 0
1000000 481 -688 -698 -692 -50 0
1000000 124 -482 0
1000000 482 -690 -693 -6 0
1000000 152 -483 0
1000000 483 -686 -701 -704 -6 0
1000000 31 -484 0
1000000 484 -694 -6 0
1000000 8 -485 0
1000000 485 -703 -699 -6 0
1000000 9 -486 0
1000000 486 -697 -6 0
1000000 10 -487 0
1000000 487 -706 -707 -6 0
1000000 112 -488 0
1000000 488 -700 -51 0
1000000 143 -489 0
1000000 489 -708 -702 -51 0
1000000 52 -490 0
1000000 490 -705 -51 0
1000000 53 -491 0
1000000 491 -715 -713 -712 -51 0
1000000 55 -492 0
1000000 492 -711 -710 -51 0
1000000 56 -493 0
1000000 493 -717 -714 -51 0
1000000 57 -494 0
1000000 494 -716 -721 -52 0
1000000 58 -495 0
1000000 495 -726 -719 -725 -52 0
1000000 84 -496 0
1000000 496 -724 -720 -52 0
1000000 54 -497 0
1000000 497 -723 -709 -722 -53 0
1000000 55 -498 0
1000000 498 -718 -53 0
1000000 56 -499 0
1000000 499 -727 -53 0
1000000 165 -500 0
1000000 500 -735 -730 -733 -54 0
1000000 58 -501 0
1000000 501 -738 -729 -732 -54 0
1000000 62 -502 0
1000000 502 -734 -740 -737 -54 0
1000000 79 -503 0
1000000 503 -728 -54 0
1000000 114 -504 0
1000000 504 -739 -55 0
1000000 59 -505 0
1000000 505 -741 -744 -731 -55 0
1000000 69 -506 0
1000000 506 -746 -743 -742 -55 0
1000000 78 -507 0
1000000 507 -750 -747 -55 0
1000000 86 -508 0
1000000 508 -745 -755 -749 -55 0
1000000 108 -509 0
1000000 509 -751 -752 -56 0
1000000 141 -510 0
1000000 510 -736 -756 -754 -56 0
1000000 58 -511 0
1000000 511 -748 -761 -762 -56 0
1000000 60 -512 0
1000000 512 -758 -757 -766 -56 0
1000000 74 -513 0
1000000 513 -759 -760 -56 0
1000000 65 -514 0
1000000 514 -764 -57 0
1000000 69 -515 0
1000000 515 -768 -772 -765 -57 0
1000000 59 -516 0
1000000 516 -770 -769 -58 0
1000000 61 -517 0
1000000 517 -777 -771 -767 -58 0
1000000 121 -518 0
1000000 518 -778 -773 -779 -59 0
1000000 63 -519 0
1000000 519 -780 -763 -59 0
1000000 65 -520 0
1000000 520 -785 -774 -782 -59 0
1000000 157 -521 0
1000000 521 -775 -776 -60 0
1000000 63 -522 0
1000000 522 -753 -787 -60 0
1000000 66 -523 0
1000000 523 -784 -789 -60 0
1000000 92 -524 0
1000000 524 -790 -791 -60 0
1000000 12 -525 0
1000000 525 -786 -783 -7 0
1000000 16 -526 0
1000000 526 -798 -792 -781 -7 0
1000000 17 -527 0
1000000 527 -794 -7 0
1000000 23 -528 0
1000000 528 -795 -7 0
1000000 38 -529 0
1000000 529 -793 -797 -796 -7 0
1000000 60 -530 0
1000000 530 -799 -7 0
1000000 9 -531 0
1000000 531 -802 -804 -7 0
1000000 62 -532 0
1000000 532 -801 -788 -61 0
1000000 63 -533 0
1000000 533 -808 -800 -61 0
1000000 71 -534 0
1000000 534 -806 -812 -811 -61 0
1000000 85 -535 0
1000000 535 -805 -61 0
1000000 63 -536 0
1000000 536 -807 -62 0
1000000 65 -537 0
1000000 537 -815 -809 -803 -62 0
1000000 144 -538 0
1000000 538 -818 -817 -63 0
1000000 71 -539 0
1000000 539 -816 -821 -810 -63 0
1000000 72 -540 0
1000000 540 -823 -813 -826 -63 0
1000000 65 -541 0
1000000 541 -828 -822 -814 -64 0
1000000 66 -542 0
1000000 542 -820 -64 0
1000000 68 -543 0
1000000 543 -819 -832 -833 -64 0
1000000 66 -544 0
1000000 544 -827 -65 0
1000000 69 -545 0
1000000 545 -824 -831 -65 0
1000000 67 -546 0
1000000 546 -830 -837 -825 -66 0
1000000 70 -547 0
1000000 547 -834 -66 0
1000000 70 -548 0
1000000 548 -839 -840 -67 0
1000000 72 -549 0
1000000 549 -841 -836 -67 0
1000000 110 -550 0
1000000 550 -845 -842 -846 -68 0
1000000 122 -551 0
1000000 551 -848 -847 -829 -68 0
1000000 69 -552 0
1000000 552 -852 -851 -853 -68 0
1000000 80 -553 0
1000000 553 -838 -68 0
1000000 70 -554 0
1000000 554 -850 -843 -844 -69 0
1000000 72 -555 0
1000000 555 -835 -69 0
1000000 78 -556 0
1000000 556 -854 -654 -655 -69 0
1000000 151 -557 0
1000000 557 -857 -858 -70 0
1000000 78 -558 0
1000000 558 -856 -70 0
1000000 81 -559 0
1000000 559 -658 -855 -70 0
1000000 14 -560 0
1000000 560 -849 -657 -661 -8 0
1000000 16 -561 0
1000000 561 -660 -8 0
1000000 20 -562 0
1000000 562 -668 -656 -664 -8 0
1000000 111 -563 0
1000000 563 -662 -71 0
1000000 79 -564 0
1000000 564 -659 -667 -671 -71 0
1000000 80 -565 0
1000000 565 -675 -673 -669 -71 0
1000000 78 -566 0
1000000 566 -665 -677 -676 -72 0
1000000 84 -567 0
1000000 567 -681 -679 -670 -72 0
1000000 109 -568 0
1000000 568 -680 -674 -73 0
1000000 77 -569 0
1000000 569 -682 -672 -686 -73 0
1000000 79 -570 0
1000000 570 -683 -688 -666 -73 0
1000000 93 -571 0
1000000 571 -685 -684 -73 0
1000000 113 -572 0
1000000 572 -691 -689 -678 -74 0
1000000 81 -573 0
1000000 573 -687 -74 0
1000000 82 -574 0
1000000 574 -690 -694 -74 0
1000000 97 -575 0
1000000 575 -692 -74 0
1000000 104 -576 0
1000000 576 -696 -663 -75 0
1000000 82 -577 0
1000000 577 -695 -75 0
1000000 84 -578 0
1000000 578 -703 -702 -701 -75 0
1000000 86 -579 0
1000000 579 -705 -707 -693 -75 0
1000000 77 -580 0
1000000 580 -698 -76 0
1000000 81 -581 0
1000000 581 -699 -76 0
1000000 79 -582 0
1000000 582 -700 -709 -77 0
1000000 81 -583 0
1000000 583 -710 -706 -77 0
1000000 80 -584 0
1000000 584 -704 -708 -78 0
1000000 82 -585 0
1000000 585 -711 -78 0
1000000 87 -586 0
1000000 586 -712 -78 0
1000000 82 -587 0
1000000 587 -697 -79 0
1000000 84 -588 0
1000000 588 -719 -720 -721 -79 0
1000000 106 -589 0
1000000 589 -713 -80 0
1000000 91 -590 0
1000000 590 -723 -714 -725 -80 0
1000000 11 -591 0
1000000 591 -728 -722 -727 -9 0
1000000 146 -592 0
1000000 592 -726 -716 -731 -9 0
1000000 33 -593 0
1000000 593 -715 -729 -9 0
1000000 46 -594 0
1000000 594 -733 -732 -9 0
1000000 10 -595 0
1000000 595 -724 -9 0
1000000 153 -596 0
1000000 596 -730 -718 -81 0
1000000 83 -597 0
1000000 597 -717 -81 0
1000000 86 -598 0
1000000 598 -742 -734 -737 -81 0
1000000 125 -599 0
1000000 599 -741 -738 -82 0
1000000 159 -600 0
1000000 600 -736 -82 0
1000000 83 -601 0
1000000 601 -739 -744 -82 0
1000000 86 -602 0
1000000 602 -735 -746 -82 0
1000000 88 -603 0
1000000 603 -747 -750 -748 -82 0
1000000 96 -604 0
1000000 604 -745 -82 0
1000000 86 -605 0
1000000 605 -751 -753 -83 0
1000000 87 -606 0
1000000 606 -749 -83 0
1000000 103 -607 0
1000000 607 -740 -757 -759 -84 0
1000000 116 -608 0
1000000 608 -762 -761 -756 -84 0
1000000 87 -609 0
1000000 609 -743 -755 -84 0
1000000 95 -610 0
1000000 610 -752 -84 0
1000000 87 -611 0
1000000 611 -758 -85 0
1000000 88 -612 0
1000000 612 -754 -760 -85 0
1000000 101 -613 0
1000000 613 -764 -86 0
1000000 130 -614 0
1000000 614 -766 -86 0
1000000 88 -615 0
1000000 615 -767 -773 -765 -86 0
1000000 90 -616 0
1000000 616 -770 -775 -776 -87 0
1000000 94 -617 0
1000000 617 -778 -768 -771 -87 0
1000000 96 -618 0
1000000 618 -772 -782 -777 -88 0
1000000 100 -619 0
1000000 619 -763 -88 0
1000000 107 -620 0
1000000 620 -779 -89 0
1000000 90 -621 0
1000000 621 -769 -780 -89 0
1000000 95 -622 0
1000000 622 -774 -784 -89 0
1000000 93 -623 0
1000000 623 -785 -90 0
1000000 95 -624 0
1000000 624 -789 -788 -90 0
1000000 12 -625 0
1000000 625 -786 -781 -10 0
1000000 13 -626 0
1000000 626 -793 -792 -10 0
1000000 150 -627 0
1000000 627 -787 -791 -796 -10 0
1000000 102 -628 0
1000000 628 -799 -800 -794 -91 0
1000000 107 -629 0
1000000 629 -795 -783 -798 -91 0
1000000 145 -630 0
1000000 630 -790 -91 0
1000000 117 -631 0
1000000 631 -797 -802 -804 -92 0
1000000 94 -632 0
1000000 632 -803 -801 -92 0
1000000 95 -633 0
1000000 633 -805 -813 -811 -92 0
1000000 98 -634 0
1000000 634 -808 -92 0
1000000 98 -635 0
1000000 635 -812 -814 -93 0
1000000 100 -636 0
1000000 636 -817 -816 -819 -93 0
1000000 106 -637 0
1000000 637 -822 -810 -815 -94 0
1000000 96 -638 0
1000000 638 -806 -94 0
1000000 97 -639 0
1000000 639 -820 -823 -94 0
1000000 117 -640 0
1000000 640 -824 -825 -95 0
1000000 131 -641 0
1000000 641 -807 -821 -95 0
1000000 98 -642 0
1000000 642 -832 -826 -831 -95 0
1000000 102 -643 0
1000000 643 -827 -96 0
1000000 97 -644 0
1000000 644 -836 -828 -818 -96 0
1000000 99 -645 0
1000000 645 -830 -97 0
1000000 100 -646 0
1000000 646 -829 -835 -97 0
1000000 103 -647 0
1000000 647 -837 -833 -98 0
1000000 99 -648 0
1000000 648 -838 -98 0
1000000 103 -649 0
1000000 649 -840 -839 -842 -99 0
1000000 105 -650 0
1000000 650 -844 -846 -847 -99 0
1000000 115 -651 0
1000000 651 -809 -99 0
1000000 103 -652 0
1000000 652 -848 -849 -100 0
1000000 105 -653 0
1000000 653 -834 -843 -100 0
1000000 1 0
1000000 -2 167 0
1000000 -3 169 0
1000000 -4 371 171 0
1000000 -5 372 172 0
1000000 -6 417 450 0
1000000 -7 373 451 179 0
1000000 -8 485 0
1000000 -9 486 452 181 531 0
1000000 -10 487 595 374 0
1000000 -11 175 591 367 0
1000000 -12 182 525 625 0
1000000 -13 177 368 626 0
1000000 -14 560 0
1000000 -15 414 183 0
1000000 -16 184 526 415 561 0
1000000 -17 527 317 0
1000000 -18 211 342 0
1000000 -19 350 291 318 0
1000000 -20 242 343 562 185 0
1000000 -21 448 356 0
1000000 -22 319 357 0
1000000 -23 266 376 378 528 0
1000000 -24 344 170 0
1000000 -25 243 369 0
1000000 -26 267 377 390 0
1000000 -27 370 379 0
1000000 -28 268 386 292 363 449 0
1000000 -29 212 400 320 364 391 0
1000000 -30 380 397 0
1000000 -31 394 401 484 0
1000000 -32 410 418 0
1000000 -33 351 411 593 0
1000000 -34 345 416 387 395 419 0
1000000 -35 358 352 402 0
1000000 -36 381 398 0
1000000 -37 403 382 427 0
1000000 -38 430 529 433 405 0
1000000 -39 422 321 434 431 428 0
1000000 -40 353 435 0
1000000 -41 346 0
1000000 -42 173 454 406 446 0
1000000 -43 436 423 0
1000000 -44 359 437 0
1000000 -45 455 443 462 0
1000000 -46 463 594 447 0
1000000 -47 388 456 0
1000000 -48 469 471 459 0
1000000 -49 444 404 472 420 440 465 0
1000000 -50 467 473 213 0
1000000 -51 244 470 0
1000000 -52 399 490 0
1000000 -53 491 474 460 0
1000000 -54 497 0
1000000 -55 492 461 498 0
1000000 -56 466 445 499 493 0
1000000 -57 354 494 0
1000000 -58 480 178 468 511 495 501 0
1000000 -59 392 481 516 505 0
1000000 -60 441 530 512 477 0
1000000 -61 517 360 0
1000000 -62 532 502 438 0
1000000 -63 361 536 519 522 533 0
1000000 -64 442 0
1000000 -65 541 520 514 537 0
1000000 -66 523 544 542 293 424 0
1000000 -67 546 294 0
1000000 -68 407 543 0
1000000 -69 362 506 545 515 552 0
1000000 -70 547 548 554 464 0
1000000 -71 539 534 0
1000000 -72 549 555 540 0
1000000 -73 457 0
1000000 -74 478 513 0
1000000 -75 295 0
1000000 -76 180 425 0
1000000 -77 580 569 475 0
1000000 -78 556 558 566 507 0
1000000 -79 570 503 564 582 0
1000000 -80 458 584 553 565 0
1000000 -81 559 581 573 583 174 0
1000000 -82 585 577 574 587 0
1000000 -83 597 601 0
1000000 -84 588 578 567 496 0
1000000 -85 535 0
1000000 -86 602 508 598 579 605 0
1000000 -87 611 586 609 606 0
1000000 -88 615 429 603 612 0
1000000 -89 365 0
1000000 -90 621 616 476 0
1000000 -91 396 590 0
1000000 -92 524 0
1000000 -93 571 623 0
1000000 -94 617 632 0
1000000 -95 622 633 610 408 624 0
1000000 -96 604 638 618 0
1000000 -97 639 575 644 0
1000000 -98 383 642 635 634 0
1000000 -99 645 409 648 0
1000000 -100 646 366 636 619 0
1000000 -101 613 375 0
1000000 -102 432 186 628 643 0
1000000 -103 647 649 652 607 188 0
1000000 -104 189 576 0
1000000 -105 653 650 194 0
1000000 -106 637 192 197 589 0
1000000 -107 629 620 0
1000000 -108 509 0
1000000 -109 568 0
1000000 -110 205 550 0
1000000 -111 201 209 563 0
1000000 -112 488 206 0
1000000 -113 202 193 198 210 195 572 0
1000000 -114 504 196 217 214 0
1000000 -115 651 0
1000000 -116 608 222 0
1000000 -117 219 203 187 631 227 640 0
1000000 -118 215 218 0
1000000 -119 216 176 224 0
1000000 -120 220 223 228 0
1000000 -121 518 229 225 0
1000000 -122 238 204 551 199 0
1000000 -123 439 235 231 0
1000000 -124 482 0
1000000 -125 599 249 236 0
1000000 -126 200 250 245 240 0
1000000 -127 412 254 256 0
1000000 -128 233 232 413 251 0
1000000 -129 257 168 239 0
1000000 -130 247 614 0
1000000 -131 252 641 0
1000000 -132 264 260 389 0
1000000 -133 226 0
1000000 -134 269 0
1000000 -135 276 248 221 255 0
1000000 -136 262 272 278 393 0
1000000 -137 230 279 0
1000000 -138 282 273 270 384 263 0
1000000 -139 253 234 271 265 0
1000000 -140 287 453 0
1000000 -141 289 510 0
1000000 -142 296 246 355 0
1000000 -143 290 489 258 0
1000000 -144 277 538 274 261 0
1000000 -145 297 275 298 630 0
1000000 -146 592 284 0
1000000 -147 190 300 0
1000000 -148 283 285 0
1000000 -149 302 207 308 288 301 306 0
1000000 -150 627 0
1000000 -151 557 280 259 314 310 0
1000000 -152 281 483 322 0
1000000 -153 303 323 596 312 0
1000000 -154 311 191 309 324 0
1000000 -155 299 208 286 0
1000000 -156 307 385 304 0
1000000 -157 521 0
1000000 -158 237 313 334 326 0
1000000 -159 328 305 330 600 0
1000000 -160 421 338 335 329 332 0
1000000 -161 241 0
1000000 -162 325 336 349 333 339 315 0
1000000 -163 479 337 0
1000000 -164 426 340 0
1000000 -165 331 347 327 500 0
1000000 -166 341 348 316 0
1000000 654 898 0
1000000 655 915 0
1000000 656 896 0
1000000 657 888 0
1000000 658 923 0
1000000 659 896 0
1000000 660 926 0
1000000 661 919 0
1000000 662 862 0
1000000 663 927 0
1000000 664 885 0
1000000 665 892 0
1000000 666 880 0
1000000 667 886 0
1000000 668 886 0
1000000 669 883 0
1000000 670 879 0
1000000 671 862 0
1000000 672 872 0
1000000 673 880 0
1000000 674 900 0
1000000 675 887 0
1000000 676 924 0
1000000 677 911 0
1000000 678 876 0
1000000 679 906 0
1000000 680 880 0
1000000 681 886 0
1000000 682 884 0
1000000 683 905 0
1000000 684 911 0
1000000 685 899 0
1000000 686 888 0
1000000 687 863 0
1000000 688 921 0
1000000 689 919 0
1000000 690 918 0
1000000 691 859 0
1000000 692 890 0
1000000 693 882 0
1000000 694 913 0
1000000 695 921 0
1000000 696 867 0
1000000 697 888 0
1000000 698 911 0
1000000 699 869 0
1000000 700 922 0
1000000 701 913 0
1000000 702 919 0
1000000 703 875 0
1000000 704 868 0
1000000 705 901 0
1000000 706 873 0
1000000 707 901 0
1000000 708 861 0
1000000 709 867 0
1000000 710 897 0
1000000 711 871 0
1000000 712 864 0
1000000 713 867 0
1000000 714 927 0
1000000 715 925 0
1000000 716 864 0
1000000 717 908 0
1000000 718 883 0
1000000 719 897 0
1000000 720 879 0
1000000 721 914 0
1000000 722 908 0
1000000 723 917 0
1000000 724 922 0
1000000 725 890 0
1000000 726 902 0
1000000 727 889 0
1000000 728 866 0
1000000 729 859 0
1000000 730 885 0
1000000 731 918 0
1000000 732 860 0
1000000 733 884 0
1000000 734 917 0
1000000 735 865 0
1000000 736 899 0
1000000 737 893 0
1000000 738 900 0
1000000 739 905 0
1000000 740 892 0
1000000 741 866 0
1000000 742 869 0
1000000 743 893 0
1000000 744 879 0
1000000 745 916 0
1000000 746 918 0
1000000 747 899 0
1000000 748 861 0
1000000 749 922 0
1000000 750 920 0
1000000 751 902 0
1000000 752 891 0
1000000 753 915 0
1000000 754 905 0
1000000 755 862 0
1000000 756 927 0
1000000 757 869 0
1000000 758 892 0
1000000 759 916 0
1000000 760 859 0
1000000 761 909 0
1000000 762 920 0
1000000 763 915 0
1000000 764 907 0
1000000 765 917 0
1000000 766 904 0
1000000 767 925 0
1000000 768 878 0
1000000 769 874 0
1000000 770 881 0
1000000 771 912 0
1000000 772 875 0
1000000 773 895 0
1000000 774 904 0
1000000 775 906 0
1000000 776 904 0
1000000 777 897 0
1000000 778 923 0
1000000 779 924 0
1000000 780 923 0
1000000 781 898 0
1000000 782 887 0
1000000 783 907 0
1000000 784 926 0
1000000 785 926 0
1000000 786 893 0
1000000 787 870 0
1000000 788 873 0
1000000 789 884 0
1000000 790 906 0
1000000 791 913 0
1000000 792 876 0
1000000 793 907 0
1000000 794 912 0
1000000 795 861 0
1000000 796 894 0
1000000 797 921 0
1000000 798 925 0
1000000 799 924 0
1000000 800 874 0
1000000 801 868 0
1000000 802 881 0
1000000 803 881 0
1000000 804 891 0
1000000 805 885 0
1000000 806 903 0
1000000 807 903 0
1000000 808 860 0
1000000 809 866 0
1000000 810 871 0
1000000 811 920 0
1000000 812 890 0
1000000 813 873 0
1000000 814 898 0
1000000 815 896 0
1000000 816 895 0
1000000 817 901 0
1000000 818 891 0
1000000 819 882 0
1000000 820 916 0
1000000 821 882 0
1000000 822 875 0
1000000 823 883 0
1000000 824 908 0
1000000 825 874 0
1000000 826 871 0
1000000 827 865 0
1000000 828 872 0
1000000 829 895 0
1000000 830 889 0
1000000 831 894 0
1000000 832 903 0
1000000 833 914 0
1000000 834 887 0
1000000 835 878 0
1000000 836 863 0
1000000 837 877 0
1000000 838 876 0
1000000 839 860 0
1000000 840 864 0
1000000 841 902 0
1000000 842 914 0
1000000 843 872 0
1000000 844 889 0
1000000 845 870 0
1000000 846 865 0
1000000 847 868 0
1000000 848 900 0
1000000 849 870 0
1000000 850 912 0
1000000 851 863 0
1000000 852 909 0
1000000 853 910 0
1000000 854 909 0
1000000 855 910 0
1000000 856 910 0
1000000 857 878 0
1000000 858 894 0
1000000 -654 -898 0
1000000 -655 -915 0
1000000 -656 -896 0
1000000 -657 -888 0
1000000 -658 -923 0
1000000 -659 -896 0
1000000 -660 -926 0
1000000 -661 -919 0
1000000 -662 -862 0
1000000 -663 -927 0
1000000 -664 -885 0
1000000 -665 -892 0
1000000 -666 -880 0
1000000 -667 -886 0
1000000 -668 -886 0
1000000 -669 -883 0
1000000 -670 -879 0
1000000 -671 -862 0
1000000 -672 -872 0
1000000 -673 -880 0
1000000 -674 -900 0
1000000 -675 -887 0
1000000 -676 -924 0
1000000 -677 -911 0
1000000 -678 -876 0
1000000 -679 -906 0
1000000 -680 -880 0
1000000 -681 -886 0
1000000 -682 -884 0
1000000 -683 -905 0
1000000 -684 -911 0
1000000 -685 -899 0
1000000 -686 -888 0
1000000 -687 -863 0
1000000 -688 -921 0
1000000 -689 -919 0
1000000 -690 -918 0
1000000 -691 -859 0
1000000 -692 -890 0
1000000 -693 -882 0
1000000 -694 -913 0
1000000 -695 -921 0
1000000 -696 -867 0
1000000 -697 -888 0
1000000 -698 -911 0
1000000 -699 -869 0
1000000 -700 -922 0
1000000 -701 -913 0
1000000 -702 -919 0
1000000 -703 -875 0
1000000 -704 -868 0
1000000 -705 -901 0
1000000 -706 -873 0
1000000 -707 -901 0
1000000 -708 -861 0
1000000 -709 -867 0
1000000 -710 -897 0
1000000 -711 -871 0
1000000 -712 -864 0
1000000 -713 -867 0
1000000 -714 -927 0
1000000 -715 -925 0
1000000 -716 -864 0
1000000 -717 -908 0
1000000 -718 -883 0
1000000 -719 -897 0
1000000 -720 -879 0
1000000 -721 -914 0
1000000 -722 -908 0
1000000 -723 -917 0
1000000 -724 -922 0
1000000 -725 -890 0
1000000 -726 -902 0
1000000 -727 -889 0
1000000 -728 -866 0
1000000 -729 -859 0
1000000 -730 -885 0
1000000 -731 -918 0
1000000 -732 -860 0
1000000 -733 -884 0
1000000 -734 -917 0
1000000 -735 -865 0
1000000 -736 -899 0
1000000 -737 -893 0
1000000 -738 -900 0
1000000 -739 -905 0
1000000 -740 -892 0
1000000 -741 -866 0
1000000 -742 -869 0
1000000 -743 -893 0
1000000 -744 -879 0
1000000 -745 -916 0
1000000 -746 -918 0
1000000 -747 -899 0
1000000 -748 -861 0
1000000 -749 -922 0
1000000 -750 -920 0
1000000 -751 -902 0
1000000 -752 -891 0
1000000 -753 -915 0
1000000 -754 -905 0
1000000 -755 -862 0
1000000 -756 -927 0
1000000 -757 -869 0
1000000 -758 -892 0
1000000 -759 -916 0
1000000 -760 -859 0
1000000 -761 -909 0
1000000 -762 -920 0
1000000 -763 -915 0
1000000 -764 -907 0
1000000 -765 -917 0
1000000 -766 -904 0
1000000 -767 -925 0
1000000 -768 -878 0
1000000 -769 -874 0
1000000 -770 -881 0
1000000 -771 -912 0
1000000 -772 -875 0
1000000 -773 -895 0
1000000 -774 -904 0
1000000 -775 -906 0
1000000 -776 -904 0
1000000 -777 -897 0
1000000 -778 -923 0
1000000 -779 -924 0
1000000 -780 -923 0
1000000 -781 -898 0
1000000 -782 -887 0
1000000 -783 -907 0
1000000 -784 -926 0
1000000 -785 -926 0
1000000 -786 -893 0
1000000 -787 -870 0
1000000 -788 -873 0
1000000 -789 -884 0
1000000 -790 -906 0
1000000 -791 -913 0
1000000 -792 -876 0
1000000 -793 -907 0
1000000 -794 -912 0
1000000 -795 -861 0
1000000 -796 -894 0
1000000 -797 -921 0
1000000 -798 -925 0
1000000 -799 -924 0
1000000 -800 -874 0
1000000 -801 -868 0
1000000 -802 -881 0
1000000 -803 -881 0
1000000 -804 -891 0
1000000 -805 -885 0
1000000 -806 -903 0
1000000 -807 -903 0
1000000 -808 -860 0
1000000 -809 -866 0
1000000 -810 -871 0
1000000 -811 -920 0
1000000 -812 -890 0
1000000 -813 -873 0
1000000 -814 -898 0
1000000 -815 -896 0
1000000 -816 -895 0
1000000 -817 -901 0
1000000 -818 -891 0
1000000 -819 -882 0
1000000 -820 -916 0
1000000 -821 -882 0
1000000 -822 -875 0
1000000 -823 -883 0
1000000 -824 -908 0
1000000 -825 -874 0
1000000 -826 -871 0
1000000 -827 -865 0
1000000 -828 -872 0
1000000 -829 -895 0
1000000 -830 -889 0
1000000 -831 -894 0
1000000 -832 -903 0
1000000 -833 -914 0
1000000 -834 -887 0
1000000 -835 -878 0
1000000 -836 -863 0
1000000 -837 -877 0
1000000 -838 -876 0
1000000 -839 -860 0
1000000 -840 -864 0
1000000 -841 -902 0
1000000 -842 -914 0
1000000 -843 -872 0
1000000 -844 -889 0
1000000 -845 -870 0
1000000 -846 -865 0
1000000 -847 -868 0
1000000 -848 -900 0
1000000 -849 -870 0
1000000 -850 -912 0
1000000 -851 -863 0
1000000 -852 -909 0
1000000 -853 -910 0
1000000 -854 -909 0
1000000 -855 -910 0
1000000 -856 -910 0
1000000 -857 -878 0
1000000 -858 -894 0
8600 -859 0
11800 -860 0
7200 -861 0
8600 -862 0
7200 -863 0
11800 -864 0
7700 -865 0
7600 -866 0
13400 -867 0
13400 -868 0
7700 -869 0
8700 -870 0
8600 -871 0
11800 -872 0
7700 -873 0
7700 -874 0
14400 -875 0
7700 -876 0
11800 -877 0
13400 -878 0
7600 -879 0
7600 -880 0
8600 -881 0
8700 -882 0
10400 -883 0
11800 -884 0
7700 -885 0
11800 -886 0
13400 -887 0
11800 -888 0
7200 -889 0
13400 -890 0
8700 -891 0
11800 -892 0
13400 -893 0
8700 -894 0
11800 -895 0
7700 -896 0
7200 -897 0
11800 -898 0
8600 -899 0
7700 -900 0
13400 -901 0
13400 -902 0
8600 -903 0
11800 -904 0
8100 -905 0
8100 -906 0
13400 -907 0
11800 -908 0
11800 -909 0
7200 -910 0
11800 -911 0
7200 -912 0
9300 -913 0
13400 -914 0
7600 -915 0
11800 -916 0
8700 -917 0
7600 -918 0
7200 -919 0
11800 -920 0
8600 -921 0
8100 -922 0
7200 -923 0
7600 -924 0
8700 -925 0
7700 -926 0
11800 -927 0
3600 654 0
3000 655 0
1800 656 0
3000 657 0
2400 658 0
1800 659 0
3500 660 0
3500 661 0
2100 662 0
3600 663 0
3600 664 0
2700 665 0
3600 666 0
1800 667 0
3600 668 0
1800 669 0
2400 670 0
2100 671 0
2700 672 0
1600 673 0
3200 674 0
1600 675 0
3000 676 0
1800 677 0
2700 678 0
1600 679 0
2400 680 0
3000 681 0
3200 682 0
2100 683 0
2100 684 0
2400 685 0
2400 686 0
3600 687 0
3200 688 0
3200 689 0
2700 690 0
3200 691 0
2100 692 0
3200 693 0
2400 694 0
3200 695 0
3000 696 0
2100 697 0
3200 698 0
3000 699 0
2800 700 0
2800 701 0
2700 702 0
2800 703 0
1900 704 0
2100 705 0
1800 706 0
3000 707 0
1400 708 0
1600 709 0
3500 710 0
1600 711 0
2100 712 0
3200 713 0
3000 714 0
2700 715 0
1900 716 0
3200 717 0
1600 718 0
2700 719 0
1600 720 0
2700 721 0
3000 722 0
3200 723 0
2100 724 0
1600 725 0
3200 726 0
3000 727 0
3200 728 0
3000 729 0
3200 730 0
2700 731 0
2700 732 0
3200 733 0
2700 734 0
2700 735 0
2100 736 0
1600 737 0
1600 738 0
2700 739 0
1600 740 0
1600 741 0
2100 742 0
2400 743 0
1600 744 0
3000 745 0
3500 746 0
2400 747 0
3500 748 0
2700 749 0
2700 750 0
1600 751 0
2700 752 0
3200 753 0
3200 754 0
1600 755 0
2700 756 0
1600 757 0
3000 758 0
2100 759 0
1600 760 0
2100 761 0
3000 762 0
3200 763 0
2100 764 0
3000 765 0
3200 766 0
3200 767 0
1400 768 0
3200 769 0
3000 770 0
1900 771 0
1900 772 0
1400 773 0
2400 774 0
2800 775 0
1600 776 0
3200 777 0
3000 778 0
2400 779 0
2400 780 0
2100 781 0
3200 782 0
1900 783 0
1400 784 0
1900 785 0
1400 786 0
2100 787 0
2400 788 0
2800 789 0
2400 790 0
2400 791 0
3000 792 0
3000 793 0
1400 794 0
2700 795 0
2700 796 0
1900 797 0
3200 798 0
3000 799 0
1900 800 0
2400 801 0
2700 802 0
2400 803 0
2700 804 0
2400 805 0
1900 806 0
2700 807 0
1800 808 0
3600 809 0
3200 810 0
2400 811 0
2100 812 0
2700 813 0
2700 814 0
2100 815 0
1700 816 0
3000 817 0
2700 818 0
2800 819 0
2700 820 0
1900 821 0
2800 822 0
2700 823 0
3000 824 0
2400 825 0
3200 826 0
3200 827 0
3000 828 0
3000 829 0
2400 830 0
1600 831 0
1600 832 0
3200 833 0
1600 834 0
3000 835 0
3200 836 0
1600 837 0
3500 838 0
3200 839 0
3000 840 0
2400 841 0
2400 842 0
1400 843 0
3500 844 0
3000 845 0
1800 846 0
3000 847 0
3000 848 0
2400 849 0
3500 850 0
1400 851 0
3000 852 0
2800 853 0
2700 854 0
3000 855 0
2700 856 0
1600 857 0
3200 858 0
3252 -167 0
29260 -169 0
12195 371 -171 0
17615 -371 171 0
21883 -371 -171 0
31800 372 -172 0
5088 -372 172 0
33072 -372 -172 0
45505 417 -450 0
8622 -417 450 0
45936 -417 -450 0
4590 373 451 -179 0
21420 373 -451 179 0
22797 373 -451 -179 0
19890 -373 451 179 0
21497 -373 451 -179 0
27387 -373 -451 179 0
27869 -373 -451 -179 0
28490 -485 0
5440 486 452 181 -531 0
5950 486 452 -181 531 0
9486 486 452 -181 -531 0
9350 486 -452 181 531 0
11798 486 -452 181 -531 0
12028 486 -452 -181 531 0
13619 486 -452 -181 -531 0
13600 -486 452 181 531 0
14688 -486 452 181 -531 0
14790 -486 452 -181 531 0
15497 -486 452 -181 -531 0
15470 -486 -452 181 531 0
15960 -486 -452 181 -531 0
16006 -486 -452 -181 531 0
16324 -486 -452 -181 -531 0
5440 487 595 -374 0
8500 487 -595 374 0
11220 487 -595 -374 0
7650 -487 595 374 0
10642 -487 595 -374 0
12325 -487 -595 374 0
13821 -487 -595 -374 0
4590 175 591 -367 0
12240 175 -591 367 0
14994 175 -591 -367 0
4590 -175 591 367 0
8492 -175 591 -367 0
14994 -175 -591 367 0
17335 -175 -591 -367 0
33670 182 525 -625 0
18130 182 -525 625 0
40015 182 -525 -625 0
28490 -182 525 625 0
43642 -182 525 -625 0
36649 -182 -525 625 0
46497 -182 -525 -625 0
39065 177 368 -626 0
1202 177 -368 626 0
39486 177 -368 -626 0
57095 -177 368 626 0
59048 -177 368 -626 0
57155 -177 -368 626 0
59069 -177 -368 -626 0
8775 -560 0
972 414 -183 0
34020 -414 183 0
34312 -414 -183 0
18468 184 526 415 -561 0
26730 184 526 -415 561 0
35041 184 526 -415 -561 0
18468 184 -526 415 561 0
29918 184 -526 415 -561 0
35041 184 -526 -415 561 0
40193 184 -526 -415 -561 0
5832 -184 526 415 561 0
22084 -184 526 415 -561 0
29354 -184 526 -415 561 0
36668 -184 526 -415 -561 0
22084 -184 -526 415 561 0
32160 -184 -526 415 -561 0
36668 -184 -526 -415 561 0
41202 -184 -526 -415 -561 0
20800 527 -317 0
52000 -527 317 0
56160 -527 -317 0
7760 211 -342 0
388 -211 342 0
7993 -211 -342 0
52000 350 291 -318 0
20800 350 -291 318 0
56160 350 -291 -318 0
39000 -350 291 318 0
59800 -350 291 -318 0
47320 -350 -291 318 0
61464 -350 -291 -318 0
26300 242 343 562 -185 0
34190 242 343 -562 185 0
43395 242 343 -562 -185 0
19988 242 -343 562 185 0
36294 242 -343 562 -185 0
41186 242 -343 -562 185 0
46893 242 -343 -562 -185 0
13150 -242 343 562 185 0
32875 -242 343 562 -185 0
38793 -242 343 -562 185 0
45696 -242 343 -562 -185 0
28141 -242 -343 562 185 0
40371 -242 -343 562 -185 0
44039 -242 -343 -562 185 0
48320 -242 -343 -562 -185 0
8622 448 -356 0
28740 -448 356 0
32189 -448 -356 0
2760 319 -357 0
5520 -319 357 0
7452 -319 -357 0
8280 266 376 378 -528 0
16560 266 376 -378 528 0
17388 266 376 -378 -528 0
4600 266 -376 378 528 0
10810 266 -376 378 -528 0
17020 266 -376 -378 528 0
17641 266 -376 -378 -528 0
15640 -266 376 378 528 0
16882 -266 376 378 -528 0
18124 -266 376 -378 528 0
18248 -266 376 -378 -528 0
16330 -266 -376 378 528 0
17262 -266 -376 378 -528 0
18193 -266 -376 -378 528 0
18286 -266 -376 -378 -528 0
38160 344 -170 0
27560 -344 170 0
40916 -344 -170 0
12750 243 -369 0
7650 -243 369 0
14662 -243 -369 0
8500 267 377 -390 0
850 267 -377 390 0
8925 267 -377 -390 0
3400 -267 377 390 0
10200 -267 377 -390 0
4080 -267 -377 390 0
10540 -267 -377 -390 0
57095 370 -379 0
30050 -370 379 0
58598 -370 -379 0
15552 268 386 292 363 -449 0
19440 268 386 292 -363 449 0
28771 268 386 292 -363 -449 0
41310 268 386 -292 363 449 0
43643 268 386 -292 363 -449 0
44226 268 386 -292 -363 449 0
45626 268 386 -292 -363 -449 0
19440 268 -386 292 363 449 0
28771 268 -386 292 363 -449 0
31104 268 -386 292 -363 449 0
36703 268 -386 292 -363 -449 0
44226 268 -386 -292 363 449 0
45626 268 -386 -292 363 -449 0
45976 268 -386 -292 -363 449 0
46815 268 -386 -292 -363 -449 0
19440 -268 386 292 363 449 0
28771 -268 386 292 363 -449 0
31104 -268 386 292 -363 449 0
36703 -268 386 292 -363 -449 0
44226 -268 386 -292 363 449 0
45626 -268 386 -292 363 -449 0
45976 -268 386 -292 -363 449 0
46815 -268 386 -292 -363 -449 0
31104 -268 -386 292 363 449 0
36703 -268 -386 292 363 -449 0
38102 -268 -386 292 -363 449 0
41462 -268 -386 292 -363 -449 0
45976 -268 -386 -292 363 449 0
46815 -268 -386 -292 363 -449 0
47025 -268 -386 -292 -363 449 0
47529 -268 -386 -292 -363 -449 0
12020 212 400 320 364 -391 0
51085 212 400 320 -364 391 0
52888 212 400 320 -364 -391 0
24040 212 400 -320 364 391 0
31252 212 400 -320 364 -391 0
54691 212 400 -320 -364 391 0
55773 212 400 -320 -364 -391 0
42070 212 -400 320 364 391 0
45676 212 -400 320 364 -391 0
57395 212 -400 320 -364 391 0
57936 212 -400 320 -364 -391 0
49282 212 -400 -320 364 391 0
51446 212 -400 -320 364 -391 0
58477 212 -400 -320 -364 391 0
58802 212 -400 -320 -364 -391 0
1202 -212 400 320 364 391 0
12982 -212 400 320 364 -391 0
51265 -212 400 320 -364 391 0
53032 -212 400 320 -364 -391 0
24761 -212 400 -320 364 391 0
31829 -212 400 -320 364 -391 0
54799 -212 400 -320 -364 391 0
55859 -212 400 -320 -364 -391 0
42431 -212 -400 320 364 391 0
45964 -212 -400 320 364 -391 0
57450 -212 -400 320 -364 391 0
57980 -212 -400 320 -364 -391 0
49498 -212 -400 -320 364 391 0
51619 -212 -400 -320 364 -391 0
58510 -212 -400 -320 -364 391 0
58828 -212 -400 -320 -364 -391 0
11040 380 -397 0
14720 -380 397 0
16928 -380 -397 0
48750 394 401 -484 0
29250 394 -401 484 0
56062 394 -401 -484 0
9750 -394 401 484 0
51188 -394 401 -484 0
34612 -394 -401 484 0
57403 -394 -401 -484 0
24570 410 -418 0
13338 -410 418 0
28571 -410 -418 0
13000 351 411 -593 0
29250 351 -411 593 0
36400 351 -411 -593 0
16250 -351 411 593 0
26000 -351 411 -593 0
38187 -351 -411 593 0
43550 -351 -411 -593 0
16830 345 416 387 395 -419 0
4590 345 416 387 -395 419 0
18896 345 416 387 -395 -419 0
9792 345 416 -387 395 419 0
21236 345 416 -387 395 -419 0
12913 345 416 -387 -395 419 0
22641 345 416 -387 -395 -419 0
18360 345 -416 387 395 419 0
25092 345 -416 387 395 -419 0
20196 345 -416 387 -395 419 0
25918 345 -416 387 -395 -419 0
22277 345 -416 -387 395 419 0
26855 345 -416 -387 395 -419 0
23525 345 -416 -387 -395 419 0
27416 345 -416 -387 -395 -419 0
3060 -345 416 387 395 419 0
18207 -345 416 387 395 -419 0
7191 -345 416 387 -395 419 0
20066 -345 416 387 -395 -419 0
11873 -345 416 -387 395 419 0
22173 -345 416 -387 395 -419 0
14682 -345 416 -387 -395 419 0
23437 -345 416 -387 -395 -419 0
19584 -345 -416 387 395 419 0
25643 -345 -416 387 395 -419 0
21236 -345 -416 387 -395 419 0
26386 -345 -416 387 -395 -419 0
23109 -345 -416 -387 395 419 0
27229 -345 -416 -387 395 -419 0
24233 -345 -416 -387 -395 419 0
27735 -345 -416 -387 -395 -419 0
32500 358 352 -402 0
1300 358 -352 402 0
33150 358 -352 -402 0
7800 -358 352 402 0
36400 -358 352 -402 0
8944 -358 -352 402 0
36972 -358 -352 -402 0
16832 381 -398 0
44710 -381 398 0
47235 -381 -398 0
58500 403 382 -427 0
32500 403 -382 427 0
61750 403 -382 -427 0
24700 -403 382 427 0
60970 -403 382 -427 0
44850 -403 -382 427 0
62985 -403 -382 -427 0
1052 430 529 433 -405 0
9468 430 529 -433 405 0
10331 430 529 -433 -405 0
26300 430 -529 433 405 0
26826 430 -529 433 -405 0
31034 430 -529 -433 405 0
31465 430 -529 -433 -405 0
16832 -430 529 433 405 0
17547 -430 529 433 -405 0
23270 -430 529 -433 405 0
23857 -430 529 -433 -405 0
34716 -430 -529 433 405 0
35074 -430 -529 433 -405 0
37935 -430 -529 -433 405 0
38228 -430 -529 -433 -405 0
5180 422 321 434 431 -428 0
2590 422 321 434 -431 428 0
7511 422 321 434 -431 -428 0
41440 422 321 -434 431 428 0
42476 422 321 -434 431 -428 0
41958 422 321 -434 -431 428 0
42942 422 321 -434 -431 -428 0
41440 422 -321 434 431 428 0
42476 422 -321 434 431 -428 0
41958 422 -321 434 -431 428 0
42942 422 -321 434 -431 -428 0
49728 422 -321 -434 431 428 0
49935 422 -321 -434 431 -428 0
49832 422 -321 -434 -431 428 0
50028 422 -321 -434 -431 -428 0
33670 -422 321 434 431 428 0
35483 -422 321 434 431 -428 0
34576 -422 321 434 -431 428 0
36299 -422 321 434 -431 -428 0
48174 -422 321 -434 431 428 0
48537 -422 321 -434 431 -428 0
48355 -422 321 -434 -431 428 0
48700 -422 321 -434 -431 -428 0
48174 -422 -321 434 431 428 0
48537 -422 -321 434 431 -428 0
48355 -422 -321 434 -431 428 0
48700 -422 -321 434 -431 -428 0
51075 -422 -321 -434 431 428 0
51147 -422 -321 -434 431 -428 0
51111 -422 -321 -434 -431 428 0
51180 -422 -321 -434 -431 -428 0
17200 353 -435 0
22016 -353 435 0
33712 -353 -435 0
46580 -346 0
25440 173 454 406 -446 0
2120 173 454 -406 446 0
26288 173 454 -406 -446 0
7632 173 -454 406 446 0
28493 173 -454 406 -446 0
9370 173 -454 -406 446 0
29188 173 -454 -406 -446 0
21200 -173 454 406 446 0
33920 -173 454 406 -446 0
22260 -173 454 -406 446 0
34344 -173 454 -406 -446 0
25016 -173 -454 406 446 0
35446 -173 -454 406 -446 0
25885 -173 -454 -406 446 0
35794 -173 -454 -406 -446 0
10670 436 -423 0
12610 -436 423 0
16344 -436 -423 0
49320 359 -437 0
52060 -359 437 0
54526 -359 -437 0
6880 455 443 -462 0
58480 455 -443 462 0
59512 455 -443 -462 0
17200 -455 443 462 0
22360 -455 443 -462 0
61060 -455 -443 462 0
61834 -455 -443 -462 0
28930 463 594 -447 0
44710 463 -594 447 0
49050 463 -594 -447 0
13150 -463 594 447 0
34848 -463 594 -447 0
46682 -463 -594 447 0
49937 -463 -594 -447 0
10026 388 -456 0
52915 -388 456 0
53416 -388 -456 0
7185 469 471 -459 0
21555 469 -471 459 0
25507 469 -471 -459 0
40715 -469 471 459 0
41793 -469 471 -459 0
43948 -469 -471 459 0
44541 -469 -471 -459 0
23170 444 404 472 420 440 -465 0
4965 444 404 472 420 -440 465 0
24659 444 404 472 420 -440 -465 0
16550 444 404 472 -420 440 465 0
28135 444 404 472 -420 440 -465 0
19032 444 404 472 -420 -440 465 0
28880 444 404 472 -420 -440 -465 0
4965 444 404 -472 420 440 465 0
24659 444 404 -472 420 440 -465 0
9185 444 404 -472 420 -440 465 0
25926 444 404 -472 420 -440 -465 0
19032 444 404 -472 -420 440 465 0
28880 444 404 -472 -420 440 -465 0
21143 444 404 -472 -420 -440 465 0
29513 444 404 -472 -420 -440 -465 0
10592 444 -404 472 420 440 465 0
26348 444 -404 472 420 440 -465 0
13968 444 -404 472 420 -440 465 0
27360 444 -404 472 420 -440 -465 0
21846 444 -404 472 -420 440 465 0
29724 444 -404 472 -420 440 -465 0
23534 444 -404 472 -420 -440 465 0
30230 444 -404 472 -420 -440 -465 0
13968 444 -404 -472 420 440 465 0
27360 444 -404 -472 420 440 -465 0
16838 444 -404 -472 420 -440 465 0
28221 444 -404 -472 420 -440 -465 0
23534 444 -404 -472 -420 440 465 0
30230 444 -404 -472 -420 440 -465 0
24969 444 -404 -472 -420 -440 465 0
30661 444 -404 -472 -420 -440 -465 0
21515 -444 404 472 420 440 465 0
29625 -444 404 472 420 440 -465 0
23253 -444 404 472 420 -440 465 0
30146 -444 404 472 420 -440 -465 0
27307 -444 404 472 -420 440 465 0
31362 -444 404 472 -420 440 -465 0
28176 -444 404 472 -420 -440 465 0
31623 -444 404 472 -420 -440 -465 0
23253 -444 404 -472 420 440 465 0
30146 -444 404 -472 420 440 -465 0
24730 -444 404 -472 420 -440 465 0
30589 -444 404 -472 420 -440 -465 0
28176 -444 404 -472 -420 440 465 0
31623 -444 404 -472 -420 440 -465 0
28915 -444 404 -472 -420 -440 465 0
31844 -444 404 -472 -420 -440 -465 0
25222 -444 -404 472 420 440 465 0
30737 -444 -404 472 420 440 -465 0
26404 -444 -404 472 420 -440 465 0
31091 -444 -404 472 420 -440 -465 0
29161 -444 -404 472 -420 440 465 0
31918 -444 -404 472 -420 440 -465 0
29752 -444 -404 472 -420 -440 465 0
32096 -444 -404 472 -420 -440 -465 0
26404 -444 -404 -472 420 440 465 0
31091 -444 -404 -472 420 440 -465 0
27408 -444 -404 -472 420 -440 465 0
31392 -444 -404 -472 420 -440 -465 0
29752 -444 -404 -472 -420 440 465 0
32096 -444 -404 -472 -420 440 -465 0
30254 -444 -404 -472 -420 -440 465 0
32246 -444 -404 -472 -420 -440 -465 0
38850 467 473 -213 0
9324 467 -473 213 0
41181 467 -473 -213 0
41440 -467 473 213 0
49210 -467 473 -213 0
43305 -467 -473 213 0
49676 -467 -473 -213 0
35750 244 -470 0
61750 -244 470 0
63538 -244 -470 0
9930 399 -490 0
9930 -399 490 0
16881 -399 -490 0
24300 491 474 -460 0
4860 491 -474 460 0
26730 491 -474 -460 0
34020 -491 474 460 0
41310 -491 474 -460 0
35478 -491 -474 460 0
42039 -491 -474 -460 0
42080 -497 0
19232 492 461 -498 0
10818 492 -461 498 0
26588 492 -461 -498 0
45075 -492 461 498 0
49883 -492 461 -498 0
47779 -492 -461 498 0
51722 -492 -461 -498 0
920 466 445 499 -493 0
2760 466 445 -499 493 0
3542 466 445 -499 -493 0
5888 466 -445 499 493 0
6514 466 -445 499 -493 0
7765 466 -445 -499 493 0
8297 466 -445 -499 -493 0
15640 -466 445 499 493 0
15778 -466 445 499 -493 0
16054 -466 445 -499 493 0
16171 -466 445 -499 -493 0
16523 -466 -445 499 493 0
16617 -466 -445 499 -493 0
16805 -466 -445 -499 493 0
16884 -466 -445 -499 -493 0
25065 354 -494 0
13925 -354 494 0
32724 -354 -494 0
21555 480 178 468 511 495 -501 0
4790 480 178 468 511 -495 501 0
24189 480 178 468 511 -495 -501 0
38320 480 178 468 -511 495 501 0
42631 480 178 468 -511 495 -501 0
39278 480 178 468 -511 -495 501 0
43158 480 178 468 -511 -495 -501 0
35925 480 178 -468 511 495 501 0
41314 480 178 -468 511 495 -501 0
37123 480 178 -468 511 -495 501 0
41972 480 178 -468 511 -495 -501 0
45505 480 178 -468 -511 495 501 0
46583 480 178 -468 -511 495 -501 0
45744 480 178 -468 -511 -495 501 0
46714 480 178 -468 -511 -495 -501 0
26345 480 -178 468 511 495 501 0
36045 480 -178 468 511 495 -501 0
28500 480 -178 468 511 -495 501 0
37230 480 -178 468 511 -495 -501 0
43589 480 -178 468 -511 495 501 0
45529 480 -178 468 -511 495 -501 0
44020 480 -178 468 -511 -495 501 0
45766 480 -178 468 -511 -495 -501 0
42511 480 -178 -468 511 495 501 0
44936 480 -178 -468 511 495 -501 0
43050 480 -178 -468 511 -495 501 0
45233 480 -178 -468 511 -495 -501 0
46822 480 -178 -468 -511 495 501 0
47307 480 -178 -468 -511 495 -501 0
46930 480 -178 -468 -511 -495 501 0
47367 480 -178 -468 -511 -495 -501 0
40715 -480 178 468 511 495 501 0
43948 -480 178 468 511 495 -501 0
41433 -480 178 468 511 -495 501 0
44343 -480 178 468 511 -495 -501 0
46463 -480 178 468 -511 495 501 0
47110 -480 178 468 -511 495 -501 0
46607 -480 178 468 -511 -495 501 0
47189 -480 178 468 -511 -495 -501 0
46104 -480 178 -468 511 495 501 0
46912 -480 178 -468 511 495 -501 0
46283 -480 178 -468 511 -495 501 0
47011 -480 178 -468 511 -495 -501 0
47541 -480 178 -468 -511 495 501 0
47702 -480 178 -468 -511 495 -501 0
47577 -480 178 -468 -511 -495 501 0
47722 -480 178 -468 -511 -495 -501 0
44667 -480 -178 468 511 495 501 0
46122 -480 -178 468 511 495 -501 0
44990 -480 -178 468 511 -495 501 0
46300 -480 -178 468 511 -495 -501 0
47253 -480 -178 468 -511 495 501 0
47544 -480 -178 468 -511 495 -501 0
47318 -480 -178 468 -511 -495 501 0
47580 -480 -178 468 -511 -495 -501 0
47092 -480 -178 -468 511 495 501 0
47455 -480 -178 -468 511 495 -501 0
47173 -480 -178 -468 511 -495 501 0
47500 -480 -178 -468 511 -495 -501 0
47738 -480 -178 -468 -511 495 501 0
47811 -480 -178 -468 -511 495 -501 0
47755 -480 -178 -468 -511 -495 501 0
47820 -480 -178 -468 -511 -495 -501 0
9720 392 481 516 -505 0
43740 392 481 -516 505 0
44712 392 481 -516 -505 0
26730 392 -481 516 505 0
31104 392 -481 516 -505 0
46413 392 -481 -516 505 0
46850 392 -481 -516 -505 0
12150 -392 481 516 505 0
19440 -392 481 516 -505 0
44955 -392 481 -516 505 0
45684 -392 481 -516 -505 0
32198 -392 -481 516 505 0
35478 -392 -481 516 -505 0
46960 -392 -481 -516 505 0
47288 -392 -481 -516 -505 0
38850 441 530 512 -477 0
5180 441 530 -512 477 0
40145 441 530 -512 -477 0
20720 441 -530 512 477 0
44030 441 -530 512 -477 0
23828 441 -530 -512 477 0
44807 441 -530 -512 -477 0
1036 -441 530 512 477 0
39109 -441 530 512 -477 0
6112 -441 530 -512 477 0
40378 -441 530 -512 -477 0
21342 -441 -530 512 477 0
44185 -441 -530 512 -477 0
24387 -441 -530 -512 477 0
44947 -441 -530 -512 -477 0
5180 517 -360 0
2590 -517 360 0
7511 -517 -360 0
7020 532 502 -438 0
13338 532 -502 438 0
17690 532 -502 -438 0
8775 -532 502 438 0
14040 -532 502 -438 0
18779 -532 -502 438 0
22043 -532 -502 -438 0
7800 361 536 519 522 -533 0
13000 361 536 519 -522 533 0
19240 361 536 519 -522 -533 0
48750 361 536 -519 522 533 0
50700 361 536 -519 522 -533 0
52000 361 536 -519 -522 533 0
53560 361 536 -519 -522 -533 0
20800 361 -536 519 522 533 0
26104 361 -536 519 522 -533 0
29640 361 -536 519 -522 533 0
33883 361 -536 519 -522 -533 0
53950 361 -536 -519 522 533 0
55276 361 -536 -519 522 -533 0
56160 361 -536 -519 -522 533 0
57221 361 -536 -519 -522 -533 0
16250 -361 536 519 522 533 0
22100 -361 536 519 522 -533 0
26000 -361 536 519 -522 533 0
30680 -361 536 519 -522 -533 0
52812 -361 536 -519 522 533 0
54275 -361 536 -519 522 -533 0
55250 -361 536 -519 -522 533 0
56420 -361 536 -519 -522 -533 0
31850 -361 -536 519 522 533 0
35828 -361 -536 519 522 -533 0
38480 -361 -536 519 -522 533 0
41662 -361 -536 519 -522 -533 0
56712 -361 -536 -519 522 533 0
57707 -361 -536 -519 522 -533 0
58370 -361 -536 -519 -522 533 0
59166 -361 -536 -519 -522 -533 0
15795 -442 0
13240 541 520 514 -537 0
1655 541 520 -514 537 0
14233 541 520 -514 -537 0
3972 541 -520 514 537 0
15623 541 -520 514 -537 0
5428 541 -520 -514 537 0
16497 541 -520 -514 -537 0
19860 -541 520 514 537 0
25156 -541 520 514 -537 0
20522 -541 520 -514 537 0
25553 -541 520 -514 -537 0
21449 -541 -520 514 537 0
26109 -541 -520 514 -537 0
22031 -541 -520 -514 537 0
26459 -541 -520 -514 -537 0
20800 523 544 542 293 -424 0
61750 523 544 542 -293 424 0
62790 523 544 542 -293 -424 0
9750 523 544 -542 293 424 0
27430 523 544 -542 293 -424 0
62238 523 544 -542 -293 424 0
63122 523 544 -542 -293 -424 0
9750 523 -544 542 293 424 0
27430 523 -544 542 293 -424 0
62238 523 -544 542 -293 424 0
63122 523 -544 542 -293 -424 0
18038 523 -544 -542 293 424 0
33066 523 -544 -542 293 -424 0
62652 523 -544 -542 -293 424 0
63403 523 -544 -542 -293 -424 0
22750 -523 544 542 293 424 0
36270 -523 544 542 293 -424 0
62888 -523 544 542 -293 424 0
63563 -523 544 542 -293 -424 0
29088 -523 544 -542 293 424 0
40580 -523 544 -542 293 -424 0
63204 -523 544 -542 -293 424 0
63779 -523 544 -542 -293 -424 0
29088 -523 -544 542 293 424 0
40580 -523 -544 542 293 -424 0
63204 -523 -544 542 -293 424 0
63779 -523 -544 542 -293 -424 0
34474 -523 -544 -542 293 424 0
44243 -523 -544 -542 293 -424 0
63474 -523 -544 -542 -293 424 0
63962 -523 -544 -542 -293 -424 0
13150 546 -294 0
31560 -546 294 0
36820 -546 -294 0
44030 407 -543 0
20720 -407 543 0
47138 -407 -543 0
5180 362 506 545 515 -552 0
5180 362 506 545 -515 552 0
9842 362 506 545 -515 -552 0
44030 362 506 -545 515 552 0
44807 362 506 -545 515 -552 0
44807 362 506 -545 -515 552 0
45506 362 506 -545 -515 -552 0
38850 362 -506 545 515 552 0
40145 362 -506 545 515 -552 0
40145 362 -506 545 -515 552 0
41311 362 -506 545 -515 -552 0
49857 362 -506 -545 515 552 0
50052 362 -506 -545 515 -552 0
50052 362 -506 -545 -515 552 0
50227 362 -506 -545 -515 -552 0
2590 -362 506 545 515 552 0
7511 -362 506 545 515 -552 0
7511 -362 506 545 -515 552 0
11940 -362 506 545 -515 -552 0
44418 -362 506 -545 515 552 0
45157 -362 506 -545 515 -552 0
45157 -362 506 -545 -515 552 0
45821 -362 506 -545 -515 -552 0
39497 -362 -506 545 515 552 0
40728 -362 -506 545 515 -552 0
40728 -362 -506 545 -515 552 0
41835 -362 -506 545 -515 -552 0
49955 -362 -506 -545 515 552 0
50139 -362 -506 -545 515 -552 0
50139 -362 -506 -545 -515 552 0
50305 -362 -506 -545 -515 -552 0
6880 547 548 554 -464 0
24080 547 548 -554 464 0
28552 547 548 -554 -464 0
61920 547 -548 554 464 0
62608 547 -548 554 -464 0
64328 547 -548 -554 464 0
64775 547 -548 -554 -464 0
41280 -547 548 554 464 0
44032 -547 548 554 -464 0
50912 -547 548 -554 464 0
52701 -547 548 -554 -464 0
66048 -547 -548 554 464 0
66323 -547 -548 554 -464 0
67011 -547 -548 -554 464 0
67190 -547 -548 -554 -464 0
3492 539 -534 0
2910 -539 534 0
5878 -539 -534 0
12285 549 555 -540 0
6318 549 -555 540 0
16392 549 -555 -540 0
17550 -549 555 540 0
23693 -549 555 -540 0
20709 -549 -555 540 0
25746 -549 -555 -540 0
21774 -457 0
13700 478 -513 0
19180 -478 513 0
28085 -478 -513 0
21040 -295 0
15025 180 -425 0
54090 -180 425 0
55593 -180 -425 0
3312 580 569 -475 0
2760 580 -569 475 0
5575 580 -569 -475 0
12880 -580 569 475 0
13874 -580 569 -475 0
13708 -580 -569 475 0
14553 -580 -569 -475 0
12880 556 558 566 -507 0
5888 556 558 -566 507 0
14646 556 558 -566 -507 0
16560 556 -558 566 507 0
17848 556 -558 566 -507 0
17149 556 -558 -566 507 0
18025 556 -558 -566 -507 0
12880 -556 558 566 507 0
16744 -556 558 566 -507 0
14646 -556 558 -566 507 0
17274 -556 558 -566 -507 0
17848 -556 -558 566 507 0
18234 -556 -558 566 -507 0
18025 -556 -558 -566 507 0
18287 -556 -558 -566 -507 0
5570 570 503 564 -582 0
33420 570 503 -564 582 0
35648 570 503 -564 -582 0
10026 570 -503 564 582 0
14593 570 -503 564 -582 0
37430 570 -503 -564 582 0
39257 570 -503 -564 -582 0
6684 -570 503 564 582 0
11586 -570 503 564 -582 0
36094 -570 503 -564 582 0
38054 -570 503 -564 -582 0
15507 -570 -503 564 582 0
19526 -570 -503 564 -582 0
39623 -570 -503 -564 582 0
41230 -570 -503 -564 -582 0
5265 458 584 553 -565 0
5265 458 584 -553 565 0
9740 458 584 -553 -565 0
3510 458 -584 553 565 0
8248 458 -584 553 -565 0
8248 458 -584 -553 565 0
12276 458 -584 -553 -565 0
31590 -458 584 553 565 0
32117 -458 584 553 -565 0
32117 -458 584 -553 565 0
32564 -458 584 -553 -565 0
31941 -458 -584 553 565 0
32415 -458 -584 553 -565 0
32415 -458 -584 -553 565 0
32818 -458 -584 -553 -565 0
5160 559 581 573 583 -174 0
5160 559 581 573 -583 174 0
9701 559 581 573 -583 -174 0
19350 559 581 -573 583 174 0
22188 559 581 -573 583 -174 0
22188 559 581 -573 -583 174 0
24685 559 581 -573 -583 -174 0
10750 559 -581 573 583 174 0
14620 559 -581 573 583 -174 0
14620 559 -581 573 -583 174 0
18026 559 -581 573 -583 -174 0
25262 559 -581 -573 583 174 0
27391 559 -581 -573 583 -174 0
27391 559 -581 -573 -583 174 0
29264 559 -581 -573 -583 -174 0
23650 -559 581 573 583 174 0
25972 -559 581 573 583 -174 0
25972 -559 581 573 -583 174 0
28015 -559 581 573 -583 -174 0
32357 -559 581 -573 583 174 0
33635 -559 581 -573 583 -174 0
33635 -559 581 -573 -583 174 0
34758 -559 581 -573 -583 -174 0
28488 -559 -581 573 583 174 0
30229 -559 -581 573 583 -174 0
30229 -559 -581 573 -583 174 0
31762 -559 -581 573 -583 -174 0
35018 -559 -581 -573 583 174 0
35976 -559 -581 -573 583 -174 0
35976 -559 -581 -573 -583 174 0
36819 -559 -581 -573 -583 -174 0
65360 585 577 574 -587 0
13760 585 577 -574 587 0
66048 585 577 -574 -587 0
51600 585 -577 574 587 0
67940 585 -577 574 -587 0
55040 585 -577 -574 587 0
68112 585 -577 -574 -587 0
10320 -585 577 574 587 0
65876 -585 577 574 -587 0
22016 -585 577 -574 587 0
66461 -585 577 -574 -587 0
54180 -585 -577 574 587 0
68069 -585 -577 574 -587 0
57104 -585 -577 -574 587 0
68215 -585 -577 -574 -587 0
9792 597 -601 0
21420 -597 601 0
24358 -597 -601 0
27850 588 578 567 -496 0
6684 588 578 -567 496 0
31192 588 578 -567 -496 0
30635 588 -578 567 496 0
43168 588 -578 567 -496 0
33643 588 -578 -567 496 0
44671 588 -578 -567 -496 0
33420 -588 578 567 496 0
44560 -588 578 567 -496 0
36094 -588 578 -567 496 0
45897 -588 578 -567 -496 0
45674 -588 -578 567 496 0
50687 -588 -578 567 -496 0
46877 -588 -578 -567 496 0
51289 -588 -578 -567 -496 0
10670 -535 0
34020 602 508 598 579 -605 0
7290 602 508 598 -579 605 0
36207 602 508 598 -579 -605 0
9720 602 508 -598 579 605 0
36936 602 508 -598 579 -605 0
15552 602 508 -598 -579 605 0
38686 602 508 -598 -579 -605 0
43740 602 -508 598 579 605 0
47142 602 -508 598 579 -605 0
44469 602 -508 598 -579 605 0
47361 602 -508 598 -579 -605 0
44712 602 -508 -598 579 605 0
47434 602 -508 -598 579 -605 0
45295 602 -508 -598 -579 605 0
47609 602 -508 -598 -579 -605 0
38880 -602 508 598 579 605 0
45684 -602 508 598 579 -605 0
40338 -602 508 598 -579 605 0
46121 -602 508 598 -579 -605 0
40824 -602 508 -598 579 605 0
46267 -602 508 -598 579 -605 0
41990 -602 508 -598 -579 605 0
46617 -602 508 -598 -579 -605 0
47628 -602 -508 598 579 605 0
48308 -602 -508 598 579 -605 0
47774 -602 -508 598 -579 605 0
48352 -602 -508 598 -579 -605 0
47822 -602 -508 -598 579 605 0
48367 -602 -508 -598 579 -605 0
47939 -602 -508 -598 -579 605 0
48402 -602 -508 -598 -579 -605 0
58500 611 586 609 -606 0
39000 611 586 -609 606 0
62400 611 586 -609 -606 0
16250 611 -586 609 606 0
60125 611 -586 609 -606 0
45500 611 -586 -609 606 0
63050 611 -586 -609 -606 0
7800 -611 586 609 606 0
59280 -611 586 609 -606 0
42120 -611 586 -609 606 0
62712 -611 586 -609 -606 0
22100 -611 -586 609 606 0
60710 -611 -586 609 -606 0
47840 -611 -586 -609 606 0
63284 -611 -586 -609 -606 0
61750 615 429 603 -612 0
24700 615 429 -603 612 0
62985 615 429 -603 -612 0
6500 615 -429 603 612 0
62075 615 -429 603 -612 0
28730 615 -429 -603 612 0
63187 615 -429 -603 -612 0
45500 -615 429 603 612 0
64025 -615 429 603 -612 0
52910 -615 429 -603 612 0
64396 -615 429 -603 -612 0
47450 -615 -429 603 612 0
64122 -615 -429 603 -612 0
54119 -615 -429 -603 612 0
64456 -615 -429 -603 -612 0
6208 -365 0
42250 621 616 -476 0
29250 621 -616 476 0
52488 621 -616 -476 0
3250 -621 616 476 0
43388 -621 616 -476 0
31038 -621 -616 476 0
53113 -621 -616 -476 0
12578 396 -590 0
26480 -396 590 0
28996 -396 -590 0
43840 -524 0
702 571 -623 0
33345 -571 623 0
33380 -571 -623 0
12610 617 -632 0
11640 -617 632 0
16684 -617 -632 0
12950 622 633 610 408 -624 0
28490 622 633 610 -408 624 0
34318 622 633 610 -408 -624 0
18130 622 633 -610 408 624 0
26547 622 633 -610 408 -624 0
36649 622 633 -610 -408 624 0
40436 622 633 -610 -408 -624 0
12950 622 -633 610 408 624 0
22662 622 -633 610 408 -624 0
34318 622 -633 610 -408 624 0
38688 622 -633 610 -408 -624 0
26547 622 -633 -610 408 624 0
32861 622 -633 -610 408 -624 0
40436 622 -633 -610 -408 624 0
43277 622 -633 -610 -408 -624 0
28490 -622 633 610 408 624 0
34318 -622 633 610 408 -624 0
41311 -622 633 610 -408 624 0
43933 -622 633 610 -408 -624 0
36649 -622 633 -610 408 624 0
40436 -622 633 -610 408 -624 0
44982 -622 633 -610 -408 624 0
46686 -622 633 -610 -408 -624 0
34318 -622 -633 610 408 624 0
38688 -622 -633 610 408 -624 0
43933 -622 -633 610 -408 624 0
45900 -622 -633 610 -408 -624 0
40436 -622 -633 -610 408 624 0
43277 -622 -633 -610 408 -624 0
46686 -622 -633 -610 -408 624 0
47965 -622 -633 -610 -408 -624 0
13700 604 638 -618 0
27400 604 -638 618 0
34250 604 -638 -618 0
2740 -604 638 618 0
15755 -604 638 -618 0
28770 -604 -638 618 0
35278 -604 -638 -618 0
3660 639 575 -644 0
11712 639 -575 644 0
14201 639 -575 -644 0
13908 -639 575 644 0
16177 -639 575 -644 0
21169 -639 -575 644 0
22712 -639 -575 -644 0
52060 383 642 635 -634 0
20824 383 642 -635 634 0
53101 383 642 -635 -634 0
2740 383 -642 635 634 0
52197 383 -642 635 -634 0
22523 383 -642 -635 634 0
53186 383 -642 -635 -634 0
52060 -383 642 635 634 0
54663 -383 642 635 -634 0
53101 -383 642 -635 634 0
54715 -383 642 -635 -634 0
52197 -383 -642 635 634 0
54670 -383 -642 635 -634 0
53186 -383 -642 -635 634 0
54719 -383 -642 -635 -634 0
16832 645 409 -648 0
44710 645 -409 648 0
47235 645 -409 -648 0
18410 -645 409 648 0
29351 -645 409 -648 0
47471 -645 -409 648 0
49113 -645 -409 -648 0
13338 646 366 636 -619 0
3510 646 366 -636 619 0
15514 646 366 -636 -619 0
8775 646 -366 636 619 0
18779 646 -366 636 -619 0
11407 646 -366 -636 619 0
20411 646 -366 -636 -619 0
1755 -646 366 636 619 0
14426 -646 366 636 -619 0
5090 -646 366 -636 619 0
16493 -646 366 -636 -619 0
10091 -646 -366 636 619 0
19595 -646 -366 636 -619 0
12592 -646 -366 -636 619 0
21145 -646 -366 -636 -619 0
6216 613 -375 0
23310 -613 375 0
26729 -613 -375 0
9700 432 186 628 -643 0
13580 432 186 -628 643 0
16490 432 186 -628 -643 0
388 432 -186 628 643 0
9894 432 -186 628 -643 0
13696 432 -186 -628 643 0
16548 432 -186 -628 -643 0
16490 -432 186 628 643 0
17945 -432 186 628 -643 0
18527 -432 186 -628 643 0
18964 -432 186 -628 -643 0
16548 -432 -186 628 643 0
17974 -432 -186 628 -643 0
18544 -432 -186 -628 643 0
18972 -432 -186 -628 -643 0
55040 647 649 652 607 -188 0
13760 647 649 652 -607 188 0
57792 647 649 652 -607 -188 0
13760 647 649 -652 607 188 0
57792 647 649 -652 607 -188 0
24768 647 649 -652 -607 188 0
59994 647 649 -652 -607 -188 0
24080 647 -649 652 607 188 0
59856 647 -649 652 607 -188 0
33024 647 -649 652 -607 188 0
61645 647 -649 652 -607 -188 0
33024 647 -649 -652 607 188 0
61645 647 -649 -652 607 -188 0
40179 647 -649 -652 -607 188 0
63076 647 -649 -652 -607 -188 0
6880 -647 649 652 607 188 0
56416 -647 649 652 607 -188 0
19264 -647 649 652 -607 188 0
58893 -647 649 652 -607 -188 0
19264 -647 649 -652 607 188 0
58893 -647 649 -652 607 -188 0
29171 -647 649 -652 -607 188 0
60874 -647 649 -652 -607 -188 0
28552 -647 -649 652 607 188 0
60750 -647 -649 652 607 -188 0
36602 -647 -649 652 -607 188 0
62360 -647 -649 652 -607 -188 0
36602 -647 -649 -652 607 188 0
62360 -647 -649 -652 607 -188 0
43041 -647 -649 -652 -607 188 0
63648 -647 -649 -652 -607 -188 0
38990 189 -576 0
11140 -189 576 0
42332 -189 -576 0
9700 653 650 -194 0
2328 653 -650 194 0
10864 653 -650 -194 0
2328 -653 650 194 0
10864 -653 650 -194 0
4377 -653 -650 194 0
11888 -653 -650 -194 0
53925 637 192 197 -589 0
53925 637 192 -197 589 0
67406 637 192 -197 -589 0
57520 637 -192 197 589 0
68305 637 -192 197 -589 0
68305 637 -192 -197 589 0
71001 637 -192 -197 -589 0
1438 -637 192 197 589 0
54285 -637 192 197 -589 0
54285 -637 192 -197 589 0
67496 -637 192 -197 -589 0
57808 -637 -192 197 589 0
68377 -637 -192 197 -589 0
68377 -637 -192 -197 589 0
71019 -637 -192 -197 -589 0
970 629 -620 0
970 -629 620 0
1892 -629 -620 0
10530 -509 0
27135 -568 0
17200 205 -550 0
17200 -205 550 0
30100 -205 -550 0
8120 201 209 -563 0
3045 201 -209 563 0
9947 201 -209 -563 0
5075 -201 209 563 0
11165 -201 209 -563 0
7359 -201 -209 563 0
12535 -201 -209 -563 0
11640 488 -206 0
12610 -488 206 0
16684 -488 -206 0
7320 202 193 198 210 195 -572 0
27450 202 193 198 210 -195 572 0
29280 202 193 198 210 -195 -572 0
18300 202 193 198 -210 195 572 0
21960 202 193 198 -210 195 -572 0
32025 202 193 198 -210 -195 572 0
32940 202 193 198 -210 -195 -572 0
34770 202 193 -198 210 195 572 0
35136 202 193 -198 210 195 -572 0
36143 202 193 -198 210 -195 572 0
36234 202 193 -198 210 -195 -572 0
35685 202 193 -198 -210 195 572 0
35868 202 193 -198 -210 195 -572 0
36371 202 193 -198 -210 -195 572 0
36417 202 193 -198 -210 -195 -572 0
10980 202 -193 198 210 195 572 0
16104 202 -193 198 210 195 -572 0
30195 202 -193 198 210 -195 572 0
31476 202 -193 198 210 -195 -572 0
23790 202 -193 198 -210 195 572 0
26352 202 -193 198 -210 195 -572 0
33397 202 -193 198 -210 -195 572 0
34038 202 -193 198 -210 -195 -572 0
35319 202 -193 -198 210 195 572 0
35575 202 -193 -198 210 195 -572 0
36280 202 -193 -198 210 -195 572 0
36344 202 -193 -198 210 -195 -572 0
35959 202 -193 -198 -210 195 572 0
36088 202 -193 -198 -210 195 -572 0
36440 202 -193 -198 -210 -195 572 0
36472 202 -193 -198 -210 -195 -572 0
9150 -202 193 198 210 195 572 0
14640 -202 193 198 210 195 -572 0
29738 -202 193 198 210 -195 572 0
31110 -202 193 198 210 -195 -572 0
22875 -202 193 198 -210 195 572 0
25620 -202 193 198 -210 195 -572 0
33169 -202 193 198 -210 -195 572 0
33855 -202 193 198 -210 -195 -572 0
35227 -202 193 -198 210 195 572 0
35502 -202 193 -198 210 195 -572 0
36257 -202 193 -198 210 -195 572 0
36325 -202 193 -198 210 -195 -572 0
35914 -202 193 -198 -210 195 572 0
36051 -202 193 -198 -210 195 -572 0
36428 -202 193 -198 -210 -195 572 0
36463 -202 193 -198 -210 -195 -572 0
17385 -202 -193 198 210 195 572 0
21228 -202 -193 198 210 195 -572 0
31796 -202 -193 198 210 -195 572 0
32757 -202 -193 198 210 -195 -572 0
26993 -202 -193 198 -210 195 572 0
28914 -202 -193 198 -210 195 -572 0
34198 -202 -193 198 -210 -195 572 0
34679 -202 -193 198 -210 -195 -572 0
35639 -202 -193 -198 210 195 572 0
35831 -202 -193 -198 210 195 -572 0
36360 -202 -193 -198 210 -195 572 0
36408 -202 -193 -198 210 -195 -572 0
36120 -202 -193 -198 -210 195 572 0
36216 -202 -193 -198 -210 195 -572 0
36480 -202 -193 -198 -210 -195 572 0
36504 -202 -193 -198 -210 -195 -572 0
3972 504 196 217 -214 0
3310 504 196 -217 214 0
6885 504 196 -217 -214 0
3310 504 -196 217 214 0
6885 504 -196 217 -214 0
6289 504 -196 -217 214 0
9506 504 -196 -217 -214 0
12578 -504 196 217 214 0
15041 -504 196 217 -214 0
14630 -504 196 -217 214 0
16847 -504 196 -217 -214 0
14630 -504 -196 217 214 0
16847 -504 -196 217 -214 0
16477 -504 -196 -217 214 0
18472 -504 -196 -217 -214 0
37840 -651 0
17550 608 -222 0
14040 -608 222 0
24570 -608 -222 0
3440 219 203 187 631 227 -640 0
12384 219 203 187 631 -227 640 0
15205 219 203 187 631 -227 -640 0
65360 219 203 187 -631 227 640 0
65532 219 203 187 -631 227 -640 0
65979 219 203 187 -631 -227 640 0
66120 219 203 187 -631 -227 -640 0
61920 219 203 -187 631 227 640 0
62264 219 203 -187 631 227 -640 0
63158 219 203 -187 631 -227 640 0
63440 219 203 -187 631 -227 -640 0
68456 219 203 -187 -631 227 640 0
68473 219 203 -187 -631 227 -640 0
68518 219 203 -187 -631 -227 640 0
68532 219 203 -187 -631 -227 -640 0
20640 219 -203 187 631 227 640 0
23048 219 -203 187 631 227 -640 0
29309 219 -203 187 631 -227 640 0
31283 219 -203 187 631 -227 -640 0
66392 219 -203 187 -631 227 640 0
66512 219 -203 187 -631 227 -640 0
66825 219 -203 187 -631 -227 640 0
66924 219 -203 187 -631 -227 -640 0
63984 219 -203 -187 631 227 640 0
64225 219 -203 -187 631 227 -640 0
64851 219 -203 -187 631 -227 640 0
65048 219 -203 -187 631 -227 -640 0
68559 219 -203 -187 -631 227 640 0
68571 219 -203 -187 -631 227 -640 0
68603 219 -203 -187 -631 -227 640 0
68612 219 -203 -187 -631 -227 -640 0
44720 -219 203 187 631 227 640 0
45924 -219 203 187 631 227 -640 0
49054 -219 203 187 631 -227 640 0
50042 -219 203 187 631 -227 -640 0
67596 -219 203 187 -631 227 640 0
67656 -219 203 187 -631 227 -640 0
67813 -219 203 187 -631 -227 640 0
67862 -219 203 187 -631 -227 -640 0
66392 -219 203 -187 631 227 640 0
66512 -219 203 -187 631 227 -640 0
66825 -219 203 -187 631 -227 640 0
66924 -219 203 -187 631 -227 -640 0
68680 -219 203 -187 -631 227 640 0
68686 -219 203 -187 -631 227 -640 0
68701 -219 203 -187 -631 -227 640 0
68706 -219 203 -187 -631 -227 -640 0
51944 -219 -203 187 631 227 640 0
52787 -219 -203 187 631 227 -640 0
54978 -219 -203 187 631 -227 640 0
55669 -219 -203 187 631 -227 -640 0
67957 -219 -203 187 -631 227 640 0
67999 -219 -203 187 -631 227 -640 0
68109 -219 -203 187 -631 -227 640 0
68143 -219 -203 187 -631 -227 -640 0
67114 -219 -203 -187 631 227 640 0
67199 -219 -203 -187 631 227 -640 0
67418 -219 -203 -187 631 -227 640 0
67487 -219 -203 -187 631 -227 -640 0
68716 -219 -203 -187 -631 227 640 0
68720 -219 -203 -187 -631 227 -640 0
68731 -219 -203 -187 -631 -227 640 0
68734 -219 -203 -187 -631 -227 -640 0
14210 215 -218 0
2436 -215 218 0
14941 -215 -218 0
28740 216 176 -224 0
5748 216 -176 224 0
31039 216 -176 -224 0
40715 -216 176 224 0
45026 -216 176 -224 0
41577 -216 -176 224 0
45371 -216 -176 -224 0
1940 220 223 -228 0
16490 220 -223 228 0
16781 220 -223 -228 0
14550 -220 223 228 0
15035 -220 223 -228 0
18672 -220 -223 228 0
18745 -220 -223 -228 0
10520 518 229 -225 0
16832 518 -229 225 0
23986 518 -229 -225 0
23670 -518 229 225 0
29456 -518 229 -225 0
32928 -518 -229 225 0
36862 -518 -229 -225 0
37840 238 204 551 -199 0
22016 238 204 -551 199 0
47747 238 204 -551 -199 0
20640 238 -204 551 199 0
47128 238 -204 551 -199 0
36051 238 -204 -551 199 0
54063 238 -204 -551 -199 0
12384 -238 204 551 199 0
43413 -238 204 551 -199 0
30437 -238 204 -551 199 0
51537 -238 204 -551 -199 0
29309 -238 -204 551 199 0
51029 -238 -204 551 -199 0
41946 -238 -204 -551 199 0
56716 -238 -204 -551 -199 0
6440 439 235 -231 0
368 439 -235 231 0
6679 439 -235 -231 0
4600 -439 235 231 0
9430 -439 235 -231 0
4876 -439 -235 231 0
9609 -439 -235 -231 0
2630 -482 0
7800 599 249 -236 0
13000 599 -249 236 0
19240 599 -249 -236 0
16250 -599 249 236 0
22100 -599 249 -236 0
26000 -599 -249 236 0
30680 -599 -249 -236 0
1036 200 250 245 -240 0
23310 200 250 -245 240 0
23880 200 250 -245 -240 0
6216 200 -250 245 240 0
7128 200 -250 245 -240 0
26729 200 -250 -245 240 0
27230 200 -250 -245 -240 0
5180 -200 250 245 240 0
6112 -200 250 245 -240 0
26159 -200 250 -245 240 0
26672 -200 250 -245 -240 0
10774 -200 -250 245 240 0
11595 -200 -250 245 -240 0
29236 -200 -250 -245 240 0
29687 -200 -250 -245 -240 0
4250 412 254 -256 0
2550 412 -254 256 0
6163 412 -254 -256 0
6800 -412 254 256 0
9350 -412 254 -256 0
8330 -412 -254 256 0
10497 -412 -254 -256 0
612 233 232 413 -251 0
16830 233 232 -413 251 0
17105 233 232 -413 -251 0
24480 233 -232 413 251 0
24602 233 -232 413 -251 0
27846 233 -232 -413 251 0
27901 233 -232 -413 -251 0
13770 -233 232 413 251 0
14107 -233 232 413 -251 0
23026 -233 232 -413 251 0
23178 -233 232 -413 -251 0
27234 -233 -232 413 251 0
27301 -233 -232 413 -251 0
29085 -233 -232 -413 251 0
29116 -233 -232 -413 -251 0
750 257 168 -239 0
5250 257 -168 239 0
5738 257 -168 -239 0
7500 -257 168 239 0
7875 -257 168 -239 0
10125 -257 -168 239 0
10369 -257 -168 -239 0
1655 247 -614 0
1655 -247 614 0
3227 -247 -614 0
36205 252 -641 0
25065 -252 641 0
44978 -252 -641 0
23950 264 260 -389 0
18202 264 -260 389 0
33051 264 -260 -389 0
45505 -264 260 389 0
46702 -264 260 -389 0
46415 -264 -260 389 0
47158 -264 -260 -389 0
3595 -226 0
21774 -269 0
15520 276 248 221 -255 0
7372 276 248 -221 255 0
16994 276 248 -221 -255 0
10670 276 -248 221 255 0
17654 276 -248 221 -255 0
13987 276 -248 -221 255 0
18317 276 -248 -221 -255 0
12610 -276 248 221 255 0
18042 -276 248 221 -255 0
15190 -276 248 -221 255 0
18558 -276 248 -221 -255 0
16344 -276 -248 221 255 0
18789 -276 -248 221 -255 0
17506 -276 -248 -221 255 0
19021 -276 -248 -221 -255 0
45075 262 272 278 -393 0
57095 262 272 -278 393 0
59349 262 272 -278 -393 0
54090 262 -272 278 393 0
58598 262 -272 278 -393 0
59800 262 -272 -278 393 0
60025 262 -272 -278 -393 0
54090 -262 272 278 393 0
58598 -262 272 278 -393 0
59800 -262 272 -278 393 0
60025 -262 272 -278 -393 0
59499 -262 -272 278 393 0
59950 -262 -272 278 -393 0
60070 -262 -272 -278 393 0
60092 -262 -272 -278 -393 0
2030 230 -279 0
19285 -230 279 0
19386 -230 -279 0
19890 282 273 270 384 -263 0
29070 282 273 270 -384 263 0
30064 282 273 270 -384 -263 0
12240 282 273 -270 384 263 0
24174 282 273 -270 384 -263 0
29682 282 273 -270 -384 263 0
30279 282 273 -270 -384 -263 0
3672 282 -273 270 384 263 0
21175 282 -273 270 384 -263 0
29254 282 -273 270 -384 263 0
30129 282 -273 270 -384 -263 0
14443 282 -273 -270 384 263 0
24945 282 -273 -270 384 -263 0
29792 282 -273 -270 -384 263 0
30317 282 -273 -270 -384 -263 0
21420 -282 273 270 384 263 0
27387 -282 273 270 384 -263 0
30141 -282 273 270 -384 263 0
30439 -282 273 270 -384 -263 0
25092 -282 273 -270 384 263 0
28672 -282 273 -270 384 -263 0
30325 -282 273 -270 -384 263 0
30504 -282 273 -270 -384 -263 0
22522 -282 -273 270 384 263 0
27773 -282 -273 270 384 -263 0
30196 -282 -273 270 -384 263 0
30459 -282 -273 270 -384 -263 0
25753 -282 -273 -270 384 263 0
28904 -282 -273 -270 384 -263 0
30358 -282 -273 -270 -384 263 0
30515 -282 -273 -270 -384 -263 0
31590 253 234 271 -265 0
26325 253 234 -271 265 0
34222 253 234 -271 -265 0
6318 253 -234 271 265 0
32222 253 -234 271 -265 0
27904 253 -234 -271 265 0
34380 253 -234 -271 -265 0
24570 -253 234 271 265 0
34047 -253 234 271 -265 0
32468 -253 234 -271 265 0
34837 -253 234 -271 -265 0
26465 -253 -234 271 265 0
34237 -253 -234 271 -265 0
32941 -253 -234 -271 265 0
34884 -253 -234 -271 -265 0
49470 287 -453 0
49470 -287 453 0
56890 -287 -453 0
13700 289 -510 0
6576 -289 510 0
18632 -289 -510 0
27520 296 246 -355 0
13760 296 -246 355 0
35776 296 -246 -355 0
22016 -296 246 355 0
40730 -296 246 -355 0
31373 -296 -246 355 0
46344 -296 -246 -355 0
34190 290 489 -258 0
15780 290 -489 258 0
39713 290 -489 -258 0
16832 -290 489 258 0
40081 -290 489 -258 0
27562 -290 -489 258 0
43837 -290 -489 -258 0
48750 277 538 274 -261 0
48750 277 538 -274 261 0
60938 277 538 -274 -261 0
32500 277 -538 274 261 0
56875 277 -538 274 -261 0
56875 277 -538 -274 261 0
62969 277 -538 -274 -261 0
45500 -277 538 274 261 0
60125 -277 538 274 -261 0
60125 -277 538 -274 261 0
63781 -277 538 -274 -261 0
55250 -277 -538 274 261 0
62562 -277 -538 274 -261 0
62562 -277 -538 -274 261 0
64391 -277 -538 -274 -261 0
55040 297 275 298 -630 0
1376 297 275 -298 630 0
55315 297 275 -298 -630 0
8256 297 -275 298 630 0
56691 297 -275 298 -630 0
9467 297 -275 -298 630 0
56933 297 -275 -298 -630 0
26144 -297 275 298 630 0
60269 -297 275 298 -630 0
26997 -297 275 -298 630 0
60439 -297 275 -298 -630 0
31263 -297 -275 298 630 0
61293 -297 -275 298 -630 0
32013 -297 -275 -298 630 0
61443 -297 -275 -298 -630 0
42080 592 -284 0
10520 -592 284 0
44184 -592 -284 0
8730 190 -300 0
13580 -190 300 0
16199 -190 -300 0
41440 283 -285 0
18130 -283 285 0
45066 -283 -285 0
27520 302 207 308 288 301 -306 0
65360 302 207 308 288 -301 306 0
66736 302 207 308 288 -301 -306 0
44720 302 207 308 -288 301 306 0
54352 302 207 308 -288 301 -306 0
67596 302 207 308 -288 -301 306 0
68078 302 207 308 -288 -301 -306 0
61920 302 207 -308 288 301 306 0
64672 302 207 -308 288 301 -306 0
68456 302 207 -308 288 -301 306 0
68594 302 207 -308 288 -301 -306 0
66392 302 207 -308 -288 301 306 0
67355 302 207 -308 -288 301 -306 0
68680 302 207 -308 -288 -301 306 0
68728 302 207 -308 -288 -301 -306 0
44720 302 -207 308 288 301 306 0
54352 302 -207 308 288 301 -306 0
67596 302 -207 308 288 -301 306 0
68078 302 -207 308 288 -301 -306 0
60372 302 -207 308 -288 301 306 0
63743 302 -207 308 -288 301 -306 0
68379 302 -207 308 -288 -301 306 0
68547 302 -207 308 -288 -301 -306 0
66392 302 -207 -308 288 301 306 0
67355 302 -207 -308 288 301 -306 0
68680 302 -207 -308 288 -301 306 0
68728 302 -207 -308 288 -301 -306 0
67957 302 -207 -308 -288 301 306 0
68294 302 -207 -308 -288 301 -306 0
68758 302 -207 -308 -288 -301 306 0
68775 302 -207 -308 -288 -301 -306 0
12384 -302 207 308 288 301 306 0
34950 -302 207 308 288 301 -306 0
65979 -302 207 308 288 -301 306 0
67108 -302 207 308 288 -301 -306 0
49054 -302 207 308 -288 301 306 0
56953 -302 207 308 -288 301 -306 0
67813 -302 207 308 -288 -301 306 0
68208 -302 207 308 -288 -301 -306 0
63158 -302 207 -308 288 301 306 0
65415 -302 207 -308 288 301 -306 0
68518 -302 207 -308 288 -301 306 0
68631 -302 207 -308 288 -301 -306 0
66825 -302 207 -308 -288 301 306 0
67615 -302 207 -308 -288 301 -306 0
68701 -302 207 -308 -288 -301 306 0
68741 -302 207 -308 -288 -301 -306 0
49054 -302 -207 308 288 301 306 0
56953 -302 -207 308 288 301 -306 0
67813 -302 -207 308 288 -301 306 0
68208 -302 -207 308 288 -301 -306 0
61889 -302 -207 308 -288 301 306 0
64653 -302 -207 308 -288 301 -306 0
68454 -302 -207 308 -288 -301 306 0
68593 -302 -207 308 -288 -301 -306 0
66825 -302 -207 -308 288 301 306 0
67615 -302 -207 -308 288 301 -306 0
68701 -302 -207 -308 288 -301 306 0
68741 -302 -207 -308 288 -301 -306 0
68109 -302 -207 -308 -288 301 306 0
68385 -302 -207 -308 -288 301 -306 0
68765 -302 -207 -308 -288 -301 306 0
68779 -302 -207 -308 -288 -301 -306 0
36820 -627 0
13150 557 280 259 314 -310 0
44710 557 280 259 -314 310 0
46682 557 280 259 -314 -310 0
42080 557 280 -259 314 310 0
44710 557 280 -259 314 -310 0
51022 557 280 -259 -314 310 0
51416 557 280 -259 -314 -310 0
28930 557 -280 259 314 310 0
34848 557 -280 259 314 -310 0
49050 557 -280 259 -314 310 0
49937 557 -280 259 -314 -310 0
47866 557 -280 -259 314 310 0
49050 557 -280 -259 314 -310 0
51890 557 -280 -259 -314 310 0
52067 557 -280 -259 -314 -310 0
2630 -557 280 259 314 310 0
15123 -557 280 259 314 -310 0
45104 -557 280 259 -314 310 0
46978 -557 280 259 -314 -310 0
42606 -557 280 -259 314 310 0
45105 -557 280 -259 314 -310 0
51101 -557 280 -259 -314 310 0
51476 -557 280 -259 -314 -310 0
30113 -557 -280 259 314 310 0
35735 -557 -280 259 314 -310 0
49227 -557 -280 259 -314 310 0
50070 -557 -280 259 -314 -310 0
48103 -557 -280 -259 314 310 0
49227 -557 -280 -259 314 -310 0
51925 -557 -280 -259 -314 310 0
52094 -557 -280 -259 -314 -310 0
15640 281 483 -322 0
2760 281 -483 322 0
16054 281 -483 -322 0
12880 -281 483 322 0
17572 -281 483 -322 0
13708 -281 -483 322 0
17696 -281 -483 -322 0
9580 303 323 596 -312 0
14370 303 323 -596 312 0
21076 303 323 -596 -312 0
18202 303 -323 596 312 0
24142 303 -323 596 -312 0
27111 303 -323 -596 312 0
31269 303 -323 -596 -312 0
28740 -303 323 596 312 0
32572 -303 323 596 -312 0
34488 -303 323 -596 312 0
37170 -303 323 -596 -312 0
36021 -303 -323 596 312 0
38397 -303 -323 596 -312 0
39585 -303 -323 -596 312 0
41248 -303 -323 -596 -312 0
47345 311 191 309 -324 0
47345 311 191 -309 324 0
54447 311 191 -309 -324 0
6684 311 -191 309 324 0
48348 311 -191 309 -324 0
48348 311 -191 -309 324 0
54597 311 -191 -309 -324 0
16710 -311 191 309 324 0
49851 -311 191 309 -324 0
49851 -311 191 -309 324 0
54823 -311 191 -309 -324 0
21389 -311 -191 309 324 0
50553 -311 -191 309 -324 0
50553 -311 -191 -309 324 0
54928 -311 -191 -309 -324 0
39450 299 208 -286 0
19988 299 -208 286 0
44447 299 -208 -286 0
34190 -299 208 286 0
47997 -299 208 -286 0
41186 -299 -208 286 0
49746 -299 -208 -286 0
21920 307 385 -304 0
38360 307 -385 304 0
44936 307 -385 -304 0
43840 -307 385 304 0
48224 -307 385 -304 0
51512 -307 -385 304 0
52827 -307 -385 -304 0
2328 -521 0
31445 237 313 334 -326 0
13240 237 313 -334 326 0
32107 237 313 -334 -326 0
10592 237 -313 334 326 0
31975 237 -313 334 -326 0
19595 237 -313 -334 326 0
32425 237 -313 -334 -326 0
31445 -237 313 334 326 0
33017 -237 313 334 -326 0
32107 -237 313 -334 326 0
33050 -237 313 -334 -326 0
31975 -237 -313 334 326 0
33044 -237 -313 334 -326 0
32425 -237 -313 -334 326 0
33066 -237 -313 -334 -326 0
30635 328 305 330 -600 0
5570 328 305 -330 600 0
33141 328 305 -330 -600 0
25065 328 -305 330 600 0
41914 328 -305 330 -600 0
28128 328 -305 -330 600 0
43293 328 -305 -330 -600 0
19495 -328 305 330 600 0
39408 -328 305 330 -600 0
23115 -328 305 -330 600 0
41037 -328 305 -330 -600 0
35787 -328 -305 330 600 0
46739 -328 -305 330 -600 0
37779 -328 -305 -330 600 0
47635 -328 -305 -330 -600 0
14380 421 338 335 329 -332 0
35950 421 338 335 -329 332 0
43140 421 338 335 -329 -332 0
50330 421 338 -335 329 332 0
54644 421 338 -335 329 -332 0
61115 421 338 -335 -329 332 0
63272 421 338 -335 -329 -332 0
12942 421 -338 335 329 332 0
24734 421 -338 335 329 -332 0
42421 421 -338 335 -329 332 0
48317 421 -338 335 -329 -332 0
54213 421 -338 -335 329 332 0
57750 421 -338 -335 329 -332 0
63056 421 -338 -335 -329 332 0
64825 421 -338 -335 -329 -332 0
53925 -421 338 335 329 332 0
57520 -421 338 335 329 -332 0
62912 -421 338 335 -329 332 0
64710 -421 338 335 -329 -332 0
66508 -421 338 -335 329 332 0
67586 -421 338 -335 329 -332 0
69204 -421 338 -335 -329 332 0
69743 -421 338 -335 -329 -332 0
57160 -421 -338 335 329 332 0
60108 -421 -338 335 329 -332 0
64530 -421 -338 335 -329 332 0
66004 -421 -338 335 -329 -332 0
67478 -421 -338 -335 329 332 0
68363 -421 -338 -335 329 -332 0
69689 -421 -338 -335 -329 332 0
70131 -421 -338 -335 -329 -332 0
12880 -241 0
33345 325 336 349 333 339 -315 0
13338 325 336 349 333 -339 315 0
34012 325 336 349 333 -339 -315 0
14040 325 336 349 -333 339 315 0
34047 325 336 349 -333 339 -315 0
22043 325 336 349 -333 -339 315 0
34447 325 336 349 -333 -339 -315 0
12285 325 336 -349 333 339 315 0
33959 325 336 -349 333 339 -315 0
20955 325 336 -349 333 -339 315 0
34393 325 336 -349 333 -339 -315 0
21411 325 336 -349 -333 339 315 0
34416 325 336 -349 -333 339 -315 0
26613 325 336 -349 -333 -339 315 0
34676 325 336 -349 -333 -339 -315 0
5265 325 -336 349 333 339 315 0
33608 325 -336 349 333 339 -315 0
16602 325 -336 349 333 -339 315 0
34175 325 -336 349 333 -339 -315 0
17199 325 -336 349 -333 339 315 0
34205 325 -336 349 -333 339 -315 0
24001 325 -336 349 -333 -339 315 0
34545 325 -336 349 -333 -339 -315 0
15707 325 -336 -349 333 339 315 0
34130 325 -336 -349 333 339 -315 0
23076 325 -336 -349 333 -339 315 0
34499 325 -336 -349 333 -339 -315 0
23464 325 -336 -349 -333 339 315 0
34518 325 -336 -349 -333 339 -315 0
27886 325 -336 -349 -333 -339 315 0
34739 325 -336 -349 -333 -339 -315 0
1755 -325 336 349 333 339 315 0
33433 -325 336 349 333 339 -315 0
14426 -325 336 349 333 -339 315 0
34066 -325 336 349 333 -339 -315 0
15093 -325 336 349 -333 339 315 0
34100 -325 336 349 -333 339 -315 0
22696 -325 336 349 -333 -339 315 0
34480 -325 336 349 -333 -339 -315 0
13426 -325 336 -349 333 339 315 0
34016 -325 336 -349 333 339 -315 0
21662 -325 336 -349 333 -339 315 0
34428 -325 336 -349 333 -339 -315 0
22095 -325 336 -349 -333 339 315 0
34450 -325 336 -349 -333 339 -315 0
27037 -325 336 -349 -333 -339 315 0
34697 -325 336 -349 -333 -339 -315 0
6757 -325 -336 349 333 339 315 0
33683 -325 -336 349 333 339 -315 0
17527 -325 -336 349 333 -339 315 0
34221 -325 -336 349 333 -339 -315 0
18094 -325 -336 349 -333 339 315 0
34250 -325 -336 349 -333 339 -315 0
24556 -325 -336 349 -333 -339 315 0
34573 -325 -336 349 -333 -339 -315 0
16677 -325 -336 -349 333 339 315 0
34179 -325 -336 -349 333 339 -315 0
23678 -325 -336 -349 333 -339 315 0
34529 -325 -336 -349 333 -339 -315 0
24046 -325 -336 -349 -333 339 315 0
34547 -325 -336 -349 -333 339 -315 0
28247 -325 -336 -349 -333 -339 315 0
34757 -325 -336 -349 -333 -339 -315 0
13700 479 -337 0
38360 -479 337 0
42470 -479 -337 0
18130 426 -340 0
23310 -426 340 0
33281 -426 -340 0
15780 331 347 327 -500 0
26300 331 347 -327 500 0
34190 331 347 -327 -500 0
7890 331 -347 327 500 0
21303 331 -347 327 -500 0
30245 331 -347 -327 500 0
36951 331 -347 -327 -500 0
19988 -331 347 327 500 0
29772 -331 347 327 -500 0
36294 -331 347 -327 500 0
41186 -331 347 -327 -500 0
24880 -331 -347 327 500 0
33196 -331 -347 327 -500 0
38740 -331 -347 -327 500 0
42898 -331 -347 -327 -500 0
52915 341 348 -316 0
6684 341 -348 316 0
53249 341 -348 -316 0
33420 -341 348 316 0
54586 -341 348 -316 0
36094 -341 -348 316 0
54720 -341 -348 -316 0
