p wcnf 53 183 1000000
1000000 1 0
1000000 2 -13 0
1000000 13 -41 -38 -1 0
1000000 3 -14 0
1000000 14 -40 -43 -36 -1 0
1000000 8 -15 0
1000000 15 -37 -1 0
1000000 12 -16 0
1000000 16 -39 -44 -2 0
1000000 3 -17 0
1000000 17 -46 -45 -37 -2 0
1000000 4 -18 0
1000000 18 -42 -2 0
1000000 5 -19 0
1000000 19 -36 -2 0
1000000 8 -20 0
1000000 20 -47 -39 -43 -3 0
1000000 9 -21 0
1000000 21 -47 -45 -41 -3 0
1000000 10 -22 0
1000000 22 -48 -38 -3 0
1000000 6 -23 0
1000000 23 -48 -39 -40 -4 0
1000000 7 -24 0
1000000 24 -40 -46 -44 -4 0
1000000 8 -25 0
1000000 25 -38 -45 -36 -4 0
1000000 9 -26 0
1000000 26 -41 -42 -4 0
1000000 10 -27 0
1000000 27 -37 -4 0
1000000 8 -28 0
1000000 28 -37 -46 -38 -5 0
1000000 9 -29 0
1000000 29 -42 -43 -40 -5 0
1000000 10 -30 0
1000000 30 -41 -48 -45 -5 0
1000000 11 -31 0
1000000 31 -47 -7 0
1000000 10 -32 0
1000000 32 -44 -7 0
1000000 12 -33 0
1000000 33 -42 -8 0
1000000 10 -34 0
1000000 34 -38 -46 -43 -8 0
1000000 12 -35 0
1000000 35 -42 -44 -40 -9 0
1000000 1 0
1000000 -2 13 0
1000000 -3 14 17 0
1000000 -4 18 0
1000000 -5 19 0
1000000 -6 23 0
1000000 -7 24 0
1000000 -8 20 15 25 28 0
1000000 -9 21 26 29 0
1000000 -10 32 30 34 22 27 0
1000000 -11 31 0
1000000 -12 35 33 16 0
1000000 36 51 0
1000000 37 53 0
1000000 38 53 0
1000000 39 50 0
1000000 40 52 0
1000000 41 53 0
1000000 42 51 0
1000000 43 52 0
1000000 44 49 0
1000000 45 52 0
1000000 46 51 0
1000000 47 49 0
1000000 48 50 0
1000000 -36 -51 0
1000000 -37 -53 0
1000000 -38 -53 0
1000000 -39 -50 0
1000000 -40 -52 0
1000000 -41 -53 0
1000000 -42 -51 0
1000000 -43 -52 0
1000000 -44 -49 0
1000000 -45 -52 0
1000000 -46 -51 0
1000000 -47 -49 0
1000000 -48 -50 0
8600 -49 0
8600 -50 0
11400 -51 0
8300 -52 0
8600 -53 0
1600 36 0
1600 37 0
3900 38 0
3900 39 0
2700 40 0
3800 41 0
2400 42 0
1600 43 0
2400 44 0
2800 45 0
3900 46 0
3900 47 0
1300 48 0
24360 -13 0
18270 14 -17 0
812 -14 17 0
18717 -14 -17 0
37360 -18 0
19560 -19 0
75905 -23 0
14685 -24 0
4872 20 15 25 -28 0
22330 20 15 -25 28 0
24522 20 15 -25 -28 0
36540 20 -15 25 28 0
37027 20 -15 25 -28 0
38773 20 -15 -25 28 0
38992 20 -15 -25 -28 0
34510 -20 15 25 28 0
35241 -20 15 25 -28 0
37859 -20 15 -25 28 0
38188 -20 15 -25 -28 0
39991 -20 -15 25 28 0
40064 -20 -15 25 -28 0
40326 -20 -15 -25 28 0
40359 -20 -15 -25 -28 0
42030 21 26 -29 0
25685 21 -26 29 0
44599 21 -26 -29 0
42030 -21 26 29 0
46233 -21 26 -29 0
44599 -21 -26 29 0
46490 -21 -26 -29 0
47515 32 30 34 22 -27 0
23392 32 30 34 -22 27 0
55702 32 30 34 -22 -27 0
1462 32 30 -34 22 27 0
48027 32 30 -34 22 -27 0
24386 32 30 -34 -22 27 0
56050 32 30 -34 -22 -27 0
62135 32 -30 34 22 27 0
69262 32 -30 34 22 -27 0
65644 32 -30 34 -22 27 0
70490 32 -30 34 -22 -27 0
62354 32 -30 -34 22 27 0
69339 32 -30 -34 22 -27 0
65793 32 -30 -34 -22 27 0
70543 32 -30 -34 -22 -27 0
54825 -32 30 34 22 27 0
66704 -32 30 34 22 -27 0
60673 -32 30 34 -22 27 0
68751 -32 30 34 -22 -27 0
55190 -32 30 -34 22 27 0
66832 -32 30 -34 22 -27 0
60922 -32 30 -34 -22 27 0
68838 -32 30 -34 -22 -27 0
70359 -32 -30 34 22 27 0
72141 -32 -30 34 22 -27 0
71236 -32 -30 34 -22 27 0
72448 -32 -30 34 -22 -27 0
70414 -32 -30 -34 22 27 0
72160 -32 -30 -34 22 -27 0
71273 -32 -30 -34 -22 27 0
72461 -32 -30 -34 -22 -27 0
36100 -31 0
488 35 33 -16 0
3660 35 -33 16 0
4075 35 -33 -16 0
4392 -35 33 16 0
4792 -35 33 -16 0
7393 -35 -33 16 0
7733 -35 -33 -16 0
