p wcnf 59 184 1000000
1000000 1 0
1000000 2 -16 0
1000000 16 -45 -1 0
1000000 14 -17 0
1000000 17 -44 -1 0
1000000 15 -18 0
1000000 18 -48 -47 -52 -1 0
1000000 5 -19 0
1000000 19 -45 -53 -51 -1 0
1000000 11 -20 0
1000000 20 -46 -2 0
1000000 13 -21 0
1000000 21 -54 -2 0
1000000 3 -22 0
1000000 22 -55 -46 -2 0
1000000 4 -23 0
1000000 23 -47 -51 -2 0
1000000 5 -24 0
1000000 24 -44 -48 -2 0
1000000 9 -25 0
1000000 25 -55 -53 -50 -2 0
1000000 13 -26 0
1000000 26 -45 -44 -11 0
1000000 14 -27 0
1000000 27 -47 -51 -53 -13 0
1000000 15 -28 0
1000000 28 -49 -13 0
1000000 6 -29 0
1000000 29 -52 -3 0
1000000 8 -30 0
1000000 30 -46 -50 -3 0
1000000 5 -31 0
1000000 31 -48 -55 -4 0
1000000 15 -32 0
1000000 32 -49 -5 0
1000000 6 -33 0
1000000 33 -54 -49 -5 0
1000000 8 -34 0
1000000 34 -52 -5 0
1000000 9 -35 0
1000000 35 -50 -5 0
1000000 12 -36 0
1000000 36 -44 -45 -6 0
1000000 7 -37 0
1000000 37 -47 -6 0
1000000 10 -38 0
1000000 38 -54 -50 -6 0
1000000 8 -39 0
1000000 39 -48 -51 -7 0
1000000 12 -40 0
1000000 40 -54 -52 -8 0
1000000 9 -41 0
1000000 41 -53 -49 -8 0
1000000 14 -42 0
1000000 42 -48 -46 -44 -9 0
1000000 15 -43 0
1000000 43 -55 -10 0
1000000 1 0
1000000 -2 16 0
1000000 -3 22 0
1000000 -4 23 0
1000000 -5 19 24 31 0
1000000 -6 33 29 0
1000000 -7 37 0
1000000 -8 39 30 34 0
1000000 -9 25 41 35 0
1000000 -10 38 0
1000000 -11 20 0
1000000 -12 36 40 0
1000000 -13 21 26 0
1000000 -14 27 17 42 0
1000000 -15 18 32 28 43 0
1000000 44 58 0
1000000 45 57 0
1000000 46 58 0
1000000 47 57 0
1000000 48 57 0
1000000 49 56 0
1000000 50 59 0
1000000 51 56 0
1000000 52 58 0
1000000 53 56 0
1000000 54 59 0
1000000 55 59 0
1000000 -44 -58 0
1000000 -45 -57 0
1000000 -46 -58 0
1000000 -47 -57 0
1000000 -48 -57 0
1000000 -49 -56 0
1000000 -50 -59 0
1000000 -51 -56 0
1000000 -52 -58 0
1000000 -53 -56 0
1000000 -54 -59 0
1000000 -55 -59 0
9200 -56 0
9200 -57 0
11300 -58 0
11300 -59 0
3200 44 0
2400 45 0
2200 46 0
2400 47 0
3000 48 0
2400 49 0
1900 50 0
1200 51 0
1200 52 0
1200 53 0
2500 54 0
1200 55 0
14516 -16 0
14752 -22 0
14656 -23 0
8910 19 24 -31 0
6930 19 -24 31 0
9603 19 -24 -31 0
1188 -19 24 31 0
9029 -19 24 -31 0
7286 -19 -24 31 0
9639 -19 -24 -31 0
36880 33 -29 0
922 -33 29 0
37064 -33 -29 0
20096 -37 0
18240 39 30 -34 0
51300 39 -30 34 0
53124 39 -30 -34 0
34200 -39 30 34 0
41496 -39 30 -34 0
54720 -39 -30 34 0
55450 -39 -30 -34 0
4060 25 41 -35 0
7540 25 -41 35 0
8961 25 -41 -35 0
9860 -25 41 35 0
10469 -25 41 -35 0
10991 -25 -41 35 0
11204 -25 -41 -35 0
1016 -38 0
9280 -20 0
9072 36 -40 0
25200 -36 40 0
29736 -36 -40 0
8920 21 -26 0
22300 -21 26 0
26760 -21 -26 0
25480 27 17 -42 0
23520 27 -17 42 0
33712 27 -17 -42 0
9800 -27 17 42 0
28910 -27 17 -42 0
27440 -27 -17 42 0
35084 -27 -17 -42 0
19600 18 32 28 -43 0
15680 18 32 -28 43 0
27440 18 32 -28 -43 0
784 18 -32 28 43 0
19992 18 -32 28 -43 0
16150 18 -32 -28 43 0
27675 18 -32 -28 -43 0
33320 -18 32 28 43 0
36260 -18 32 28 -43 0
35672 -18 32 -28 43 0
37436 -18 32 -28 -43 0
33438 -18 -32 28 43 0
36319 -18 -32 28 -43 0
35743 -18 -32 -28 43 0
37471 -18 -32 -28 -43 0
