p wcnf 74 264 1000000
1000000 1 0
1000000 2 -18 0
1000000 18 -56 -55 -1 0
1000000 7 -19 0
1000000 19 -60 -58 -1 0
1000000 8 -20 0
1000000 20 -57 -54 -1 0
1000000 9 -21 0
1000000 21 -66 -53 -64 -1 0
1000000 12 -22 0
1000000 22 -62 -2 0
1000000 3 -23 0
1000000 23 -68 -65 -63 -2 0
1000000 5 -24 0
1000000 24 -53 -67 -2 0
1000000 13 -25 0
1000000 25 -57 -59 -11 0
1000000 15 -26 0
1000000 26 -54 -59 -61 -11 0
1000000 16 -27 0
1000000 27 -58 -56 -62 -11 0
1000000 14 -28 0
1000000 28 -61 -12 0
1000000 16 -29 0
1000000 29 -63 -12 0
1000000 17 -30 0
1000000 30 -55 -14 0
1000000 16 -31 0
1000000 31 -60 -55 -66 -15 0
1000000 17 -32 0
1000000 32 -65 -16 0
1000000 4 -33 0
1000000 33 -59 -53 -58 -3 0
1000000 5 -34 0
1000000 34 -64 -57 -3 0
1000000 8 -35 0
1000000 35 -67 -54 -3 0
1000000 10 -36 0
1000000 36 -62 -63 -68 -3 0
1000000 11 -37 0
1000000 37 -61 -53 -68 -4 0
1000000 17 -38 0
1000000 38 -64 -4 0
1000000 5 -39 0
1000000 39 -67 -57 -58 -4 0
1000000 6 -40 0
1000000 40 -54 -59 -62 -4 0
1000000 9 -41 0
1000000 41 -60 -4 0
1000000 14 -42 0
1000000 42 -65 -5 0
1000000 15 -43 0
1000000 43 -56 -5 0
1000000 12 -44 0
1000000 44 -56 -55 -6 0
1000000 16 -45 0
1000000 45 -60 -6 0
1000000 17 -46 0
1000000 46 -64 -61 -6 0
1000000 10 -47 0
1000000 47 -66 -68 -6 0
1000000 17 -48 0
1000000 48 -66 -65 -7 0
1000000 16 -49 0
1000000 49 -53 -8 0
1000000 10 -50 0
1000000 50 -58 -57 -55 -8 0
1000000 14 -51 0
1000000 51 -67 -54 -9 0
1000000 15 -52 0
1000000 52 -63 -60 -10 0
1000000 1 0
1000000 -2 18 0
1000000 -3 23 0
1000000 -4 33 0
1000000 -5 24 34 39 0
1000000 -6 40 0
1000000 -7 19 0
1000000 -8 35 20 0
1000000 -9 21 41 0
1000000 -10 50 36 47 0
1000000 -11 37 0
1000000 -12 22 44 0
1000000 -13 25 0
1000000 -14 51 28 42 0
1000000 -15 52 26 43 0
1000000 -16 45 31 49 27 29 0
1000000 -17 30 32 38 48 46 0
1000000 53 70 0
1000000 54 69 0
1000000 55 74 0
1000000 56 73 0
1000000 57 72 0
1000000 58 74 0
1000000 59 72 0
1000000 60 70 0
1000000 61 71 0
1000000 62 73 0
1000000 63 70 0
1000000 64 72 0
1000000 65 69 0
1000000 66 74 0
1000000 67 73 0
1000000 68 69 0
1000000 -53 -70 0
1000000 -54 -69 0
1000000 -55 -74 0
1000000 -56 -73 0
1000000 -57 -72 0
1000000 -58 -74 0
1000000 -59 -72 0
1000000 -60 -70 0
1000000 -61 -71 0
1000000 -62 -73 0
1000000 -63 -70 0
1000000 -64 -72 0
1000000 -65 -69 0
1000000 -66 -74 0
1000000 -67 -73 0
1000000 -68 -69 0
11400 -69 0
8400 -70 0
13700 -71 0
8400 -72 0
9300 -73 0
8400 -74 0
900 53 0
3100 54 0
900 55 0
2000 56 0
3100 57 0
3100 58 0
1500 59 0
2600 60 0
800 61 0
2200 62 0
2200 63 0
2000 64 0
2600 65 0
2000 66 0
3100 67 0
800 68 0
18630 -18 0
7164 -23 0
46080 -33 0
5640 24 34 -39 0
12690 24 -34 39 0
15792 24 -34 -39 0
4230 -24 34 39 0
9024 -24 34 -39 0
15016 -24 -34 39 0
17653 -24 -34 -39 0
11625 -40 0
11115 -19 0
5910 35 -20 0
17730 -35 20 0
21867 -35 -20 0
8865 21 -41 0
22458 -21 41 0
27954 -21 -41 0
35325 50 36 -47 0
21195 50 -36 47 0
40624 50 -36 -47 0
28260 -50 36 47 0
42390 -50 36 -47 0
36738 -50 -36 47 0
44509 -50 -36 -47 0
58960 -37 0
25870 22 -44 0
23880 -22 44 0
34228 -22 -44 0
16835 -25 0
16920 51 28 -42 0
12690 51 -28 42 0
21996 51 -28 -42 0
4230 -51 28 42 0
18612 -51 28 -42 0
15016 -51 -28 42 0
22927 -51 -28 -42 0
15120 52 26 -43 0
5184 52 -26 43 0
18490 52 -26 -43 0
30240 -52 26 43 0
34776 -52 26 -43 0
31795 -52 -26 43 0
35787 -52 -26 -43 0
30615 45 31 49 27 -29 0
14130 45 31 49 -27 29 0
35561 45 31 49 -27 -29 0
11775 45 31 -49 27 29 0
34736 45 31 -49 27 -29 0
22373 45 31 -49 -27 29 0
38445 45 31 -49 -27 -29 0
18840 45 -31 49 27 29 0
37209 45 -31 49 27 -29 0
27318 45 -31 49 -27 29 0
40176 45 -31 49 -27 -29 0
25905 45 -31 -49 27 29 0
39682 45 -31 -49 27 -29 0
32264 45 -31 -49 -27 29 0
41907 45 -31 -49 -27 -29 0
23550 -45 31 49 27 29 0
38857 -45 31 49 27 -29 0
30615 -45 31 49 -27 29 0
41330 -45 31 49 -27 -29 0
29438 -45 31 -49 27 29 0
40918 -45 31 -49 27 -29 0
34736 -45 31 -49 -27 29 0
42773 -45 31 -49 -27 -29 0
32970 -45 -31 49 27 29 0
42155 -45 -31 49 27 -29 0
37209 -45 -31 49 -27 29 0
43638 -45 -31 49 -27 -29 0
36503 -45 -31 -49 27 29 0
43391 -45 -31 -49 27 -29 0
39682 -45 -31 -49 -27 29 0
44504 -45 -31 -49 -27 -29 0
63840 30 32 38 48 -46 0
63840 30 32 38 -48 46 0
67032 30 32 38 -48 -46 0
16800 30 32 -38 48 46 0
64680 30 32 -38 48 -46 0
64680 30 32 -38 -48 46 0
67074 30 32 -38 -48 -46 0
12096 30 -32 38 48 46 0
64445 30 -32 38 48 -46 0
64445 30 -32 38 -48 46 0
67062 30 -32 38 -48 -46 0
25872 30 -32 -38 48 46 0
65134 30 -32 -38 48 -46 0
65134 30 -32 -38 -48 46 0
67097 30 -32 -38 -48 -46 0
50400 -30 32 38 48 46 0
66360 -30 32 38 48 -46 0
66360 -30 32 38 -48 46 0
67158 -30 32 38 -48 -46 0
54600 -30 32 -38 48 46 0
66570 -30 32 -38 48 -46 0
66570 -30 32 -38 -48 46 0
67168 -30 32 -38 -48 -46 0
53424 -30 -32 38 48 46 0
66511 -30 -32 38 48 -46 0
66511 -30 -32 38 -48 46 0
67166 -30 -32 38 -48 -46 0
56868 -30 -32 -38 48 46 0
66683 -30 -32 -38 48 -46 0
66683 -30 -32 -38 -48 46 0
67174 -30 -32 -38 -48 -46 0
