p wcnf 50 174 1000000
1000000 1 0
1000000 2 -13 0
1000000 13 -37 -1 0
1000000 11 -14 0
1000000 14 -39 -43 -38 -1 0
1000000 4 -15 0
1000000 15 -40 -44 -1 0
1000000 6 -16 0
1000000 16 -46 -36 -1 0
1000000 8 -17 0
1000000 17 -45 -37 -1 0
1000000 9 -18 0
1000000 18 -36 -41 -40 -1 0
1000000 3 -19 0
1000000 19 -39 -2 0
1000000 5 -20 0
1000000 20 -41 -43 -2 0
1000000 6 -21 0
1000000 21 -38 -2 0
1000000 9 -22 0
1000000 22 -44 -2 0
1000000 7 -23 0
1000000 23 -46 -3 0
1000000 8 -24 0
1000000 24 -45 -3 0
1000000 8 -25 0
1000000 25 -43 -42 -40 -4 0
1000000 10 -26 0
1000000 26 -45 -46 -42 -4 0
1000000 7 -27 0
1000000 27 -38 -5 0
1000000 8 -28 0
1000000 28 -39 -5 0
1000000 9 -29 0
1000000 29 -37 -5 0
1000000 8 -30 0
1000000 30 -36 -6 0
1000000 9 -31 0
1000000 31 -44 -41 -6 0
1000000 10 -32 0
1000000 32 -38 -40 -43 -7 0
1000000 11 -33 0
1000000 33 -42 -44 -37 -9 0
1000000 11 -34 0
1000000 34 -36 -10 0
1000000 12 -35 0
1000000 35 -46 -41 -10 0
1000000 1 0
1000000 -2 13 0
1000000 -3 19 0
1000000 -4 15 0
1000000 -5 20 0
1000000 -6 21 16 0
1000000 -7 23 27 0
1000000 -8 30 17 25 28 24 0
1000000 -9 22 18 29 31 0
1000000 -10 32 26 0
1000000 -11 34 33 14 0
1000000 -12 35 0
1000000 36 49 0
1000000 37 48 0
1000000 38 47 0
1000000 39 47 0
1000000 40 50 0
1000000 41 50 0
1000000 42 48 0
1000000 43 49 0
1000000 44 50 0
1000000 45 48 0
1000000 46 49 0
1000000 -36 -49 0
1000000 -37 -48 0
1000000 -38 -47 0
1000000 -39 -47 0
1000000 -40 -50 0
1000000 -41 -50 0
1000000 -42 -48 0
1000000 -43 -49 0
1000000 -44 -50 0
1000000 -45 -48 0
1000000 -46 -49 0
7300 -47 0
9400 -48 0
9400 -49 0
8700 -50 0
3600 36 0
3100 37 0
800 38 0
800 39 0
3100 40 0
3600 41 0
3600 42 0
1400 43 0
800 44 0
800 45 0
3100 46 0
27360 -13 0
14340 -19 0
41860 -15 0
23670 -20 0
16644 21 -16 0
32850 -21 16 0
37011 -21 -16 0
1174 23 -27 0
7044 -23 27 0
8077 -23 -27 0
6570 30 17 25 28 -24 0
876 30 17 25 -28 24 0
7315 30 17 25 -28 -24 0
4380 30 17 -25 28 24 0
10293 30 17 -25 28 -24 0
5168 30 17 -25 -28 24 0
10963 30 17 -25 -28 -24 0
14016 30 -17 25 28 24 0
18484 30 -17 25 28 -24 0
14612 30 -17 25 -28 24 0
18990 30 -17 25 -28 -24 0
16994 30 -17 -25 28 24 0
21015 30 -17 -25 28 -24 0
17531 30 -17 -25 -28 24 0
21471 30 -17 -25 -28 -24 0
35040 -30 17 25 28 24 0
36354 -30 17 25 28 -24 0
35215 -30 17 25 -28 24 0
36503 -30 17 25 -28 -24 0
35916 -30 17 -25 28 24 0
37099 -30 17 -25 28 -24 0
36074 -30 17 -25 -28 24 0
37233 -30 17 -25 -28 -24 0
37843 -30 -17 25 28 24 0
38737 -30 -17 25 28 -24 0
37962 -30 -17 25 -28 24 0
38838 -30 -17 25 -28 -24 0
38439 -30 -17 -25 28 24 0
39243 -30 -17 -25 28 -24 0
38546 -30 -17 -25 -28 24 0
39334 -30 -17 -25 -28 -24 0
18040 22 18 29 -31 0
9020 22 18 -29 31 0
23452 22 18 -29 -31 0
17138 22 -18 29 31 0
28323 22 -18 29 -31 0
22730 22 -18 -29 31 0
31678 22 -18 -29 -31 0
18040 -22 18 29 31 0
28864 -22 18 29 -31 0
23452 -22 18 -29 31 0
32111 -22 18 -29 -31 0
28323 -22 -18 29 31 0
35034 -22 -18 29 -31 0
31678 -22 -18 -29 31 0
37047 -22 -18 -29 -31 0
50190 32 -26 0
17925 -32 26 0
55567 -32 -26 0
35880 34 33 -14 0
35880 34 -33 14 0
50232 34 -33 -14 0
32890 -34 33 14 0
49036 -34 33 -14 0
49036 -34 -33 14 0
55494 -34 -33 -14 0
75050 -35 0
