p wcnf 55 176 1000000
1000000 1 0
1000000 2 -14 0
1000000 14 -41 -1 0
1000000 13 -15 0
1000000 15 -44 -47 -40 -1 0
1000000 4 -16 0
1000000 16 -43 -1 0
1000000 10 -17 0
1000000 17 -46 -1 0
1000000 11 -18 0
1000000 18 -45 -2 0
1000000 12 -19 0
1000000 19 -40 -51 -2 0
1000000 3 -20 0
1000000 20 -48 -2 0
1000000 8 -21 0
1000000 21 -45 -43 -50 -2 0
1000000 13 -22 0
1000000 22 -50 -49 -44 -3 0
1000000 5 -23 0
1000000 23 -46 -3 0
1000000 7 -24 0
1000000 24 -41 -51 -3 0
1000000 8 -25 0
1000000 25 -47 -49 -3 0
1000000 12 -26 0
1000000 26 -41 -48 -4 0
1000000 5 -27 0
1000000 27 -40 -4 0
1000000 6 -28 0
1000000 28 -50 -46 -49 -4 0
1000000 12 -29 0
1000000 29 -44 -5 0
1000000 6 -30 0
1000000 30 -45 -5 0
1000000 8 -31 0
1000000 31 -40 -47 -5 0
1000000 10 -32 0
1000000 32 -43 -5 0
1000000 7 -33 0
1000000 33 -42 -45 -51 -6 0
1000000 10 -34 0
1000000 34 -46 -44 -6 0
1000000 12 -35 0
1000000 35 -49 -47 -7 0
1000000 9 -36 0
1000000 36 -41 -43 -44 -7 0
1000000 9 -37 0
1000000 37 -48 -8 0
1000000 11 -38 0
1000000 38 -40 -50 -9 0
1000000 10 -39 0
1000000 39 -42 -9 0
1000000 1 0
1000000 -2 14 0
1000000 -3 20 0
1000000 -4 16 0
1000000 -5 23 27 0
1000000 -6 30 28 0
1000000 -7 33 24 0
1000000 -8 31 21 25 0
1000000 -9 37 36 0
1000000 -10 39 17 32 34 0
1000000 -11 18 38 0
1000000 -12 26 29 35 19 0
1000000 -13 15 22 0
1000000 40 55 0
1000000 41 54 0
1000000 42 52 0
1000000 43 54 0
1000000 44 53 0
1000000 45 53 0
1000000 46 52 0
1000000 47 54 0
1000000 48 52 0
1000000 49 55 0
1000000 50 55 0
1000000 51 53 0
1000000 -40 -55 0
1000000 -41 -54 0
1000000 -42 -52 0
1000000 -43 -54 0
1000000 -44 -53 0
1000000 -45 -53 0
1000000 -46 -52 0
1000000 -47 -54 0
1000000 -48 -52 0
1000000 -49 -55 0
1000000 -50 -55 0
1000000 -51 -53 0
9100 -52 0
10800 -53 0
7100 -54 0
9700 -55 0
2400 40 0
3000 41 0
800 42 0
2000 43 0
3400 44 0
1600 45 0
2400 46 0
800 47 0
1900 48 0
800 49 0
3400 50 0
700 51 0
3460 -14 0
76665 -20 0
12456 -16 0
13680 23 -27 0
57000 -23 27 0
60420 -23 -27 0
44385 30 -28 0
48420 -30 28 0
66174 -30 -28 0
1755 33 -24 0
9945 -33 24 0
10208 -33 -24 0
9405 31 21 -25 0
20064 31 -21 25 0
26459 31 -21 -25 0
7524 -31 21 25 0
15800 -31 21 -25 0
25180 -31 -21 25 0
30808 -31 -21 -25 0
13820 37 -36 0
24185 -37 36 0
33168 -37 -36 0
48825 39 17 32 -34 0
39060 39 17 -32 34 0
58590 39 17 -32 -34 0
3255 39 -17 32 34 0
49639 39 -17 32 -34 0
40362 39 -17 -32 34 0
58915 39 -17 -32 -34 0
48825 -39 17 32 34 0
61031 -39 17 32 -34 0
58590 -39 17 -32 34 0
63473 -39 17 -32 -34 0
49639 -39 -17 32 34 0
61235 -39 -17 32 -34 0
58915 -39 -17 -32 34 0
63554 -39 -17 -32 -34 0
40755 18 -38 0
56430 -18 38 0
60505 -18 -38 0
56490 26 29 35 -19 0
9684 26 29 -35 19 0
59395 26 29 -35 -19 0
8070 26 -29 35 19 0
58911 26 -29 35 -19 0
16786 26 -29 -35 19 0
61526 26 -29 -35 -19 0
1614 -26 29 35 19 0
56974 -26 29 35 -19 0
11104 -26 29 -35 19 0
59821 -26 29 -35 -19 0
9523 -26 -29 35 19 0
59347 -26 -29 35 -19 0
18064 -26 -29 -35 19 0
61909 -26 -29 -35 -19 0
32280 15 -22 0
26900 -15 22 0
43040 -15 -22 0
