p wcnf 71 331 1000000
1000000 1 0
1000000 2 -17 0
1000000 17 -50 -1 0
1000000 7 -18 0
1000000 18 -53 -56 -1 0
1000000 8 -19 0
1000000 19 -54 -51 -57 -1 0
1000000 14 -20 0
1000000 20 -58 -55 -2 0
1000000 15 -21 0
1000000 21 -59 -2 0
1000000 3 -22 0
1000000 22 -64 -62 -2 0
1000000 4 -23 0
1000000 23 -50 -65 -2 0
1000000 5 -24 0
1000000 24 -52 -2 0
1000000 10 -25 0
1000000 25 -53 -63 -2 0
1000000 12 -26 0
1000000 26 -60 -11 0
1000000 13 -27 0
1000000 27 -52 -54 -55 -11 0
1000000 14 -28 0
1000000 28 -62 -61 -58 -12 0
1000000 14 -29 0
1000000 29 -63 -59 -61 -13 0
1000000 15 -30 0
1000000 30 -57 -51 -64 -13 0
1000000 16 -31 0
1000000 31 -60 -56 -15 0
1000000 15 -32 0
1000000 32 -56 -51 -52 -3 0
1000000 11 -33 0
1000000 33 -50 -4 0
1000000 14 -34 0
1000000 34 -60 -61 -58 -4 0
1000000 6 -35 0
1000000 35 -53 -55 -57 -4 0
1000000 7 -36 0
1000000 36 -59 -54 -62 -4 0
1000000 9 -37 0
1000000 37 -64 -53 -52 -4 0
1000000 14 -38 0
1000000 38 -54 -51 -5 0
1000000 8 -39 0
1000000 39 -63 -55 -5 0
1000000 9 -40 0
1000000 40 -65 -5 0
1000000 11 -41 0
1000000 41 -50 -6 0
1000000 13 -42 0
1000000 42 -65 -6 0
1000000 8 -43 0
1000000 43 -59 -63 -61 -6 0
1000000 13 -44 0
1000000 44 -51 -57 -56 -7 0
1000000 14 -45 0
1000000 45 -50 -58 -7 0
1000000 15 -46 0
1000000 46 -64 -65 -60 -7 0
1000000 9 -47 0
1000000 47 -55 -53 -8 0
1000000 14 -48 0
1000000 48 -62 -52 -9 0
1000000 10 -49 0
1000000 49 -57 -9 0
1000000 1 0
1000000 -2 17 0
1000000 -3 22 0
1000000 -4 23 0
1000000 -5 24 0
1000000 -6 35 0
1000000 -7 36 18 0
1000000 -8 43 19 39 0
1000000 -9 40 37 47 0
1000000 -10 25 49 0
1000000 -11 33 41 0
1000000 -12 26 0
1000000 -13 44 42 27 0
1000000 -14 34 29 48 38 20 28 45 0
1000000 -15 30 21 32 46 0
1000000 -16 31 0
1000000 50 71 0
1000000 51 66 0
1000000 52 70 0
1000000 53 66 0
1000000 54 67 0
1000000 55 71 0
1000000 56 66 0
1000000 57 67 0
1000000 58 67 0
1000000 59 70 0
1000000 60 71 0
1000000 61 69 0
1000000 62 68 0
1000000 63 70 0
1000000 64 68 0
1000000 65 68 0
1000000 -50 -71 0
1000000 -51 -66 0
1000000 -52 -70 0
1000000 -53 -66 0
1000000 -54 -67 0
1000000 -55 -71 0
1000000 -56 -66 0
1000000 -57 -67 0
1000000 -58 -67 0
1000000 -59 -70 0
1000000 -60 -71 0
1000000 -61 -69 0
1000000 -62 -68 0
1000000 -63 -70 0
1000000 -64 -68 0
1000000 -65 -68 0
8600 -66 0
7300 -67 0
8600 -68 0
11400 -69 0
8600 -70 0
10400 -71 0
3100 50 0
3100 51 0
2500 52 0
3400 53 0
3500 54 0
2400 55 0
3500 56 0
3400 57 0
2000 58 0
3000 59 0
2000 60 0
3500 61 0
3100 62 0
3100 63 0
3000 64 0
3000 65 0
17225 -17 0
16250 -22 0
21780 -23 0
11250 -24 0
12654 -35 0
704 36 -18 0
7040 -36 18 0
7603 -36 -18 0
31575 43 19 -39 0
7578 43 -19 39 0
33469 43 -19 -39 0
13472 -43 19 39 0
34943 -43 19 -39 0
18625 -43 -19 39 0
36231 -43 -19 -39 0
15488 40 37 -47 0
18392 40 -37 47 0
27995 40 -37 -47 0
43560 -40 37 47 0
45109 -40 37 -47 0
45399 -40 -37 47 0
46359 -40 -37 -47 0
5490 25 -49 0
4575 -25 49 0
9241 -25 -49 0
65120 33 -41 0
26048 -33 41 0
70330 -33 -41 0
21300 -26 0
21780 44 42 -27 0
968 44 -42 27 0
22312 44 -42 -27 0
41140 -44 42 27 0
44407 -44 42 -27 0
41285 -44 -42 27 0
44487 -44 -42 -27 0
4840 34 29 48 38 20 28 -45 0
45980 34 29 48 38 20 -28 45 0
46222 34 29 48 38 20 -28 -45 0
8712 34 29 48 38 -20 28 45 0
12681 34 29 48 38 -20 28 -45 0
46416 34 29 48 38 -20 -28 45 0
46614 34 29 48 38 -20 -28 -45 0
33880 34 29 48 -38 20 28 45 0
35332 34 29 48 -38 20 28 -45 0
47674 34 29 48 -38 20 -28 45 0
47747 34 29 48 -38 20 -28 -45 0
36494 34 29 48 -38 -20 28 45 0
37684 34 29 48 -38 -20 28 -45 0
47805 34 29 48 -38 -20 -28 45 0
47864 34 29 48 -38 -20 -28 -45 0
24200 34 29 -48 38 20 28 45 0
26620 34 29 -48 38 20 28 -45 0
47190 34 29 -48 38 20 -28 45 0
47311 34 29 -48 38 20 -28 -45 0
28556 34 29 -48 38 -20 28 45 0
30540 34 29 -48 38 -20 28 -45 0
47408 34 29 -48 38 -20 -28 45 0
47507 34 29 -48 38 -20 -28 -45 0
41140 34 29 -48 -38 20 28 45 0
41866 34 29 -48 -38 20 28 -45 0
48037 34 29 -48 -38 20 -28 45 0
48073 34 29 -48 -38 20 -28 -45 0
42447 34 29 -48 -38 -20 28 45 0
43042 34 29 -48 -38 -20 28 -45 0
48102 34 29 -48 -38 -20 -28 45 0
48132 34 29 -48 -38 -20 -28 -45 0
45980 34 -29 48 38 20 28 45 0
46222 34 -29 48 38 20 28 -45 0
48279 34 -29 48 38 20 -28 45 0
48291 34 -29 48 38 20 -28 -45 0
46416 34 -29 48 38 -20 28 45 0
46614 34 -29 48 38 -20 28 -45 0
48301 34 -29 48 38 -20 -28 45 0
48311 34 -29 48 38 -20 -28 -45 0
47674 34 -29 48 -38 20 28 45 0
47747 34 -29 48 -38 20 28 -45 0
48364 34 -29 48 -38 20 -28 45 0
48367 34 -29 48 -38 20 -28 -45 0
47805 34 -29 48 -38 -20 28 45 0
47864 34 -29 48 -38 -20 28 -45 0
48370 34 -29 48 -38 -20 -28 45 0
48373 34 -29 48 -38 -20 -28 -45 0
47190 34 -29 -48 38 20 28 45 0
47311 34 -29 -48 38 20 28 -45 0
48340 34 -29 -48 38 20 -28 45 0
48346 34 -29 -48 38 20 -28 -45 0
47408 34 -29 -48 38 -20 28 45 0
47507 34 -29 -48 38 -20 28 -45 0
48350 34 -29 -48 38 -20 -28 45 0
48355 34 -29 -48 38 -20 -28 -45 0
48037 34 -29 -48 -38 20 28 45 0
48073 34 -29 -48 -38 20 28 -45 0
48382 34 -29 -48 -38 20 -28 45 0
48384 34 -29 -48 -38 20 -28 -45 0
48102 34 -29 -48 -38 -20 28 45 0
48132 34 -29 -48 -38 -20 28 -45 0
48385 34 -29 -48 -38 -20 -28 45 0
48387 34 -29 -48 -38 -20 -28 -45 0
31460 -34 29 48 38 20 28 45 0
33154 -34 29 48 38 20 28 -45 0
47553 -34 29 48 38 20 -28 45 0
47638 -34 29 48 38 20 -28 -45 0
34509 -34 29 48 38 -20 28 45 0
35898 -34 29 48 38 -20 28 -45 0
47705 -34 29 48 38 -20 -28 45 0
47775 -34 29 48 38 -20 -28 -45 0
43318 -34 29 48 -38 20 28 45 0
43826 -34 29 48 -38 20 28 -45 0
48146 -34 29 48 -38 20 -28 45 0
48171 -34 29 48 -38 20 -28 -45 0
44233 -34 29 48 -38 -20 28 45 0
44649 -34 29 48 -38 -20 28 -45 0
48192 -34 29 48 -38 -20 -28 45 0
48212 -34 29 48 -38 -20 -28 -45 0
39930 -34 29 -48 38 20 28 45 0
40777 -34 29 -48 38 20 28 -45 0
47976 -34 29 -48 38 20 -28 45 0
48019 -34 29 -48 38 20 -28 -45 0
41455 -34 29 -48 38 -20 28 45 0
42149 -34 29 -48 38 -20 28 -45 0
48053 -34 29 -48 38 -20 -28 45 0
48087 -34 29 -48 38 -20 -28 -45 0
45859 -34 29 -48 -38 20 28 45 0
46113 -34 29 -48 -38 20 28 -45 0
48273 -34 29 -48 -38 20 -28 45 0
48286 -34 29 -48 -38 20 -28 -45 0
46316 -34 29 -48 -38 -20 28 45 0
46525 -34 29 -48 -38 -20 28 -45 0
48296 -34 29 -48 -38 -20 -28 45 0
48306 -34 29 -48 -38 -20 -28 -45 0
47553 -34 -29 48 38 20 28 45 0
47638 -34 -29 48 38 20 28 -45 0
48358 -34 -29 48 38 20 -28 45 0
48362 -34 -29 48 38 20 -28 -45 0
47705 -34 -29 48 38 -20 28 45 0
47775 -34 -29 48 38 -20 28 -45 0
48365 -34 -29 48 38 -20 -28 45 0
48369 -34 -29 48 38 -20 -28 -45 0
48146 -34 -29 48 -38 20 28 45 0
48171 -34 -29 48 -38 20 28 -45 0
48387 -34 -29 48 -38 20 -28 45 0
48389 -34 -29 48 -38 20 -28 -45 0
48192 -34 -29 48 -38 -20 28 45 0
48212 -34 -29 48 -38 -20 28 -45 0
48390 -34 -29 48 -38 -20 -28 45 0
48391 -34 -29 48 -38 -20 -28 -45 0
47976 -34 -29 -48 38 20 28 45 0
48019 -34 -29 -48 38 20 28 -45 0
48379 -34 -29 -48 38 20 -28 45 0
48381 -34 -29 -48 38 20 -28 -45 0
48053 -34 -29 -48 38 -20 28 45 0
48087 -34 -29 -48 38 -20 28 -45 0
48383 -34 -29 -48 38 -20 -28 45 0
48384 -34 -29 -48 38 -20 -28 -45 0
48273 -34 -29 -48 -38 20 28 45 0
48286 -34 -29 -48 -38 20 28 -45 0
48394 -34 -29 -48 -38 20 -28 45 0
48394 -34 -29 -48 -38 20 -28 -45 0
48296 -34 -29 -48 -38 -20 28 45 0
48306 -34 -29 -48 -38 -20 28 -45 0
48395 -34 -29 -48 -38 -20 -28 45 0
48395 -34 -29 -48 -38 -20 -28 -45 0
14520 30 21 32 -46 0
12100 30 21 -32 46 0
22990 30 21 -32 -46 0
33880 30 -21 32 46 0
38236 30 -21 32 -46 0
37510 30 -21 -32 46 0
40777 30 -21 -32 -46 0
16940 -30 21 32 46 0
26378 -30 21 32 -46 0
24805 -30 21 -32 46 0
31883 -30 21 -32 -46 0
38962 -30 -21 32 46 0
41793 -30 -21 32 -46 0
41322 -30 -21 -32 46 0
43445 -30 -21 -32 -46 0
20350 -31 0
