p wcnf 51 177 1000000
1000000 1 0
1000000 2 -13 0
1000000 13 -41 -37 -1 0
1000000 12 -14 0
1000000 14 -38 -42 -1 0
1000000 3 -15 0
1000000 15 -43 -44 -45 -1 0
1000000 6 -16 0
1000000 16 -37 -42 -40 -1 0
1000000 4 -17 0
1000000 17 -46 -47 -2 0
1000000 6 -18 0
1000000 18 -36 -38 -2 0
1000000 7 -19 0
1000000 19 -41 -39 -43 -2 0
1000000 4 -20 0
1000000 20 -36 -47 -38 -3 0
1000000 5 -21 0
1000000 21 -44 -3 0
1000000 6 -22 0
1000000 22 -41 -40 -42 -3 0
1000000 9 -23 0
1000000 23 -39 -45 -3 0
1000000 6 -24 0
1000000 24 -37 -4 0
1000000 7 -25 0
1000000 25 -43 -40 -4 0
1000000 8 -26 0
1000000 26 -39 -4 0
1000000 12 -27 0
1000000 27 -36 -40 -45 -5 0
1000000 6 -28 0
1000000 28 -47 -37 -5 0
1000000 7 -29 0
1000000 29 -46 -38 -5 0
1000000 8 -30 0
1000000 30 -44 -5 0
1000000 9 -31 0
1000000 31 -36 -5 0
1000000 10 -32 0
1000000 32 -45 -46 -36 -5 0
1000000 8 -33 0
1000000 33 -42 -6 0
1000000 8 -34 0
1000000 34 -44 -41 -39 -7 0
1000000 11 -35 0
1000000 35 -46 -43 -42 -8 0
1000000 1 0
1000000 -2 13 0
1000000 -3 15 0
1000000 -4 20 17 0
1000000 -5 21 0
1000000 -6 28 24 22 16 18 0
1000000 -7 29 25 19 0
1000000 -8 33 30 26 34 0
1000000 -9 23 31 0
1000000 -10 32 0
1000000 -11 35 0
1000000 -12 27 14 0
1000000 36 50 0
1000000 37 51 0
1000000 38 49 0
1000000 39 51 0
1000000 40 51 0
1000000 41 48 0
1000000 42 48 0
1000000 43 49 0
1000000 44 48 0
1000000 45 50 0
1000000 46 50 0
1000000 47 49 0
1000000 -36 -50 0
1000000 -37 -51 0
1000000 -38 -49 0
1000000 -39 -51 0
1000000 -40 -51 0
1000000 -41 -48 0
1000000 -42 -48 0
1000000 -43 -49 0
1000000 -44 -48 0
1000000 -45 -50 0
1000000 -46 -50 0
1000000 -47 -49 0
10900 -48 0
11300 -49 0
9200 -50 0
9200 -51 0
2400 36 0
3400 37 0
3800 38 0
1800 39 0
2400 40 0
3800 41 0
3800 42 0
2400 43 0
3500 44 0
2200 45 0
2800 46 0
2200 47 0
432 -13 0
26145 -15 0
45980 20 -17 0
16940 -20 17 0
46827 -20 -17 0
23940 -21 0
5420 28 24 22 16 -18 0
32520 28 24 22 -16 18 0
34688 28 24 22 -16 -18 0
18970 28 24 -22 16 18 0
22493 28 24 -22 16 -18 0
40108 28 24 -22 -16 18 0
41517 28 24 -22 -16 -18 0
16260 28 -24 22 16 18 0
20054 28 -24 22 16 -18 0
39024 28 -24 22 -16 18 0
40542 28 -24 22 -16 -18 0
29539 28 -24 -22 16 18 0
32005 28 -24 -22 16 -18 0
44336 28 -24 -22 -16 18 0
45322 28 -24 -22 -16 -18 0
17344 -28 24 22 16 18 0
21030 -28 24 22 16 -18 0
39458 -28 24 22 -16 18 0
40932 -28 24 22 -16 -18 0
30244 -28 24 -22 16 18 0
32639 -28 24 -22 16 -18 0
44617 -28 24 -22 -16 18 0
45576 -28 24 -22 -16 -18 0
28401 -28 -24 22 16 18 0
30981 -28 -24 22 16 -18 0
43880 -28 -24 22 -16 18 0
44912 -28 -24 22 -16 -18 0
37431 -28 -24 -22 16 18 0
39107 -28 -24 -22 16 -18 0
47492 -28 -24 -22 -16 18 0
48163 -28 -24 -22 -16 -18 0
13860 29 25 -19 0
4536 29 -25 19 0
15901 29 -25 -19 0
12600 -29 25 19 0
19530 -29 25 -19 0
14868 -29 -25 19 0
20551 -29 -25 -19 0
28440 33 30 26 -34 0
47400 33 30 -26 34 0
54510 33 30 -26 -34 0
22120 33 -30 26 34 0
40606 33 -30 26 -34 0
52930 33 -30 -26 34 0
57551 33 -30 -26 -34 0
44240 -33 30 26 34 0
52772 -33 30 26 -34 0
58460 -33 30 -26 34 0
60593 -33 30 -26 -34 0
50876 -33 -30 26 34 0
56422 -33 -30 26 -34 0
60119 -33 -30 -26 34 0
61505 -33 -30 -26 -34 0
57630 23 -31 0
47460 -23 31 0
64749 -23 -31 0
34645 -32 0
15235 -35 0
37765 27 -14 0
22078 -27 14 0
45492 -27 -14 0
