p wcnf 81 273 1000000
1000000 1 0
1000000 2 -18 0
1000000 18 -60 -62 -56 -1 0
1000000 11 -19 0
1000000 19 -57 -1 0
1000000 15 -20 0
1000000 20 -58 -61 -1 0
1000000 3 -21 0
1000000 21 -68 -64 -67 -1 0
1000000 6 -22 0
1000000 22 -63 -69 -71 -1 0
1000000 8 -23 0
1000000 23 -59 -56 -74 -1 0
1000000 9 -24 0
1000000 24 -72 -65 -1 0
1000000 13 -25 0
1000000 25 -55 -66 -57 -2 0
1000000 15 -26 0
1000000 26 -58 -60 -2 0
1000000 4 -27 0
1000000 27 -70 -2 0
1000000 5 -28 0
1000000 28 -63 -55 -2 0
1000000 6 -29 0
1000000 29 -59 -62 -2 0
1000000 13 -30 0
1000000 30 -73 -12 0
1000000 15 -31 0
1000000 31 -65 -61 -68 -12 0
1000000 17 -32 0
1000000 32 -73 -67 -66 -12 0
1000000 16 -33 0
1000000 33 -64 -70 -71 -14 0
1000000 17 -34 0
1000000 34 -69 -60 -59 -14 0
1000000 12 -35 0
1000000 35 -72 -55 -3 0
1000000 5 -36 0
1000000 36 -58 -74 -3 0
1000000 7 -37 0
1000000 37 -63 -66 -67 -3 0
1000000 13 -38 0
1000000 38 -70 -56 -65 -4 0
1000000 5 -39 0
1000000 39 -68 -69 -62 -4 0
1000000 6 -40 0
1000000 40 -61 -72 -4 0
1000000 9 -41 0
1000000 41 -59 -58 -71 -4 0
1000000 6 -42 0
1000000 42 -60 -64 -57 -5 0
1000000 7 -43 0
1000000 43 -74 -5 0
1000000 12 -44 0
1000000 44 -57 -61 -6 0
1000000 14 -45 0
1000000 45 -63 -64 -6 0
1000000 16 -46 0
1000000 46 -56 -65 -7 0
1000000 16 -47 0
1000000 47 -73 -67 -8 0
1000000 9 -48 0
1000000 48 -69 -68 -66 -8 0
1000000 11 -49 0
1000000 49 -71 -70 -9 0
1000000 13 -50 0
1000000 50 -56 -72 -9 0
1000000 14 -51 0
1000000 51 -60 -58 -74 -9 0
1000000 10 -52 0
1000000 52 -73 -9 0
1000000 12 -53 0
1000000 53 -62 -65 -57 -10 0
1000000 13 -54 0
1000000 54 -63 -59 -10 0
1000000 1 0
1000000 -2 18 0
1000000 -3 21 0
1000000 -4 27 0
1000000 -5 28 36 39 0
1000000 -6 42 40 22 29 0
1000000 -7 37 43 0
1000000 -8 23 0
1000000 -9 24 41 48 0
1000000 -10 52 0
1000000 -11 19 49 0
1000000 -12 53 44 35 0
1000000 -13 38 50 54 30 25 0
1000000 -14 45 51 0
1000000 -15 31 20 26 0
1000000 -16 46 33 47 0
1000000 -17 32 34 0
1000000 55 78 0
1000000 56 81 0
1000000 57 76 0
1000000 58 80 0
1000000 59 80 0
1000000 60 78 0
1000000 61 79 0
1000000 62 77 0
1000000 63 75 0
1000000 64 79 0
1000000 65 77 0
1000000 66 78 0
1000000 67 80 0
1000000 68 81 0
1000000 69 81 0
1000000 70 77 0
1000000 71 76 0
1000000 72 79 0
1000000 73 76 0
1000000 74 75 0
1000000 -55 -78 0
1000000 -56 -81 0
1000000 -57 -76 0
1000000 -58 -80 0
1000000 -59 -80 0
1000000 -60 -78 0
1000000 -61 -79 0
1000000 -62 -77 0
1000000 -63 -75 0
1000000 -64 -79 0
1000000 -65 -77 0
1000000 -66 -78 0
1000000 -67 -80 0
1000000 -68 -81 0
1000000 -69 -81 0
1000000 -70 -77 0
1000000 -71 -76 0
1000000 -72 -79 0
1000000 -73 -76 0
1000000 -74 -75 0
7100 -75 0
8700 -76 0
7100 -77 0
11500 -78 0
7100 -79 0
11500 -80 0
7400 -81 0
1300 55 0
1400 56 0
1600 57 0
1400 58 0
2000 59 0
1100 60 0
3200 61 0
1100 62 0
1400 63 0
1400 64 0
3200 65 0
2000 66 0
1400 67 0
1100 68 0
1600 69 0
1100 70 0
1100 71 0
1600 72 0
1300 73 0
1100 74 0
1140 -18 0
35255 -21 0
12000 -27 0
29835 28 36 -39 0
12285 28 -36 39 0
31678 28 -36 -39 0
11232 -28 36 39 0
31520 -28 36 -39 0
19586 -28 -36 39 0
32773 -28 -36 -39 0
22575 42 40 22 -29 0
21070 42 40 -22 29 0
27843 42 40 -22 -29 0
28595 42 -40 22 29 0
29724 42 -40 22 -29 0
29649 42 -40 -22 29 0
29987 42 -40 -22 -29 0
22575 -42 40 22 29 0
28219 -42 40 22 -29 0
27843 -42 40 -22 29 0
29536 -42 40 -22 -29 0
29724 -42 -40 22 29 0
30006 -42 -40 22 -29 0
29987 -42 -40 -22 29 0
30072 -42 -40 -22 -29 0
2640 37 -43 0
2640 -37 43 0
4488 -37 -43 0
32550 -23 0
12820 24 41 -48 0
48075 24 -41 48 0
51280 24 -41 -48 0
24358 -24 41 48 0
32306 -24 41 -48 0
54164 -24 -41 48 0
56152 -24 -41 -48 0
31590 -52 0
7525 19 -49 0
13545 -19 49 0
17684 -19 -49 0
32955 53 44 -35 0
45630 53 -44 35 0
48925 53 -44 -35 0
30420 -53 44 35 0
43602 -53 44 -35 0
48672 -53 -44 35 0
49990 -53 -44 -35 0
2816 38 50 54 30 -25 0
1760 38 50 54 -30 25 0
4013 38 50 54 -30 -25 0
5280 38 50 -54 30 25 0
6406 38 50 -54 30 -25 0
5984 38 50 -54 -30 25 0
6885 38 50 -54 -30 -25 0
4840 38 -50 54 30 25 0
6107 38 -50 54 30 -25 0
5632 38 -50 54 -30 25 0
6646 38 -50 54 -30 -25 0
7216 38 -50 -54 30 25 0
7723 38 -50 -54 30 -25 0
7533 38 -50 -54 -30 25 0
7938 38 -50 -54 -30 -25 0
1056 -38 50 54 30 25 0
3534 -38 50 54 30 -25 0
2605 -38 50 54 -30 25 0
4587 -38 50 54 -30 -25 0
5702 -38 50 -54 30 25 0
6694 -38 50 -54 30 -25 0
6322 -38 50 -54 -30 25 0
7115 -38 50 -54 -30 -25 0
5315 -38 -50 54 30 25 0
6430 -38 -50 54 30 -25 0
6012 -38 -50 54 -30 25 0
6904 -38 -50 54 -30 -25 0
7406 -38 -50 -54 30 25 0
7852 -38 -50 -54 30 -25 0
7685 -38 -50 -54 -30 25 0
8042 -38 -50 -54 -30 -25 0
3080 45 -51 0
8360 -45 51 0
8514 -45 -51 0
6168 31 20 -26 0
28270 31 -20 26 0
31046 31 -20 -26 0
9252 -31 20 26 0
14310 -31 20 -26 0
32433 -31 -20 26 0
34709 -31 -20 -26 0
1755 46 33 -47 0
17550 46 -33 47 0
18428 46 -33 -47 0
702 -46 33 47 0
2422 -46 33 -47 0
17901 -46 -33 47 0
18761 -46 -33 -47 0
30690 32 -34 0
39060 -32 34 0
48267 -32 -34 0
