p wcnf 70 237 1000000
1000000 1 0
1000000 2 -17 0
1000000 17 -56 -55 -1 0
1000000 13 -18 0
1000000 18 -58 -52 -61 -1 0
1000000 5 -19 0
1000000 19 -62 -54 -59 -1 0
1000000 7 -20 0
1000000 20 -54 -53 -57 -1 0
1000000 3 -21 0
1000000 21 -60 -2 0
1000000 4 -22 0
1000000 22 -63 -52 -2 0
1000000 5 -23 0
1000000 23 -53 -64 -2 0
1000000 6 -24 0
1000000 24 -51 -58 -2 0
1000000 8 -25 0
1000000 25 -65 -2 0
1000000 9 -26 0
1000000 26 -56 -59 -2 0
1000000 12 -27 0
1000000 27 -57 -64 -62 -11 0
1000000 15 -28 0
1000000 28 -61 -51 -11 0
1000000 13 -29 0
1000000 29 -52 -60 -12 0
1000000 14 -30 0
1000000 30 -51 -54 -65 -12 0
1000000 16 -31 0
1000000 31 -55 -58 -57 -15 0
1000000 4 -32 0
1000000 32 -56 -63 -3 0
1000000 5 -33 0
1000000 33 -59 -65 -63 -3 0
1000000 7 -34 0
1000000 34 -53 -3 0
1000000 5 -35 0
1000000 35 -60 -51 -4 0
1000000 7 -36 0
1000000 36 -55 -4 0
1000000 8 -37 0
1000000 37 -64 -4 0
1000000 11 -38 0
1000000 38 -62 -5 0
1000000 12 -39 0
1000000 39 -52 -59 -56 -5 0
1000000 8 -40 0
1000000 40 -54 -5 0
1000000 10 -41 0
1000000 41 -55 -5 0
1000000 12 -42 0
1000000 42 -61 -60 -6 0
1000000 7 -43 0
1000000 43 -58 -6 0
1000000 8 -44 0
1000000 44 -62 -64 -7 0
1000000 9 -45 0
1000000 45 -51 -63 -7 0
1000000 11 -46 0
1000000 46 -61 -8 0
1000000 14 -47 0
1000000 47 -65 -55 -8 0
1000000 16 -48 0
1000000 48 -57 -9 0
1000000 12 -49 0
1000000 49 -53 -10 0
1000000 14 -50 0
1000000 50 -56 -61 -53 -10 0
1000000 1 0
1000000 -2 17 0
1000000 -3 21 0
1000000 -4 32 22 0
1000000 -5 23 19 33 35 0
1000000 -6 24 0
1000000 -7 34 36 43 20 0
1000000 -8 25 40 37 44 0
1000000 -9 26 45 0
1000000 -10 41 0
1000000 -11 38 46 0
1000000 -12 39 42 49 27 0
1000000 -13 18 29 0
1000000 -14 47 50 30 0
1000000 -15 28 0
1000000 -16 48 31 0
1000000 51 69 0
1000000 52 69 0
1000000 53 67 0
1000000 54 66 0
1000000 55 69 0
1000000 56 70 0
1000000 57 66 0
1000000 58 66 0
1000000 59 67 0
1000000 60 67 0
1000000 61 70 0
1000000 62 68 0
1000000 63 70 0
1000000 64 68 0
1000000 65 68 0
1000000 -51 -69 0
1000000 -52 -69 0
1000000 -53 -67 0
1000000 -54 -66 0
1000000 -55 -69 0
1000000 -56 -70 0
1000000 -57 -66 0
1000000 -58 -66 0
1000000 -59 -67 0
1000000 -60 -67 0
1000000 -61 -70 0
1000000 -62 -68 0
1000000 -63 -70 0
1000000 -64 -68 0
1000000 -65 -68 0
9500 -66 0
9500 -67 0
12300 -68 0
9500 -69 0
13700 -70 0
3300 51 0
3300 52 0
2200 53 0
2200 54 0
1400 55 0
1400 56 0
2200 57 0
3300 58 0
3300 59 0
3000 60 0
1400 61 0
1400 62 0
1400 63 0
3000 64 0
1400 65 0
12150 -17 0
30000 -21 0
13800 32 -22 0
34500 -32 22 0
41400 -32 -22 0
20560 23 19 33 -35 0
17990 23 19 -33 35 0
31354 23 19 -33 -35 0
6168 23 -19 33 35 0
24261 23 -19 33 -35 0
21999 23 -19 -33 35 0
33760 23 -19 -33 -35 0
41120 -23 19 33 35 0
45232 -23 19 33 -35 0
44718 -23 19 -33 35 0
47391 -23 19 -33 -35 0
42354 -23 -19 33 35 0
45972 -23 -19 33 -35 0
45520 -23 -19 -33 35 0
47872 -23 -19 -33 -35 0
51000 -24 0
18450 34 36 43 -20 0
20910 34 36 -43 20 0
23678 34 36 -43 -20 0
18450 34 -36 43 20 0
23062 34 -36 43 -20 0
23678 34 -36 -43 20 0
24369 34 -36 -43 -20 0
492 -34 36 43 20 0
18573 -34 36 43 -20 0
20984 -34 36 -43 20 0
23696 -34 36 -43 -20 0
18573 -34 -36 43 20 0
23093 -34 -36 43 -20 0
23696 -34 -36 -43 20 0
24374 -34 -36 -43 -20 0
36000 25 40 37 -44 0
42000 25 40 -37 44 0
52800 25 40 -37 -44 0
24000 25 -40 37 44 0
45600 25 -40 37 -44 0
49200 25 -40 -37 44 0
55680 25 -40 -37 -44 0
12000 -25 40 37 44 0
40800 -25 40 37 -44 0
45600 -25 40 -37 44 0
54240 -25 40 -37 -44 0
31200 -25 -40 37 44 0
48480 -25 -40 37 -44 0
51360 -25 -40 -37 44 0
56544 -25 -40 -37 -44 0
21000 26 -45 0
51000 -26 45 0
54150 -26 -45 0
53865 -41 0
17010 38 -46 0
2835 -38 46 0
18995 -38 -46 0
19200 39 42 49 -27 0
24000 39 42 -49 27 0
35520 39 42 -49 -27 0
7200 39 -42 49 27 0
24096 39 -42 49 -27 0
28320 39 -42 -49 27 0
38458 39 -42 -49 -27 0
33000 -39 42 49 27 0
41640 -39 42 49 -27 0
43800 -39 42 -49 27 0
48984 -39 42 -49 -27 0
36240 -39 -42 49 27 0
43843 -39 -42 49 -27 0
45744 -39 -42 -49 27 0
50306 -39 -42 -49 -27 0
26730 18 -29 0
34020 -18 29 0
42039 -18 -29 0
40625 47 50 -30 0
59375 47 -50 30 0
61406 47 -50 -30 0
1250 -47 50 30 0
41062 -47 50 -30 0
59438 -47 -50 30 0
61428 -47 -50 -30 0
17435 -28 0
37500 48 -31 0
15625 -48 31 0
43750 -48 -31 0
