p wcnf 55 169 1000000
1000000 1 0
1000000 2 -15 0
1000000 15 -45 -41 -1 0
1000000 5 -16 0
1000000 16 -40 -1 0
1000000 6 -17 0
1000000 17 -51 -42 -49 -1 0
1000000 8 -18 0
1000000 18 -43 -48 -47 -1 0
1000000 9 -19 0
1000000 19 -42 -40 -1 0
1000000 11 -20 0
1000000 20 -47 -43 -48 -2 0
1000000 13 -21 0
1000000 21 -50 -2 0
1000000 3 -22 0
1000000 22 -46 -49 -2 0
1000000 5 -23 0
1000000 23 -41 -45 -2 0
1000000 7 -24 0
1000000 24 -46 -2 0
1000000 13 -25 0
1000000 25 -41 -44 -3 0
1000000 4 -26 0
1000000 26 -51 -42 -3 0
1000000 14 -27 0
1000000 27 -43 -50 -4 0
1000000 14 -28 0
1000000 28 -44 -5 0
1000000 8 -29 0
1000000 29 -44 -47 -5 0
1000000 9 -30 0
1000000 30 -46 -45 -5 0
1000000 7 -31 0
1000000 31 -41 -50 -40 -6 0
1000000 8 -32 0
1000000 32 -42 -48 -6 0
1000000 9 -33 0
1000000 33 -48 -49 -51 -6 0
1000000 14 -34 0
1000000 34 -45 -44 -7 0
1000000 8 -35 0
1000000 35 -46 -49 -7 0
1000000 10 -36 0
1000000 36 -43 -47 -7 0
1000000 13 -37 0
1000000 37 -43 -50 -8 0
1000000 11 -38 0
1000000 38 -51 -9 0
1000000 12 -39 0
1000000 39 -40 -9 0
1000000 1 0
1000000 -2 15 0
1000000 -3 22 0
1000000 -4 26 0
1000000 -5 16 23 0
1000000 -6 17 0
1000000 -7 31 24 0
1000000 -8 18 29 35 32 0
1000000 -9 33 19 30 0
1000000 -10 36 0
1000000 -11 38 20 0
1000000 -12 39 0
1000000 -13 25 37 21 0
1000000 -14 27 34 28 0
1000000 40 52 0
1000000 41 54 0
1000000 42 52 0
1000000 43 52 0
1000000 44 54 0
1000000 45 55 0
1000000 46 55 0
1000000 47 55 0
1000000 48 53 0
1000000 49 53 0
1000000 50 54 0
1000000 51 53 0
1000000 -40 -52 0
1000000 -41 -54 0
1000000 -42 -52 0
1000000 -43 -52 0
1000000 -44 -54 0
1000000 -45 -55 0
1000000 -46 -55 0
1000000 -47 -55 0
1000000 -48 -53 0
1000000 -49 -53 0
1000000 -50 -54 0
1000000 -51 -53 0
7800 -52 0
9700 -53 0
11500 -54 0
10400 -55 0
2200 40 0
3200 41 0
3200 42 0
800 43 0
3800 44 0
2200 45 0
3800 46 0
2200 47 0
2200 48 0
1000 49 0
2500 50 0
800 51 0
44460 -15 0
35145 -22 0
14508 -26 0
28665 16 -23 0
50960 -16 23 0
56693 -16 -23 0
23826 -17 0
52010 31 -24 0
44580 -31 24 0
65384 -31 -24 0
57330 18 29 35 -32 0
3185 18 29 -35 32 0
57649 18 29 -35 -32 0
35035 18 -29 35 32 0
60834 18 -29 35 -32 0
36468 18 -29 -35 32 0
60977 18 -29 -35 -32 0
24206 -18 29 35 32 0
59751 -18 29 35 -32 0
26181 -18 29 -35 32 0
59948 -18 29 -35 -32 0
45928 -18 -29 35 32 0
61923 -18 -29 35 -32 0
46816 -18 -29 -35 32 0
62012 -18 -29 -35 -32 0
39780 33 19 -30 0
39780 33 -19 30 0
45747 33 -19 -30 0
23400 -33 19 30 0
43290 -33 19 -30 0
43290 -33 -19 30 0
46274 -33 -19 -30 0
7212 -36 0
21840 38 -20 0
1092 -38 20 0
22495 -38 -20 0
13176 -39 0
55725 25 37 -21 0
70585 25 -37 21 0
73371 25 -37 -21 0
22290 -25 37 21 0
61298 -25 37 -21 0
71700 -25 -37 21 0
73650 -25 -37 -21 0
9540 27 34 -28 0
4770 27 -34 28 0
10017 27 -34 -28 0
7950 -27 34 28 0
10335 -27 34 -28 0
9143 -27 -34 28 0
10454 -27 -34 -28 0
