p wcnf 67 224 1000000
1000000 1 0
1000000 2 -16 0
1000000 16 -48 -1 0
1000000 13 -17 0
1000000 17 -51 -49 -1 0
1000000 15 -18 0
1000000 18 -55 -56 -1 0
1000000 5 -19 0
1000000 19 -50 -1 0
1000000 7 -20 0
1000000 20 -62 -52 -60 -1 0
1000000 8 -21 0
1000000 21 -49 -54 -57 -1 0
1000000 9 -22 0
1000000 22 -53 -51 -54 -1 0
1000000 10 -23 0
1000000 23 -48 -59 -61 -1 0
1000000 14 -24 0
1000000 24 -59 -57 -52 -2 0
1000000 3 -25 0
1000000 25 -62 -50 -61 -2 0
1000000 4 -26 0
1000000 26 -53 -2 0
1000000 6 -27 0
1000000 27 -60 -58 -56 -2 0
1000000 8 -28 0
1000000 28 -48 -2 0
1000000 15 -29 0
1000000 29 -55 -49 -11 0
1000000 15 -30 0
1000000 30 -58 -14 0
1000000 5 -31 0
1000000 31 -52 -3 0
1000000 6 -32 0
1000000 32 -57 -51 -55 -3 0
1000000 11 -33 0
1000000 33 -58 -56 -4 0
1000000 12 -34 0
1000000 34 -53 -4 0
1000000 11 -35 0
1000000 35 -50 -54 -5 0
1000000 12 -36 0
1000000 36 -61 -59 -5 0
1000000 6 -37 0
1000000 37 -50 -48 -60 -5 0
1000000 8 -38 0
1000000 38 -62 -5 0
1000000 10 -39 0
1000000 39 -52 -5 0
1000000 12 -40 0
1000000 40 -53 -51 -57 -6 0
1000000 8 -41 0
1000000 41 -55 -59 -6 0
1000000 9 -42 0
1000000 42 -56 -54 -48 -6 0
1000000 11 -43 0
1000000 43 -49 -7 0
1000000 10 -44 0
1000000 44 -61 -7 0
1000000 12 -45 0
1000000 45 -62 -52 -60 -8 0
1000000 13 -46 0
1000000 46 -49 -54 -9 0
1000000 10 -47 0
1000000 47 -58 -53 -9 0
1000000 1 0
1000000 -2 16 0
1000000 -3 25 0
1000000 -4 26 0
1000000 -5 19 31 0
1000000 -6 32 27 37 0
1000000 -7 20 0
1000000 -8 21 41 38 28 0
1000000 -9 22 42 0
1000000 -10 44 47 23 39 0
1000000 -11 43 35 33 0
1000000 -12 45 36 40 34 0
1000000 -13 46 17 0
1000000 -14 24 0
1000000 -15 29 18 30 0
1000000 48 66 0
1000000 49 66 0
1000000 50 66 0
1000000 51 64 0
1000000 52 67 0
1000000 53 67 0
1000000 54 67 0
1000000 55 65 0
1000000 56 64 0
1000000 57 64 0
1000000 58 65 0
1000000 59 65 0
1000000 60 63 0
1000000 61 63 0
1000000 62 63 0
1000000 -48 -66 0
1000000 -49 -66 0
1000000 -50 -66 0
1000000 -51 -64 0
1000000 -52 -67 0
1000000 -53 -67 0
1000000 -54 -67 0
1000000 -55 -65 0
1000000 -56 -64 0
1000000 -57 -64 0
1000000 -58 -65 0
1000000 -59 -65 0
1000000 -60 -63 0
1000000 -61 -63 0
1000000 -62 -63 0
10100 -63 0
10100 -64 0
7700 -65 0
14600 -66 0
14600 -67 0
800 48 0
800 49 0
800 50 0
800 51 0
3100 52 0
800 53 0
3100 54 0
3100 55 0
800 56 0
3100 57 0
3100 58 0
900 59 0
800 60 0
800 61 0
800 62 0
7220 -16 0
1664 -25 0
12480 -26 0
21660 19 -31 0
32490 -19 31 0
34656 -19 -31 0
31460 32 27 -37 0
26620 32 -27 37 0
40777 32 -27 -37 0
26620 -32 27 37 0
40777 -32 27 -37 0
38599 -32 -27 37 0
44970 -32 -27 -37 0
28350 -20 0
810 21 41 38 -28 0
20250 21 41 -38 28 0
20655 21 41 -38 -28 0
4860 21 -41 38 28 0
5573 21 -41 38 -28 0
22680 21 -41 -38 28 0
23036 21 -41 -38 -28 0
10125 -21 41 38 28 0
10733 -21 41 38 -28 0
25312 -21 41 -38 28 0
25616 -21 41 -38 -28 0
13770 -21 -41 38 28 0
14305 -21 -41 38 -28 0
27135 -21 -41 -38 28 0
27402 -21 -41 -38 -28 0
2025 22 -42 0
810 -22 42 0
2795 -22 -42 0
21280 44 47 23 -39 0
3360 44 47 -23 39 0
21448 44 47 -23 -39 0
14560 44 -47 23 39 0
22008 44 -47 23 -39 0
15736 44 -47 -23 39 0
22067 44 -47 -23 -39 0
13440 -44 47 23 39 0
21952 -44 47 23 -39 0
14784 -44 47 -23 39 0
22019 -44 47 -23 -39 0
19264 -44 -47 23 39 0
22243 -44 -47 23 -39 0
19734 -44 -47 -23 39 0
22267 -44 -47 -23 -39 0
1664 43 35 -33 0
79040 43 -35 33 0
79123 43 -35 -33 0
79040 -43 35 33 0
79123 -43 35 -33 0
82992 -43 -35 33 0
82996 -43 -35 -33 0
82270 45 36 40 -34 0
38970 45 36 -40 34 0
84218 45 36 -40 -34 0
4330 45 -36 40 34 0
82486 45 -36 40 -34 0
41352 45 -36 -40 34 0
84338 45 -36 -40 -34 0
1732 -45 36 40 34 0
82357 -45 36 40 -34 0
39923 -45 36 -40 34 0
84266 -45 36 -40 -34 0
5975 -45 -36 40 34 0
82569 -45 -36 40 -34 0
42256 -45 -36 -40 34 0
84383 -45 -36 -40 -34 0
8512 46 -17 0
1120 -46 17 0
9206 -46 -17 0
43560 -24 0
68780 29 18 -30 0
7240 29 -18 30 0
69142 29 -18 -30 0
50680 -29 18 30 0
71314 -29 18 -30 0
52852 -29 -18 30 0
71423 -29 -18 -30 0
