p wcnf 50 196 1000000
1000000 1 0
1000000 2 -13 0
1000000 13 -36 -1 0
1000000 3 -14 0
1000000 14 -39 -1 0
1000000 4 -15 0
1000000 15 -37 -1 0
1000000 8 -16 0
1000000 16 -38 -40 -1 0
1000000 9 -17 0
1000000 17 -45 -41 -1 0
1000000 4 -18 0
1000000 18 -44 -2 0
1000000 5 -19 0
1000000 19 -36 -39 -38 -2 0
1000000 6 -20 0
1000000 20 -46 -43 -2 0
1000000 4 -21 0
1000000 21 -46 -45 -40 -3 0
1000000 5 -22 0
1000000 22 -43 -42 -3 0
1000000 6 -23 0
1000000 23 -44 -36 -41 -3 0
1000000 7 -24 0
1000000 24 -37 -42 -3 0
1000000 8 -25 0
1000000 25 -38 -3 0
1000000 10 -26 0
1000000 26 -41 -39 -3 0
1000000 11 -27 0
1000000 27 -42 -44 -45 -5 0
1000000 10 -28 0
1000000 28 -40 -5 0
1000000 11 -29 0
1000000 29 -46 -42 -43 -6 0
1000000 12 -30 0
1000000 30 -38 -37 -6 0
1000000 10 -31 0
1000000 31 -36 -6 0
1000000 9 -32 0
1000000 32 -45 -46 -40 -7 0
1000000 10 -33 0
1000000 33 -43 -37 -7 0
1000000 10 -34 0
1000000 34 -44 -36 -8 0
1000000 10 -35 0
1000000 35 -39 -9 0
1000000 1 0
1000000 -2 13 0
1000000 -3 14 0
1000000 -4 15 21 18 0
1000000 -5 19 22 0
1000000 -6 20 23 0
1000000 -7 24 0
1000000 -8 16 25 0
1000000 -9 32 17 0
1000000 -10 26 35 31 28 34 33 0
1000000 -11 27 29 0
1000000 -12 30 0
1000000 36 50 0
1000000 37 50 0
1000000 38 50 0
1000000 39 49 0
1000000 40 49 0
1000000 41 47 0
1000000 42 47 0
1000000 43 47 0
1000000 44 49 0
1000000 45 48 0
1000000 46 48 0
1000000 -36 -50 0
1000000 -37 -50 0
1000000 -38 -50 0
1000000 -39 -49 0
1000000 -40 -49 0
1000000 -41 -47 0
1000000 -42 -47 0
1000000 -43 -47 0
1000000 -44 -49 0
1000000 -45 -48 0
1000000 -46 -48 0
11100 -47 0
10100 -48 0
10500 -49 0
11100 -50 0
2400 36 0
800 37 0
2200 38 0
3100 39 0
800 40 0
3100 41 0
2500 42 0
1700 43 0
2100 44 0
2200 45 0
3100 46 0
8442 -13 0
3250 -14 0
400 15 21 -18 0
2000 15 -21 18 0
2360 15 -21 -18 0
13000 -15 21 18 0
13140 -15 21 -18 0
13700 -15 -21 18 0
13826 -15 -21 -18 0
8352 19 -22 0
16965 -19 22 0
19888 -19 -22 0
468 20 -23 0
9360 -20 23 0
9641 -20 -23 0
24615 -24 0
8442 16 -25 0
17822 -16 25 0
23056 -16 -25 0
25795 32 -17 0
9380 -32 17 0
30016 -32 -17 0
2808 26 35 31 28 34 -33 0
17550 26 35 31 28 -34 33 0
18252 26 35 31 28 -34 -33 0
8892 26 35 31 -28 34 33 0
10633 26 35 31 -28 34 -33 0
19773 26 35 31 -28 -34 33 0
20208 26 35 31 -28 -34 -33 0
9360 26 35 -31 28 34 33 0
11045 26 35 -31 28 34 -33 0
19890 26 35 -31 28 -34 33 0
20311 26 35 -31 28 -34 -33 0
14695 26 35 -31 -28 34 33 0
15740 26 35 -31 -28 34 -33 0
21224 26 35 -31 -28 -34 33 0
21485 26 35 -31 -28 -34 -33 0
8892 26 -35 31 28 34 33 0
10633 26 -35 31 28 34 -33 0
19773 26 -35 31 28 -34 33 0
20208 26 -35 31 28 -34 -33 0
14405 26 -35 31 -28 34 33 0
15484 26 -35 31 -28 34 -33 0
21151 26 -35 31 -28 -34 33 0
21421 26 -35 31 -28 -34 -33 0
14695 26 -35 -31 28 34 33 0
15740 26 -35 -31 28 34 -33 0
21224 26 -35 -31 28 -34 33 0
21485 26 -35 -31 28 -34 -33 0
18003 26 -35 -31 -28 34 33 0
18651 26 -35 -31 -28 34 -33 0
22051 26 -35 -31 -28 -34 33 0
22213 26 -35 -31 -28 -34 -33 0
2808 -26 35 31 28 34 33 0
5279 -26 35 31 28 34 -33 0
18252 -26 35 31 28 -34 33 0
18870 -26 35 31 28 -34 -33 0
10633 -26 35 31 -28 34 33 0
12165 -26 35 31 -28 34 -33 0
20208 -26 35 31 -28 -34 33 0
20591 -26 35 31 -28 -34 -33 0
11045 -26 35 -31 28 34 33 0
12527 -26 35 -31 28 34 -33 0
20311 -26 35 -31 28 -34 33 0
20682 -26 35 -31 28 -34 -33 0
15740 -26 35 -31 -28 34 33 0
16659 -26 35 -31 -28 34 -33 0
21485 -26 35 -31 -28 -34 33 0
21715 -26 35 -31 -28 -34 -33 0
10633 -26 -35 31 28 34 33 0
12165 -26 -35 31 28 34 -33 0
20208 -26 -35 31 28 -34 33 0
20591 -26 -35 31 28 -34 -33 0
15484 -26 -35 31 -28 34 33 0
16434 -26 -35 31 -28 34 -33 0
21421 -26 -35 31 -28 -34 33 0
21659 -26 -35 31 -28 -34 -33 0
15740 -26 -35 -31 28 34 33 0
16659 -26 -35 -31 28 34 -33 0
21485 -26 -35 -31 28 -34 33 0
21715 -26 -35 -31 28 -34 -33 0
18651 -26 -35 -31 -28 34 33 0
19221 -26 -35 -31 -28 34 -33 0
22213 -26 -35 -31 -28 -34 33 0
22355 -26 -35 -31 -28 -34 -33 0
75150 27 -29 0
41750 -27 29 0
79325 -27 -29 0
2880 -30 0
