p wcnf 58 197 1000000
1000000 1 0
1000000 2 -15 0
1000000 15 -47 -46 -49 -1 0
1000000 11 -16 0
1000000 16 -44 -48 -51 -1 0
1000000 3 -17 0
1000000 17 -43 -1 0
1000000 8 -18 0
1000000 18 -42 -1 0
1000000 5 -19 0
1000000 19 -46 -52 -42 -2 0
1000000 13 -20 0
1000000 20 -44 -43 -50 -11 0
1000000 14 -21 0
1000000 21 -41 -49 -13 0
1000000 11 -22 0
1000000 22 -53 -51 -50 -3 0
1000000 13 -23 0
1000000 23 -45 -3 0
1000000 4 -24 0
1000000 24 -52 -45 -3 0
1000000 13 -25 0
1000000 25 -44 -43 -46 -4 0
1000000 14 -26 0
1000000 26 -53 -48 -4 0
1000000 6 -27 0
1000000 27 -42 -47 -52 -4 0
1000000 7 -28 0
1000000 28 -50 -47 -4 0
1000000 8 -29 0
1000000 29 -41 -45 -4 0
1000000 10 -30 0
1000000 30 -41 -4 0
1000000 12 -31 0
1000000 31 -48 -5 0
1000000 6 -32 0
1000000 32 -53 -5 0
1000000 13 -33 0
1000000 33 -51 -7 0
1000000 8 -34 0
1000000 34 -42 -43 -45 -7 0
1000000 11 -35 0
1000000 35 -48 -49 -41 -8 0
1000000 14 -36 0
1000000 36 -50 -41 -46 -8 0
1000000 9 -37 0
1000000 37 -52 -49 -8 0
1000000 10 -38 0
1000000 38 -47 -8 0
1000000 14 -39 0
1000000 39 -44 -9 0
1000000 13 -40 0
1000000 40 -42 -44 -10 0
1000000 1 0
1000000 -2 15 0
1000000 -3 17 0
1000000 -4 24 0
1000000 -5 19 0
1000000 -6 32 27 0
1000000 -7 28 0
1000000 -8 18 29 34 0
1000000 -9 37 0
1000000 -10 30 38 0
1000000 -11 35 16 22 0
1000000 -12 31 0
1000000 -13 23 40 20 25 33 0
1000000 -14 36 21 26 39 0
1000000 41 56 0
1000000 42 56 0
1000000 43 58 0
1000000 44 57 0
1000000 45 54 0
1000000 46 56 0
1000000 47 57 0
1000000 48 54 0
1000000 49 57 0
1000000 50 54 0
1000000 51 55 0
1000000 52 55 0
1000000 53 55 0
1000000 -41 -56 0
1000000 -42 -56 0
1000000 -43 -58 0
1000000 -44 -57 0
1000000 -45 -54 0
1000000 -46 -56 0
1000000 -47 -57 0
1000000 -48 -54 0
1000000 -49 -57 0
1000000 -50 -54 0
1000000 -51 -55 0
1000000 -52 -55 0
1000000 -53 -55 0
10200 -54 0
9100 -55 0
9100 -56 0
12300 -57 0
11300 -58 0
1500 41 0
2000 42 0
2800 43 0
2600 44 0
2000 45 0
2900 46 0
2600 47 0
2000 48 0
2000 49 0
2000 50 0
2600 51 0
1600 52 0
1500 53 0
22185 -15 0
8385 -17 0
14250 -24 0
6540 -19 0
9424 32 -27 0
21080 -32 27 0
22494 -32 -27 0
3720 -28 0
27800 18 29 -34 0
41700 18 -29 34 0
48650 18 -29 -34 0
11120 -18 29 34 0
33360 -18 29 -34 0
44480 -18 -29 34 0
50040 -18 -29 -34 0
19125 -37 0
8550 30 -38 0
15750 -30 38 0
18315 -30 -38 0
25020 35 16 -22 0
10008 35 -16 22 0
30524 35 -16 -22 0
38920 -35 16 22 0
46426 -35 16 -22 0
41922 -35 -16 22 0
48077 -35 -16 -22 0
31700 -31 0
5250 23 40 20 25 -33 0
4800 23 40 20 -25 33 0
8370 23 40 20 -25 -33 0
9750 23 40 -20 25 33 0
11588 23 40 -20 25 -33 0
11430 23 40 -20 -25 33 0
12680 23 40 -20 -25 -33 0
5700 23 -40 20 25 33 0
8955 23 -40 20 25 -33 0
8676 23 -40 20 -25 33 0
10889 23 -40 20 -25 -33 0
11745 23 -40 -20 25 33 0
12884 23 -40 -20 25 -33 0
12787 23 -40 -20 -25 33 0
13561 23 -40 -20 -25 -33 0
12000 -23 40 20 25 33 0
13050 -23 40 20 25 -33 0
12960 -23 40 20 -25 33 0
13674 -23 40 20 -25 -33 0
13950 -23 40 -20 25 33 0
14318 -23 40 -20 25 -33 0
14286 -23 40 -20 -25 33 0
14536 -23 40 -20 -25 -33 0
13140 -23 -40 20 25 33 0
13791 -23 -40 20 25 -33 0
13735 -23 -40 20 -25 33 0
14178 -23 -40 20 -25 -33 0
14349 -23 -40 -20 25 33 0
14577 -23 -40 -20 25 -33 0
14557 -23 -40 -20 -25 33 0
14712 -23 -40 -20 -25 -33 0
7500 36 21 26 -39 0
9000 36 21 -26 39 0
12000 36 21 -26 -39 0
6750 36 -21 26 39 0
10875 36 -21 26 -39 0
11700 36 -21 -26 39 0
13350 36 -21 -26 -39 0
3000 -36 21 26 39 0
9000 -36 21 26 -39 0
10200 -36 21 -26 39 0
12600 -36 21 -26 -39 0
8400 -36 -21 26 39 0
11700 -36 -21 26 -39 0
12360 -36 -21 -26 39 0
13680 -36 -21 -26 -39 0
