p wcnf 73 237 1000000
1000000 1 0
1000000 2 -17 0
1000000 17 -55 -59 -60 -1 0
1000000 4 -18 0
1000000 18 -54 -1 0
1000000 6 -19 0
1000000 19 -53 -1 0
1000000 7 -20 0
1000000 20 -61 -56 -1 0
1000000 13 -21 0
1000000 21 -62 -52 -2 0
1000000 15 -22 0
1000000 22 -63 -64 -2 0
1000000 3 -23 0
1000000 23 -52 -66 -2 0
1000000 4 -24 0
1000000 24 -57 -54 -2 0
1000000 5 -25 0
1000000 25 -65 -56 -2 0
1000000 13 -26 0
1000000 26 -57 -55 -59 -12 0
1000000 15 -27 0
1000000 27 -62 -61 -12 0
1000000 14 -28 0
1000000 28 -53 -13 0
1000000 15 -29 0
1000000 29 -64 -63 -14 0
1000000 4 -30 0
1000000 30 -60 -65 -3 0
1000000 6 -31 0
1000000 31 -66 -57 -58 -3 0
1000000 8 -32 0
1000000 32 -58 -59 -54 -3 0
1000000 11 -33 0
1000000 33 -52 -4 0
1000000 14 -34 0
1000000 34 -53 -4 0
1000000 7 -35 0
1000000 35 -61 -56 -4 0
1000000 8 -36 0
1000000 36 -58 -4 0
1000000 9 -37 0
1000000 37 -60 -67 -62 -4 0
1000000 11 -38 0
1000000 38 -67 -5 0
1000000 6 -39 0
1000000 39 -55 -65 -5 0
1000000 10 -40 0
1000000 40 -64 -5 0
1000000 16 -41 0
1000000 41 -67 -53 -6 0
1000000 11 -42 0
1000000 42 -54 -63 -7 0
1000000 8 -43 0
1000000 43 -61 -52 -57 -7 0
1000000 12 -44 0
1000000 44 -56 -59 -8 0
1000000 13 -45 0
1000000 45 -66 -8 0
1000000 14 -46 0
1000000 46 -65 -60 -67 -8 0
1000000 9 -47 0
1000000 47 -66 -55 -8 0
1000000 14 -48 0
1000000 48 -64 -58 -52 -9 0
1000000 16 -49 0
1000000 49 -63 -53 -9 0
1000000 11 -50 0
1000000 50 -59 -60 -54 -10 0
1000000 12 -51 0
1000000 51 -56 -10 0
1000000 1 0
1000000 -2 17 0
1000000 -3 23 0
1000000 -4 24 18 30 0
1000000 -5 25 0
1000000 -6 19 39 31 0
1000000 -7 20 35 0
1000000 -8 43 36 32 0
1000000 -9 37 47 0
1000000 -10 40 0
1000000 -11 38 42 50 33 0
1000000 -12 44 51 0
1000000 -13 45 21 26 0
1000000 -14 34 48 46 28 0
1000000 -15 27 29 22 0
1000000 -16 49 41 0
1000000 52 68 0
1000000 53 73 0
1000000 54 70 0
1000000 55 70 0
1000000 56 72 0
1000000 57 69 0
1000000 58 71 0
1000000 59 70 0
1000000 60 69 0
1000000 61 73 0
1000000 62 73 0
1000000 63 69 0
1000000 64 72 0
1000000 65 72 0
1000000 66 71 0
1000000 67 68 0
1000000 -52 -68 0
1000000 -53 -73 0
1000000 -54 -70 0
1000000 -55 -70 0
1000000 -56 -72 0
1000000 -57 -69 0
1000000 -58 -71 0
1000000 -59 -70 0
1000000 -60 -69 0
1000000 -61 -73 0
1000000 -62 -73 0
1000000 -63 -69 0
1000000 -64 -72 0
1000000 -65 -72 0
1000000 -66 -71 0
1000000 -67 -68 0
9000 -68 0
13700 -69 0
7700 -70 0
13700 -71 0
13700 -72 0
11300 -73 0
1800 52 0
2100 53 0
2100 54 0
2100 55 0
1000 56 0
2700 57 0
1000 58 0
2200 59 0
1000 60 0
2100 61 0
800 62 0
2200 63 0
800 64 0
2200 65 0
1900 66 0
1700 67 0
26175 -17 0
5940 -23 0
10650 24 18 -30 0
15975 24 -18 30 0
18638 24 -18 -30 0
426 -24 18 30 0
10863 -24 18 -30 0
16081 -24 -18 30 0
18691 -24 -18 -30 0
23100 -25 0
14910 19 39 -31 0
14910 19 -39 31 0
19383 19 -39 -31 0
9585 -19 39 31 0
17785 -19 39 -31 0
17785 -19 -39 31 0
20246 -19 -39 -31 0
22685 20 -35 0
17450 -20 35 0
28793 -20 -35 0
14858 43 36 -32 0
29325 43 -36 32 0
33039 43 -36 -32 0
25415 -43 36 32 0
30615 -43 36 -32 0
35679 -43 -36 32 0
36979 -43 -36 -32 0
496 37 -47 0
4464 -37 47 0
4871 -37 -47 0
36190 -40 0
17595 38 42 50 -33 0
3910 38 42 -50 33 0
19745 38 42 -50 -33 0
5865 38 -42 50 33 0
20821 38 -42 50 -33 0
9188 38 -42 -50 33 0
22649 38 -42 -50 -33 0
29325 -38 42 50 33 0
33724 -38 42 50 -33 0
30303 -38 42 -50 33 0
34261 -38 42 -50 -33 0
30791 -38 -42 50 33 0
34530 -38 -42 50 -33 0
31622 -38 -42 -50 33 0
34987 -38 -42 -50 -33 0
26880 44 -51 0
5376 -44 51 0
29030 -44 -51 0
31280 45 21 -26 0
25415 45 -21 26 0
36363 45 -21 -26 0
29325 -45 21 26 0
37145 -45 21 -26 0
35679 -45 -21 26 0
38416 -45 -21 -26 0
13200 34 48 46 -28 0
24750 34 48 -46 28 0
28050 34 48 -46 -28 0
24750 34 -48 46 28 0
28050 34 -48 46 -28 0
30938 34 -48 -46 28 0
31762 34 -48 -46 -28 0
4950 -34 48 46 28 0
16170 -34 48 46 -28 0
25988 -34 48 -46 28 0
28793 -34 48 -46 -28 0
25988 -34 -48 46 28 0
28793 -34 -48 46 -28 0
31247 -34 -48 -46 28 0
31948 -34 -48 -46 -28 0
17595 27 29 -22 0
7820 27 -29 22 0
21896 27 -29 -22 0
21505 -27 29 22 0
29423 -27 29 -22 0
25024 -27 -29 22 0
31358 -27 -29 -22 0
496 49 -41 0
3720 -49 41 0
4142 -49 -41 0
