p wcnf 78 260 1000000
1000000 1 0
1000000 2 -18 0
1000000 18 -55 -1 0
1000000 12 -19 0
1000000 19 -58 -1 0
1000000 3 -20 0
1000000 20 -57 -61 -1 0
1000000 5 -21 0
1000000 21 -60 -1 0
1000000 6 -22 0
1000000 22 -66 -62 -56 -1 0
1000000 5 -23 0
1000000 23 -59 -67 -2 0
1000000 10 -24 0
1000000 24 -64 -69 -2 0
1000000 13 -25 0
1000000 25 -65 -68 -11 0
1000000 15 -26 0
1000000 26 -71 -55 -12 0
1000000 17 -27 0
1000000 27 -58 -63 -12 0
1000000 15 -28 0
1000000 28 -72 -60 -14 0
1000000 17 -29 0
1000000 29 -56 -64 -70 -15 0
1000000 13 -30 0
1000000 30 -65 -57 -3 0
1000000 14 -31 0
1000000 31 -66 -63 -68 -3 0
1000000 4 -32 0
1000000 32 -69 -67 -3 0
1000000 12 -33 0
1000000 33 -62 -4 0
1000000 14 -34 0
1000000 34 -55 -71 -4 0
1000000 8 -35 0
1000000 35 -72 -62 -58 -4 0
1000000 10 -36 0
1000000 36 -60 -59 -4 0
1000000 8 -37 0
1000000 37 -56 -63 -66 -5 0
1000000 10 -38 0
1000000 38 -70 -5 0
1000000 11 -39 0
1000000 39 -61 -57 -6 0
1000000 7 -40 0
1000000 40 -67 -68 -59 -6 0
1000000 9 -41 0
1000000 41 -65 -69 -6 0
1000000 11 -42 0
1000000 42 -71 -61 -7 0
1000000 15 -43 0
1000000 43 -57 -70 -7 0
1000000 17 -44 0
1000000 44 -72 -7 0
1000000 8 -45 0
1000000 45 -60 -55 -7 0
1000000 11 -46 0
1000000 46 -56 -8 0
1000000 13 -47 0
1000000 47 -59 -58 -8 0
1000000 14 -48 0
1000000 48 -69 -68 -65 -8 0
1000000 9 -49 0
1000000 49 -61 -64 -66 -8 0
1000000 12 -50 0
1000000 50 -64 -9 0
1000000 13 -51 0
1000000 51 -56 -72 -57 -9 0
1000000 16 -52 0
1000000 52 -62 -9 0
1000000 15 -53 0
1000000 53 -59 -58 -71 -10 0
1000000 17 -54 0
1000000 54 -63 -64 -60 -10 0
1000000 1 0
1000000 -2 18 0
1000000 -3 20 0
1000000 -4 32 0
1000000 -5 21 23 0
1000000 -6 22 0
1000000 -7 40 0
1000000 -8 45 35 37 0
1000000 -9 41 49 0
1000000 -10 36 24 38 0
1000000 -11 39 46 42 0
1000000 -12 33 50 19 0
1000000 -13 51 30 25 47 0
1000000 -14 48 31 34 0
1000000 -15 28 53 26 43 0
1000000 -16 52 0
1000000 -17 54 29 27 44 0
1000000 55 78 0
1000000 56 77 0
1000000 57 74 0
1000000 58 77 0
1000000 59 78 0
1000000 60 76 0
1000000 61 74 0
1000000 62 78 0
1000000 63 74 0
1000000 64 73 0
1000000 65 73 0
1000000 66 75 0
1000000 67 73 0
1000000 68 77 0
1000000 69 76 0
1000000 70 75 0
1000000 71 75 0
1000000 72 76 0
1000000 -55 -78 0
1000000 -56 -77 0
1000000 -57 -74 0
1000000 -58 -77 0
1000000 -59 -78 0
1000000 -60 -76 0
1000000 -61 -74 0
1000000 -62 -78 0
1000000 -63 -74 0
1000000 -64 -73 0
1000000 -65 -73 0
1000000 -66 -75 0
1000000 -67 -73 0
1000000 -68 -77 0
1000000 -69 -76 0
1000000 -70 -75 0
1000000 -71 -75 0
1000000 -72 -76 0
9100 -73 0
9100 -74 0
12300 -75 0
10400 -76 0
10400 -77 0
11300 -78 0
1400 55 0
1300 56 0
1400 57 0
1300 58 0
1300 59 0
1300 60 0
3800 61 0
1300 62 0
1100 63 0
800 64 0
700 65 0
1300 66 0
3100 67 0
1100 68 0
700 69 0
3000 70 0
3000 71 0
1100 72 0
53010 -18 0
7488 -20 0
49230 -32 0
5275 21 -23 0
2532 -21 23 0
7174 -21 -23 0
15808 -22 0
18525 -40 0
12384 45 35 -37 0
1376 45 -35 37 0
13512 45 -35 -37 0
41280 -45 35 37 0
46234 -45 35 -37 0
41830 -45 -35 37 0
46685 -45 -35 -37 0
22230 41 -49 0
18525 -41 49 0
24082 -41 -49 0
4940 36 24 -38 0
19760 36 -24 38 0
20748 36 -24 -38 0
9880 -36 24 38 0
12844 -36 24 -38 0
21736 -36 -24 38 0
22329 -36 -24 -38 0
5180 39 46 -42 0
5180 39 -46 42 0
9842 39 -46 -42 0
19684 -39 46 42 0
22896 -39 46 -42 0
22896 -39 -46 42 0
25786 -39 -46 -42 0
5628 33 50 -19 0
4690 33 -50 19 0
9755 33 -50 -19 0
7035 -33 50 19 0
11819 -33 50 -19 0
11021 -33 -50 19 0
15327 -33 -50 -19 0
9846 51 30 25 -47 0
16410 51 30 -25 47 0
23302 51 30 -25 -47 0
16410 51 -30 25 47 0
23302 51 -30 25 -47 0
27897 51 -30 -25 47 0
32722 51 -30 -25 -47 0
6564 -51 30 25 47 0
15228 -51 30 25 -47 0
21005 -51 30 -25 47 0
27070 -51 30 -25 -47 0
21005 -51 -30 25 47 0
27070 -51 -30 25 -47 0
31113 -51 -30 -25 47 0
35359 -51 -30 -25 -47 0
20995 48 31 -34 0
23465 48 -31 34 0
24515 48 -31 -34 0
18525 -48 31 34 0
23774 -48 31 -34 0
24391 -48 -31 34 0
24654 -48 -31 -34 0
49230 28 53 26 -43 0
19145 28 53 -26 43 0
51145 28 53 -26 -43 0
13675 28 -53 26 43 0
50598 28 -53 26 -43 0
28034 28 -53 -26 43 0
52033 28 -53 -26 -43 0
43760 -28 53 26 43 0
53606 -28 53 26 -43 0
47589 -28 53 -26 43 0
53989 -28 53 -26 -43 0
46495 -28 -53 26 43 0
53879 -28 -53 26 -43 0
49367 -28 -53 -26 43 0
54167 -28 -53 -26 -43 0
21400 -52 0
31080 54 29 27 -44 0
23310 54 29 -27 44 0
40404 54 29 -27 -44 0
10360 54 -29 27 44 0
35224 54 -29 27 -44 0
29008 54 -29 -27 44 0
42683 54 -29 -27 -44 0
9324 -54 29 27 44 0
34810 -54 29 27 -44 0
28438 -54 29 -27 44 0
42455 -54 29 -27 -44 0
17819 -54 -29 27 44 0
38208 -54 -29 27 -44 0
33111 -54 -29 -27 44 0
44324 -54 -29 -27 -44 0
