p wcnf 51 149 1000000
1000000 1 0
1000000 2 -14 0
1000000 14 -38 -1 0
1000000 3 -15 0
1000000 15 -41 -40 -45 -1 0
1000000 7 -16 0
1000000 16 -40 -47 -46 -1 0
1000000 9 -17 0
1000000 17 -39 -1 0
1000000 4 -18 0
1000000 18 -43 -37 -2 0
1000000 5 -19 0
1000000 19 -37 -2 0
1000000 7 -20 0
1000000 20 -42 -45 -43 -2 0
1000000 13 -21 0
1000000 21 -38 -46 -3 0
1000000 4 -22 0
1000000 22 -38 -42 -41 -3 0
1000000 5 -23 0
1000000 23 -47 -3 0
1000000 8 -24 0
1000000 24 -39 -41 -3 0
1000000 13 -25 0
1000000 25 -40 -43 -4 0
1000000 6 -26 0
1000000 26 -45 -46 -4 0
1000000 7 -27 0
1000000 27 -40 -38 -43 -4 0
1000000 13 -28 0
1000000 28 -44 -5 0
1000000 10 -29 0
1000000 29 -37 -5 0
1000000 11 -30 0
1000000 30 -39 -6 0
1000000 12 -31 0
1000000 31 -42 -44 -46 -6 0
1000000 9 -32 0
1000000 32 -37 -44 -6 0
1000000 11 -33 0
1000000 33 -45 -40 -44 -7 0
1000000 10 -34 0
1000000 34 -47 -8 0
1000000 11 -35 0
1000000 35 -39 -41 -9 0
1000000 12 -36 0
1000000 36 -37 -9 0
1000000 1 0
1000000 -2 14 0
1000000 -3 15 0
1000000 -4 18 22 0
1000000 -5 23 19 0
1000000 -6 26 0
1000000 -7 16 27 20 0
1000000 -8 24 0
1000000 -9 17 32 0
1000000 -10 29 34 0
1000000 -11 35 33 30 0
1000000 -12 36 31 0
1000000 -13 28 25 21 0
1000000 37 51 0
1000000 38 49 0
1000000 39 49 0
1000000 40 50 0
1000000 41 50 0
1000000 42 51 0
1000000 43 48 0
1000000 44 48 0
1000000 45 48 0
1000000 46 51 0
1000000 47 50 0
1000000 -37 -51 0
1000000 -38 -49 0
1000000 -39 -49 0
1000000 -40 -50 0
1000000 -41 -50 0
1000000 -42 -51 0
1000000 -43 -48 0
1000000 -44 -48 0
1000000 -45 -48 0
1000000 -46 -51 0
1000000 -47 -50 0
13400 -48 0
13400 -49 0
13400 -50 0
13400 -51 0
3500 37 0
3500 38 0
1300 39 0
1300 40 0
3200 41 0
3600 42 0
3600 43 0
3600 44 0
1900 45 0
1900 46 0
1300 47 0
25118 -14 0
9915 -15 0
22432 18 -22 0
38555 -18 22 0
48649 -18 -22 0
28240 23 -19 0
7060 -23 19 0
32476 -23 -19 0
32625 -26 0
49575 16 27 -20 0
26440 16 -27 20 0
56185 16 -27 -20 0
7932 -16 27 20 0
51558 -16 27 -20 0
31199 -16 -27 20 0
57375 -16 -27 -20 0
9420 -24 0
27225 17 -32 0
1210 -17 32 0
27890 -17 -32 0
66130 29 -34 0
9336 -29 34 0
67530 -29 -34 0
73245 35 33 -30 0
13878 35 -33 30 0
73939 35 -33 -30 0
3855 -35 33 30 0
73438 -35 33 -30 0
17039 -35 -33 30 0
74097 -35 -33 -30 0
23130 36 -31 0
3855 -36 31 0
25829 -36 -31 0
42390 28 25 -21 0
21195 28 -25 21 0
44510 28 -25 -21 0
21195 -28 25 21 0
44510 -28 25 -21 0
32852 -28 -25 21 0
45675 -28 -25 -21 0
