p wcnf 1058 4506 1000000
1000000 1 0
1000000 2 -192 0
1000000 192 -752 -1 0
1000000 103 -193 0
1000000 193 -753 -757 -1 0
1000000 14 -194 0
1000000 194 -761 -754 -762 -1 0
1000000 5 -195 0
1000000 195 -763 -764 -760 -1 0
1000000 8 -196 0
1000000 196 -758 -756 -1 0
1000000 11 -197 0
1000000 197 -765 -767 -768 -2 0
1000000 177 -198 0
1000000 198 -755 -2 0
1000000 3 -199 0
1000000 199 -759 -2 0
1000000 21 -200 0
1000000 200 -766 -771 -2 0
1000000 4 -201 0
1000000 201 -776 -772 -769 -2 0
1000000 5 -202 0
1000000 202 -770 -773 -2 0
1000000 9 -203 0
1000000 203 -777 -778 -2 0
1000000 19 -204 0
1000000 204 -775 -751 -11 0
1000000 25 -205 0
1000000 205 -779 -780 -11 0
1000000 44 -206 0
1000000 206 -784 -774 -11 0
1000000 69 -207 0
1000000 207 -783 -787 -11 0
1000000 86 -208 0
1000000 208 -785 -791 -786 -11 0
1000000 112 -209 0
1000000 209 -789 -781 -101 0
1000000 126 -210 0
1000000 210 -790 -796 -792 -101 0
1000000 174 -211 0
1000000 211 -788 -782 -101 0
1000000 105 -212 0
1000000 212 -798 -793 -102 0
1000000 106 -213 0
1000000 213 -795 -801 -102 0
1000000 111 -214 0
1000000 214 -799 -794 -102 0
1000000 138 -215 0
1000000 215 -800 -102 0
1000000 107 -216 0
1000000 216 -803 -103 0
1000000 114 -217 0
1000000 217 -806 -810 -797 -103 0
1000000 109 -218 0
1000000 218 -805 -104 0
1000000 110 -219 0
1000000 219 -811 -804 -808 -104 0
1000000 132 -220 0
1000000 220 -809 -814 -104 0
1000000 134 -221 0
1000000 221 -813 -815 -104 0
1000000 109 -222 0
1000000 222 -812 -816 -105 0
1000000 111 -223 0
1000000 223 -802 -105 0
1000000 136 -224 0
1000000 224 -821 -818 -807 -105 0
1000000 107 -225 0
1000000 225 -819 -820 -106 0
1000000 111 -226 0
1000000 226 -817 -825 -106 0
1000000 113 -227 0
1000000 227 -822 -106 0
1000000 116 -228 0
1000000 228 -823 -107 0
1000000 122 -229 0
1000000 229 -826 -107 0
1000000 183 -230 0
1000000 230 -828 -831 -107 0
1000000 109 -231 0
1000000 231 -830 -829 -832 -108 0
1000000 110 -232 0
1000000 232 -838 -834 -833 -108 0
1000000 122 -233 0
1000000 233 -839 -827 -836 -108 0
1000000 120 -234 0
1000000 234 -841 -842 -843 -109 0
1000000 122 -235 0
1000000 235 -824 -844 -109 0
1000000 186 -236 0
1000000 236 -848 -849 -840 -109 0
1000000 113 -237 0
1000000 237 -835 -110 0
1000000 116 -238 0
1000000 238 -837 -110 0
1000000 124 -239 0
1000000 239 -852 -845 -110 0
1000000 127 -240 0
1000000 240 -850 -12 0
1000000 17 -241 0
1000000 241 -856 -853 -855 -12 0
1000000 20 -242 0
1000000 242 -846 -12 0
1000000 22 -243 0
1000000 243 -859 -847 -862 -12 0
1000000 36 -244 0
1000000 244 -857 -858 -12 0
1000000 42 -245 0
1000000 245 -860 -863 -12 0
1000000 90 -246 0
1000000 246 -851 -12 0
1000000 116 -247 0
1000000 247 -854 -868 -866 -111 0
1000000 117 -248 0
1000000 248 -861 -865 -871 -111 0
1000000 118 -249 0
1000000 249 -864 -870 -112 0
1000000 125 -250 0
1000000 250 -875 -873 -874 -112 0
1000000 115 -251 0
1000000 251 -878 -867 -113 0
1000000 116 -252 0
1000000 252 -883 -877 -869 -113 0
1000000 116 -253 0
1000000 253 -872 -114 0
1000000 128 -254 0
1000000 254 -879 -876 -114 0
1000000 116 -255 0
1000000 255 -882 -881 -115 0
1000000 129 -256 0
1000000 256 -880 -115 0
1000000 173 -257 0
1000000 257 -886 -115 0
1000000 117 -258 0
1000000 258 -889 -892 -887 -116 0
1000000 118 -259 0
1000000 259 -884 -116 0
1000000 120 -260 0
1000000 260 -888 -893 -117 0
1000000 124 -261 0
1000000 261 -895 -890 -117 0
1000000 119 -262 0
1000000 262 -891 -118 0
1000000 120 -263 0
1000000 263 -899 -898 -118 0
1000000 156 -264 0
1000000 264 -885 -118 0
1000000 121 -265 0
1000000 265 -902 -897 -119 0
1000000 122 -266 0
1000000 266 -900 -119 0
1000000 127 -267 0
1000000 267 -896 -120 0
1000000 131 -268 0
1000000 268 -901 -905 -908 -120 0
1000000 16 -269 0
1000000 269 -894 -912 -911 -13 0
1000000 18 -270 0
1000000 270 -903 -13 0
1000000 19 -271 0
1000000 271 -907 -13 0
1000000 24 -272 0
1000000 272 -906 -13 0
1000000 122 -273 0
1000000 273 -909 -121 0
1000000 125 -274 0
1000000 274 -914 -910 -916 -121 0
1000000 125 -275 0
1000000 275 -913 -922 -918 -122 0
1000000 130 -276 0
1000000 276 -904 -920 -122 0
1000000 140 -277 0
1000000 277 -919 -915 -122 0
1000000 132 -278 0
1000000 278 -923 -123 0
1000000 136 -279 0
1000000 279 -927 -928 -924 -123 0
1000000 140 -280 0
1000000 280 -925 -124 0
1000000 144 -281 0
1000000 281 -934 -917 -933 -124 0
1000000 127 -282 0
1000000 282 -926 -125 0
1000000 128 -283 0
1000000 283 -935 -929 -937 -125 0
1000000 132 -284 0
1000000 284 -931 -126 0
1000000 142 -285 0
1000000 285 -938 -939 -126 0
1000000 130 -286 0
1000000 286 -930 -127 0
1000000 131 -287 0
1000000 287 -943 -944 -932 -127 0
1000000 131 -288 0
1000000 288 -946 -941 -936 -128 0
1000000 140 -289 0
1000000 289 -948 -942 -940 -128 0
1000000 145 -290 0
1000000 290 -951 -952 -949 -129 0
1000000 146 -291 0
1000000 291 -947 -957 -950 -129 0
1000000 157 -292 0
1000000 292 -956 -955 -129 0
1000000 165 -293 0
1000000 293 -958 -921 -954 -129 0
1000000 138 -294 0
1000000 294 -960 -953 -130 0
1000000 140 -295 0
1000000 295 -961 -130 0
1000000 166 -296 0
1000000 296 -945 -962 -130 0
1000000 104 -297 0
1000000 297 -966 -967 -14 0
1000000 140 -298 0
1000000 298 -963 -968 -14 0
1000000 145 -299 0
1000000 299 -969 -970 -14 0
1000000 17 -300 0
1000000 300 -972 -965 -974 -14 0
1000000 18 -301 0
1000000 301 -976 -975 -14 0
1000000 20 -302 0
1000000 302 -978 -971 -14 0
1000000 95 -303 0
1000000 303 -977 -973 -14 0
1000000 135 -304 0
1000000 304 -979 -754 -980 -131 0
1000000 137 -305 0
1000000 305 -981 -131 0
1000000 164 -306 0
1000000 306 -964 -131 0
1000000 138 -307 0
1000000 307 -753 -959 -132 0
1000000 144 -308 0
1000000 308 -756 -752 -132 0
1000000 138 -309 0
1000000 309 -758 -761 -759 -133 0
1000000 148 -310 0
1000000 310 -751 -755 -133 0
1000000 138 -311 0
1000000 311 -762 -765 -134 0
1000000 153 -312 0
1000000 312 -757 -134 0
1000000 148 -313 0
1000000 313 -766 -760 -135 0
1000000 151 -314 0
1000000 314 -764 -135 0
1000000 139 -315 0
1000000 315 -768 -767 -771 -136 0
1000000 157 -316 0
1000000 316 -773 -769 -770 -136 0
1000000 139 -317 0
1000000 317 -772 -137 0
1000000 140 -318 0
1000000 318 -776 -775 -137 0
1000000 139 -319 0
1000000 319 -763 -138 0
1000000 142 -320 0
1000000 320 -783 -784 -777 -138 0
1000000 150 -321 0
1000000 321 -779 -781 -138 0
1000000 144 -322 0
1000000 322 -780 -139 0
1000000 148 -323 0
1000000 323 -778 -788 -786 -139 0
1000000 148 -324 0
1000000 324 -782 -790 -140 0
1000000 150 -325 0
1000000 325 -787 -792 -774 -140 0
1000000 162 -326 0
1000000 326 -789 -797 -785 -140 0
1000000 19 -327 0
1000000 327 -794 -795 -15 0
1000000 21 -328 0
1000000 328 -802 -801 -799 -15 0
1000000 77 -329 0
1000000 329 -793 -800 -15 0
1000000 142 -330 0
1000000 330 -791 -141 0
1000000 143 -331 0
1000000 331 -798 -141 0
1000000 144 -332 0
1000000 332 -806 -810 -803 -142 0
1000000 145 -333 0
1000000 333 -807 -809 -142 0
1000000 147 -334 0
1000000 334 -805 -812 -143 0
1000000 150 -335 0
1000000 335 -811 -804 -143 0
1000000 145 -336 0
1000000 336 -796 -144 0
1000000 146 -337 0
1000000 337 -815 -813 -144 0
1000000 146 -338 0
1000000 338 -808 -145 0
1000000 149 -339 0
1000000 339 -823 -814 -819 -145 0
1000000 181 -340 0
1000000 340 -817 -145 0
1000000 148 -341 0
1000000 341 -825 -818 -826 -146 0
1000000 152 -342 0
1000000 342 -816 -146 0
1000000 148 -343 0
1000000 343 -821 -147 0
1000000 151 -344 0
1000000 344 -828 -822 -147 0
1000000 151 -345 0
1000000 345 -824 -148 0
1000000 160 -346 0
1000000 346 -829 -820 -148 0
1000000 160 -347 0
1000000 347 -830 -149 0
1000000 161 -348 0
1000000 348 -835 -827 -149 0
1000000 168 -349 0
1000000 349 -831 -836 -149 0
1000000 152 -350 0
1000000 350 -839 -837 -838 -150 0
1000000 153 -351 0
1000000 351 -834 -833 -150 0
1000000 106 -352 0
1000000 352 -832 -16 0
1000000 114 -353 0
1000000 353 -844 -848 -841 -16 0
1000000 155 -354 0
1000000 354 -845 -842 -16 0
1000000 158 -355 0
1000000 355 -846 -850 -16 0
1000000 17 -356 0
1000000 356 -851 -847 -16 0
1000000 19 -357 0
1000000 357 -855 -854 -843 -16 0
1000000 30 -358 0
1000000 358 -852 -16 0
1000000 153 -359 0
1000000 359 -860 -857 -853 -151 0
1000000 154 -360 0
1000000 360 -856 -151 0
1000000 153 -361 0
1000000 361 -858 -862 -152 0
1000000 157 -362 0
1000000 362 -859 -152 0
1000000 155 -363 0
1000000 363 -861 -863 -153 0
1000000 162 -364 0
1000000 364 -866 -865 -153 0
1000000 158 -365 0
1000000 365 -872 -849 -868 -154 0
1000000 162 -366 0
1000000 366 -840 -871 -154 0
1000000 158 -367 0
1000000 367 -864 -873 -155 0
1000000 161 -368 0
1000000 368 -870 -874 -155 0
1000000 159 -369 0
1000000 369 -867 -156 0
1000000 161 -370 0
1000000 370 -880 -882 -879 -156 0
1000000 159 -371 0
1000000 371 -875 -157 0
1000000 160 -372 0
1000000 372 -886 -876 -885 -157 0
1000000 163 -373 0
1000000 373 -877 -157 0
1000000 159 -374 0
1000000 374 -881 -158 0
1000000 163 -375 0
1000000 375 -883 -158 0
1000000 161 -376 0
1000000 376 -888 -878 -159 0
1000000 164 -377 0
1000000 377 -891 -869 -159 0
1000000 162 -378 0
1000000 378 -884 -160 0
1000000 166 -379 0
1000000 379 -889 -160 0
1000000 182 -380 0
1000000 380 -892 -894 -160 0
1000000 107 -381 0
1000000 381 -895 -896 -17 0
1000000 22 -382 0
1000000 382 -897 -893 -17 0
1000000 28 -383 0
1000000 383 -887 -17 0
1000000 36 -384 0
1000000 384 -904 -899 -900 -17 0
1000000 68 -385 0
1000000 385 -903 -890 -17 0
1000000 88 -386 0
1000000 386 -908 -906 -901 -17 0
1000000 167 -387 0
1000000 387 -911 -898 -910 -161 0
1000000 174 -388 0
1000000 388 -902 -161 0
1000000 168 -389 0
1000000 389 -909 -162 0
1000000 169 -390 0
1000000 390 -913 -907 -914 -162 0
1000000 169 -391 0
1000000 391 -915 -163 0
1000000 177 -392 0
1000000 392 -922 -920 -905 -163 0
1000000 165 -393 0
1000000 393 -917 -923 -916 -164 0
1000000 167 -394 0
1000000 394 -919 -164 0
1000000 171 -395 0
1000000 395 -921 -165 0
1000000 174 -396 0
1000000 396 -924 -912 -165 0
1000000 172 -397 0
1000000 397 -931 -926 -930 -166 0
1000000 175 -398 0
1000000 398 -925 -933 -934 -166 0
1000000 170 -399 0
1000000 399 -928 -167 0
1000000 171 -400 0
1000000 400 -936 -927 -932 -167 0
1000000 169 -401 0
1000000 401 -929 -168 0
1000000 176 -402 0
1000000 402 -939 -935 -168 0
1000000 180 -403 0
1000000 403 -941 -940 -169 0
1000000 186 -404 0
1000000 404 -937 -942 -944 -169 0
1000000 171 -405 0
1000000 405 -946 -943 -945 -170 0
1000000 173 -406 0
1000000 406 -947 -170 0
1000000 22 -407 0
1000000 407 -954 -948 -953 -18 0
1000000 24 -408 0
1000000 408 -951 -950 -956 -18 0
1000000 35 -409 0
1000000 409 -955 -918 -18 0
1000000 46 -410 0
1000000 410 -957 -962 -960 -18 0
1000000 172 -411 0
1000000 411 -952 -171 0
1000000 178 -412 0
1000000 412 -963 -961 -171 0
1000000 178 -413 0
1000000 413 -967 -968 -965 -172 0
1000000 183 -414 0
1000000 414 -938 -958 -172 0
1000000 174 -415 0
1000000 415 -949 -964 -173 0
1000000 175 -416 0
1000000 416 -971 -966 -973 -173 0
1000000 182 -417 0
1000000 417 -969 -174 0
1000000 184 -418 0
1000000 418 -959 -174 0
1000000 178 -419 0
1000000 419 -970 -175 0
1000000 183 -420 0
1000000 420 -974 -977 -979 -175 0
1000000 178 -421 0
1000000 421 -976 -176 0
1000000 182 -422 0
1000000 422 -972 -975 -753 -176 0
1000000 180 -423 0
1000000 423 -754 -752 -755 -177 0
1000000 187 -424 0
1000000 424 -980 -760 -756 -177 0
1000000 184 -425 0
1000000 425 -981 -178 0
1000000 187 -426 0
1000000 426 -978 -751 -178 0
1000000 189 -427 0
1000000 427 -757 -762 -179 0
1000000 190 -428 0
1000000 428 -764 -763 -179 0
1000000 183 -429 0
1000000 429 -769 -770 -767 -180 0
1000000 185 -430 0
1000000 430 -766 -759 -180 0
1000000 102 -431 0
1000000 431 -761 -765 -771 -19 0
1000000 20 -432 0
1000000 432 -774 -772 -19 0
1000000 23 -433 0
1000000 433 -758 -19 0
1000000 45 -434 0
1000000 434 -768 -19 0
1000000 183 -435 0
1000000 435 -779 -780 -781 -181 0
1000000 185 -436 0
1000000 436 -773 -778 -181 0
1000000 183 -437 0
1000000 437 -776 -777 -182 0
1000000 186 -438 0
1000000 438 -775 -785 -182 0
1000000 188 -439 0
1000000 439 -786 -787 -183 0
1000000 186 -440 0
1000000 440 -782 -185 0
1000000 188 -441 0
1000000 441 -790 -788 -185 0
1000000 190 -442 0
1000000 442 -789 -186 0
1000000 190 -443 0
1000000 443 -794 -783 -188 0
1000000 23 -444 0
1000000 444 -792 -795 -20 0
1000000 29 -445 0
1000000 445 -793 -798 -20 0
1000000 92 -446 0
1000000 446 -784 -20 0
1000000 109 -447 0
1000000 447 -796 -800 -3 0
1000000 4 -448 0
1000000 448 -799 -3 0
1000000 6 -449 0
1000000 449 -802 -791 -803 -3 0
1000000 7 -450 0
1000000 450 -801 -3 0
1000000 8 -451 0
1000000 451 -810 -811 -804 -3 0
1000000 23 -452 0
1000000 452 -805 -21 0
1000000 25 -453 0
1000000 453 -814 -806 -813 -21 0
1000000 23 -454 0
1000000 454 -807 -808 -22 0
1000000 24 -455 0
1000000 455 -812 -22 0
1000000 64 -456 0
1000000 456 -816 -797 -22 0
1000000 67 -457 0
1000000 457 -815 -22 0
1000000 25 -458 0
1000000 458 -818 -23 0
1000000 26 -459 0
1000000 459 -824 -809 -817 -23 0
1000000 130 -460 0
1000000 460 -825 -827 -826 -24 0
1000000 27 -461 0
1000000 461 -819 -823 -829 -24 0
1000000 38 -462 0
1000000 462 -822 -828 -820 -24 0
1000000 74 -463 0
1000000 463 -830 -833 -24 0
1000000 159 -464 0
1000000 464 -821 -25 0
1000000 27 -465 0
1000000 465 -832 -836 -25 0
1000000 29 -466 0
1000000 466 -835 -25 0
1000000 32 -467 0
1000000 467 -838 -839 -25 0
1000000 33 -468 0
1000000 468 -837 -25 0
1000000 37 -469 0
1000000 469 -841 -831 -25 0
1000000 33 -470 0
1000000 470 -843 -840 -845 -26 0
1000000 40 -471 0
1000000 471 -834 -26 0
1000000 28 -472 0
1000000 472 -844 -846 -27 0
1000000 29 -473 0
1000000 473 -850 -851 -27 0
1000000 33 -474 0
1000000 474 -855 -848 -853 -27 0
1000000 178 -475 0
1000000 475 -856 -859 -852 -28 0
1000000 187 -476 0
1000000 476 -860 -842 -857 -28 0
1000000 34 -477 0
1000000 477 -854 -28 0
1000000 39 -478 0
1000000 478 -863 -862 -858 -28 0
1000000 167 -479 0
1000000 479 -861 -847 -29 0
1000000 44 -480 0
1000000 480 -849 -865 -29 0
1000000 46 -481 0
1000000 481 -866 -29 0
1000000 191 -482 0
1000000 482 -868 -870 -867 -30 0
1000000 31 -483 0
1000000 483 -871 -864 -30 0
1000000 44 -484 0
1000000 484 -869 -875 -30 0
1000000 59 -485 0
1000000 485 -878 -876 -879 -30 0
1000000 188 -486 0
1000000 486 -880 -881 -4 0
1000000 22 -487 0
1000000 487 -872 -4 0
1000000 23 -488 0
1000000 488 -882 -877 -884 -4 0
1000000 24 -489 0
1000000 489 -874 -4 0
1000000 26 -490 0
1000000 490 -883 -4 0
1000000 30 -491 0
1000000 491 -873 -4 0
1000000 39 -492 0
1000000 492 -888 -889 -4 0
1000000 41 -493 0
1000000 493 -890 -892 -4 0
1000000 43 -494 0
1000000 494 -885 -894 -896 -4 0
1000000 6 -495 0
1000000 495 -887 -891 -898 -4 0
1000000 55 -496 0
1000000 496 -895 -893 -4 0
1000000 34 -497 0
1000000 497 -899 -897 -902 -31 0
1000000 36 -498 0
1000000 498 -900 -31 0
1000000 180 -499 0
1000000 499 -903 -32 0
1000000 38 -500 0
1000000 500 -901 -32 0
1000000 41 -501 0
1000000 501 -904 -905 -907 -32 0
1000000 34 -502 0
1000000 502 -910 -911 -33 0
1000000 37 -503 0
1000000 503 -913 -916 -909 -33 0
1000000 38 -504 0
1000000 504 -917 -915 -906 -33 0
1000000 118 -505 0
1000000 505 -886 -908 -34 0
1000000 172 -506 0
1000000 506 -921 -919 -34 0
1000000 38 -507 0
1000000 507 -926 -925 -914 -34 0
1000000 45 -508 0
1000000 508 -927 -920 -912 -34 0
1000000 48 -509 0
1000000 509 -918 -922 -34 0
1000000 39 -510 0
1000000 510 -928 -933 -934 -35 0
1000000 55 -511 0
1000000 511 -929 -35 0
1000000 72 -512 0
1000000 512 -930 -35 0
1000000 48 -513 0
1000000 513 -936 -931 -935 -36 0
1000000 56 -514 0
1000000 514 -939 -932 -36 0
1000000 39 -515 0
1000000 515 -942 -923 -941 -37 0
1000000 43 -516 0
1000000 516 -938 -37 0
1000000 40 -517 0
1000000 517 -946 -944 -937 -38 0
1000000 41 -518 0
1000000 518 -924 -38 0
1000000 42 -519 0
1000000 519 -948 -945 -38 0
1000000 51 -520 0
1000000 520 -943 -949 -38 0
1000000 41 -521 0
1000000 521 -951 -953 -956 -39 0
1000000 44 -522 0
1000000 522 -952 -940 -39 0
1000000 78 -523 0
1000000 523 -959 -947 -954 -39 0
1000000 175 -524 0
1000000 524 -950 -40 0
1000000 43 -525 0
1000000 525 -958 -40 0
1000000 44 -526 0
1000000 526 -957 -961 -40 0
1000000 49 -527 0
1000000 527 -964 -963 -40 0
1000000 58 -528 0
1000000 528 -962 -960 -968 -40 0
1000000 94 -529 0
1000000 529 -971 -966 -973 -40 0
1000000 11 -530 0
1000000 530 -972 -965 -5 0
1000000 101 -531 0
1000000 531 -955 -5 0
1000000 25 -532 0
1000000 532 -975 -970 -5 0
1000000 31 -533 0
1000000 533 -976 -969 -5 0
1000000 38 -534 0
1000000 534 -978 -981 -979 -5 0
1000000 47 -535 0
1000000 535 -974 -967 -754 -5 0
1000000 6 -536 0
1000000 536 -755 -753 -757 -5 0
1000000 42 -537 0
1000000 537 -758 -761 -752 -41 0
1000000 48 -538 0
1000000 538 -756 -759 -41 0
1000000 70 -539 0
1000000 539 -980 -41 0
1000000 52 -540 0
1000000 540 -760 -766 -767 -42 0
1000000 53 -541 0
1000000 541 -770 -765 -769 -42 0
1000000 61 -542 0
1000000 542 -763 -764 -42 0
1000000 66 -543 0
1000000 543 -772 -768 -42 0
1000000 69 -544 0
1000000 544 -777 -776 -773 -42 0
1000000 44 -545 0
1000000 545 -751 -43 0
1000000 52 -546 0
1000000 546 -771 -778 -43 0
1000000 65 -547 0
1000000 547 -774 -43 0
1000000 113 -548 0
1000000 548 -775 -44 0
1000000 123 -549 0
1000000 549 -762 -44 0
1000000 47 -550 0
1000000 550 -977 -786 -785 -44 0
1000000 48 -551 0
1000000 551 -783 -782 -44 0
1000000 54 -552 0
1000000 552 -784 -780 -788 -44 0
1000000 46 -553 0
1000000 553 -794 -791 -790 -45 0
1000000 50 -554 0
1000000 554 -781 -45 0
1000000 143 -555 0
1000000 555 -787 -46 0
1000000 48 -556 0
1000000 556 -779 -46 0
1000000 57 -557 0
1000000 557 -797 -789 -798 -46 0
1000000 87 -558 0
1000000 558 -802 -795 -803 -46 0
1000000 49 -559 0
1000000 559 -796 -47 0
1000000 62 -560 0
1000000 560 -800 -806 -807 -47 0
1000000 63 -561 0
1000000 561 -792 -793 -801 -47 0
1000000 80 -562 0
1000000 562 -804 -812 -810 -47 0
1000000 141 -563 0
1000000 563 -805 -48 0
1000000 189 -564 0
1000000 564 -816 -811 -809 -48 0
1000000 53 -565 0
1000000 565 -808 -48 0
1000000 57 -566 0
1000000 566 -813 -814 -818 -48 0
1000000 73 -567 0
1000000 567 -817 -799 -48 0
1000000 144 -568 0
1000000 568 -822 -815 -49 0
1000000 150 -569 0
1000000 569 -821 -49 0
1000000 55 -570 0
1000000 570 -819 -49 0
1000000 58 -571 0
1000000 571 -824 -826 -828 -49 0
1000000 126 -572 0
1000000 572 -823 -50 0
1000000 133 -573 0
1000000 573 -820 -50 0
1000000 53 -574 0
1000000 574 -831 -833 -825 -50 0
1000000 54 -575 0
1000000 575 -829 -830 -838 -50 0
1000000 19 -576 0
1000000 576 -840 -836 -841 -6 0
1000000 20 -577 0
1000000 577 -835 -832 -6 0
1000000 27 -578 0
1000000 578 -843 -837 -6 0
1000000 30 -579 0
1000000 579 -839 -6 0
1000000 8 -580 0
1000000 580 -844 -827 -6 0
1000000 82 -581 0
1000000 581 -845 -848 -6 0
1000000 53 -582 0
1000000 582 -842 -850 -847 -51 0
1000000 54 -583 0
1000000 583 -852 -834 -846 -51 0
1000000 60 -584 0
1000000 584 -854 -853 -851 -51 0
1000000 184 -585 0
1000000 585 -859 -858 -52 0
1000000 59 -586 0
1000000 586 -860 -855 -52 0
1000000 60 -587 0
1000000 587 -849 -857 -52 0
1000000 131 -588 0
1000000 588 -866 -861 -867 -53 0
1000000 54 -589 0
1000000 589 -862 -868 -53 0
1000000 59 -590 0
1000000 590 -856 -863 -869 -53 0
1000000 60 -591 0
1000000 591 -870 -871 -865 -54 0
1000000 61 -592 0
1000000 592 -872 -874 -54 0
1000000 84 -593 0
1000000 593 -878 -876 -864 -54 0
1000000 57 -594 0
1000000 594 -875 -873 -879 -55 0
1000000 61 -595 0
1000000 595 -881 -55 0
1000000 66 -596 0
1000000 596 -880 -883 -877 -55 0
1000000 98 -597 0
1000000 597 -884 -55 0
1000000 151 -598 0
1000000 598 -886 -56 0
1000000 59 -599 0
1000000 599 -888 -889 -56 0
1000000 67 -600 0
1000000 600 -890 -882 -56 0
1000000 81 -601 0
1000000 601 -895 -896 -894 -56 0
1000000 148 -602 0
1000000 602 -897 -893 -57 0
1000000 171 -603 0
1000000 603 -898 -887 -901 -57 0
1000000 179 -604 0
1000000 604 -892 -57 0
1000000 59 -605 0
1000000 605 -904 -899 -902 -57 0
1000000 61 -606 0
1000000 606 -905 -885 -909 -57 0
1000000 66 -607 0
1000000 607 -900 -57 0
1000000 99 -608 0
1000000 608 -891 -57 0
1000000 154 -609 0
1000000 609 -912 -908 -911 -58 0
1000000 62 -610 0
1000000 610 -907 -910 -906 -58 0
1000000 70 -611 0
1000000 611 -919 -914 -920 -58 0
1000000 71 -612 0
1000000 612 -903 -913 -58 0
1000000 121 -613 0
1000000 613 -917 -59 0
1000000 61 -614 0
1000000 614 -918 -915 -925 -59 0
1000000 63 -615 0
1000000 615 -921 -59 0
1000000 146 -616 0
1000000 616 -923 -922 -929 -60 0
1000000 61 -617 0
1000000 617 -924 -60 0
1000000 68 -618 0
1000000 618 -916 -60 0
1000000 11 -619 0
1000000 619 -932 -927 -7 0
1000000 14 -620 0
1000000 620 -930 -933 -7 0
1000000 16 -621 0
1000000 621 -934 -939 -931 -7 0
1000000 160 -622 0
1000000 622 -926 -7 0
1000000 161 -623 0
1000000 623 -936 -938 -7 0
1000000 50 -624 0
1000000 624 -937 -942 -7 0
1000000 56 -625 0
1000000 625 -928 -7 0
1000000 71 -626 0
1000000 626 -935 -947 -943 -7 0
1000000 62 -627 0
1000000 627 -945 -941 -61 0
1000000 63 -628 0
1000000 628 -946 -61 0
1000000 83 -629 0
1000000 629 -951 -954 -950 -61 0
1000000 65 -630 0
1000000 630 -952 -940 -62 0
1000000 72 -631 0
1000000 631 -959 -948 -956 -62 0
1000000 65 -632 0
1000000 632 -953 -944 -63 0
1000000 73 -633 0
1000000 633 -957 -63 0
1000000 117 -634 0
1000000 634 -955 -64 0
1000000 176 -635 0
1000000 635 -960 -64 0
1000000 73 -636 0
1000000 636 -961 -949 -64 0
1000000 74 -637 0
1000000 637 -958 -966 -64 0
1000000 79 -638 0
1000000 638 -963 -64 0
1000000 71 -639 0
1000000 639 -962 -964 -967 -65 0
1000000 72 -640 0
1000000 640 -968 -65 0
1000000 77 -641 0
1000000 641 -969 -66 0
1000000 81 -642 0
1000000 642 -972 -965 -66 0
1000000 135 -643 0
1000000 643 -970 -974 -67 0
1000000 68 -644 0
1000000 644 -975 -973 -67 0
1000000 73 -645 0
1000000 645 -979 -978 -980 -67 0
1000000 170 -646 0
1000000 646 -751 -753 -752 -68 0
1000000 72 -647 0
1000000 647 -977 -754 -68 0
1000000 74 -648 0
1000000 648 -757 -759 -981 -68 0
1000000 116 -649 0
1000000 649 -971 -755 -69 0
1000000 70 -650 0
1000000 650 -758 -976 -761 -69 0
1000000 71 -651 0
1000000 651 -762 -764 -763 -69 0
1000000 97 -652 0
1000000 652 -760 -765 -69 0
1000000 72 -653 0
1000000 653 -770 -767 -70 0
1000000 78 -654 0
1000000 654 -766 -775 -768 -70 0
1000000 12 -655 0
1000000 655 -773 -771 -8 0
1000000 14 -656 0
1000000 656 -769 -779 -777 -8 0
1000000 9 -657 0
1000000 657 -780 -774 -778 -8 0
1000000 10 -658 0
1000000 658 -785 -756 -786 -8 0
1000000 72 -659 0
1000000 659 -783 -782 -71 0
1000000 73 -660 0
1000000 660 -787 -781 -790 -71 0
1000000 76 -661 0
1000000 661 -784 -792 -791 -71 0
1000000 95 -662 0
1000000 662 -776 -72 0
1000000 99 -663 0
1000000 663 -788 -794 -72 0
1000000 74 -664 0
1000000 664 -795 -793 -73 0
1000000 75 -665 0
1000000 665 -799 -798 -73 0
1000000 79 -666 0
1000000 666 -772 -797 -74 0
1000000 81 -667 0
1000000 667 -789 -796 -803 -74 0
1000000 93 -668 0
1000000 668 -802 -74 0
1000000 77 -669 0
1000000 669 -806 -805 -75 0
1000000 80 -670 0
1000000 670 -809 -810 -800 -75 0
1000000 82 -671 0
1000000 671 -807 -76 0
1000000 86 -672 0
1000000 672 -811 -801 -76 0
1000000 100 -673 0
1000000 673 -813 -818 -816 -76 0
1000000 147 -674 0
1000000 674 -808 -77 0
1000000 81 -675 0
1000000 675 -812 -804 -77 0
1000000 87 -676 0
1000000 676 -815 -814 -77 0
1000000 81 -677 0
1000000 677 -821 -819 -78 0
1000000 84 -678 0
1000000 678 -817 -825 -78 0
1000000 85 -679 0
1000000 679 -823 -826 -78 0
1000000 84 -680 0
1000000 680 -829 -820 -79 0
1000000 88 -681 0
1000000 681 -828 -830 -79 0
1000000 88 -682 0
1000000 682 -831 -832 -80 0
1000000 89 -683 0
1000000 683 -824 -834 -80 0
1000000 129 -684 0
1000000 684 -827 -837 -9 0
1000000 15 -685 0
1000000 685 -839 -835 -822 -9 0
1000000 19 -686 0
1000000 686 -833 -9 0
1000000 10 -687 0
1000000 687 -836 -843 -845 -9 0
1000000 82 -688 0
1000000 688 -844 -841 -81 0
1000000 87 -689 0
1000000 689 -848 -842 -81 0
1000000 83 -690 0
1000000 690 -846 -838 -82 0
1000000 84 -691 0
1000000 691 -840 -82 0
1000000 86 -692 0
1000000 692 -853 -849 -852 -83 0
1000000 89 -693 0
1000000 693 -856 -847 -851 -83 0
1000000 93 -694 0
1000000 694 -855 -83 0
1000000 137 -695 0
1000000 695 -854 -84 0
1000000 89 -696 0
1000000 696 -850 -84 0
1000000 90 -697 0
1000000 697 -857 -859 -858 -84 0
1000000 89 -698 0
1000000 698 -868 -865 -867 -85 0
1000000 90 -699 0
1000000 699 -863 -871 -862 -85 0
1000000 104 -700 0
1000000 700 -872 -874 -861 -86 0
1000000 112 -701 0
1000000 701 -873 -864 -86 0
1000000 91 -702 0
1000000 702 -869 -86 0
1000000 89 -703 0
1000000 703 -860 -879 -880 -87 0
1000000 90 -704 0
1000000 704 -876 -875 -87 0
1000000 95 -705 0
1000000 705 -882 -866 -88 0
1000000 100 -706 0
1000000 706 -870 -88 0
1000000 139 -707 0
1000000 707 -884 -883 -887 -89 0
1000000 149 -708 0
1000000 708 -881 -89 0
1000000 169 -709 0
1000000 709 -889 -878 -885 -89 0
1000000 91 -710 0
1000000 710 -877 -89 0
1000000 92 -711 0
1000000 711 -893 -891 -896 -89 0
1000000 96 -712 0
1000000 712 -886 -898 -899 -89 0
1000000 101 -713 0
1000000 713 -902 -895 -897 -90 0
1000000 120 -714 0
1000000 714 -894 -900 -90 0
1000000 98 -715 0
1000000 715 -901 -903 -892 -90 0
1000000 11 -716 0
1000000 716 -890 -10 0
1000000 13 -717 0
1000000 717 -905 -907 -908 -10 0
1000000 17 -718 0
1000000 718 -906 -904 -10 0
1000000 22 -719 0
1000000 719 -910 -10 0
1000000 75 -720 0
1000000 720 -909 -888 -916 -10 0
1000000 92 -721 0
1000000 721 -913 -91 0
1000000 95 -722 0
1000000 722 -917 -912 -91 0
1000000 107 -723 0
1000000 723 -919 -918 -923 -92 0
1000000 115 -724 0
1000000 724 -922 -915 -92 0
1000000 128 -725 0
1000000 725 -920 -92 0
1000000 93 -726 0
1000000 726 -921 -92 0
1000000 101 -727 0
1000000 727 -925 -930 -924 -93 0
1000000 100 -728 0
1000000 728 -914 -926 -93 0
1000000 95 -729 0
1000000 729 -928 -94 0
1000000 96 -730 0
1000000 730 -911 -929 -94 0
1000000 102 -731 0
1000000 731 -932 -95 0
1000000 104 -732 0
1000000 732 -936 -931 -95 0
1000000 108 -733 0
1000000 733 -933 -95 0
1000000 101 -734 0
1000000 734 -935 -937 -96 0
1000000 97 -735 0
1000000 735 -927 -940 -934 -96 0
1000000 105 -736 0
1000000 736 -938 -945 -946 -97 0
1000000 119 -737 0
1000000 737 -948 -949 -939 -97 0
1000000 185 -738 0
1000000 738 -941 -942 -947 -97 0
1000000 190 -739 0
1000000 739 -956 -944 -943 -97 0
1000000 100 -740 0
1000000 740 -955 -953 -957 -97 0
1000000 106 -741 0
1000000 741 -951 -950 -98 0
1000000 100 -742 0
1000000 742 -954 -958 -98 0
1000000 101 -743 0
1000000 743 -961 -959 -99 0
1000000 105 -744 0
1000000 744 -962 -964 -99 0
1000000 110 -745 0
1000000 745 -960 -99 0
1000000 152 -746 0
1000000 746 -965 -99 0
1000000 101 -747 0
1000000 747 -963 -967 -100 0
1000000 109 -748 0
1000000 748 -966 -100 0
1000000 112 -749 0
1000000 749 -972 -970 -973 -100 0
1000000 153 -750 0
1000000 750 -952 -100 0
1000000 1 0
1000000 -2 192 0
1000000 -3 199 0
1000000 -4 201 448 0
1000000 -5 202 195 0
1000000 -6 495 536 449 0
1000000 -7 450 0
1000000 -8 196 451 580 0
1000000 -9 657 203 0
1000000 -10 687 658 0
1000000 -11 716 619 530 197 0
1000000 -12 655 0
1000000 -13 717 0
1000000 -14 620 194 656 0
1000000 -15 685 0
1000000 -16 269 621 0
1000000 -17 356 241 300 718 0
1000000 -18 270 301 0
1000000 -19 686 271 357 576 327 204 0
1000000 -20 577 242 302 432 0
1000000 -21 200 328 0
1000000 -22 243 407 487 382 719 0
1000000 -23 452 454 433 444 488 0
1000000 -24 408 272 455 489 0
1000000 -25 453 205 532 458 0
1000000 -26 490 459 0
1000000 -27 578 461 465 0
1000000 -28 383 472 0
1000000 -29 466 445 473 0
1000000 -30 491 358 579 0
1000000 -31 533 483 0
1000000 -32 467 0
1000000 -33 470 474 468 0
1000000 -34 502 497 477 0
1000000 -35 409 0
1000000 -36 384 498 244 0
1000000 -37 503 469 0
1000000 -38 507 500 534 504 462 0
1000000 -39 492 510 478 515 0
1000000 -40 471 517 0
1000000 -41 493 518 501 521 0
1000000 -42 245 519 537 0
1000000 -43 516 525 494 0
1000000 -44 545 522 206 480 526 484 0
1000000 -45 434 508 0
1000000 -46 553 481 410 0
1000000 -47 550 535 0
1000000 -48 513 538 509 556 551 0
1000000 -49 559 527 0
1000000 -50 624 554 0
1000000 -51 520 0
1000000 -52 546 540 0
1000000 -53 565 541 582 574 0
1000000 -54 589 575 552 583 0
1000000 -55 496 570 511 0
1000000 -56 514 625 0
1000000 -57 557 566 594 0
1000000 -58 528 571 0
1000000 -59 586 485 599 590 605 0
1000000 -60 591 587 584 0
1000000 -61 614 542 606 595 617 592 0
1000000 -62 610 627 560 0
1000000 -63 561 615 628 0
1000000 -64 456 0
1000000 -65 547 630 632 0
1000000 -66 607 543 596 0
1000000 -67 457 600 0
1000000 -68 385 644 618 0
1000000 -69 207 544 0
1000000 -70 611 539 650 0
1000000 -71 651 612 639 626 0
1000000 -72 631 647 653 659 512 640 0
1000000 -73 567 633 660 645 636 0
1000000 -74 463 648 664 637 0
1000000 -75 665 720 0
1000000 -76 661 0
1000000 -77 641 329 669 0
1000000 -78 654 523 0
1000000 -79 666 638 0
1000000 -80 670 562 0
1000000 -81 642 677 667 675 601 0
1000000 -82 671 581 688 0
1000000 -83 629 690 0
1000000 -84 593 691 680 678 0
1000000 -85 679 0
1000000 -86 672 692 208 0
1000000 -87 676 558 689 0
1000000 -88 682 681 386 0
1000000 -89 696 693 683 698 703 0
1000000 -90 704 699 697 246 0
1000000 -91 710 702 0
1000000 -92 721 711 446 0
1000000 -93 668 694 726 0
1000000 -94 529 0
1000000 -95 303 662 722 729 705 0
1000000 -96 712 730 0
1000000 -97 652 735 0
1000000 -98 715 597 0
1000000 -99 608 663 0
1000000 -100 673 728 706 740 742 0
1000000 -101 713 747 727 734 743 531 0
1000000 -102 431 731 0
1000000 -103 193 0
1000000 -104 297 700 732 0
1000000 -105 744 212 736 0
1000000 -106 213 741 352 0
1000000 -107 381 216 723 225 0
1000000 -108 733 0
1000000 -109 231 748 218 447 222 0
1000000 -110 232 745 219 0
1000000 -111 226 214 223 0
1000000 -112 749 701 209 0
1000000 -113 227 237 548 0
1000000 -114 353 217 0
1000000 -115 724 251 0
1000000 -116 238 253 228 247 649 252 255 0
1000000 -117 634 248 258 0
1000000 -118 249 505 259 0
1000000 -119 262 737 0
1000000 -120 714 263 260 234 0
1000000 -121 265 613 0
1000000 -122 229 235 266 273 233 0
1000000 -123 549 0
1000000 -124 239 261 0
1000000 -125 275 250 274 0
1000000 -126 210 572 0
1000000 -127 267 240 282 0
1000000 -128 725 254 283 0
1000000 -129 256 684 0
1000000 -130 460 286 276 0
1000000 -131 588 287 268 288 0
1000000 -132 220 278 284 0
1000000 -133 573 0
1000000 -134 221 0
1000000 -135 643 304 0
1000000 -136 279 224 0
1000000 -137 695 305 0
1000000 -138 309 215 307 311 294 0
1000000 -139 315 707 317 319 0
1000000 -140 318 280 298 295 289 277 0
1000000 -141 563 0
1000000 -142 330 285 320 0
1000000 -143 555 331 0
1000000 -144 281 308 568 322 332 0
1000000 -145 299 336 333 290 0
1000000 -146 291 616 337 338 0
1000000 -147 674 334 0
1000000 -148 313 323 310 602 343 324 341 0
1000000 -149 708 339 0
1000000 -150 335 325 321 569 0
1000000 -151 344 345 314 598 0
1000000 -152 746 342 350 0
1000000 -153 750 359 351 312 361 0
1000000 -154 360 609 0
1000000 -155 363 354 0
1000000 -156 264 0
1000000 -157 292 362 316 0
1000000 -158 365 367 355 0
1000000 -159 369 374 371 464 0
1000000 -160 622 372 347 346 0
1000000 -161 348 368 623 370 376 0
1000000 -162 364 326 378 366 0
1000000 -163 375 373 0
1000000 -164 306 377 0
1000000 -165 293 393 0
1000000 -166 379 296 0
1000000 -167 387 479 394 0
1000000 -168 389 349 0
1000000 -169 401 390 709 391 0
1000000 -170 399 646 0
1000000 -171 603 400 405 395 0
1000000 -172 397 506 411 0
1000000 -173 257 406 0
1000000 -174 211 388 396 415 0
1000000 -175 416 524 398 0
1000000 -176 635 402 0
1000000 -177 392 198 0
1000000 -178 421 413 419 475 412 0
1000000 -179 604 0
1000000 -180 423 499 403 0
1000000 -181 340 0
1000000 -182 422 417 380 0
1000000 -183 429 414 230 437 420 435 0
1000000 -184 425 418 585 0
1000000 -185 430 436 738 0
1000000 -186 404 236 440 438 0
1000000 -187 426 476 424 0
1000000 -188 439 486 441 0
1000000 -189 427 564 0
1000000 -190 443 428 442 739 0
1000000 -191 482 0
1000000 751 1030 0
1000000 752 1011 0
1000000 753 991 0
1000000 754 1048 0
1000000 755 1015 0
1000000 756 985 0
1000000 757 1032 0
1000000 758 1042 0
1000000 759 1017 0
1000000 760 1008 0
1000000 761 1021 0
1000000 762 1012 0
1000000 763 993 0
1000000 764 1016 0
1000000 765 995 0
1000000 766 1033 0
1000000 767 1014 0
1000000 768 1057 0
1000000 769 1012 0
1000000 770 1002 0
1000000 771 997 0
1000000 772 1030 0
1000000 773 1005 0
1000000 774 1004 0
1000000 775 1013 0
1000000 776 1050 0
1000000 777 1021 0
1000000 778 989 0
1000000 779 1001 0
1000000 780 1038 0
1000000 781 985 0
1000000 782 1032 0
1000000 783 999 0
1000000 784 1004 0
1000000 785 1016 0
1000000 786 1047 0
1000000 787 994 0
1000000 788 990 0
1000000 789 1019 0
1000000 790 1042 0
1000000 791 1029 0
1000000 792 1035 0
1000000 793 994 0
1000000 794 995 0
1000000 795 1007 0
1000000 796 1027 0
1000000 797 1025 0
1000000 798 1042 0
1000000 799 1051 0
1000000 800 1012 0
1000000 801 1051 0
1000000 802 1016 0
1000000 803 1045 0
1000000 804 1004 0
1000000 805 1007 0
1000000 806 1049 0
1000000 807 982 0
1000000 808 989 0
1000000 809 1038 0
1000000 810 1033 0
1000000 811 1037 0
1000000 812 1033 0
1000000 813 1036 0
1000000 814 992 0
1000000 815 998 0
1000000 816 1053 0
1000000 817 1010 0
1000000 818 1053 0
1000000 819 1044 0
1000000 820 996 0
1000000 821 1048 0
1000000 822 997 0
1000000 823 1000 0
1000000 824 998 0
1000000 825 1034 0
1000000 826 992 0
1000000 827 1044 0
1000000 828 1053 0
1000000 829 1035 0
1000000 830 986 0
1000000 831 1037 0
1000000 832 1045 0
1000000 833 1022 0
1000000 834 1054 0
1000000 835 1028 0
1000000 836 987 0
1000000 837 1027 0
1000000 838 1027 0
1000000 839 1017 0
1000000 840 985 0
1000000 841 1000 0
1000000 842 1018 0
1000000 843 1055 0
1000000 844 1018 0
1000000 845 1009 0
1000000 846 1055 0
1000000 847 1037 0
1000000 848 1025 0
1000000 849 1006 0
1000000 850 1008 0
1000000 851 1047 0
1000000 852 1045 0
1000000 853 982 0
1000000 854 1003 0
1000000 855 1041 0
1000000 856 993 0
1000000 857 1052 0
1000000 858 1046 0
1000000 859 1052 0
1000000 860 1028 0
1000000 861 986 0
1000000 862 1057 0
1000000 863 1014 0
1000000 864 984 0
1000000 865 1040 0
1000000 866 992 0
1000000 867 1010 0
1000000 868 1048 0
1000000 869 1010 0
1000000 870 989 0
1000000 871 1058 0
1000000 872 1002 0
1000000 873 1031 0
1000000 874 996 0
1000000 875 1019 0
1000000 876 1030 0
1000000 877 1006 0
1000000 878 1028 0
1000000 879 1031 0
1000000 880 1005 0
1000000 881 982 0
1000000 882 1055 0
1000000 883 1008 0
1000000 884 1002 0
1000000 885 1054 0
1000000 886 1011 0
1000000 887 993 0
1000000 888 1021 0
1000000 889 1035 0
1000000 890 1019 0
1000000 891 1011 0
1000000 892 1050 0
1000000 893 999 0
1000000 894 994 0
1000000 895 1003 0
1000000 896 1003 0
1000000 897 1041 0
1000000 898 1014 0
1000000 899 1058 0
1000000 900 1047 0
1000000 901 1025 0
1000000 902 1022 0
1000000 903 1043 0
1000000 904 996 0
1000000 905 1043 0
1000000 906 1020 0
1000000 907 1009 0
1000000 908 986 0
1000000 909 1029 0
1000000 910 995 0
1000000 911 988 0
1000000 912 1034 0
1000000 913 1043 0
1000000 914 1056 0
1000000 915 1015 0
1000000 916 1057 0
1000000 917 1058 0
1000000 918 1031 0
1000000 919 984 0
1000000 920 984 0
1000000 921 991 0
1000000 922 1013 0
1000000 923 997 0
1000000 924 1056 0
1000000 925 1006 0
1000000 926 1024 0
1000000 927 1022 0
1000000 928 1040 0
1000000 929 1015 0
1000000 930 1032 0
1000000 931 1044 0
1000000 932 1038 0
1000000 933 1056 0
1000000 934 1026 0
1000000 935 1024 0
1000000 936 1001 0
1000000 937 1039 0
1000000 938 1007 0
1000000 939 983 0
1000000 940 1026 0
1000000 941 990 0
1000000 942 1013 0
1000000 943 1009 0
1000000 944 991 0
1000000 945 1017 0
1000000 946 990 0
1000000 947 983 0
1000000 948 1026 0
1000000 949 1036 0
1000000 950 999 0
1000000 951 998 0
1000000 952 1041 0
1000000 953 1050 0
1000000 954 988 0
1000000 955 1023 0
1000000 956 1040 0
1000000 957 1001 0
1000000 958 1039 0
1000000 959 1039 0
1000000 960 1018 0
1000000 961 1046 0
1000000 962 1054 0
1000000 963 1034 0
1000000 964 1049 0
1000000 965 988 0
1000000 966 1024 0
1000000 967 1023 0
1000000 968 1046 0
1000000 969 1005 0
1000000 970 1052 0
1000000 971 983 0
1000000 972 1049 0
1000000 973 1036 0
1000000 974 1051 0
1000000 975 1029 0
1000000 976 987 0
1000000 977 987 0
1000000 978 1023 0
1000000 979 1020 0
1000000 980 1000 0
1000000 981 1020 0
1000000 -751 -1030 0
1000000 -752 -1011 0
1000000 -753 -991 0
1000000 -754 -1048 0
1000000 -755 -1015 0
1000000 -756 -985 0
1000000 -757 -1032 0
1000000 -758 -1042 0
1000000 -759 -1017 0
1000000 -760 -1008 0
1000000 -761 -1021 0
1000000 -762 -1012 0
1000000 -763 -993 0
1000000 -764 -1016 0
1000000 -765 -995 0
1000000 -766 -1033 0
1000000 -767 -1014 0
1000000 -768 -1057 0
1000000 -769 -1012 0
1000000 -770 -1002 0
1000000 -771 -997 0
1000000 -772 -1030 0
1000000 -773 -1005 0
1000000 -774 -1004 0
1000000 -775 -1013 0
1000000 -776 -1050 0
1000000 -777 -1021 0
1000000 -778 -989 0
1000000 -779 -1001 0
1000000 -780 -1038 0
1000000 -781 -985 0
1000000 -782 -1032 0
1000000 -783 -999 0
1000000 -784 -1004 0
1000000 -785 -1016 0
1000000 -786 -1047 0
1000000 -787 -994 0
1000000 -788 -990 0
1000000 -789 -1019 0
1000000 -790 -1042 0
1000000 -791 -1029 0
1000000 -792 -1035 0
1000000 -793 -994 0
1000000 -794 -995 0
1000000 -795 -1007 0
1000000 -796 -1027 0
1000000 -797 -1025 0
1000000 -798 -1042 0
1000000 -799 -1051 0
1000000 -800 -1012 0
1000000 -801 -1051 0
1000000 -802 -1016 0
1000000 -803 -1045 0
1000000 -804 -1004 0
1000000 -805 -1007 0
1000000 -806 -1049 0
1000000 -807 -982 0
1000000 -808 -989 0
1000000 -809 -1038 0
1000000 -810 -1033 0
1000000 -811 -1037 0
1000000 -812 -1033 0
1000000 -813 -1036 0
1000000 -814 -992 0
1000000 -815 -998 0
1000000 -816 -1053 0
1000000 -817 -1010 0
1000000 -818 -1053 0
1000000 -819 -1044 0
1000000 -820 -996 0
1000000 -821 -1048 0
1000000 -822 -997 0
1000000 -823 -1000 0
1000000 -824 -998 0
1000000 -825 -1034 0
1000000 -826 -992 0
1000000 -827 -1044 0
1000000 -828 -1053 0
1000000 -829 -1035 0
1000000 -830 -986 0
1000000 -831 -1037 0
1000000 -832 -1045 0
1000000 -833 -1022 0
1000000 -834 -1054 0
1000000 -835 -1028 0
1000000 -836 -987 0
1000000 -837 -1027 0
1000000 -838 -1027 0
1000000 -839 -1017 0
1000000 -840 -985 0
1000000 -841 -1000 0
1000000 -842 -1018 0
1000000 -843 -1055 0
1000000 -844 -1018 0
1000000 -845 -1009 0
1000000 -846 -1055 0
1000000 -847 -1037 0
1000000 -848 -1025 0
1000000 -849 -1006 0
1000000 -850 -1008 0
1000000 -851 -1047 0
1000000 -852 -1045 0
1000000 -853 -982 0
1000000 -854 -1003 0
1000000 -855 -1041 0
1000000 -856 -993 0
1000000 -857 -1052 0
1000000 -858 -1046 0
1000000 -859 -1052 0
1000000 -860 -1028 0
1000000 -861 -986 0
1000000 -862 -1057 0
1000000 -863 -1014 0
1000000 -864 -984 0
1000000 -865 -1040 0
1000000 -866 -992 0
1000000 -867 -1010 0
1000000 -868 -1048 0
1000000 -869 -1010 0
1000000 -870 -989 0
1000000 -871 -1058 0
1000000 -872 -1002 0
1000000 -873 -1031 0
1000000 -874 -996 0
1000000 -875 -1019 0
1000000 -876 -1030 0
1000000 -877 -1006 0
1000000 -878 -1028 0
1000000 -879 -1031 0
1000000 -880 -1005 0
1000000 -881 -982 0
1000000 -882 -1055 0
1000000 -883 -1008 0
1000000 -884 -1002 0
1000000 -885 -1054 0
1000000 -886 -1011 0
1000000 -887 -993 0
1000000 -888 -1021 0
1000000 -889 -1035 0
1000000 -890 -1019 0
1000000 -891 -1011 0
1000000 -892 -1050 0
1000000 -893 -999 0
1000000 -894 -994 0
1000000 -895 -1003 0
1000000 -896 -1003 0
1000000 -897 -1041 0
1000000 -898 -1014 0
1000000 -899 -1058 0
1000000 -900 -1047 0
1000000 -901 -1025 0
1000000 -902 -1022 0
1000000 -903 -1043 0
1000000 -904 -996 0
1000000 -905 -1043 0
1000000 -906 -1020 0
1000000 -907 -1009 0
1000000 -908 -986 0
1000000 -909 -1029 0
1000000 -910 -995 0
1000000 -911 -988 0
1000000 -912 -1034 0
1000000 -913 -1043 0
1000000 -914 -1056 0
1000000 -915 -1015 0
1000000 -916 -1057 0
1000000 -917 -1058 0
1000000 -918 -1031 0
1000000 -919 -984 0
1000000 -920 -984 0
1000000 -921 -991 0
1000000 -922 -1013 0
1000000 -923 -997 0
1000000 -924 -1056 0
1000000 -925 -1006 0
1000000 -926 -1024 0
1000000 -927 -1022 0
1000000 -928 -1040 0
1000000 -929 -1015 0
1000000 -930 -1032 0
1000000 -931 -1044 0
1000000 -932 -1038 0
1000000 -933 -1056 0
1000000 -934 -1026 0
1000000 -935 -1024 0
1000000 -936 -1001 0
1000000 -937 -1039 0
1000000 -938 -1007 0
1000000 -939 -983 0
1000000 -940 -1026 0
1000000 -941 -990 0
1000000 -942 -1013 0
1000000 -943 -1009 0
1000000 -944 -991 0
1000000 -945 -1017 0
1000000 -946 -990 0
1000000 -947 -983 0
1000000 -948 -1026 0
1000000 -949 -1036 0
1000000 -950 -999 0
1000000 -951 -998 0
1000000 -952 -1041 0
1000000 -953 -1050 0
1000000 -954 -988 0
1000000 -955 -1023 0
1000000 -956 -1040 0
1000000 -957 -1001 0
1000000 -958 -1039 0
1000000 -959 -1039 0
1000000 -960 -1018 0
1000000 -961 -1046 0
1000000 -962 -1054 0
1000000 -963 -1034 0
1000000 -964 -1049 0
1000000 -965 -988 0
1000000 -966 -1024 0
1000000 -967 -1023 0
1000000 -968 -1046 0
1000000 -969 -1005 0
1000000 -970 -1052 0
1000000 -971 -983 0
1000000 -972 -1049 0
1000000 -973 -1036 0
1000000 -974 -1051 0
1000000 -975 -1029 0
1000000 -976 -987 0
1000000 -977 -987 0
1000000 -978 -1023 0
1000000 -979 -1020 0
1000000 -980 -1000 0
1000000 -981 -1020 0
12200 -982 0
7600 -983 0
7600 -984 0
10100 -985 0
12800 -986 0
11500 -987 0
12800 -988 0
12800 -989 0
13900 -990 0
11300 -991 0
12800 -992 0
10100 -993 0
12500 -994 0
12800 -995 0
12200 -996 0
11500 -997 0
12200 -998 0
14200 -999 0
12200 -1000 0
11300 -1001 0
11300 -1002 0
11500 -1003 0
11500 -1004 0
11500 -1005 0
13100 -1006 0
13300 -1007 0
10700 -1008 0
13100 -1009 0
8300 -1010 0
11500 -1011 0
11300 -1012 0
11500 -1013 0
13100 -1014 0
12200 -1015 0
10100 -1016 0
12200 -1017 0
11500 -1018 0
7600 -1019 0
7600 -1020 0
10100 -1021 0
12200 -1022 0
11500 -1023 0
12200 -1024 0
11500 -1025 0
11500 -1026 0
13100 -1027 0
13100 -1028 0
11500 -1029 0
12800 -1030 0
12800 -1031 0
10100 -1032 0
10700 -1033 0
12200 -1034 0
8300 -1035 0
12200 -1036 0
11500 -1037 0
13100 -1038 0
13100 -1039 0
13100 -1040 0
7600 -1041 0
11300 -1042 0
13100 -1043 0
10100 -1044 0
11500 -1045 0
13100 -1046 0
12800 -1047 0
11500 -1048 0
11500 -1049 0
13100 -1050 0
12200 -1051 0
7600 -1052 0
12200 -1053 0
8300 -1054 0
12200 -1055 0
10700 -1056 0
12200 -1057 0
7600 -1058 0
2500 751 0
2700 752 0
2700 753 0
3100 754 0
2800 755 0
1300 756 0
1300 757 0
3100 758 0
2800 759 0
3100 760 0
3100 761 0
2700 762 0
3900 763 0
1300 764 0
3300 765 0
2300 766 0
2800 767 0
2300 768 0
1300 769 0
3100 770 0
2700 771 0
2700 772 0
3100 773 0
2300 774 0
1100 775 0
2800 776 0
3300 777 0
2700 778 0
3100 779 0
1100 780 0
2500 781 0
2000 782 0
2500 783 0
2000 784 0
2700 785 0
2700 786 0
2500 787 0
2500 788 0
2900 789 0
2500 790 0
2300 791 0
1000 792 0
2400 793 0
1000 794 0
1000 795 0
2800 796 0
2700 797 0
2500 798 0
3300 799 0
2900 800 0
2300 801 0
2700 802 0
2700 803 0
3300 804 0
2400 805 0
3300 806 0
2300 807 0
2400 808 0
2800 809 0
3100 810 0
3300 811 0
2400 812 0
3300 813 0
2700 814 0
2500 815 0
2000 816 0
2400 817 0
2700 818 0
2700 819 0
2800 820 0
2900 821 0
2300 822 0
2400 823 0
1000 824 0
2000 825 0
1000 826 0
3300 827 0
2800 828 0
1000 829 0
2000 830 0
2400 831 0
3300 832 0
2000 833 0
2500 834 0
1100 835 0
2800 836 0
2000 837 0
2500 838 0
2000 839 0
2900 840 0
3300 841 0
2400 842 0
1100 843 0
1300 844 0
3300 845 0
2800 846 0
2300 847 0
3300 848 0
1000 849 0
2900 850 0
3300 851 0
1000 852 0
1100 853 0
2400 854 0
2700 855 0
2300 856 0
2900 857 0
1000 858 0
2400 859 0
2400 860 0
3300 861 0
1000 862 0
1000 863 0
2700 864 0
2900 865 0
2800 866 0
2400 867 0
2500 868 0
2500 869 0
2600 870 0
1100 871 0
2700 872 0
1000 873 0
2800 874 0
1000 875 0
2000 876 0
2900 877 0
1800 878 0
2500 879 0
1000 880 0
2500 881 0
2800 882 0
2400 883 0
1000 884 0
1000 885 0
900 886 0
2800 887 0
2400 888 0
2000 889 0
2800 890 0
2300 891 0
2400 892 0
2500 893 0
2900 894 0
1100 895 0
3300 896 0
2700 897 0
3300 898 0
2400 899 0
2000 900 0
2700 901 0
2700 902 0
2800 903 0
2700 904 0
2700 905 0
2800 906 0
2000 907 0
2900 908 0
2400 909 0
2900 910 0
2900 911 0
2300 912 0
2400 913 0
1100 914 0
2800 915 0
2400 916 0
1100 917 0
1100 918 0
2700 919 0
2300 920 0
2400 921 0
3300 922 0
1100 923 0
2800 924 0
2700 925 0
1100 926 0
2700 927 0
1100 928 0
2400 929 0
3900 930 0
1100 931 0
1100 932 0
1300 933 0
2900 934 0
2300 935 0
3300 936 0
3300 937 0
2500 938 0
900 939 0
1100 940 0
2900 941 0
2700 942 0
2500 943 0
2500 944 0
1000 945 0
2000 946 0
1000 947 0
1100 948 0
1100 949 0
2400 950 0
3300 951 0
2300 952 0
2000 953 0
2500 954 0
2800 955 0
2000 956 0
2000 957 0
2900 958 0
3300 959 0
2500 960 0
1100 961 0
2400 962 0
3300 963 0
2400 964 0
2700 965 0
2700 966 0
1100 967 0
3300 968 0
2300 969 0
1100 970 0
2700 971 0
3300 972 0
3300 973 0
2700 974 0
1100 975 0
1100 976 0
2700 977 0
1100 978 0
3300 979 0
2900 980 0
2300 981 0
4830 -192 0
42640 -199 0
4120 201 -448 0
4635 -201 448 0
6901 -201 -448 0
3420 202 -195 0
3150 -202 195 0
5373 -202 -195 0
3296 495 536 -449 0
4120 495 -536 449 0
6098 495 -536 -449 0
3090 -495 536 449 0
5397 -495 536 -449 0
5974 -495 -536 449 0
7358 -495 -536 -449 0
14240 -450 0
11520 196 451 -580 0
25920 196 -451 580 0
32256 196 -451 -580 0
2880 -196 451 580 0
13824 -196 451 -580 0
27504 -196 -451 580 0
33523 -196 -451 -580 0
6954 657 -203 0
5856 -657 203 0
10585 -657 -203 0
3504 687 -658 0
10220 -687 658 0
12498 -687 -658 0
9785 716 619 530 -197 0
8755 716 619 -530 197 0
10223 716 619 -530 -197 0
5150 716 -619 530 197 0
10042 716 -619 530 -197 0
9528 716 -619 -530 197 0
10261 716 -619 -530 -197 0
9785 -716 619 530 197 0
10274 -716 619 530 -197 0
10223 -716 619 -530 197 0
10296 -716 619 -530 -197 0
10042 -716 -619 530 197 0
10287 -716 -619 530 -197 0
10261 -716 -619 -530 197 0
10298 -716 -619 -530 -197 0
26280 -655 0
15850 -717 0
2250 620 194 -656 0
900 620 -194 656 0
2925 620 -194 -656 0
4050 -620 194 656 0
5287 -620 194 -656 0
4545 -620 -194 656 0
5659 -620 -194 -656 0
2240 -685 0
7385 269 -621 0
6752 -269 621 0
11774 -269 -621 0
206 356 241 300 -718 0
1030 356 241 -300 718 0
1215 356 241 -300 -718 0
8755 356 -241 300 718 0
8786 356 -241 300 -718 0
8909 356 -241 -300 718 0
8937 356 -241 -300 -718 0
206 -356 241 300 718 0
408 -356 241 300 -718 0
1215 -356 241 -300 718 0
1397 -356 241 -300 -718 0
8786 -356 -241 300 718 0
8816 -356 -241 300 -718 0
8937 -356 -241 -300 718 0
8965 -356 -241 -300 -718 0
7320 270 -301 0
13725 -270 301 0
15555 -270 -301 0
45990 686 271 357 576 327 -204 0
21024 686 271 357 576 -327 204 0
52297 686 271 357 576 -327 -204 0
55845 686 271 357 -576 327 204 0
62743 686 271 357 -576 327 -204 0
58999 686 271 357 -576 -327 204 0
63690 686 271 357 -576 -327 -204 0
26280 686 271 -357 576 327 204 0
53874 686 271 -357 576 327 -204 0
38894 686 271 -357 576 -327 204 0
57658 686 271 -357 576 -327 -204 0
59787 686 271 -357 -576 327 204 0
63926 686 271 -357 -576 327 -204 0
61679 686 271 -357 -576 -327 204 0
64494 686 271 -357 -576 -327 -204 0
62415 686 -271 357 576 327 204 0
64714 686 -271 357 576 327 -204 0
63466 686 -271 357 576 -327 204 0
65030 686 -271 357 576 -327 -204 0
65207 686 -271 357 -576 327 204 0
65552 686 -271 357 -576 327 -204 0
65365 686 -271 357 -576 -327 204 0
65599 686 -271 357 -576 -327 -204 0
63729 686 -271 -357 576 327 204 0
65109 686 -271 -357 576 327 -204 0
64360 686 -271 -357 576 -327 204 0
65298 686 -271 -357 576 -327 -204 0
65404 686 -271 -357 -576 327 204 0
65611 686 -271 -357 -576 327 -204 0
65499 686 -271 -357 -576 -327 204 0
65640 686 -271 -357 -576 -327 -204 0
32850 -686 271 357 576 327 204 0
55845 -686 271 357 576 327 -204 0
43362 -686 271 357 576 -327 204 0
58999 -686 271 357 576 -327 -204 0
60773 -686 271 357 -576 327 204 0
64222 -686 271 357 -576 327 -204 0
62349 -686 271 357 -576 -327 204 0
64695 -686 271 357 -576 -327 -204 0
45990 -686 271 -357 576 327 204 0
59787 -686 271 -357 576 327 -204 0
52297 -686 271 -357 576 -327 204 0
61679 -686 271 -357 576 -327 -204 0
62743 -686 271 -357 -576 327 204 0
64813 -686 271 -357 -576 327 -204 0
63690 -686 271 -357 -576 -327 204 0
65097 -686 271 -357 -576 -327 -204 0
64057 -686 -271 357 576 327 204 0
65207 -686 -271 357 576 327 -204 0
64583 -686 -271 357 576 -327 204 0
65365 -686 -271 357 576 -327 -204 0
65454 -686 -271 357 -576 327 204 0
65626 -686 -271 357 -576 327 -204 0
65532 -686 -271 357 -576 -327 204 0
65650 -686 -271 357 -576 -327 -204 0
64714 -686 -271 -357 576 327 204 0
65404 -686 -271 -357 576 327 -204 0
65030 -686 -271 -357 576 -327 204 0
65499 -686 -271 -357 576 -327 -204 0
65552 -686 -271 -357 -576 327 204 0
65656 -686 -271 -357 -576 327 -204 0
65599 -686 -271 -357 -576 -327 204 0
65670 -686 -271 -357 -576 -327 -204 0
24928 577 242 302 -432 0
20992 577 242 -302 432 0
37943 577 242 -302 -432 0
26240 577 -242 302 432 0
41197 577 -242 302 -432 0
38835 577 -242 -302 432 0
49006 577 -242 -302 -432 0
19680 -577 242 302 432 0
37130 -577 242 302 -432 0
34374 -577 242 -302 432 0
46240 -577 242 -302 -432 0
38048 -577 -242 302 432 0
48518 -577 -242 302 -432 0
46865 -577 -242 -302 432 0
53984 -577 -242 -302 -432 0
3914 200 -328 0
1236 -200 328 0
4680 -200 -328 0
9520 243 407 487 382 -719 0
3920 243 407 487 -382 719 0
10108 243 407 487 -382 -719 0
7280 243 407 -487 382 719 0
10612 243 407 -487 382 -719 0
8652 243 407 -487 -382 719 0
10818 243 407 -487 -382 -719 0
10080 243 -407 487 382 719 0
11032 243 -407 487 382 -719 0
10472 243 -407 487 -382 719 0
11091 243 -407 487 -382 -719 0
10808 243 -407 -487 382 719 0
11141 243 -407 -487 382 -719 0
10945 243 -407 -487 -382 719 0
11162 243 -407 -487 -382 -719 0
4480 -243 407 487 382 719 0
10192 -243 407 487 382 -719 0
6832 -243 407 487 -382 719 0
10545 -243 407 487 -382 -719 0
8848 -243 407 -487 382 719 0
10847 -243 407 -487 382 -719 0
9671 -243 407 -487 -382 719 0
10971 -243 407 -487 -382 -719 0
10528 -243 -407 487 382 719 0
11099 -243 -407 487 382 -719 0
10763 -243 -407 487 -382 719 0
11134 -243 -407 487 -382 -719 0
10965 -243 -407 -487 382 719 0
11165 -243 -407 -487 382 -719 0
11047 -243 -407 -487 -382 719 0
11177 -243 -407 -487 -382 -719 0
52560 452 454 433 444 -488 0
49275 452 454 433 -444 488 0
62415 452 454 433 -444 -488 0
6570 452 454 -433 444 488 0
53874 452 454 -433 444 -488 0
50918 452 454 -433 -444 488 0
62743 452 454 -433 -444 -488 0
62415 452 -454 433 444 488 0
65043 452 -454 433 444 -488 0
64879 452 -454 433 -444 488 0
65536 452 -454 433 -444 -488 0
62743 452 -454 -433 444 488 0
65109 452 -454 -433 444 -488 0
64961 452 -454 -433 -444 488 0
65552 452 -454 -433 -444 -488 0
32850 -452 454 433 444 488 0
59130 -452 454 433 444 -488 0
57488 -452 454 433 -444 488 0
64057 -452 454 433 -444 -488 0
36135 -452 454 -433 444 488 0
59787 -452 454 -433 444 -488 0
58309 -452 454 -433 -444 488 0
64222 -452 454 -433 -444 -488 0
64057 -452 -454 433 444 488 0
65372 -452 -454 433 444 -488 0
65289 -452 -454 433 -444 488 0
65618 -452 -454 433 -444 -488 0
64222 -452 -454 -433 444 488 0
65404 -452 -454 -433 444 -488 0
65330 -452 -454 -433 -444 488 0
65626 -452 -454 -433 -444 -488 0
30115 408 272 455 -489 0
30115 408 272 -455 489 0
31621 408 272 -455 -489 0
28530 408 -272 455 489 0
31542 408 -272 455 -489 0
31542 408 -272 -455 489 0
31692 408 -272 -455 -489 0
30115 -408 272 455 489 0
31621 -408 272 455 -489 0
31621 -408 272 -455 489 0
31696 -408 272 -455 -489 0
31542 -408 -272 455 489 0
31692 -408 -272 455 -489 0
31692 -408 -272 -455 489 0
31700 -408 -272 -455 -489 0
1030 453 205 532 -458 0
6180 453 205 -532 458 0
6592 453 205 -532 -458 0
5150 453 -205 532 458 0
5665 453 -205 532 -458 0
8240 453 -205 -532 458 0
8446 453 -205 -532 -458 0
1854 -453 205 532 458 0
2699 -453 205 532 -458 0
6922 -453 205 -532 458 0
7259 -453 205 -532 -458 0
6077 -453 -205 532 458 0
6499 -453 -205 532 -458 0
8611 -453 -205 -532 458 0
8780 -453 -205 -532 -458 0
7562 490 -459 0
9950 -490 459 0
13731 -490 -459 0
52560 578 461 -465 0
11826 578 -461 465 0
54925 578 -461 -465 0
62415 -578 461 465 0
65043 -578 461 -465 0
63006 -578 -461 465 0
65161 -578 -461 -465 0
36135 383 -472 0
7884 -383 472 0
39683 -383 -472 0
5040 466 445 -473 0
560 466 -445 473 0
5348 466 -445 -473 0
224 -466 445 473 0
5163 -466 445 -473 0
773 -466 -445 473 0
5465 -466 -445 -473 0
32040 491 358 -579 0
24920 491 -358 579 0
45746 491 -358 -579 0
21360 -491 358 579 0
43788 -491 358 -579 0
38804 -491 -358 579 0
53382 -491 -358 -579 0
206 533 -483 0
515 -533 483 0
711 -533 -483 0
7280 -467 0
11095 470 474 -468 0
5706 470 -474 468 0
14804 470 -474 -468 0
11095 -470 474 468 0
18307 -470 474 -468 0
14804 -470 -474 468 0
20718 -470 -474 -468 0
3285 502 497 -477 0
62415 502 -497 477 0
62579 502 -497 -477 0
62415 -502 497 477 0
62579 -502 497 -477 0
65536 -502 -497 477 0
65544 -502 -497 -477 0
13930 -409 0
995 384 498 -244 0
12935 384 -498 244 0
13283 384 -498 -244 0
7960 -384 498 244 0
8557 -384 498 -244 0
15721 -384 -498 244 0
15930 -384 -498 -244 0
4480 503 -469 0
6720 -503 469 0
8512 -503 -469 0
206 507 500 534 504 -462 0
7725 507 500 534 -504 462 0
7777 507 500 534 -504 -462 0
4120 507 500 -534 504 462 0
4244 507 500 -534 504 -462 0
8755 507 500 -534 -504 462 0
8786 507 500 -534 -504 -462 0
7210 507 -500 534 504 462 0
7272 507 -500 534 504 -462 0
9528 507 -500 534 -504 462 0
9543 507 -500 534 -504 -462 0
8446 507 -500 -534 504 462 0
8483 507 -500 -534 504 -462 0
9836 507 -500 -534 -504 462 0
9846 507 -500 -534 -504 -462 0
3605 -507 500 534 504 462 0
3739 -507 500 534 504 -462 0
8626 -507 500 534 -504 462 0
8660 -507 500 534 -504 -462 0
6283 -507 500 -534 504 462 0
6363 -507 500 -534 504 -462 0
9296 -507 500 -534 -504 462 0
9316 -507 500 -534 -504 -462 0
8291 -507 -500 534 504 462 0
8332 -507 -500 534 504 -462 0
9798 -507 -500 534 -504 462 0
9808 -507 -500 534 -504 -462 0
9095 -507 -500 -534 504 462 0
9119 -507 -500 -534 504 -462 0
9999 -507 -500 -534 -504 462 0
10005 -507 -500 -534 -504 -462 0
5600 492 510 478 -515 0
1344 492 510 -478 515 0
6272 492 510 -478 -515 0
8960 492 -510 478 515 0
10080 492 -510 478 -515 0
9229 492 -510 -478 515 0
10214 492 -510 -478 -515 0
1680 -492 510 478 515 0
6440 -492 510 478 -515 0
2822 -492 510 -478 515 0
7011 -492 510 -478 -515 0
9296 -492 -510 478 515 0
10248 -492 -510 478 -515 0
9524 -492 -510 -478 515 0
10362 -492 -510 -478 -515 0
49275 471 -517 0
11826 -471 517 0
52231 -471 -517 0
16915 493 518 501 -521 0
7562 493 518 -501 521 0
18049 493 518 -501 -521 0
398 493 -518 501 521 0
16975 493 -518 501 -521 0
7809 493 -518 -501 521 0
18086 493 -518 -501 -521 0
6965 -493 518 501 521 0
17960 -493 518 501 -521 0
11880 -493 518 -501 521 0
18697 -493 518 -501 -521 0
7224 -493 -518 501 521 0
17999 -493 -518 501 -521 0
12041 -493 -518 -501 521 0
18721 -493 -518 -501 -521 0
35600 245 519 -537 0
49840 245 -519 537 0
60520 245 -519 -537 0
1424 -245 519 537 0
36312 -245 519 -537 0
50267 -245 -519 537 0
60734 -245 -519 -537 0
17800 516 525 -494 0
1424 516 -525 494 0
18868 516 -525 -494 0
42720 -516 525 494 0
49840 -516 525 -494 0
43290 -516 -525 494 0
50267 -516 -525 -494 0
10080 545 522 206 480 526 -484 0
224 545 522 206 480 -526 484 0
10102 545 522 206 480 -526 -484 0
8960 545 522 206 -480 526 484 0
10976 545 522 206 -480 526 -484 0
9005 545 522 206 -480 -526 484 0
10980 545 522 206 -480 -526 -484 0
3584 545 522 -206 480 526 484 0
10438 545 522 -206 480 526 -484 0
3736 545 522 -206 480 -526 484 0
10454 545 522 -206 480 -526 -484 0
9677 545 522 -206 -480 526 484 0
11048 545 522 -206 -480 526 -484 0
9707 545 522 -206 -480 -526 484 0
11051 545 522 -206 -480 -526 -484 0
224 545 -522 206 480 526 484 0
10102 545 -522 206 480 526 -484 0
444 545 -522 206 480 -526 484 0
10124 545 -522 206 480 -526 -484 0
9005 545 -522 206 -480 526 484 0
10980 545 -522 206 -480 526 -484 0
9049 545 -522 206 -480 -526 484 0
10985 545 -522 206 -480 -526 -484 0
3736 545 -522 -206 480 526 484 0
10454 545 -522 -206 480 526 -484 0
3886 545 -522 -206 480 -526 484 0
10469 545 -522 -206 480 -526 -484 0
9707 545 -522 -206 -480 526 484 0
11051 545 -522 -206 -480 526 -484 0
9737 545 -522 -206 -480 -526 484 0
11054 545 -522 -206 -480 -526 -484 0
1120 -545 522 206 480 526 484 0
10192 -545 522 206 480 526 -484 0
1322 -545 522 206 480 -526 484 0
10212 -545 522 206 480 -526 -484 0
9184 -545 522 206 -480 526 484 0
10998 -545 522 206 -480 526 -484 0
9224 -545 522 206 -480 -526 484 0
11002 -545 522 206 -480 -526 -484 0
4346 -545 522 -206 480 526 484 0
10515 -545 522 -206 480 526 -484 0
4483 -545 522 -206 480 -526 484 0
10528 -545 522 -206 480 -526 -484 0
9829 -545 522 -206 -480 526 484 0
11063 -545 522 -206 -480 526 -484 0
9857 -545 522 -206 -480 -526 484 0
11066 -545 522 -206 -480 -526 -484 0
1322 -545 -522 206 480 526 484 0
10212 -545 -522 206 480 526 -484 0
1519 -545 -522 206 480 -526 484 0
10232 -545 -522 206 480 -526 -484 0
9224 -545 -522 206 -480 526 484 0
11002 -545 -522 206 -480 526 -484 0
9264 -545 -522 206 -480 -526 484 0
11006 -545 -522 206 -480 -526 -484 0
4483 -545 -522 -206 480 526 484 0
10528 -545 -522 -206 480 526 -484 0
4617 -545 -522 -206 480 -526 484 0
10542 -545 -522 -206 480 -526 -484 0
9857 -545 -522 -206 -480 526 484 0
11066 -545 -522 -206 -480 526 -484 0
9883 -545 -522 -206 -480 -526 484 0
11068 -545 -522 -206 -480 -526 -484 0
10784 434 -508 0
15165 -434 508 0
21096 -434 -508 0
32040 553 481 -410 0
3560 553 -481 410 0
33998 553 -481 -410 0
22784 -553 481 410 0
44571 -553 481 -410 0
25205 -553 -481 410 0
45903 -553 -481 -410 0
3660 550 -535 0
1830 -550 535 0
5124 -550 -535 0
2110 513 538 509 556 -551 0
11605 513 538 509 -556 551 0
12554 513 538 509 -556 -551 0
8018 513 538 -509 556 551 0
9326 513 538 -509 556 -551 0
15213 513 538 -509 -556 551 0
15802 513 538 -509 -556 -551 0
12660 513 -538 509 556 551 0
13504 513 -538 509 556 -551 0
17302 513 -538 509 -556 551 0
17682 513 -538 509 -556 -551 0
15867 513 -538 -509 556 551 0
16390 513 -538 -509 556 -551 0
18745 513 -538 -509 -556 551 0
18981 513 -538 -509 -556 -551 0
13715 -513 538 509 556 551 0
14454 -513 538 509 556 -551 0
17777 -513 538 509 -556 551 0
18109 -513 538 509 -556 -551 0
16521 -513 538 -509 556 551 0
16979 -513 538 -509 556 -551 0
19040 -513 538 -509 -556 551 0
19246 -513 538 -509 -556 -551 0
18146 -513 -538 509 556 551 0
18441 -513 -538 509 556 -551 0
19771 -513 -538 509 -556 551 0
19904 -513 -538 509 -556 -551 0
19269 -513 -538 -509 556 551 0
19452 -513 -538 -509 556 -551 0
20276 -513 -538 -509 -556 551 0
20358 -513 -538 -509 -556 -551 0
45990 559 -527 0
1314 -559 527 0
46384 -559 -527 0
3570 624 -554 0
4760 -624 554 0
6902 -624 -554 0
5706 -520 0
5055 546 -540 0
6066 -546 540 0
10211 -546 -540 0
8330 565 541 582 -574 0
1428 565 541 -582 574 0
8758 565 541 -582 -574 0
8925 565 -541 582 574 0
11008 565 -541 582 -574 0
9282 565 -541 -582 574 0
11115 565 -541 -582 -574 0
1428 -565 541 582 574 0
8758 -565 541 582 -574 0
2685 -565 541 -582 574 0
9135 -565 541 -582 -574 0
9282 -565 -541 582 574 0
11115 -565 -541 582 -574 0
9596 -565 -541 -582 574 0
11209 -565 -541 -582 -574 0
13960 589 575 552 -583 0
12564 589 575 -552 583 0
24011 589 575 -552 -583 0
1396 589 -575 552 583 0
15077 589 -575 552 -583 0
13709 589 -575 -552 583 0
24927 589 -575 -552 -583 0
41880 -589 575 552 583 0
47464 -589 575 552 -583 0
46906 -589 575 -552 583 0
51484 -589 575 -552 -583 0
42438 -589 -575 552 583 0
47911 -589 -575 552 -583 0
47363 -589 -575 -552 583 0
51851 -589 -575 -552 -583 0
4755 496 570 -511 0
28530 496 -570 511 0
29006 496 -570 -511 0
12680 -496 570 511 0
15533 -496 570 -511 0
29798 -496 -570 511 0
30083 -496 -570 -511 0
34020 514 -625 0
37800 -514 625 0
54810 -514 -625 0
7560 557 566 -594 0
1512 557 -566 594 0
8921 557 -566 -594 0
24192 -557 566 594 0
29333 -557 566 -594 0
25220 -557 -566 594 0
30258 -557 -566 -594 0
52920 528 -571 0
24192 -528 571 0
60178 -528 -571 0
11305 586 485 599 590 -605 0
3570 586 485 599 -590 605 0
11483 586 485 599 -590 -605 0
4165 586 485 -599 590 605 0
11513 586 485 -599 590 -605 0
6486 586 485 -599 -590 605 0
11629 586 485 -599 -590 -605 0
10115 586 -485 599 590 605 0
11811 586 -485 599 590 -605 0
10650 586 -485 599 -590 605 0
11838 586 -485 599 -590 -605 0
10740 586 -485 -599 590 605 0
11842 586 -485 -599 590 -605 0
11088 586 -485 -599 -590 605 0
11859 586 -485 -599 -590 -605 0
8925 -586 485 599 590 605 0
11751 -586 485 599 590 -605 0
9817 -586 485 599 -590 605 0
11796 -586 485 599 -590 -605 0
9966 -586 485 -599 590 605 0
11803 -586 485 -599 590 -605 0
10546 -586 485 -599 -590 605 0
11832 -586 485 -599 -590 -605 0
11454 -586 -485 599 590 605 0
11878 -586 -485 599 590 -605 0
11588 -586 -485 599 -590 605 0
11884 -586 -485 599 -590 -605 0
11610 -586 -485 -599 590 605 0
11885 -586 -485 -599 590 -605 0
11697 -586 -485 -599 -590 605 0
11890 -586 -485 -599 -590 -605 0
7385 591 587 -584 0
10550 591 -587 584 0
14243 591 -587 -584 0
7385 -591 587 584 0
12185 -591 587 -584 0
14243 -591 -587 584 0
16643 -591 -587 -584 0
1055 614 542 606 595 617 -592 0
2532 614 542 606 595 -617 592 0
3460 614 542 606 595 -617 -592 0
11605 614 542 606 -595 617 592 0
12080 614 542 606 -595 617 -592 0
12744 614 542 606 -595 -617 592 0
13162 614 542 606 -595 -617 -592 0
18990 614 542 -606 595 617 592 0
19096 614 542 -606 595 617 -592 0
19243 614 542 -606 595 -617 592 0
19336 614 542 -606 595 -617 -592 0
20151 614 542 -606 -595 617 592 0
20198 614 542 -606 -595 617 -592 0
20264 614 542 -606 -595 -617 592 0
20306 614 542 -606 -595 -617 -592 0
10550 614 -542 606 595 617 592 0
11078 614 -542 606 595 617 -592 0
11816 614 -542 606 595 -617 592 0
12280 614 -542 606 595 -617 -592 0
16353 614 -542 606 -595 617 592 0
16590 614 -542 606 -595 617 -592 0
16922 614 -542 606 -595 -617 592 0
17131 614 -542 606 -595 -617 -592 0
20045 614 -542 -606 595 617 592 0
20098 614 -542 -606 595 617 -592 0
20172 614 -542 -606 595 -617 592 0
20218 614 -542 -606 595 -617 -592 0
20625 614 -542 -606 -595 617 592 0
20649 614 -542 -606 -595 617 -592 0
20682 614 -542 -606 -595 -617 592 0
20703 614 -542 -606 -595 -617 -592 0
2532 -614 542 606 595 617 592 0
3460 -614 542 606 595 617 -592 0
4760 -614 542 606 595 -617 592 0
5577 -614 542 606 595 -617 -592 0
12744 -614 542 606 -595 617 592 0
13162 -614 542 606 -595 617 -592 0
13747 -614 542 606 -595 -617 592 0
14115 -614 542 606 -595 -617 -592 0
19243 -614 542 -606 595 617 592 0
19336 -614 542 -606 595 617 -592 0
19466 -614 542 -606 595 -617 592 0
19548 -614 542 -606 595 -617 -592 0
20264 -614 542 -606 -595 617 592 0
20306 -614 542 -606 -595 617 -592 0
20365 -614 542 -606 -595 -617 592 0
20401 -614 542 -606 -595 -617 -592 0
11816 -614 -542 606 595 617 592 0
12280 -614 -542 606 595 617 -592 0
12930 -614 -542 606 595 -617 592 0
13339 -614 -542 606 595 -617 -592 0
16922 -614 -542 606 -595 617 592 0
17131 -614 -542 606 -595 617 -592 0
17424 -614 -542 606 -595 -617 592 0
17607 -614 -542 606 -595 -617 -592 0
20172 -614 -542 -606 595 617 592 0
20218 -614 -542 -606 595 617 -592 0
20283 -614 -542 -606 595 -617 592 0
20324 -614 -542 -606 595 -617 -592 0
20682 -614 -542 -606 -595 617 592 0
20703 -614 -542 -606 -595 617 -592 0
20732 -614 -542 -606 -595 -617 592 0
20751 -614 -542 -606 -595 -617 -592 0
9950 610 627 -560 0
13930 610 -627 560 0
16915 610 -627 -560 0
6368 -610 627 560 0
13134 -610 627 -560 0
15840 -610 -627 560 0
17870 -610 -627 -560 0
1680 561 615 -628 0
8960 561 -615 628 0
9296 561 -615 -628 0
4256 -561 615 628 0
5298 -561 615 -628 0
9811 -561 -615 628 0
10020 -561 -615 -628 0
52350 -456 0
52920 547 630 -632 0
64260 547 -630 632 0
72198 547 -630 -632 0
18900 -547 630 632 0
58590 -547 630 -632 0
67095 -547 -630 632 0
73048 -547 -630 -632 0
30330 607 543 -596 0
20220 607 -543 596 0
32352 607 -543 -596 0
25275 -607 543 596 0
32857 -607 543 -596 0
30330 -607 -543 596 0
33363 -607 -543 -596 0
8925 457 -600 0
7140 -457 600 0
10710 -457 -600 0
560 385 644 -618 0
10640 385 -644 618 0
10668 385 -644 -618 0
560 -385 644 618 0
1092 -385 644 -618 0
10668 -385 -644 618 0
10695 -385 -644 -618 0
14240 207 -544 0
8544 -207 544 0
21075 -207 -544 0
71820 611 539 -650 0
11340 611 -539 650 0
72387 611 -539 -650 0
37800 -611 539 650 0
73710 -611 539 -650 0
43470 -611 -539 650 0
73994 -611 -539 -650 0
4044 651 612 639 -626 0
674 651 612 -639 626 0
4637 651 612 -639 -626 0
10110 651 -612 639 626 0
12941 651 -612 639 -626 0
10582 651 -612 -639 626 0
13356 651 -612 -639 -626 0
12806 -651 612 639 626 0
15313 -651 612 639 -626 0
13224 -651 612 -639 626 0
15681 -651 612 -639 -626 0
19074 -651 -612 639 626 0
20829 -651 -612 639 -626 0
19367 -651 -612 -639 626 0
21087 -651 -612 -639 -626 0
17450 631 647 653 659 512 -640 0
26524 631 647 653 659 -512 640 0
37343 631 647 653 659 -512 -640 0
27920 631 647 653 -659 512 640 0
38390 631 647 653 -659 512 -640 0
43834 631 647 653 -659 -512 640 0
50326 631 647 653 -659 -512 -640 0
10470 631 647 -653 659 512 640 0
25303 631 647 -653 659 512 -640 0
33015 631 647 -653 659 -512 640 0
42212 631 647 -653 659 -512 -640 0
34202 631 647 -653 -659 512 640 0
43101 631 647 -653 -659 512 -640 0
47729 631 647 -653 -659 -512 640 0
53247 631 647 -653 -659 -512 -640 0
1396 631 -647 653 659 512 640 0
18497 631 -647 653 659 512 -640 0
27390 631 -647 653 659 -512 640 0
37992 631 -647 653 659 -512 -640 0
28758 631 -647 653 -659 512 640 0
39018 631 -647 653 -659 512 -640 0
44354 631 -647 653 -659 -512 640 0
50715 631 -647 653 -659 -512 -640 0
11657 631 -647 -653 659 512 640 0
26192 631 -647 -653 659 512 -640 0
33751 631 -647 -653 659 -512 640 0
42763 631 -647 -653 659 -512 -640 0
34914 631 -647 -653 -659 512 640 0
43635 631 -647 -653 -659 512 -640 0
48171 631 -647 -653 -659 -512 640 0
53578 631 -647 -653 -659 -512 -640 0
59330 -631 647 653 659 512 640 0
61948 -631 647 653 659 512 -640 0
63309 -631 647 653 659 -512 640 0
64931 -631 647 653 659 -512 -640 0
63518 -631 647 653 -659 512 640 0
65088 -631 647 653 -659 512 -640 0
65905 -631 647 653 -659 -512 640 0
66879 -631 647 653 -659 -512 -640 0
60900 -631 647 -653 659 512 640 0
63125 -631 647 -653 659 512 -640 0
64282 -631 647 -653 659 -512 640 0
65662 -631 647 -653 659 -512 -640 0
64460 -631 647 -653 -659 512 640 0
65795 -631 647 -653 -659 512 -640 0
66489 -631 647 -653 -659 -512 640 0
67317 -631 647 -653 -659 -512 -640 0
59539 -631 -647 653 659 512 640 0
62105 -631 -647 653 659 512 -640 0
63438 -631 -647 653 659 -512 640 0
65029 -631 -647 653 659 -512 -640 0
63644 -631 -647 653 -659 512 640 0
65183 -631 -647 653 -659 512 -640 0
65983 -631 -647 653 -659 -512 640 0
66937 -631 -647 653 -659 -512 -640 0
61078 -631 -647 -653 659 512 640 0
63259 -631 -647 -653 659 512 -640 0
64393 -631 -647 -653 659 -512 640 0
65744 -631 -647 -653 659 -512 -640 0
64567 -631 -647 -653 -659 512 640 0
65875 -631 -647 -653 -659 512 -640 0
66556 -631 -647 -653 -659 -512 640 0
67367 -631 -647 -653 -659 -512 -640 0
8440 567 633 660 645 -636 0
1055 567 633 660 -645 636 0
9073 567 633 660 -645 -636 0
1055 567 633 -660 645 636 0
9073 567 633 -660 645 -636 0
2057 567 633 -660 -645 636 0
9674 567 633 -660 -645 -636 0
20045 567 -633 660 645 636 0
20467 567 -633 660 645 -636 0
20098 567 -633 660 -645 636 0
20499 567 -633 660 -645 -636 0
20098 567 -633 -660 645 636 0
20499 567 -633 -660 645 -636 0
20148 567 -633 -660 -645 636 0
20529 567 -633 -660 -645 -636 0
6752 -567 633 660 645 636 0
12491 -567 633 660 645 -636 0
7469 -567 633 660 -645 636 0
12922 -567 633 660 -645 -636 0
7469 -567 633 -660 645 636 0
12922 -567 633 -660 645 -636 0
8151 -567 633 -660 -645 636 0
13331 -567 633 -660 -645 -636 0
20383 -567 -633 660 645 636 0
20670 -567 -633 660 645 -636 0
20418 -567 -633 660 -645 636 0
20691 -567 -633 660 -645 -636 0
20418 -567 -633 -660 645 636 0
20691 -567 -633 -660 645 -636 0
20453 -567 -633 -660 -645 636 0
20712 -567 -633 -660 -645 -636 0
4220 463 648 664 -637 0
8018 463 648 -664 637 0
10634 463 648 -664 -637 0
10550 463 -648 664 637 0
12660 463 -648 664 -637 0
14559 463 -648 -664 637 0
15867 463 -648 -664 -637 0
10550 -463 648 664 637 0
12660 -463 648 664 -637 0
14559 -463 648 -664 637 0
15867 -463 648 -664 -637 0
15825 -463 -648 664 637 0
16880 -463 -648 664 -637 0
17829 -463 -648 -664 637 0
18484 -463 -648 -664 -637 0
4755 665 -720 0
7925 -665 720 0
11491 -665 -720 0
620 -661 0
11340 641 329 -669 0
22680 641 -329 669 0
30618 641 -329 -669 0
7560 -641 329 669 0
17766 -641 329 -669 0
27972 -641 -329 669 0
35116 -641 -329 -669 0
45370 654 -523 0
66310 -654 523 0
68578 -654 -523 0
2232 666 -638 0
11160 -666 638 0
11383 -666 -638 0
3285 670 -562 0
52560 -670 562 0
53217 -670 -562 0
7060 642 677 667 675 -601 0
1765 642 677 667 -675 601 0
8472 642 677 667 -675 -601 0
31770 642 677 -667 675 601 0
32476 642 677 -667 675 -601 0
31947 642 677 -667 -675 601 0
32617 642 677 -667 -675 -601 0
10590 642 -677 667 675 601 0
15532 642 -677 667 675 -601 0
11826 642 -677 667 -675 601 0
16520 642 -677 667 -675 -601 0
32829 642 -677 -667 675 601 0
33323 642 -677 -667 675 -601 0
32953 642 -677 -667 -675 601 0
33422 642 -677 -667 -675 -601 0
4236 -642 677 667 675 601 0
10449 -642 677 667 675 -601 0
5789 -642 677 667 -675 601 0
11691 -642 677 667 -675 -601 0
32194 -642 677 -667 675 601 0
32815 -642 677 -667 675 -601 0
32349 -642 677 -667 -675 601 0
32939 -642 677 -667 -675 -601 0
13555 -642 -677 667 675 601 0
17904 -642 -677 667 675 -601 0
14642 -642 -677 667 -675 601 0
18774 -642 -677 667 -675 -601 0
33126 -642 -677 -667 675 601 0
33560 -642 -677 -667 675 -601 0
33234 -642 -677 -667 -675 601 0
33647 -642 -677 -667 -675 -601 0
20605 671 581 -688 0
634 671 -581 688 0
20827 671 -581 -688 0
9510 -671 581 688 0
23934 -671 581 -688 0
9954 -671 -581 688 0
24089 -671 -581 -688 0
6066 629 -690 0
32015 -629 690 0
32318 -629 -690 0
41580 593 691 680 -678 0
1512 593 691 -680 678 0
42260 593 691 -680 -678 0
45360 593 -691 680 678 0
61992 593 -691 680 -678 0
45965 593 -691 -680 678 0
62264 593 -691 -680 -678 0
22680 -593 691 680 678 0
51786 -593 691 680 -678 0
23738 -593 691 -680 678 0
52262 -593 691 -680 -678 0
54432 -593 -691 680 678 0
66074 -593 -691 680 -678 0
54855 -593 -691 -680 678 0
66265 -593 -691 -680 -678 0
9504 -679 0
36135 672 692 -208 0
1314 672 -692 208 0
36726 672 -692 -208 0
52560 -672 692 208 0
59787 -672 692 -208 0
52823 -672 -692 208 0
59905 -672 -692 -208 0
14770 676 558 -689 0
12660 676 -558 689 0
18568 676 -558 -689 0
422 -676 558 689 0
14897 -676 558 -689 0
12829 -676 -558 689 0
18619 -676 -558 -689 0
398 682 681 -386 0
6965 682 -681 386 0
7224 682 -681 -386 0
3980 -682 681 386 0
4298 -682 681 -386 0
9552 -682 -681 386 0
9759 -682 -681 -386 0
56700 696 693 683 698 -703 0
45360 696 693 683 -698 703 0
68040 696 693 683 -698 -703 0
52920 696 693 -683 698 703 0
69930 696 693 -683 698 -703 0
66528 696 693 -683 -698 703 0
73332 696 693 -683 -698 -703 0
45360 696 -693 683 698 703 0
68040 696 -693 683 698 -703 0
63504 696 -693 683 -698 703 0
72576 696 -693 683 -698 -703 0
66528 696 -693 -683 698 703 0
73332 696 -693 -683 698 -703 0
71971 696 -693 -683 -698 703 0
74693 696 -693 -683 -698 -703 0
45360 -696 693 683 698 703 0
68040 -696 693 683 698 -703 0
63504 -696 693 683 -698 703 0
72576 -696 693 683 -698 -703 0
66528 -696 693 -683 698 703 0
73332 -696 693 -683 698 -703 0
71971 -696 693 -683 -698 703 0
74693 -696 693 -683 -698 -703 0
63504 -696 -693 683 698 703 0
72576 -696 -693 683 698 -703 0
70762 -696 -693 683 -698 703 0
74390 -696 -693 683 -698 -703 0
71971 -696 -693 -683 698 703 0
74693 -696 -693 -683 698 -703 0
74148 -696 -693 -683 -698 703 0
75237 -696 -693 -683 -698 -703 0
15920 704 699 697 -246 0
2388 704 699 -697 246 0
16398 704 699 -697 -246 0
7960 704 -699 697 246 0
17512 704 -699 697 -246 0
9393 704 -699 -697 246 0
17799 704 -699 -697 -246 0
1990 -704 699 697 246 0
16318 -704 699 697 -246 0
4139 -704 699 -697 246 0
16748 -704 699 -697 -246 0
9154 -704 -699 697 246 0
17751 -704 -699 697 -246 0
10444 -704 -699 -697 246 0
18009 -704 -699 -697 -246 0
6752 710 -702 0
8018 -710 702 0
12204 -710 -702 0
6340 721 711 -446 0
17435 721 -711 446 0
20288 721 -711 -446 0
17435 -721 711 446 0
20288 -721 711 -446 0
25281 -721 -711 446 0
26565 -721 -711 -446 0
4522 668 694 -726 0
3808 668 -694 726 0
6883 668 -694 -726 0
9520 -668 694 726 0
10424 -668 694 -726 0
10282 -668 -694 726 0
10897 -668 -694 -726 0
1428 -529 0
27740 303 662 722 729 -705 0
23360 303 662 722 -729 705 0
28908 303 662 722 -729 -705 0
14600 303 662 -722 729 705 0
28470 303 662 -722 729 -705 0
26280 303 662 -722 -729 705 0
29054 303 662 -722 -729 -705 0
9344 303 -662 722 729 705 0
28207 303 -662 722 729 -705 0
25229 303 -662 722 -729 705 0
29001 303 -662 722 -729 -705 0
19272 303 -662 -722 729 705 0
28704 303 -662 -722 729 -705 0
27214 303 -662 -722 -729 705 0
29101 303 -662 -722 -729 -705 0
18980 -303 662 722 729 705 0
28689 -303 662 722 729 -705 0
27156 -303 662 722 -729 705 0
29098 -303 662 722 -729 -705 0
24090 -303 662 -722 729 705 0
28944 -303 662 -722 729 -705 0
28178 -303 662 -722 -729 705 0
29149 -303 662 -722 -729 -705 0
22250 -303 -662 722 729 705 0
28853 -303 -662 722 729 -705 0
27810 -303 -662 722 -729 705 0
29131 -303 -662 722 -729 -705 0
25725 -303 -662 -722 729 705 0
29026 -303 -662 -722 729 -705 0
28505 -303 -662 -722 -729 705 0
29165 -303 -662 -722 -729 -705 0
15885 712 -730 0
15885 -712 730 0
24622 -712 -730 0
16880 652 -735 0
17935 -652 735 0
20467 -652 -735 0
674 715 -597 0
674 -715 597 0
1335 -715 -597 0
31680 608 -663 0
35640 -608 663 0
53064 -608 -663 0
8330 673 728 706 740 -742 0
11305 673 728 706 -740 742 0
11722 673 728 706 -740 -742 0
3808 673 728 -706 740 742 0
9472 673 728 -706 740 -742 0
11495 673 728 -706 -740 742 0
11779 673 728 -706 -740 -742 0
5355 673 -728 706 740 742 0
9936 673 -728 706 740 -742 0
11573 673 -728 706 -740 742 0
11802 673 -728 706 -740 -742 0
7449 673 -728 -706 740 742 0
10565 673 -728 -706 740 -742 0
11677 673 -728 -706 -740 742 0
11833 673 -728 -706 -740 -742 0
2975 -673 728 706 740 742 0
9222 -673 728 706 740 -742 0
11454 -673 728 706 -740 742 0
11766 -673 728 706 -740 -742 0
5831 -673 728 -706 740 742 0
10079 -673 728 -706 740 -742 0
11597 -673 728 -706 -740 742 0
11809 -673 728 -706 -740 -742 0
6991 -673 -728 706 740 742 0
10427 -673 -728 706 740 -742 0
11655 -673 -728 706 -740 742 0
11826 -673 -728 706 -740 -742 0
8562 -673 -728 -706 740 742 0
10899 -673 -728 -706 740 -742 0
11733 -673 -728 -706 -740 742 0
11850 -673 -728 -706 -740 -742 0
11808 713 747 727 734 743 -531 0
45920 713 747 727 734 -743 531 0
49462 713 747 727 734 -743 -531 0
36080 713 747 727 -734 743 531 0
41394 713 747 727 -734 743 -531 0
56744 713 747 727 -734 -743 531 0
58338 713 747 727 -734 -743 -531 0
26240 713 747 -727 734 743 531 0
33325 713 747 -727 734 743 -531 0
53792 713 747 -727 734 -743 531 0
55917 713 747 -727 734 -743 -531 0
47888 713 747 -727 -734 743 531 0
51076 713 747 -727 -734 743 -531 0
60286 713 747 -727 -734 -743 531 0
61243 713 747 -727 -734 -743 -531 0
11808 713 -747 727 734 743 531 0
21491 713 -747 727 734 743 -531 0
49462 713 -747 727 734 -743 531 0
52367 713 -747 727 734 -743 -531 0
41394 713 -747 727 -734 743 531 0
45751 713 -747 727 -734 743 -531 0
58338 713 -747 727 -734 -743 531 0
59645 713 -747 727 -734 -743 -531 0
33325 713 -747 -727 734 743 531 0
39134 713 -747 -727 734 743 -531 0
55917 713 -747 -727 734 -743 531 0
57660 713 -747 -727 734 -743 -531 0
51076 713 -747 -727 -734 743 531 0
53690 713 -747 -727 -734 743 -531 0
61243 713 -747 -727 -734 -743 531 0
62027 713 -747 -727 -734 -743 -531 0
7872 -713 747 727 734 743 531 0
18263 -713 747 727 734 743 -531 0
48282 -713 747 727 734 -743 531 0
51399 -713 747 727 734 -743 -531 0
39622 -713 747 727 -734 743 531 0
44298 -713 747 727 -734 743 -531 0
57807 -713 747 727 -734 -743 531 0
59210 -713 747 727 -734 -743 -531 0
30963 -713 747 -727 734 743 531 0
37198 -713 747 -727 734 743 -531 0
55209 -713 747 -727 734 -743 531 0
57079 -713 747 -727 734 -743 -531 0
50013 -713 747 -727 -734 743 531 0
52819 -713 747 -727 -734 743 -531 0
60924 -713 747 -727 -734 -743 531 0
61766 -713 747 -727 -734 -743 -531 0
18263 -713 -747 727 734 743 531 0
26784 -713 -747 727 734 743 -531 0
51399 -713 -747 727 734 -743 531 0
53955 -713 -747 727 734 -743 -531 0
44298 -713 -747 727 -734 743 531 0
48133 -713 -747 727 -734 743 -531 0
59210 -713 -747 727 -734 -743 531 0
60360 -713 -747 727 -734 -743 -531 0
37198 -713 -747 -727 734 743 531 0
42310 -713 -747 -727 734 743 -531 0
57079 -713 -747 -727 734 -743 531 0
58613 -713 -747 -727 734 -743 -531 0
52819 -713 -747 -727 -734 743 531 0
55120 -713 -747 -727 -734 743 -531 0
61766 -713 -747 -727 -734 -743 531 0
62456 -713 -747 -727 -734 -743 -531 0
22784 431 -731 0
60520 -431 731 0
63938 -431 -731 0
18620 -193 0
3025 297 700 -732 0
54450 297 -700 732 0
54752 297 -700 -732 0
36300 -297 700 732 0
37510 -297 700 -732 0
58080 -297 -700 732 0
58201 -297 -700 -732 0
71820 744 212 -736 0
9072 744 -212 736 0
72274 744 -212 -736 0
3780 -744 212 736 0
72009 -744 212 -736 0
12398 -744 -212 736 0
72440 -744 -212 -736 0
49140 213 741 -352 0
34020 213 -741 352 0
61047 213 -741 -352 0
37800 -213 741 352 0
62370 -213 741 -352 0
54810 -213 -741 352 0
68324 -213 -741 -352 0
23360 381 216 723 -225 0
8760 381 216 -723 225 0
25112 381 216 -723 -225 0
16060 381 -216 723 225 0
26572 381 -216 723 -225 0
20002 381 -216 -723 225 0
27360 381 -216 -723 -225 0
26280 -381 216 723 225 0
28616 -381 216 723 -225 0
27156 -381 216 -723 225 0
28791 -381 216 -723 -225 0
27886 -381 -216 723 225 0
28937 -381 -216 723 -225 0
28280 -381 -216 -723 225 0
29016 -381 -216 -723 -225 0
42720 -733 0
19710 231 748 218 447 -222 0
7884 231 748 218 -447 222 0
25229 231 748 218 -447 -222 0
16425 231 748 -218 447 222 0
31208 231 748 -218 447 -222 0
22338 231 748 -218 -447 222 0
35347 231 748 -218 -447 -222 0
21024 231 -748 218 447 222 0
34427 231 -748 218 447 -222 0
26385 231 -748 218 -447 222 0
38180 231 -748 218 -447 -222 0
32193 231 -748 -218 447 222 0
42245 231 -748 -218 447 -222 0
36214 231 -748 -218 -447 222 0
45060 231 -748 -218 -447 -222 0
7884 -231 748 218 447 222 0
25229 -231 748 218 447 -222 0
14822 -231 748 218 -447 222 0
30085 -231 748 218 -447 -222 0
22338 -231 748 -218 447 222 0
35347 -231 748 -218 447 -222 0
27541 -231 748 -218 -447 222 0
38989 -231 748 -218 -447 -222 0
26385 -231 -748 218 447 222 0
38180 -231 -748 218 447 -222 0
31103 -231 -748 218 -447 222 0
41482 -231 -748 218 -447 -222 0
36214 -231 -748 -218 447 222 0
45060 -231 -748 -218 447 -222 0
39752 -231 -748 -218 -447 222 0
47537 -231 -748 -218 -447 -222 0
26945 232 745 -219 0
3804 232 -745 219 0
27516 232 -745 -219 0
23775 -232 745 219 0
30511 -232 745 -219 0
24726 -232 -745 219 0
30654 -232 -745 -219 0
20940 226 214 -223 0
31410 226 -214 223 0
42927 226 -214 -223 0
31410 -226 214 223 0
42927 -226 214 -223 0
48686 -226 -214 223 0
55020 -226 -214 -223 0
4256 749 701 -209 0
6160 749 -701 209 0
8075 749 -701 -209 0
6160 -749 701 209 0
8075 -749 701 -209 0
8932 -749 -701 209 0
9794 -749 -701 -209 0
45370 227 237 -548 0
45370 227 -237 548 0
61250 227 -237 -548 0
8376 -227 237 548 0
48302 -227 237 -548 0
48302 -227 -237 548 0
62276 -227 -237 -548 0
5256 353 -217 0
14600 -353 217 0
17228 -353 -217 0
32015 724 -251 0
20220 -724 251 0
33026 -724 -251 0
6965 238 253 228 247 649 252 -255 0
7562 238 253 228 247 649 -252 255 0
11880 238 253 228 247 649 -252 -255 0
18905 238 253 228 247 -649 252 255 0
19253 238 253 228 247 -649 252 -255 0
19283 238 253 228 247 -649 -252 255 0
19499 238 253 228 247 -649 -252 -255 0
398 238 253 228 -247 649 252 255 0
7224 238 253 228 -247 649 252 -255 0
7809 238 253 228 -247 649 -252 255 0
12041 238 253 228 -247 649 -252 -255 0
18925 238 253 228 -247 -649 252 255 0
19266 238 253 228 -247 -649 252 -255 0
19295 238 253 228 -247 -649 -252 255 0
19507 238 253 228 -247 -649 -252 -255 0
6965 238 253 -228 247 649 252 255 0
11492 238 253 -228 247 649 252 -255 0
11880 238 253 -228 247 649 -252 255 0
14687 238 253 -228 247 649 -252 -255 0
19253 238 253 -228 247 -649 252 255 0
19480 238 253 -228 247 -649 252 -255 0
19499 238 253 -228 247 -649 -252 255 0
19639 238 253 -228 247 -649 -252 -255 0
7224 238 253 -228 -247 649 252 255 0
11660 238 253 -228 -247 649 252 -255 0
12041 238 253 -228 -247 649 -252 255 0
14791 238 253 -228 -247 649 -252 -255 0
19266 238 253 -228 -247 -649 252 255 0
19488 238 253 -228 -247 -649 252 -255 0
19507 238 253 -228 -247 -649 -252 255 0
19645 238 253 -228 -247 -649 -252 -255 0
14925 238 -253 228 247 649 252 255 0
16666 238 -253 228 247 649 252 -255 0
16816 238 -253 228 247 649 -252 255 0
17895 238 -253 228 247 649 -252 -255 0
19651 238 -253 228 247 -649 252 255 0
19738 238 -253 228 247 -649 252 -255 0
19746 238 -253 228 247 -649 -252 255 0
19800 238 -253 228 247 -649 -252 -255 0
15025 238 -253 228 -247 649 252 255 0
16731 238 -253 228 -247 649 252 -255 0
16877 238 -253 228 -247 649 -252 255 0
17935 238 -253 228 -247 649 -252 -255 0
19656 238 -253 228 -247 -649 252 255 0
19742 238 -253 228 -247 -649 252 -255 0
19749 238 -253 228 -247 -649 -252 255 0
19802 238 -253 228 -247 -649 -252 -255 0
16666 238 -253 -228 247 649 252 255 0
17798 238 -253 -228 247 649 252 -255 0
17895 238 -253 -228 247 649 -252 255 0
18597 238 -253 -228 247 649 -252 -255 0
19738 238 -253 -228 247 -649 252 255 0
19795 238 -253 -228 247 -649 252 -255 0
19800 238 -253 -228 247 -649 -252 255 0
19835 238 -253 -228 247 -649 -252 -255 0
16731 238 -253 -228 -247 649 252 255 0
17840 238 -253 -228 -247 649 252 -255 0
17935 238 -253 -228 -247 649 -252 255 0
18623 238 -253 -228 -247 649 -252 -255 0
19742 238 -253 -228 -247 -649 252 255 0
19797 238 -253 -228 -247 -649 252 -255 0
19802 238 -253 -228 -247 -649 -252 255 0
19836 238 -253 -228 -247 -649 -252 -255 0
10945 -238 253 228 247 649 252 255 0
14079 -238 253 228 247 649 252 -255 0
14348 -238 253 228 247 649 -252 255 0
16291 -238 253 228 247 649 -252 -255 0
19452 -238 253 228 247 -649 252 255 0
19609 -238 253 228 247 -649 252 -255 0
19622 -238 253 228 247 -649 -252 255 0
19720 -238 253 228 247 -649 -252 -255 0
11124 -238 253 228 -247 649 252 255 0
14196 -238 253 228 -247 649 252 -255 0
14459 -238 253 228 -247 649 -252 255 0
16363 -238 253 228 -247 649 -252 -255 0
19461 -238 253 228 -247 -649 252 255 0
19615 -238 253 228 -247 -649 252 -255 0
19628 -238 253 228 -247 -649 -252 255 0
19723 -238 253 228 -247 -649 -252 -255 0
14079 -238 253 -228 247 649 252 255 0
16117 -238 253 -228 247 649 252 -255 0
16291 -238 253 -228 247 649 -252 255 0
17554 -238 253 -228 247 649 -252 -255 0
19609 -238 253 -228 247 -649 252 255 0
19711 -238 253 -228 247 -649 252 -255 0
19720 -238 253 -228 247 -649 -252 255 0
19783 -238 253 -228 247 -649 -252 -255 0
14196 -238 253 -228 -247 649 252 255 0
16192 -238 253 -228 -247 649 252 -255 0
16363 -238 253 -228 -247 649 -252 255 0
17601 -238 253 -228 -247 649 -252 -255 0
19615 -238 253 -228 -247 -649 252 255 0
19715 -238 253 -228 -247 -649 252 -255 0
19723 -238 253 -228 -247 -649 -252 255 0
19785 -238 253 -228 -247 -649 -252 -255 0
17661 -238 -253 228 247 649 252 255 0
18445 -238 -253 228 247 649 252 -255 0
18512 -238 -253 228 247 649 -252 255 0
18998 -238 -253 228 247 649 -252 -255 0
19788 -238 -253 228 247 -649 252 255 0
19827 -238 -253 228 247 -649 252 -255 0
19831 -238 -253 228 247 -649 -252 255 0
19855 -238 -253 228 247 -649 -252 -255 0
17706 -238 -253 228 -247 649 252 255 0
18474 -238 -253 228 -247 649 252 -255 0
18540 -238 -253 228 -247 649 -252 255 0
19016 -238 -253 228 -247 649 -252 -255 0
19790 -238 -253 228 -247 -649 252 255 0
19829 -238 -253 228 -247 -649 252 -255 0
19832 -238 -253 228 -247 -649 -252 255 0
19856 -238 -253 228 -247 -649 -252 -255 0
18445 -238 -253 -228 247 649 252 255 0
18954 -238 -253 -228 247 649 252 -255 0
18998 -238 -253 -228 247 649 -252 255 0
19314 -238 -253 -228 247 649 -252 -255 0
19827 -238 -253 -228 247 -649 252 255 0
19853 -238 -253 -228 247 -649 252 -255 0
19855 -238 -253 -228 247 -649 -252 255 0
19871 -238 -253 -228 247 -649 -252 -255 0
18474 -238 -253 -228 -247 649 252 255 0
18973 -238 -253 -228 -247 649 252 -255 0
19016 -238 -253 -228 -247 649 -252 255 0
19325 -238 -253 -228 -247 649 -252 -255 0
19829 -238 -253 -228 -247 -649 252 255 0
19854 -238 -253 -228 -247 -649 252 -255 0
19856 -238 -253 -228 -247 -649 -252 255 0
19871 -238 -253 -228 -247 -649 -252 -255 0
25275 634 248 -258 0
6066 634 -248 258 0
26791 634 -248 -258 0
23590 -634 248 258 0
31173 -634 248 -258 0
25410 -634 -248 258 0
31627 -634 -248 -258 0
45360 249 505 -259 0
30240 249 -505 259 0
57456 249 -505 -259 0
24192 -249 505 259 0
55037 -249 505 -259 0
44755 -249 -505 259 0
63262 -249 -505 -259 0
20995 262 -737 0
15470 -262 737 0
21769 -262 -737 0
41880 714 263 260 -234 0
34900 714 263 -260 234 0
55840 714 263 -260 -234 0
1396 714 -263 260 234 0
42438 714 -263 260 -234 0
35598 714 -263 -260 234 0
56119 714 -263 -260 -234 0
52350 -714 263 260 234 0
62820 -714 263 260 -234 0
61075 -714 263 -260 234 0
66310 -714 263 -260 -234 0
52699 -714 -263 260 234 0
62960 -714 -263 260 -234 0
61250 -714 -263 -260 234 0
66380 -714 -263 -260 -234 0
5580 265 -613 0
9920 -265 613 0
11036 -265 -613 0
11940 229 235 266 273 -233 0
398 229 235 266 -273 233 0
12099 229 235 266 -273 -233 0
4975 229 235 -266 273 233 0
13930 229 235 -266 273 -233 0
5273 229 235 -266 -273 233 0
14049 229 235 -266 -273 -233 0
17910 229 -235 266 273 233 0
19104 229 -235 266 273 -233 0
17950 229 -235 266 -273 233 0
19120 229 -235 266 -273 -233 0
18408 229 -235 -266 273 233 0
19303 229 -235 -266 273 -233 0
18437 229 -235 -266 -273 233 0
19315 229 -235 -266 -273 -233 0
6965 -229 235 266 273 233 0
14726 -229 235 266 273 -233 0
7224 -229 235 266 -273 233 0
14829 -229 235 266 -273 -233 0
10199 -229 235 -266 273 233 0
16019 -229 235 -266 273 -233 0
10393 -229 235 -266 -273 233 0
16097 -229 235 -266 -273 -233 0
18606 -229 -235 266 273 233 0
19383 -229 -235 266 273 -233 0
18632 -229 -235 266 -273 233 0
19393 -229 -235 266 -273 -233 0
18930 -229 -235 -266 273 233 0
19512 -229 -235 -266 273 -233 0
18949 -229 -235 -266 -273 233 0
19520 -229 -235 -266 -273 -233 0
3570 -549 0
31410 239 -261 0
66310 -239 261 0
67880 -239 -261 0
48860 275 250 -274 0
13960 275 -250 274 0
53048 275 -250 -274 0
41880 -275 250 274 0
61424 -275 250 -274 0
47464 -275 -250 274 0
63099 -275 -250 -274 0
4975 210 -572 0
11940 -210 572 0
13930 -210 -572 0
35600 267 240 -282 0
21360 267 -240 282 0
46280 267 -240 -282 0
46280 -267 240 282 0
58740 -267 240 -282 0
53756 -267 -240 282 0
62478 -267 -240 -282 0
18905 725 254 -283 0
15920 725 -254 283 0
19701 725 -254 -283 0
18905 -725 254 283 0
19850 -725 254 -283 0
19701 -725 -254 283 0
19890 -725 -254 -283 0
60520 256 -684 0
10680 -256 684 0
62122 -256 -684 0
3798 460 286 -276 0
3165 460 -286 276 0
6393 460 -286 -276 0
20045 -460 286 276 0
20235 -460 286 -276 0
20203 -460 -286 276 0
20365 -460 -286 -276 0
2975 588 287 268 -288 0
4165 588 287 -268 288 0
6099 588 287 -268 -288 0
9520 588 -287 268 288 0
10115 588 -287 268 -288 0
10353 588 -287 -268 288 0
10740 588 -287 -268 -288 0
2380 -588 287 268 288 0
4760 -588 287 268 -288 0
5712 -588 287 -268 288 0
7259 -588 287 -268 -288 0
9996 -588 -287 268 288 0
10472 -588 -287 268 -288 0
10662 -588 -287 -268 288 0
10972 -588 -287 -268 -288 0
24920 220 278 -284 0
22784 220 -278 284 0
39730 220 -278 -284 0
53400 -220 278 284 0
59630 -220 278 -284 0
59096 -220 -278 284 0
63332 -220 -278 -284 0
3720 -573 0
30115 -221 0
11160 643 -304 0
4960 -643 304 0
11656 -643 -304 0
12155 279 -224 0
19890 -279 224 0
21106 -279 -224 0
31770 695 -305 0
31770 -695 305 0
34947 -695 -305 0
12564 309 215 307 311 -294 0
6980 309 215 307 -311 294 0
18288 309 215 307 -311 -294 0
10470 309 215 -307 311 294 0
21149 309 215 -307 311 -294 0
16403 309 215 -307 -311 294 0
26014 309 215 -307 -311 -294 0
31410 309 -215 307 311 294 0
38320 309 -215 307 311 -294 0
35249 309 -215 307 -311 294 0
41468 309 -215 307 -311 -294 0
37169 309 -215 -307 311 294 0
43042 309 -215 -307 311 -294 0
40432 309 -215 -307 -311 294 0
45718 309 -215 -307 -311 -294 0
55840 -309 215 307 311 294 0
58353 -309 215 307 311 -294 0
57236 -309 215 307 -311 294 0
59498 -309 215 307 -311 -294 0
57934 -309 215 -307 311 294 0
60070 -309 215 -307 311 -294 0
59121 -309 215 -307 -311 294 0
61043 -309 215 -307 -311 -294 0
62122 -309 -215 307 311 294 0
63504 -309 -215 307 311 -294 0
62890 -309 -215 307 -311 294 0
64134 -309 -215 307 -311 -294 0
63274 -309 -215 -307 311 294 0
64448 -309 -215 -307 311 -294 0
63926 -309 -215 -307 -311 294 0
64984 -309 -215 -307 -311 -294 0
40205 315 707 317 -319 0
7310 315 707 -317 319 0
43494 315 707 -317 -319 0
10965 315 -707 317 319 0
45139 315 -707 317 -319 0
17178 315 -707 -317 319 0
47935 315 -707 -317 -319 0
62135 -315 707 317 319 0
68166 -315 707 317 -319 0
63231 -315 707 -317 319 0
68659 -315 707 -317 -319 0
63780 -315 -707 317 319 0
68906 -315 -707 317 -319 0
64712 -315 -707 -317 319 0
69325 -315 -707 -317 -319 0
515 318 280 298 295 289 -277 0
206 318 280 298 295 -289 277 0
711 318 280 298 295 -289 -277 0
7210 318 280 298 -295 289 277 0
7364 318 280 298 -295 289 -277 0
7272 318 280 298 -295 -289 277 0
7423 318 280 298 -295 -289 -277 0
515 318 280 -298 295 289 277 0
1004 318 280 -298 295 289 -277 0
711 318 280 -298 295 -289 277 0
1190 318 280 -298 295 -289 -277 0
7364 318 280 -298 -295 289 277 0
7511 318 280 -298 -295 289 -277 0
7423 318 280 -298 -295 -289 277 0
7567 318 280 -298 -295 -289 -277 0
1545 318 -280 298 295 289 277 0
1983 318 -280 298 295 289 -277 0
1720 318 -280 298 295 -289 277 0
2149 318 -280 298 295 -289 -277 0
7673 318 -280 298 -295 289 277 0
7805 318 -280 298 -295 289 -277 0
7726 318 -280 298 -295 -289 277 0
7855 318 -280 298 -295 -289 -277 0
1983 318 -280 -298 295 289 277 0
2399 318 -280 -298 295 289 -277 0
2149 318 -280 -298 295 -289 277 0
2557 318 -280 -298 295 -289 -277 0
7805 318 -280 -298 -295 289 277 0
7930 318 -280 -298 -295 289 -277 0
7855 318 -280 -298 -295 -289 277 0
7977 318 -280 -298 -295 -289 -277 0
8755 -318 280 298 295 289 277 0
8832 -318 280 298 295 289 -277 0
8786 -318 280 298 295 -289 277 0
8862 -318 280 298 295 -289 -277 0
9836 -318 280 298 -295 289 277 0
9860 -318 280 298 -295 289 -277 0
9846 -318 280 298 -295 -289 277 0
9868 -318 280 298 -295 -289 -277 0
8832 -318 280 -298 295 289 277 0
8906 -318 280 -298 295 289 -277 0
8862 -318 280 -298 295 -289 277 0
8934 -318 280 -298 295 -289 -277 0
9860 -318 280 -298 -295 289 277 0
9882 -318 280 -298 -295 289 -277 0
9868 -318 280 -298 -295 -289 277 0
9890 -318 280 -298 -295 -289 -277 0
8987 -318 -280 298 295 289 277 0
9052 -318 -280 298 295 289 -277 0
9013 -318 -280 298 295 -289 277 0
9077 -318 -280 298 295 -289 -277 0
9906 -318 -280 298 -295 289 277 0
9926 -318 -280 298 -295 289 -277 0
9914 -318 -280 298 -295 -289 277 0
9933 -318 -280 298 -295 -289 -277 0
9052 -318 -280 -298 295 289 277 0
9115 -318 -280 -298 295 289 -277 0
9077 -318 -280 -298 295 -289 277 0
9138 -318 -280 -298 295 -289 -277 0
9926 -318 -280 -298 -295 289 277 0
9944 -318 -280 -298 -295 289 -277 0
9933 -318 -280 -298 -295 -289 277 0
9952 -318 -280 -298 -295 -289 -277 0
8398 -563 0
23590 330 285 -320 0
10110 330 -285 320 0
26623 330 -285 -320 0
1685 -330 285 320 0
24095 -330 285 -320 0
11290 -330 -285 320 0
26977 -330 -285 -320 0
27920 555 -331 0
59330 -555 331 0
63518 -555 -331 0
1785 281 308 568 322 -332 0
1428 281 308 568 -322 332 0
2999 281 308 568 -322 -332 0
10710 281 308 -568 322 332 0
10889 281 308 -568 322 -332 0
10853 281 308 -568 -322 332 0
11010 281 308 -568 -322 -332 0
7140 281 -308 568 322 332 0
7854 281 -308 568 322 -332 0
7711 281 -308 568 -322 332 0
8340 281 -308 568 -322 -332 0
11424 281 -308 -568 322 332 0
11495 281 -308 -568 322 -332 0
11481 281 -308 -568 -322 332 0
11544 281 -308 -568 -322 -332 0
1428 -281 308 568 322 332 0
2999 -281 308 568 322 -332 0
2685 -281 308 568 -322 332 0
4067 -281 308 568 -322 -332 0
10853 -281 308 -568 322 332 0
11010 -281 308 -568 322 -332 0
10978 -281 308 -568 -322 332 0
11117 -281 308 -568 -322 -332 0
7711 -281 -308 568 322 332 0
8340 -281 -308 568 322 -332 0
8214 -281 -308 568 -322 332 0
8767 -281 -308 568 -322 -332 0
11481 -281 -308 -568 322 332 0
11544 -281 -308 -568 322 -332 0
11531 -281 -308 -568 -322 332 0
11587 -281 -308 -568 -322 -332 0
8755 299 336 333 -290 0
8240 299 336 -333 290 0
9991 299 336 -333 -290 0
9270 299 -336 333 290 0
10145 299 -336 333 -290 0
10094 299 -336 -333 290 0
10269 299 -336 -333 -290 0
1854 -299 336 333 290 0
9033 -299 336 333 -290 0
8611 -299 336 -333 290 0
10047 -299 336 -333 -290 0
9455 -299 -336 333 290 0
10173 -299 -336 333 -290 0
10131 -299 -336 -333 290 0
10275 -299 -336 -333 -290 0
7840 291 616 337 -338 0
10080 291 616 -337 338 0
10864 291 616 -337 -338 0
8400 291 -616 337 338 0
10360 291 -616 337 -338 0
10920 291 -616 -337 338 0
11116 291 -616 -337 -338 0
1120 -291 616 337 338 0
8176 -291 616 337 -338 0
10192 -291 616 -337 338 0
10898 -291 616 -337 -338 0
8680 -291 -616 337 338 0
10444 -291 -616 337 -338 0
10948 -291 -616 -337 338 0
11124 -291 -616 -337 -338 0
6200 674 -334 0
6200 -674 334 0
9300 -674 -334 0
6965 313 323 310 602 343 324 -341 0
2985 313 323 310 602 343 -324 341 0
8905 313 323 310 602 343 -324 -341 0
13930 313 323 310 602 -343 324 341 0
16019 313 323 310 602 -343 324 -341 0
14825 313 323 310 602 -343 -324 341 0
16602 313 323 310 602 -343 -324 -341 0
5970 313 323 310 -602 343 324 341 0
10846 313 323 310 -602 343 324 -341 0
8059 313 323 310 -602 343 -324 341 0
12204 313 323 310 -602 343 -324 -341 0
15721 313 323 310 -602 -343 324 341 0
17184 313 323 310 -602 -343 324 -341 0
16348 313 323 310 -602 -343 -324 341 0
17591 313 323 310 -602 -343 -324 -341 0
7562 313 323 -310 602 343 324 341 0
11880 313 323 -310 602 343 324 -341 0
9413 313 323 -310 602 343 -324 341 0
13083 313 323 -310 602 343 -324 -341 0
16199 313 323 -310 602 -343 324 341 0
17494 313 323 -310 602 -343 324 -341 0
16754 313 323 -310 602 -343 -324 341 0
17855 313 323 -310 602 -343 -324 -341 0
11263 313 323 -310 -602 343 324 341 0
14286 313 323 -310 -602 343 324 -341 0
12559 313 323 -310 -602 343 -324 341 0
15128 313 323 -310 -602 343 -324 -341 0
17309 313 323 -310 -602 -343 324 341 0
18216 313 323 -310 -602 -343 324 -341 0
17698 313 323 -310 -602 -343 -324 341 0
18468 313 323 -310 -602 -343 -324 -341 0
2985 313 -323 310 602 343 324 341 0
8905 313 -323 310 602 343 324 -341 0
5522 313 -323 310 602 343 -324 341 0
10554 313 -323 310 602 343 -324 -341 0
14825 313 -323 310 602 -343 324 341 0
16602 313 -323 310 602 -343 324 -341 0
15587 313 -323 310 602 -343 -324 341 0
17096 313 -323 310 602 -343 -324 -341 0
8059 313 -323 310 -602 343 324 341 0
12204 313 -323 310 -602 343 324 -341 0
9836 313 -323 310 -602 343 -324 341 0
13358 313 -323 310 -602 343 -324 -341 0
16348 313 -323 310 -602 -343 324 341 0
17591 313 -323 310 -602 -343 324 -341 0
16881 313 -323 310 -602 -343 -324 341 0
17937 313 -323 310 -602 -343 -324 -341 0
9413 313 -323 -310 602 343 324 341 0
13083 313 -323 -310 602 343 324 -341 0
10986 313 -323 -310 602 343 -324 341 0
14106 313 -323 -310 602 343 -324 -341 0
16754 313 -323 -310 602 -343 324 341 0
17855 313 -323 -310 602 -343 324 -341 0
17226 313 -323 -310 602 -343 -324 341 0
18162 313 -323 -310 602 -343 -324 -341 0
12559 313 -323 -310 -602 343 324 341 0
15128 313 -323 -310 -602 343 324 -341 0
13660 313 -323 -310 -602 343 -324 341 0
15844 313 -323 -310 -602 343 -324 -341 0
17698 313 -323 -310 -602 -343 324 341 0
18468 313 -323 -310 -602 -343 324 -341 0
18028 313 -323 -310 -602 -343 -324 341 0
18683 313 -323 -310 -602 -343 -324 -341 0
14925 -313 323 310 602 343 324 341 0
16666 -313 323 310 602 343 324 -341 0
15671 -313 323 310 602 343 -324 341 0
17151 -313 323 310 602 343 -324 -341 0
18408 -313 323 310 602 -343 324 341 0
18930 -313 323 310 602 -343 324 -341 0
18631 -313 323 310 602 -343 -324 341 0
19075 -313 323 310 602 -343 -324 -341 0
16417 -313 323 310 -602 343 324 341 0
17636 -313 323 310 -602 343 324 -341 0
16940 -313 323 310 -602 343 -324 341 0
17976 -313 323 310 -602 343 -324 -341 0
18855 -313 323 310 -602 -343 324 341 0
19221 -313 323 310 -602 -343 324 -341 0
19012 -313 323 310 -602 -343 -324 341 0
19323 -313 323 310 -602 -343 -324 -341 0
16816 -313 323 -310 602 343 324 341 0
17895 -313 323 -310 602 343 324 -341 0
17278 -313 323 -310 602 343 -324 341 0
18196 -313 323 -310 602 343 -324 -341 0
18975 -313 323 -310 602 -343 324 341 0
19299 -313 323 -310 602 -343 324 -341 0
19113 -313 323 -310 602 -343 -324 341 0
19389 -313 323 -310 602 -343 -324 -341 0
17741 -313 323 -310 -602 343 324 341 0
18497 -313 323 -310 -602 343 324 -341 0
18065 -313 323 -310 -602 343 -324 341 0
18707 -313 323 -310 -602 343 -324 -341 0
19252 -313 323 -310 -602 -343 324 341 0
19479 -313 323 -310 -602 -343 324 -341 0
19349 -313 323 -310 -602 -343 -324 341 0
19542 -313 323 -310 -602 -343 -324 -341 0
15671 -313 -323 310 602 343 324 341 0
17151 -313 -323 310 602 343 324 -341 0
16306 -313 -323 310 602 343 -324 341 0
17564 -313 -323 310 602 343 -324 -341 0
18631 -313 -323 310 602 -343 324 341 0
19075 -313 -323 310 602 -343 324 -341 0
18822 -313 -323 310 602 -343 -324 341 0
19199 -313 -323 310 602 -343 -324 -341 0
16940 -313 -323 310 -602 343 324 341 0
17976 -313 -323 310 -602 343 324 -341 0
17384 -313 -323 310 -602 343 -324 341 0
18265 -313 -323 310 -602 343 -324 -341 0
19012 -313 -323 310 -602 -343 324 341 0
19323 -313 -323 310 -602 -343 324 -341 0
19145 -313 -323 310 -602 -343 -324 341 0
19409 -313 -323 310 -602 -343 -324 -341 0
17278 -313 -323 -310 602 343 324 341 0
18196 -313 -323 -310 602 343 324 -341 0
17671 -313 -323 -310 602 343 -324 341 0
18451 -313 -323 -310 602 343 -324 -341 0
19113 -313 -323 -310 602 -343 324 341 0
19389 -313 -323 -310 602 -343 324 -341 0
19231 -313 -323 -310 602 -343 -324 341 0
19465 -313 -323 -310 602 -343 -324 -341 0
18065 -313 -323 -310 -602 343 324 341 0
18707 -313 -323 -310 -602 343 324 -341 0
18340 -313 -323 -310 -602 343 -324 341 0
18886 -313 -323 -310 -602 343 -324 -341 0
19349 -313 -323 -310 -602 -343 324 341 0
19542 -313 -323 -310 -602 -343 324 -341 0
19432 -313 -323 -310 -602 -343 -324 341 0
19596 -313 -323 -310 -602 -343 -324 -341 0
7840 708 -339 0
2800 -708 339 0
8680 -708 -339 0
1120 335 325 321 -569 0
1120 335 325 -321 569 0
2128 335 325 -321 -569 0
6160 335 -325 321 569 0
6664 335 -325 321 -569 0
6664 335 -325 -321 569 0
7118 335 -325 -321 -569 0
8400 -335 325 321 569 0
8680 -335 325 321 -569 0
8680 -335 325 -321 569 0
8932 -335 325 -321 -569 0
9940 -335 -325 321 569 0
10066 -335 -325 321 -569 0
10066 -335 -325 -321 569 0
10179 -335 -325 -321 -569 0
2975 344 345 314 -598 0
5950 344 345 -314 598 0
7438 344 345 -314 -598 0
1785 344 -345 314 598 0
4314 344 -345 314 -598 0
6842 344 -345 -314 598 0
8107 344 -345 -314 -598 0
238 -344 345 314 598 0
3154 -344 345 314 -598 0
6069 -344 345 -314 598 0
7527 -344 345 -314 -598 0
1987 -344 -345 314 598 0
4465 -344 -345 314 -598 0
6944 -344 -345 -314 598 0
8183 -344 -345 -314 -598 0
1190 746 342 -350 0
10710 746 -342 350 0
10829 746 -342 -350 0
238 -746 342 350 0
1404 -746 342 -350 0
10734 -746 -342 350 0
10850 -746 -342 -350 0
3798 750 359 351 312 -361 0
8018 750 359 351 -312 361 0
10373 750 359 351 -312 -361 0
20045 750 359 -351 312 361 0
20235 750 359 -351 312 -361 0
20446 750 359 -351 -312 361 0
20564 750 359 -351 -312 -361 0
6752 750 -359 351 312 361 0
9335 750 -359 351 312 -361 0
12204 750 -359 351 -312 361 0
13805 750 -359 351 -312 -361 0
20383 750 -359 -351 312 361 0
20512 750 -359 -351 312 -361 0
20655 750 -359 -351 -312 361 0
20735 750 -359 -351 -312 -361 0
8018 -750 359 351 312 361 0
10373 -750 359 351 312 -361 0
12989 -750 359 351 -312 361 0
14449 -750 359 351 -312 -361 0
20446 -750 359 -351 312 361 0
20564 -750 359 -351 312 -361 0
20694 -750 359 -351 -312 361 0
20767 -750 359 -351 -312 -361 0
12204 -750 -359 351 312 361 0
13805 -750 -359 351 312 -361 0
15585 -750 -359 351 -312 361 0
16577 -750 -359 351 -312 -361 0
20655 -750 -359 -351 312 361 0
20735 -750 -359 -351 312 -361 0
20824 -750 -359 -351 -312 361 0
20874 -750 -359 -351 -312 -361 0
1765 360 -609 0
21180 -360 609 0
21886 -360 -609 0
71280 363 -354 0
15840 -363 354 0
72864 -363 -354 0
10590 -264 0
26524 292 362 -316 0
17450 292 -362 316 0
37343 292 -362 -316 0
20940 -292 362 316 0
39507 -292 362 -316 0
33155 -292 -362 316 0
47080 -292 -362 -316 0
17680 365 367 -355 0
13260 365 -367 355 0
20332 365 -367 -355 0
14365 -365 367 355 0
20553 -365 367 -355 0
19006 -365 -367 355 0
21481 -365 -367 -355 0
17800 369 374 371 -464 0
56960 369 374 -371 464 0
60520 369 374 -371 -464 0
17800 369 -374 371 464 0
31150 369 -374 371 -464 0
60520 369 -374 -371 464 0
63190 369 -374 -371 -464 0
24920 -369 374 371 464 0
36490 -369 374 371 -464 0
61944 -369 374 -371 464 0
64258 -369 374 -371 -464 0
36490 -369 -374 371 464 0
45167 -369 -374 371 -464 0
64258 -369 -374 -371 464 0
65994 -369 -374 -371 -464 0
18900 622 372 347 -346 0
13608 622 372 -347 346 0
29106 622 372 -347 -346 0
18900 622 -372 347 346 0
33075 622 -372 347 -346 0
29106 622 -372 -347 346 0
40730 622 -372 -347 -346 0
15120 -622 372 347 346 0
30240 -622 372 347 -346 0
26006 -622 372 -347 346 0
38405 -622 372 -347 -346 0
30240 -622 -372 347 346 0
41580 -622 -372 347 -346 0
38405 -622 -372 -347 346 0
47704 -622 -372 -347 -346 0
3370 348 368 623 370 -376 0
8425 348 368 623 -370 376 0
10952 348 368 623 -370 -376 0
6740 348 368 -623 370 376 0
9436 348 368 -623 370 -376 0
13480 348 368 -623 -370 376 0
15502 348 368 -623 -370 -376 0
13480 348 -368 623 370 376 0
15502 348 -368 623 370 -376 0
18535 348 -368 623 -370 376 0
20051 348 -368 623 -370 -376 0
17524 348 -368 -623 370 376 0
19142 348 -368 -623 370 -376 0
21568 348 -368 -623 -370 376 0
22781 348 -368 -623 -370 -376 0
26960 -348 368 623 370 376 0
27634 -348 368 623 370 -376 0
28645 -348 368 623 -370 376 0
29150 -348 368 623 -370 -376 0
28308 -348 368 -623 370 376 0
28847 -348 368 -623 370 -376 0
29656 -348 368 -623 -370 376 0
30060 -348 368 -623 -370 -376 0
29656 -348 -368 623 370 376 0
30060 -348 -368 623 370 -376 0
30667 -348 -368 623 -370 376 0
30970 -348 -368 623 -370 -376 0
30465 -348 -368 -623 370 376 0
30788 -348 -368 -623 370 -376 0
31274 -348 -368 -623 -370 376 0
31516 -348 -368 -623 -370 -376 0
49840 364 326 378 -366 0
24920 364 326 -378 366 0
57316 364 326 -378 -366 0
32040 364 -326 378 366 0
59452 364 -326 378 -366 0
45746 364 -326 -378 366 0
63564 364 -326 -378 -366 0
32040 -364 326 378 366 0
59452 -364 326 378 -366 0
45746 -364 326 -378 366 0
63564 -364 326 -378 -366 0
49662 -364 -326 378 366 0
64739 -364 -326 378 -366 0
57200 -364 -326 -378 366 0
67000 -364 -326 -378 -366 0
7735 375 -373 0
12155 -375 373 0
15636 -375 -373 0
10784 306 -377 0
25275 -306 377 0
27971 -306 -377 0
14770 293 -393 0
6330 -293 393 0
16669 -293 -393 0
6200 379 -296 0
1488 -379 296 0
6944 -379 -296 0
595 387 479 -394 0
5950 387 -479 394 0
6248 387 -479 -394 0
3808 -387 479 394 0
4213 -387 479 -394 0
7854 -387 -479 394 0
8056 -387 -479 -394 0
4165 389 -349 0
2380 -389 349 0
5712 -389 -349 0
1396 401 390 709 -391 0
26524 401 390 -709 391 0
27390 401 390 -709 -391 0
22336 401 -390 709 391 0
23285 401 -390 709 -391 0
40372 401 -390 -709 391 0
40961 401 -390 -709 -391 0
27920 -401 390 709 391 0
28758 -401 390 709 -391 0
43834 -401 390 -709 391 0
44354 -401 390 -709 -391 0
41322 -401 -390 709 391 0
41891 -401 -390 709 -391 0
52143 -401 -390 -709 391 0
52497 -401 -390 -709 -391 0
14770 399 -646 0
1055 -399 646 0
15086 -399 -646 0
75240 603 400 405 -395 0
11880 603 400 -405 395 0
75834 603 400 -405 -395 0
43560 603 -400 405 395 0
77418 603 -400 405 -395 0
48906 603 -400 -405 395 0
77685 603 -400 -405 -395 0
31680 -603 400 405 395 0
76824 -603 400 405 -395 0
38808 -603 400 -405 395 0
77180 -603 400 -405 -395 0
57816 -603 -400 405 395 0
78131 -603 -400 405 -395 0
61024 -603 -400 -405 395 0
78291 -603 -400 -405 -395 0
4522 397 506 -411 0
1428 397 -506 411 0
5407 397 -506 -411 0
4165 -397 506 411 0
7104 -397 506 -411 0
5093 -397 -506 411 0
7680 -397 -506 -411 0
3655 257 -406 0
43860 -257 406 0
45322 -257 -406 0
1344 211 388 396 -415 0
7840 211 388 -396 415 0
8243 211 388 -396 -415 0
3920 211 -388 396 415 0
4794 211 -388 396 -415 0
9016 211 -388 -396 415 0
9278 211 -388 -396 -415 0
2016 -211 388 396 415 0
3118 -211 388 396 -415 0
8445 -211 388 -396 415 0
8775 -211 388 -396 -415 0
5230 -211 -388 396 415 0
5947 -211 -388 396 -415 0
9409 -211 -388 -396 415 0
9624 -211 -388 -396 -415 0
1055 416 524 -398 0
9495 416 -524 398 0
10075 416 -524 -398 0
6330 -416 524 398 0
7069 -416 524 -398 0
12976 -416 -524 398 0
13383 -416 -524 -398 0
1488 635 -402 0
4712 -635 402 0
5635 -635 -402 0
2060 392 -198 0
4120 -392 198 0
5356 -392 -198 0
3370 421 413 419 475 -412 0
16850 421 413 419 -475 412 0
18535 421 413 419 -475 -412 0
4044 421 413 -419 475 412 0
7010 421 413 -419 475 -412 0
18872 421 413 -419 -475 412 0
20355 421 413 -419 -475 -412 0
20220 421 -413 419 475 412 0
21568 421 -413 419 475 -412 0
26960 421 -413 419 -475 412 0
27634 421 -413 419 -475 -412 0
21838 421 -413 -419 475 412 0
23024 421 -413 -419 475 -412 0
27769 421 -413 -419 -475 412 0
28362 421 -413 -419 -475 -412 0
11795 -421 413 419 475 412 0
13985 -421 413 419 475 -412 0
22748 -421 413 419 -475 412 0
23843 -421 413 419 -475 -412 0
14424 -421 413 -419 475 412 0
16351 -421 413 -419 475 -412 0
24062 -421 413 -419 -475 412 0
25026 -421 413 -419 -475 -412 0
24938 -421 -413 419 475 412 0
25814 -421 -413 419 475 -412 0
29319 -421 -413 419 -475 412 0
29757 -421 -413 419 -475 -412 0
25989 -421 -413 -419 475 412 0
26760 -421 -413 -419 475 -412 0
29845 -421 -413 -419 -475 412 0
30230 -421 -413 -419 -475 -412 0
4960 -604 0
17800 423 499 -403 0
53400 423 -499 403 0
57850 423 -499 -403 0
67640 -423 499 403 0
68530 -423 499 -403 0
70310 -423 -499 403 0
70532 -423 -499 -403 0
4256 -340 0
11605 422 417 -380 0
422 422 -417 380 0
11795 422 -417 -380 0
18990 -422 417 380 0
20151 -422 417 -380 0
19032 -422 -417 380 0
20169 -422 -417 -380 0
21024 429 414 230 437 420 -435 0
16425 429 414 230 437 -420 435 0
32193 429 414 230 437 -420 -435 0
24966 429 414 230 -437 420 435 0
38001 429 414 230 -437 420 -435 0
35150 429 414 230 -437 -420 435 0
44926 429 414 230 -437 -420 -435 0
21024 429 414 -230 437 420 435 0
35320 429 414 -230 437 420 -435 0
32193 429 414 -230 437 -420 435 0
42915 429 414 -230 437 -420 -435 0
38001 429 414 -230 -437 420 435 0
46865 429 414 -230 -437 420 -435 0
44926 429 414 -230 -437 -420 435 0
51573 429 414 -230 -437 -420 -435 0
16425 429 -414 230 437 420 435 0
32193 429 -414 230 437 420 -435 0
28744 429 -414 230 437 -420 435 0
40570 429 -414 230 437 -420 -435 0
35150 429 -414 230 -437 420 435 0
44926 429 -414 230 -437 420 -435 0
42787 429 -414 230 -437 -420 435 0
50119 429 -414 230 -437 -420 -435 0
32193 429 -414 -230 437 420 435 0
42915 429 -414 -230 437 420 -435 0
40570 429 -414 -230 437 -420 435 0
48611 429 -414 -230 437 -420 -435 0
44926 429 -414 -230 -437 420 435 0
51573 429 -414 -230 -437 420 -435 0
50119 429 -414 -230 -437 -420 435 0
55105 429 -414 -230 -437 -420 -435 0
52560 -429 414 230 437 420 435 0
56765 -429 414 230 437 420 -435 0
55845 -429 414 230 437 -420 435 0
58999 -429 414 230 437 -420 -435 0
57553 -429 414 230 -437 420 435 0
60160 -429 414 230 -437 420 -435 0
59590 -429 414 230 -437 -420 435 0
61545 -429 414 230 -437 -420 -435 0
56765 -429 414 -230 437 420 435 0
59624 -429 414 -230 437 420 -435 0
58999 -429 414 -230 437 -420 435 0
61143 -429 414 -230 437 -420 -435 0
60160 -429 414 -230 -437 420 435 0
61933 -429 414 -230 -437 420 -435 0
61545 -429 414 -230 -437 -420 435 0
62875 -429 414 -230 -437 -420 -435 0
55845 -429 -414 230 437 420 435 0
58999 -429 -414 230 437 420 -435 0
58309 -429 -414 230 437 -420 435 0
60674 -429 -414 230 437 -420 -435 0
59590 -429 -414 230 -437 420 435 0
61545 -429 -414 230 -437 420 -435 0
61117 -429 -414 230 -437 -420 435 0
62584 -429 -414 230 -437 -420 -435 0
58999 -429 -414 -230 437 420 435 0
61143 -429 -414 -230 437 420 -435 0
60674 -429 -414 -230 437 -420 435 0
62282 -429 -414 -230 437 -420 -435 0
61545 -429 -414 -230 -437 420 435 0
62875 -429 -414 -230 -437 420 -435 0
62584 -429 -414 -230 -437 -420 435 0
63581 -429 -414 -230 -437 -420 -435 0
15825 425 418 -585 0
10550 425 -418 585 0
18462 425 -418 -585 0
15825 -425 418 585 0
19781 -425 418 -585 0
18462 -425 -418 585 0
20441 -425 -418 -585 0
238 430 436 -738 0
2975 430 -436 738 0
3154 430 -436 -738 0
4522 -430 436 738 0
4670 -430 436 -738 0
6367 -430 -436 738 0
6477 -430 -436 -738 0
8925 404 236 440 -438 0
6545 404 236 -440 438 0
10561 404 236 -440 -438 0
5950 404 -236 440 438 0
10412 404 -236 440 -438 0
9223 404 -236 -440 438 0
11231 404 -236 -440 -438 0
10115 -404 236 440 438 0
11454 -404 236 440 -438 0
11097 -404 236 -440 438 0
11699 -404 236 -440 -438 0
11008 -404 -236 440 438 0
11677 -404 -236 440 -438 0
11498 -404 -236 -440 438 0
11800 -404 -236 -440 -438 0
39160 426 476 -424 0
46280 426 -476 424 0
59986 426 -476 -424 0
32040 -426 476 424 0
53578 -426 476 -424 0
57494 -426 -476 424 0
65032 -426 -476 -424 0
13930 439 486 -441 0
6368 439 -486 441 0
15840 439 -486 -441 0
8955 -439 486 441 0
16616 -439 486 -441 0
12457 -439 -486 441 0
17667 -439 -486 -441 0
7310 427 -564 0
47515 -427 564 0
50074 -427 -564 0
8330 443 428 442 -739 0
1190 443 428 -442 739 0
8687 443 428 -442 -739 0
10115 443 -428 442 739 0
11364 443 -428 442 -739 0
10294 443 -428 -442 739 0
11418 443 -428 -442 -739 0
9520 -443 428 442 739 0
11186 -443 428 442 -739 0
9758 -443 428 -442 739 0
11257 -443 428 -442 -739 0
11543 -443 -428 442 739 0
11793 -443 -428 442 -739 0
11579 -443 -428 -442 739 0
11804 -443 -428 -442 -739 0
34020 -482 0
