p wcnf 69 216 1000000
1000000 1 0
1000000 2 -16 0
1000000 16 -48 -49 -1 0
1000000 12 -17 0
1000000 17 -52 -56 -53 -1 0
1000000 5 -18 0
1000000 18 -51 -54 -1 0
1000000 6 -19 0
1000000 19 -58 -57 -63 -1 0
1000000 7 -20 0
1000000 20 -62 -59 -1 0
1000000 14 -21 0
1000000 21 -60 -2 0
1000000 3 -22 0
1000000 22 -50 -61 -2 0
1000000 8 -23 0
1000000 23 -49 -50 -2 0
1000000 12 -24 0
1000000 24 -55 -52 -11 0
1000000 15 -25 0
1000000 25 -48 -54 -12 0
1000000 4 -26 0
1000000 26 -60 -55 -53 -3 0
1000000 5 -27 0
1000000 27 -59 -58 -63 -3 0
1000000 9 -28 0
1000000 28 -50 -57 -62 -3 0
1000000 5 -29 0
1000000 29 -51 -4 0
1000000 6 -30 0
1000000 30 -53 -61 -56 -4 0
1000000 8 -31 0
1000000 31 -57 -48 -58 -4 0
1000000 9 -32 0
1000000 32 -51 -4 0
1000000 11 -33 0
1000000 33 -54 -61 -59 -5 0
1000000 12 -34 0
1000000 34 -49 -5 0
1000000 14 -35 0
1000000 35 -52 -5 0
1000000 13 -36 0
1000000 36 -62 -60 -49 -6 0
1000000 7 -37 0
1000000 37 -56 -6 0
1000000 8 -38 0
1000000 38 -63 -6 0
1000000 11 -39 0
1000000 39 -51 -53 -7 0
1000000 13 -40 0
1000000 40 -55 -7 0
1000000 12 -41 0
1000000 41 -50 -56 -52 -8 0
1000000 15 -42 0
1000000 42 -57 -59 -8 0
1000000 10 -43 0
1000000 43 -49 -60 -55 -8 0
1000000 13 -44 0
1000000 44 -58 -9 0
1000000 10 -45 0
1000000 45 -61 -9 0
1000000 11 -46 0
1000000 46 -62 -63 -51 -10 0
1000000 15 -47 0
1000000 47 -55 -50 -10 0
1000000 1 0
1000000 -2 16 0
1000000 -3 22 0
1000000 -4 26 0
1000000 -5 18 29 27 0
1000000 -6 19 30 0
1000000 -7 20 37 0
1000000 -8 23 38 31 0
1000000 -9 32 28 0
1000000 -10 45 43 0
1000000 -11 39 46 33 0
1000000 -12 24 41 17 34 0
1000000 -13 36 44 40 0
1000000 -14 21 35 0
1000000 -15 47 25 42 0
1000000 48 65 0
1000000 49 65 0
1000000 50 64 0
1000000 51 66 0
1000000 52 64 0
1000000 53 65 0
1000000 54 67 0
1000000 55 66 0
1000000 56 68 0
1000000 57 69 0
1000000 58 69 0
1000000 59 66 0
1000000 60 69 0
1000000 61 68 0
1000000 62 64 0
1000000 63 68 0
1000000 -48 -65 0
1000000 -49 -65 0
1000000 -50 -64 0
1000000 -51 -66 0
1000000 -52 -64 0
1000000 -53 -65 0
1000000 -54 -67 0
1000000 -55 -66 0
1000000 -56 -68 0
1000000 -57 -69 0
1000000 -58 -69 0
1000000 -59 -66 0
1000000 -60 -69 0
1000000 -61 -68 0
1000000 -62 -64 0
1000000 -63 -68 0
12300 -64 0
12300 -65 0
8300 -66 0
13700 -67 0
12300 -68 0
13700 -69 0
3000 48 0
800 49 0
800 50 0
3000 51 0
3300 52 0
800 53 0
3300 54 0
800 55 0
2600 56 0
3300 57 0
3300 58 0
1500 59 0
700 60 0
2600 61 0
3000 62 0
3000 63 0
17775 -16 0
23050 -22 0
10344 -26 0
12078 18 29 -27 0
63745 18 -29 27 0
64349 18 -29 -27 0
21472 -18 29 27 0
29685 -18 29 -27 0
64819 -18 -29 27 0
65229 -18 -29 -27 0
12640 19 -30 0
11850 -19 30 0
20698 -19 -30 0
7035 20 -37 0
8442 -20 37 0
14211 -20 -37 0
18440 23 38 -31 0
5532 23 -38 31 0
21759 23 -38 -31 0
5532 -23 38 31 0
21759 -23 38 -31 0
10400 -23 -38 31 0
24680 -23 -38 -31 0
64650 32 -28 0
4310 -32 28 0
65727 -32 -28 0
28070 45 -43 0
802 -45 43 0
28311 -45 -43 0
728 39 46 -33 0
32760 39 -46 33 0
32833 39 -46 -33 0
14560 -39 46 33 0
14997 -39 46 -33 0
34216 -39 -46 33 0
34260 -39 -46 -33 0
12480 24 41 17 -34 0
26520 24 41 -17 34 0
28392 24 41 -17 -34 0
7800 24 -41 17 34 0
17160 24 -41 17 -34 0
27690 24 -41 -17 34 0
29094 24 -41 -17 -34 0
7800 -24 41 17 34 0
17160 -24 41 17 -34 0
27690 -24 41 -17 34 0
29094 -24 41 -17 -34 0
13650 -24 -41 17 34 0
20670 -24 -41 17 -34 0
28568 -24 -41 -17 34 0
29620 -24 -41 -17 -34 0
18440 36 44 -40 0
17518 36 -44 40 0
28951 36 -44 -40 0
8298 -36 44 40 0
23419 -36 44 -40 0
22663 -36 -44 40 0
32038 -36 -44 -40 0
29965 21 -35 0
11525 -21 35 0
33999 -21 -35 0
2525 47 25 -42 0
10100 47 -25 42 0
12120 47 -25 -42 0
12625 -47 25 42 0
14519 -47 25 -42 0
20200 -47 -25 42 0
21715 -47 -25 -42 0
