p wcnf 58 181 1000000
1000000 1 0
1000000 2 -15 0
1000000 15 -41 -46 -49 -1 0
1000000 4 -16 0
1000000 16 -44 -1 0
1000000 7 -17 0
1000000 17 -45 -42 -1 0
1000000 3 -18 0
1000000 18 -43 -2 0
1000000 4 -19 0
1000000 19 -47 -2 0
1000000 6 -20 0
1000000 20 -51 -2 0
1000000 10 -21 0
1000000 21 -41 -42 -43 -2 0
1000000 12 -22 0
1000000 22 -44 -48 -11 0
1000000 13 -23 0
1000000 23 -51 -49 -45 -12 0
1000000 14 -24 0
1000000 24 -50 -43 -47 -13 0
1000000 12 -25 0
1000000 25 -53 -46 -3 0
1000000 5 -26 0
1000000 26 -53 -42 -3 0
1000000 9 -27 0
1000000 27 -49 -41 -52 -3 0
1000000 14 -28 0
1000000 28 -52 -4 0
1000000 7 -29 0
1000000 29 -48 -47 -4 0
1000000 8 -30 0
1000000 30 -50 -53 -44 -4 0
1000000 11 -31 0
1000000 31 -45 -5 0
1000000 8 -32 0
1000000 32 -51 -41 -50 -5 0
1000000 14 -33 0
1000000 33 -43 -52 -45 -6 0
1000000 12 -34 0
1000000 34 -42 -47 -46 -7 0
1000000 13 -35 0
1000000 35 -48 -7 0
1000000 8 -36 0
1000000 36 -51 -48 -7 0
1000000 12 -37 0
1000000 37 -49 -50 -8 0
1000000 9 -38 0
1000000 38 -52 -8 0
1000000 11 -39 0
1000000 39 -46 -9 0
1000000 14 -40 0
1000000 40 -42 -48 -41 -10 0
1000000 1 0
1000000 -2 15 0
1000000 -3 18 0
1000000 -4 19 16 0
1000000 -5 26 0
1000000 -6 20 0
1000000 -7 17 29 0
1000000 -8 32 30 36 0
1000000 -9 38 27 0
1000000 -10 21 0
1000000 -11 31 39 0
1000000 -12 37 22 34 25 0
1000000 -13 35 23 0
1000000 -14 24 40 28 33 0
1000000 41 56 0
1000000 42 55 0
1000000 43 57 0
1000000 44 56 0
1000000 45 55 0
1000000 46 56 0
1000000 47 57 0
1000000 48 54 0
1000000 49 55 0
1000000 50 57 0
1000000 51 54 0
1000000 52 58 0
1000000 53 54 0
1000000 -41 -56 0
1000000 -42 -55 0
1000000 -43 -57 0
1000000 -44 -56 0
1000000 -45 -55 0
1000000 -46 -56 0
1000000 -47 -57 0
1000000 -48 -54 0
1000000 -49 -55 0
1000000 -50 -57 0
1000000 -51 -54 0
1000000 -52 -58 0
1000000 -53 -54 0
7500 -54 0
7500 -55 0
7500 -56 0
10500 -57 0
10700 -58 0
3100 41 0
1100 42 0
1600 43 0
1100 44 0
1900 45 0
1900 46 0
3700 47 0
3700 48 0
2600 49 0
2600 50 0
3100 51 0
3100 52 0
2200 53 0
2740 -15 0
492 -18 0
35775 19 -16 0
9540 -19 16 0
38160 -19 -16 0
16760 -26 0
26455 -20 0
16675 17 -29 0
1334 -17 29 0
17675 -17 -29 0
23625 32 30 -36 0
23625 32 -30 36 0
29531 32 -30 -36 0
15750 -32 30 36 0
27562 -32 30 -36 0
27562 -32 -30 36 0
30516 -32 -30 -36 0
1676 38 -27 0
10056 -38 27 0
11531 -38 -27 0
24705 -21 0
9175 31 -39 0
13946 -31 39 0
19634 -31 -39 0
41175 37 22 34 -25 0
30195 37 22 -34 25 0
48724 37 22 -34 -25 0
17568 37 -22 34 25 0
45567 37 -22 34 -25 0
38101 37 -22 -34 25 0
50700 37 -22 -34 -25 0
49410 -37 22 34 25 0
53527 -37 22 34 -25 0
52430 -37 22 -34 25 0
54282 -37 22 -34 -25 0
51167 -37 -22 34 25 0
53967 -37 -22 34 -25 0
53220 -37 -22 -34 25 0
54480 -37 -22 -34 -25 0
9348 35 -23 0
8610 -35 23 0
14686 -35 -23 0
9204 24 40 28 -33 0
65195 24 40 -28 33 0
66576 24 40 -28 -33 0
3835 24 -40 28 33 0
12579 24 -40 28 -33 0
65770 24 -40 -28 33 0
67082 24 -40 -28 -33 0
42185 -24 40 28 33 0
46327 -24 40 28 -33 0
71523 -24 40 -28 33 0
72144 -24 40 -28 -33 0
43911 -24 -40 28 33 0
47845 -24 -40 28 -33 0
71782 -24 -40 -28 33 0
72372 -24 -40 -28 -33 0
