p wcnf 66 243 1000000
1000000 1 0
1000000 2 -15 0
1000000 15 -51 -50 -1 0
1000000 3 -16 0
1000000 16 -54 -53 -1 0
1000000 4 -17 0
1000000 17 -59 -57 -49 -1 0
1000000 7 -18 0
1000000 18 -52 -1 0
1000000 9 -19 0
1000000 19 -56 -47 -1 0
1000000 4 -20 0
1000000 20 -58 -2 0
1000000 5 -21 0
1000000 21 -48 -60 -2 0
1000000 8 -22 0
1000000 22 -48 -49 -2 0
1000000 10 -23 0
1000000 23 -54 -53 -52 -2 0
1000000 14 -24 0
1000000 24 -61 -47 -56 -11 0
1000000 14 -25 0
1000000 25 -59 -51 -12 0
1000000 14 -26 0
1000000 26 -55 -61 -13 0
1000000 12 -27 0
1000000 27 -50 -55 -3 0
1000000 4 -28 0
1000000 28 -47 -57 -3 0
1000000 5 -29 0
1000000 29 -48 -4 0
1000000 6 -30 0
1000000 30 -60 -4 0
1000000 14 -31 0
1000000 31 -58 -5 0
1000000 6 -32 0
1000000 32 -57 -49 -51 -5 0
1000000 9 -33 0
1000000 33 -50 -54 -5 0
1000000 10 -34 0
1000000 34 -55 -59 -5 0
1000000 12 -35 0
1000000 35 -53 -6 0
1000000 13 -36 0
1000000 36 -61 -47 -52 -6 0
1000000 7 -37 0
1000000 37 -58 -50 -6 0
1000000 10 -38 0
1000000 38 -53 -60 -55 -6 0
1000000 8 -39 0
1000000 39 -48 -7 0
1000000 10 -40 0
1000000 40 -54 -52 -7 0
1000000 9 -41 0
1000000 41 -49 -61 -58 -8 0
1000000 10 -42 0
1000000 42 -49 -57 -60 -8 0
1000000 11 -43 0
1000000 43 -47 -48 -9 0
1000000 14 -44 0
1000000 44 -54 -53 -56 -9 0
1000000 12 -45 0
1000000 45 -55 -56 -10 0
1000000 13 -46 0
1000000 46 -50 -10 0
1000000 1 0
1000000 -2 15 0
1000000 -3 16 0
1000000 -4 17 20 28 0
1000000 -5 21 29 0
1000000 -6 32 30 0
1000000 -7 37 18 0
1000000 -8 22 39 0
1000000 -9 41 33 19 0
1000000 -10 23 40 34 38 42 0
1000000 -11 43 0
1000000 -12 27 35 45 0
1000000 -13 36 46 0
1000000 -14 44 24 26 25 31 0
1000000 47 65 0
1000000 48 66 0
1000000 49 63 0
1000000 50 62 0
1000000 51 62 0
1000000 52 62 0
1000000 53 64 0
1000000 54 65 0
1000000 55 64 0
1000000 56 65 0
1000000 57 66 0
1000000 58 66 0
1000000 59 64 0
1000000 60 63 0
1000000 61 63 0
1000000 -47 -65 0
1000000 -48 -66 0
1000000 -49 -63 0
1000000 -50 -62 0
1000000 -51 -62 0
1000000 -52 -62 0
1000000 -53 -64 0
1000000 -54 -65 0
1000000 -55 -64 0
1000000 -56 -65 0
1000000 -57 -66 0
1000000 -58 -66 0
1000000 -59 -64 0
1000000 -60 -63 0
1000000 -61 -63 0
9500 -62 0
9500 -63 0
9500 -64 0
11600 -65 0
12200 -66 0
1900 47 0
3000 48 0
1000 49 0
1400 50 0
1900 51 0
3800 52 0
1900 53 0
3700 54 0
1100 55 0
1400 56 0
1900 57 0
1400 58 0
1000 59 0
1500 60 0
1900 61 0
11200 -15 0
7260 -16 0
8470 17 20 -28 0
4840 17 -20 28 0
11616 17 -20 -28 0
9196 -17 20 28 0
14447 -17 20 -28 0
12197 -17 -20 28 0
16398 -17 -20 -28 0
1815 21 -29 0
19965 -21 29 0
20782 -21 -29 0
12740 32 -30 0
6370 -32 30 0
17836 -32 -30 0
9828 37 -18 0
13650 -37 18 0
21021 -37 -18 0
8150 22 -39 0
5705 -22 39 0
11003 -22 -39 0
18660 41 33 -19 0
9330 41 -33 19 0
22392 41 -33 -19 0
4665 -41 33 19 0
20526 -41 33 -19 0
12596 -41 -33 19 0
23698 -41 -33 -19 0
38640 23 40 34 38 -42 0
11040 23 40 34 -38 42 0
41952 23 40 34 -38 -42 0
19320 23 40 -34 38 42 0
44436 23 40 -34 38 -42 0
26496 23 40 -34 -38 42 0
46589 23 40 -34 -38 -42 0
5520 23 -40 34 38 42 0
40296 23 -40 34 38 -42 0
15456 23 -40 34 -38 42 0
43277 23 -40 34 -38 -42 0
22908 23 -40 -34 38 42 0
45512 23 -40 -34 38 -42 0
29366 23 -40 -34 -38 42 0
47450 23 -40 -34 -38 -42 0
5520 -23 40 34 38 42 0
40296 -23 40 34 38 -42 0
15456 -23 40 34 -38 42 0
43277 -23 40 34 -38 -42 0
22908 -23 40 -34 38 42 0
45512 -23 40 -34 38 -42 0
29366 -23 40 -34 -38 42 0
47450 -23 40 -34 -38 -42 0
10488 -23 -40 34 38 42 0
41786 -23 -40 34 38 -42 0
19430 -23 -40 34 -38 42 0
44469 -23 -40 34 -38 -42 0
26137 -23 -40 -34 38 42 0
46481 -23 -40 -34 38 -42 0
31950 -23 -40 -34 -38 42 0
48225 -23 -40 -34 -38 -42 0
30360 -43 0
6194 27 35 -45 0
1630 27 -35 45 0
7205 27 -35 -45 0
5216 -27 35 45 0
9428 -27 35 -45 0
6324 -27 -35 45 0
10115 -27 -35 -45 0
11818 36 -46 0
6220 -36 46 0
15674 -36 -46 0
24840 44 24 26 25 -31 0
8280 44 24 26 -25 31 0
29394 44 24 26 -25 -31 0
6624 44 24 -26 25 31 0
28483 44 24 -26 25 -31 0
13910 44 24 -26 -25 31 0
32491 44 24 -26 -25 -31 0
33120 44 -24 26 25 31 0
43056 44 -24 26 25 -31 0
36432 44 -24 26 -25 31 0
44878 44 -24 26 -25 -31 0
35770 44 -24 -26 25 31 0
44513 44 -24 -26 25 -31 0
38684 44 -24 -26 -25 31 0
46116 44 -24 -26 -25 -31 0
24840 -44 24 26 25 31 0
38502 -44 24 26 25 -31 0
29394 -44 24 26 -25 31 0
41007 -44 24 26 -25 -31 0
28483 -44 24 -26 25 31 0
40506 -44 24 -26 25 -31 0
32491 -44 24 -26 -25 31 0
42710 -44 24 -26 -25 -31 0
43056 -44 -24 26 25 31 0
48521 -44 -24 26 25 -31 0
44878 -44 -24 26 -25 31 0
49523 -44 -24 26 -25 -31 0
44513 -44 -24 -26 25 31 0
49322 -44 -24 -26 25 -31 0
46116 -44 -24 -26 -25 31 0
50204 -44 -24 -26 -25 -31 0
