p wcnf 74 232 1000000
1000000 1 0
1000000 2 -17 0
1000000 17 -56 -55 -54 -1 0
1000000 13 -18 0
1000000 18 -53 -58 -1 0
1000000 16 -19 0
1000000 19 -59 -65 -57 -1 0
1000000 3 -20 0
1000000 20 -60 -1 0
1000000 4 -21 0
1000000 21 -52 -1 0
1000000 5 -22 0
1000000 22 -52 -68 -62 -1 0
1000000 12 -23 0
1000000 23 -64 -66 -2 0
1000000 3 -24 0
1000000 24 -63 -53 -2 0
1000000 6 -25 0
1000000 25 -67 -2 0
1000000 7 -26 0
1000000 26 -56 -58 -2 0
1000000 8 -27 0
1000000 27 -62 -54 -63 -2 0
1000000 10 -28 0
1000000 28 -65 -61 -67 -2 0
1000000 13 -29 0
1000000 29 -60 -57 -11 0
1000000 14 -30 0
1000000 30 -61 -11 0
1000000 15 -31 0
1000000 31 -55 -14 0
1000000 16 -32 0
1000000 32 -56 -59 -53 -14 0
1000000 16 -33 0
1000000 33 -54 -66 -64 -15 0
1000000 11 -34 0
1000000 34 -52 -57 -59 -3 0
1000000 4 -35 0
1000000 35 -60 -58 -64 -3 0
1000000 6 -36 0
1000000 36 -61 -3 0
1000000 7 -37 0
1000000 37 -55 -62 -3 0
1000000 5 -38 0
1000000 38 -63 -4 0
1000000 8 -39 0
1000000 39 -67 -52 -56 -4 0
1000000 7 -40 0
1000000 40 -65 -5 0
1000000 14 -41 0
1000000 41 -68 -66 -7 0
1000000 9 -42 0
1000000 42 -53 -7 0
1000000 10 -43 0
1000000 43 -68 -7 0
1000000 12 -44 0
1000000 44 -54 -57 -60 -8 0
1000000 12 -45 0
1000000 45 -55 -58 -9 0
1000000 15 -46 0
1000000 46 -66 -63 -62 -9 0
1000000 10 -47 0
1000000 47 -61 -9 0
1000000 11 -48 0
1000000 48 -68 -67 -10 0
1000000 12 -49 0
1000000 49 -64 -54 -10 0
1000000 14 -50 0
1000000 50 -52 -56 -55 -10 0
1000000 15 -51 0
1000000 51 -58 -65 -10 0
1000000 1 0
1000000 -2 17 0
1000000 -3 20 24 0
1000000 -4 21 35 0
1000000 -5 22 38 0
1000000 -6 36 25 0
1000000 -7 40 26 37 0
1000000 -8 27 39 0
1000000 -9 42 0
1000000 -10 43 28 47 0
1000000 -11 34 48 0
1000000 -12 44 23 49 45 0
1000000 -13 18 29 0
1000000 -14 50 30 41 0
1000000 -15 51 46 31 0
1000000 -16 33 32 19 0
1000000 52 71 0
1000000 53 74 0
1000000 54 71 0
1000000 55 71 0
1000000 56 73 0
1000000 57 72 0
1000000 58 69 0
1000000 59 72 0
1000000 60 72 0
1000000 61 70 0
1000000 62 73 0
1000000 63 69 0
1000000 64 73 0
1000000 65 74 0
1000000 66 74 0
1000000 67 69 0
1000000 68 70 0
1000000 -52 -71 0
1000000 -53 -74 0
1000000 -54 -71 0
1000000 -55 -71 0
1000000 -56 -73 0
1000000 -57 -72 0
1000000 -58 -69 0
1000000 -59 -72 0
1000000 -60 -72 0
1000000 -61 -70 0
1000000 -62 -73 0
1000000 -63 -69 0
1000000 -64 -73 0
1000000 -65 -74 0
1000000 -66 -74 0
1000000 -67 -69 0
1000000 -68 -70 0
10500 -69 0
14000 -70 0
8000 -71 0
8400 -72 0
10500 -73 0
12200 -74 0
1600 52 0
1400 53 0
1300 54 0
1300 55 0
1600 56 0
1400 57 0
1100 58 0
1600 59 0
2400 60 0
1300 61 0
1100 62 0
2400 63 0
1100 64 0
1300 65 0
2400 66 0
1000 67 0
1100 68 0
6440 -17 0
3220 20 -24 0
4830 -20 24 0
7567 -20 -24 0
5880 21 -35 0
20580 -21 35 0
24402 -21 -35 0
61020 22 -38 0
33900 -22 38 0
64410 -22 -38 0
27225 36 -25 0
47025 -36 25 0
48386 -36 -25 0
20580 40 26 -37 0
27440 40 -26 37 0
39788 40 -26 -37 0
51450 -40 26 37 0
56595 -40 26 -37 0
58310 -40 -26 37 0
61397 -40 -26 -37 0
21052 27 -39 0
9972 -27 39 0
27235 -27 -39 0
36600 -42 0
30870 43 28 -47 0
61740 43 -28 47 0
64827 43 -28 -47 0
1372 -43 28 47 0
31625 -43 28 -47 0
61877 -43 -28 47 0
64902 -43 -28 -47 0
47460 34 -48 0
67235 -34 48 0
74354 -34 -48 0
24440 44 23 49 -45 0
1880 44 23 -49 45 0
25098 44 23 -49 -45 0
35720 44 -23 49 45 0
36942 44 -23 49 -45 0
35814 44 -23 -49 45 0
36975 44 -23 -49 -45 0
12032 -44 23 49 45 0
28651 -44 23 49 -45 0
13310 -44 23 -49 45 0
29099 -44 23 -49 -45 0
36322 -44 -23 49 45 0
37153 -44 -23 49 -45 0
36386 -44 -23 -49 45 0
37175 -44 -23 -49 -45 0
61020 18 -29 0
47460 -18 29 0
65766 -18 -29 0
8710 50 30 -41 0
56615 50 -30 41 0
59663 50 -30 -41 0
1742 -50 30 41 0
10278 -50 30 -41 0
57225 -50 -30 41 0
60212 -50 -30 -41 0
9150 51 46 -31 0
1220 51 -46 31 0
10187 51 -46 -31 0
51850 -51 46 31 0
53223 -51 46 -31 0
52033 -51 -46 31 0
53378 -51 -46 -31 0
16960 33 32 -19 0
33920 33 -32 19 0
37312 33 -32 -19 0
27560 -33 32 19 0
33496 -33 32 -19 0
39432 -33 -32 19 0
40619 -33 -32 -19 0
