p wcnf 69 219 1000000
1000000 1 0
1000000 2 -17 0
1000000 17 -54 -51 -56 -1 0
1000000 13 -18 0
1000000 18 -52 -55 -48 -1 0
1000000 16 -19 0
1000000 19 -50 -1 0
1000000 3 -20 0
1000000 20 -49 -1 0
1000000 5 -21 0
1000000 21 -61 -62 -48 -1 0
1000000 6 -22 0
1000000 22 -58 -1 0
1000000 4 -23 0
1000000 23 -53 -2 0
1000000 5 -24 0
1000000 24 -52 -60 -57 -2 0
1000000 6 -25 0
1000000 25 -59 -51 -2 0
1000000 9 -26 0
1000000 26 -53 -63 -2 0
1000000 14 -27 0
1000000 27 -49 -56 -50 -11 0
1000000 16 -28 0
1000000 28 -58 -54 -61 -12 0
1000000 15 -29 0
1000000 29 -63 -60 -13 0
1000000 5 -30 0
1000000 30 -52 -51 -49 -3 0
1000000 8 -31 0
1000000 31 -55 -3 0
1000000 9 -32 0
1000000 32 -57 -48 -55 -3 0
1000000 11 -33 0
1000000 33 -62 -4 0
1000000 13 -34 0
1000000 34 -50 -57 -4 0
1000000 5 -35 0
1000000 35 -56 -60 -4 0
1000000 6 -36 0
1000000 36 -58 -61 -53 -4 0
1000000 7 -37 0
1000000 37 -59 -49 -4 0
1000000 13 -38 0
1000000 38 -48 -53 -51 -5 0
1000000 14 -39 0
1000000 39 -62 -5 0
1000000 14 -40 0
1000000 40 -63 -54 -6 0
1000000 16 -41 0
1000000 41 -59 -6 0
1000000 12 -42 0
1000000 42 -58 -57 -59 -7 0
1000000 9 -43 0
1000000 43 -52 -50 -7 0
1000000 15 -44 0
1000000 44 -60 -56 -8 0
1000000 10 -45 0
1000000 45 -48 -49 -55 -8 0
1000000 16 -46 0
1000000 46 -54 -52 -51 -9 0
1000000 10 -47 0
1000000 47 -50 -62 -57 -9 0
1000000 1 0
1000000 -2 17 0
1000000 -3 20 0
1000000 -4 23 0
1000000 -5 24 30 35 21 0
1000000 -6 36 25 22 0
1000000 -7 37 0
1000000 -8 31 0
1000000 -9 26 43 32 0
1000000 -10 45 47 0
1000000 -11 33 0
1000000 -12 42 0
1000000 -13 38 18 34 0
1000000 -14 40 27 39 0
1000000 -15 29 44 0
1000000 -16 41 19 46 28 0
1000000 48 67 0
1000000 49 65 0
1000000 50 66 0
1000000 51 66 0
1000000 52 66 0
1000000 53 65 0
1000000 54 68 0
1000000 55 64 0
1000000 56 68 0
1000000 57 67 0
1000000 58 64 0
1000000 59 64 0
1000000 60 68 0
1000000 61 65 0
1000000 62 67 0
1000000 63 69 0
1000000 -48 -67 0
1000000 -49 -65 0
1000000 -50 -66 0
1000000 -51 -66 0
1000000 -52 -66 0
1000000 -53 -65 0
1000000 -54 -68 0
1000000 -55 -64 0
1000000 -56 -68 0
1000000 -57 -67 0
1000000 -58 -64 0
1000000 -59 -64 0
1000000 -60 -68 0
1000000 -61 -65 0
1000000 -62 -67 0
1000000 -63 -69 0
7300 -64 0
10100 -65 0
7300 -66 0
8300 -67 0
8300 -68 0
15500 -69 0
2200 48 0
3100 49 0
3100 50 0
3100 51 0
1000 52 0
2800 53 0
3100 54 0
3500 55 0
2800 56 0
3100 57 0
2800 58 0
2200 59 0
1000 60 0
2200 61 0
2800 62 0
3000 63 0
11502 -17 0
28080 -20 0
27892 -23 0
5335 24 30 35 -21 0
8730 24 30 -35 21 0
9264 24 30 -35 -21 0
6305 24 -30 35 21 0
8172 24 -30 35 -21 0
9361 24 -30 -35 21 0
9547 24 -30 -35 -21 0
8245 -24 30 35 21 0
9045 -24 30 35 -21 0
9555 -24 30 -35 21 0
9635 -24 30 -35 -21 0
9191 -24 -30 35 21 0
9471 -24 -30 35 -21 0
9649 -24 -30 -35 21 0
9677 -24 -30 -35 -21 0
18540 36 25 -22 0
26265 36 -25 22 0
29046 36 -25 -22 0
9270 -36 25 22 0
22248 -36 25 -22 0
27656 -36 -25 22 0
29602 -36 -25 -22 0
2905 -37 0
13300 -31 0
12460 26 43 -32 0
32040 26 -43 32 0
33286 26 -43 -32 0
23140 -26 43 32 0
27501 -26 43 -32 0
34354 -26 -43 32 0
34790 -26 -43 -32 0
2905 45 -47 0
22078 -45 47 0
23879 -45 -47 0
3904 -33 0
18630 -42 0
1940 38 18 -34 0
485 38 -18 34 0
2328 38 -18 -34 0
1164 -38 18 34 0
2871 -38 18 -34 0
1591 -38 -18 34 0
3213 -38 -18 -34 0
55050 40 27 -39 0
1468 40 -27 39 0
55417 40 -27 -39 0
3670 -40 27 39 0
55967 -40 27 -39 0
5065 -40 -27 39 0
56316 -40 -27 -39 0
29260 29 -44 0
2660 -29 44 0
30457 -29 -44 0
20085 41 19 46 -28 0
13905 41 19 -46 28 0
24952 41 19 -46 -28 0
15450 41 -19 46 28 0
25492 41 -19 46 -28 0
22403 41 -19 -46 28 0
27926 41 -19 -46 -28 0
15450 -41 19 46 28 0
25492 -41 19 46 -28 0
22403 -41 19 -46 28 0
27926 -41 19 -46 -28 0
23175 -41 -19 46 28 0
28196 -41 -19 46 -28 0
26651 -41 -19 -46 28 0
29413 -41 -19 -46 -28 0
