p wcnf 86 301 1000000
1000000 1 0
1000000 2 -18 0
1000000 18 -65 -64 -1 0
1000000 11 -19 0
1000000 19 -61 -1 0
1000000 3 -20 0
1000000 20 -63 -68 -60 -1 0
1000000 6 -21 0
1000000 21 -62 -69 -1 0
1000000 10 -22 0
1000000 22 -66 -75 -76 -1 0
1000000 17 -23 0
1000000 23 -79 -73 -77 -2 0
1000000 3 -24 0
1000000 24 -67 -78 -2 0
1000000 4 -25 0
1000000 25 -64 -72 -63 -2 0
1000000 10 -26 0
1000000 26 -61 -70 -2 0
1000000 13 -27 0
1000000 27 -67 -69 -66 -11 0
1000000 17 -28 0
1000000 28 -71 -11 0
1000000 14 -29 0
1000000 29 -62 -12 0
1000000 16 -30 0
1000000 30 -70 -74 -72 -12 0
1000000 17 -31 0
1000000 31 -71 -75 -73 -12 0
1000000 17 -32 0
1000000 32 -77 -76 -13 0
1000000 16 -33 0
1000000 33 -60 -14 0
1000000 11 -34 0
1000000 34 -68 -3 0
1000000 12 -35 0
1000000 35 -74 -60 -64 -3 0
1000000 15 -36 0
1000000 36 -68 -66 -79 -3 0
1000000 4 -37 0
1000000 37 -62 -78 -3 0
1000000 6 -38 0
1000000 38 -69 -65 -3 0
1000000 7 -39 0
1000000 39 -63 -3 0
1000000 13 -40 0
1000000 40 -70 -73 -74 -4 0
1000000 5 -41 0
1000000 41 -72 -61 -4 0
1000000 10 -42 0
1000000 42 -76 -67 -78 -4 0
1000000 16 -43 0
1000000 43 -77 -71 -5 0
1000000 6 -44 0
1000000 44 -62 -79 -5 0
1000000 7 -45 0
1000000 45 -75 -5 0
1000000 8 -46 0
1000000 46 -63 -66 -68 -5 0
1000000 13 -47 0
1000000 47 -67 -61 -70 -6 0
1000000 15 -48 0
1000000 48 -74 -60 -69 -6 0
1000000 8 -49 0
1000000 49 -73 -65 -6 0
1000000 10 -50 0
1000000 50 -78 -65 -76 -6 0
1000000 11 -51 0
1000000 51 -64 -7 0
1000000 9 -52 0
1000000 52 -63 -79 -75 -7 0
1000000 16 -53 0
1000000 53 -71 -77 -8 0
1000000 17 -54 0
1000000 54 -72 -8 0
1000000 9 -55 0
1000000 55 -62 -8 0
1000000 14 -56 0
1000000 56 -60 -64 -9 0
1000000 15 -57 0
1000000 57 -67 -69 -9 0
1000000 12 -58 0
1000000 58 -65 -72 -74 -10 0
1000000 14 -59 0
1000000 59 -68 -10 0
1000000 1 0
1000000 -2 18 0
1000000 -3 20 24 0
1000000 -4 25 37 0
1000000 -5 41 0
1000000 -6 44 21 38 0
1000000 -7 39 45 0
1000000 -8 46 49 0
1000000 -9 55 52 0
1000000 -10 26 50 42 22 0
1000000 -11 19 51 34 0
1000000 -12 58 35 0
1000000 -13 40 47 27 0
1000000 -14 56 29 59 0
1000000 -15 36 48 57 0
1000000 -16 43 30 33 53 0
1000000 -17 28 54 32 23 31 0
1000000 60 80 0
1000000 61 80 0
1000000 62 84 0
1000000 63 86 0
1000000 64 82 0
1000000 65 80 0
1000000 66 83 0
1000000 67 84 0
1000000 68 83 0
1000000 69 84 0
1000000 70 86 0
1000000 71 82 0
1000000 72 82 0
1000000 73 81 0
1000000 74 81 0
1000000 75 86 0
1000000 76 83 0
1000000 77 85 0
1000000 78 81 0
1000000 79 85 0
1000000 -60 -80 0
1000000 -61 -80 0
1000000 -62 -84 0
1000000 -63 -86 0
1000000 -64 -82 0
1000000 -65 -80 0
1000000 -66 -83 0
1000000 -67 -84 0
1000000 -68 -83 0
1000000 -69 -84 0
1000000 -70 -86 0
1000000 -71 -82 0
1000000 -72 -82 0
1000000 -73 -81 0
1000000 -74 -81 0
1000000 -75 -86 0
1000000 -76 -83 0
1000000 -77 -85 0
1000000 -78 -81 0
1000000 -79 -85 0
13600 -80 0
10100 -81 0
13600 -82 0
7300 -83 0
7300 -84 0
8400 -85 0
8100 -86 0
2900 60 0
3200 61 0
2900 62 0
800 63 0
3200 64 0
2500 65 0
3200 66 0
3200 67 0
800 68 0
2900 69 0
2900 70 0
2400 71 0
2600 72 0
2600 73 0
2600 74 0
800 75 0
2500 76 0
2600 77 0
3200 78 0
2500 79 0
43435 -18 0
7840 20 -24 0
1120 -20 24 0
8568 -20 -24 0
67490 25 -37 0
23820 -25 37 0
71063 -25 -37 0
52500 -41 0
4480 44 21 -38 0
12320 44 -21 38 0
14336 44 -21 -38 0
4032 -44 21 38 0
7706 -44 21 -38 0
14134 -44 -21 38 0
15788 -44 -21 -38 0
25410 39 -45 0
25410 -39 45 0
36845 -39 -45 0
7152 46 -49 0
11920 -46 49 0
17642 -46 -49 0
39375 55 -52 0
35000 -55 52 0
58625 -55 -52 0
17200 26 50 42 -22 0
23650 26 50 -42 22 0
31390 26 50 -42 -22 0
40850 26 -50 42 22 0
41710 26 -50 42 -22 0
42032 26 -50 -42 22 0
42419 26 -50 -42 -22 0
10750 -26 50 42 22 0
23650 -26 50 42 -22 0
28488 -26 50 -42 22 0
34293 -26 50 -42 -22 0
41387 -26 -50 42 22 0
42032 -26 -50 42 -22 0
42274 -26 -50 -42 22 0
42565 -26 -50 -42 -22 0
13860 19 51 -34 0
31680 19 -51 34 0
34452 19 -51 -34 0
4752 -19 51 34 0
16949 -19 51 -34 0
32630 -19 -51 34 0
35070 -19 -51 -34 0
63520 58 -35 0
11910 -58 35 0
65902 -58 -35 0
2310 40 47 -27 0
34650 40 -47 27 0
35227 40 -47 -27 0
11550 -40 47 27 0
13283 -40 47 -27 0
37538 -40 -47 27 0
37971 -40 -47 -27 0
36960 56 29 -59 0
20790 56 -29 59 0
41118 56 -29 -59 0
4620 -56 29 59 0
37884 -56 29 -59 0
23331 -56 -29 59 0
41626 -56 -29 -59 0
8352 36 48 -57 0
8352 36 -48 57 0
14031 36 -48 -57 0
9918 -36 48 57 0
15096 -36 48 -57 0
15096 -36 -48 57 0
18617 -36 -48 -57 0
8750 43 30 33 -53 0
56875 43 30 -33 53 0
59938 43 30 -33 -53 0
13125 43 -30 33 53 0
20562 43 -30 33 -53 0
61469 43 -30 -33 53 0
64072 43 -30 -33 -53 0
33250 -43 30 33 53 0
38675 -43 30 33 -53 0
68512 -43 30 -33 53 0
70411 -43 30 -33 -53 0
41388 -43 -30 33 53 0
45999 -43 -30 33 -53 0
71361 -43 -30 -33 53 0
72975 -43 -30 -33 -53 0
10728 28 54 32 23 -31 0
38740 28 54 32 -23 31 0
42495 28 54 32 -23 -31 0
11920 28 54 -32 23 31 0
20502 28 54 -32 23 -31 0
42912 28 54 -32 -23 31 0
45916 28 54 -32 -23 -31 0
23840 28 -54 32 23 31 0
30277 28 -54 32 23 -31 0
47084 28 -54 32 -23 31 0
49337 28 -54 32 -23 -31 0
30992 28 -54 -32 23 31 0
36141 28 -54 -32 23 -31 0
49587 28 -54 -32 -23 31 0
51390 28 -54 -32 -23 -31 0
23840 -28 54 32 23 31 0
30277 -28 54 32 23 -31 0
47084 -28 54 32 -23 31 0
49337 -28 54 32 -23 -31 0
30992 -28 54 -32 23 31 0
36141 -28 54 -32 23 -31 0
49587 -28 54 -32 -23 31 0
51390 -28 54 -32 -23 -31 0
38144 -28 -54 32 23 31 0
42006 -28 -54 32 23 -31 0
52090 -28 -54 32 -23 31 0
53442 -28 -54 32 -23 -31 0
42435 -28 -54 -32 23 31 0
45525 -28 -54 -32 23 -31 0
53592 -28 -54 -32 -23 31 0
54674 -28 -54 -32 -23 -31 0
