p wcnf 50 149 1000000
1000000 1 0
1000000 2 -13 0
1000000 13 -39 -37 -1 0
1000000 11 -14 0
1000000 14 -38 -45 -35 -1 0
1000000 12 -15 0
1000000 15 -36 -44 -35 -1 0
1000000 3 -16 0
1000000 16 -36 -37 -39 -1 0
1000000 6 -17 0
1000000 17 -40 -38 -1 0
1000000 10 -18 0
1000000 18 -40 -46 -1 0
1000000 5 -19 0
1000000 19 -41 -2 0
1000000 7 -20 0
1000000 20 -35 -42 -44 -2 0
1000000 9 -21 0
1000000 21 -41 -2 0
1000000 4 -22 0
1000000 22 -46 -42 -3 0
1000000 6 -23 0
1000000 23 -38 -42 -39 -3 0
1000000 8 -24 0
1000000 24 -45 -3 0
1000000 5 -25 0
1000000 25 -36 -4 0
1000000 6 -26 0
1000000 26 -43 -44 -37 -4 0
1000000 7 -27 0
1000000 27 -45 -41 -4 0
1000000 7 -28 0
1000000 28 -46 -5 0
1000000 9 -29 0
1000000 29 -41 -40 -42 -5 0
1000000 11 -30 0
1000000 30 -45 -37 -44 -6 0
1000000 12 -31 0
1000000 31 -43 -39 -6 0
1000000 8 -32 0
1000000 32 -43 -7 0
1000000 12 -33 0
1000000 33 -41 -46 -37 -8 0
1000000 11 -34 0
1000000 34 -39 -35 -36 -10 0
1000000 1 0
1000000 -2 13 0
1000000 -3 16 0
1000000 -4 22 0
1000000 -5 19 25 0
1000000 -6 23 26 17 0
1000000 -7 20 28 27 0
1000000 -8 32 24 0
1000000 -9 21 29 0
1000000 -10 18 0
1000000 -11 34 14 30 0
1000000 -12 33 31 15 0
1000000 35 47 0
1000000 36 49 0
1000000 37 47 0
1000000 38 48 0
1000000 39 47 0
1000000 40 49 0
1000000 41 50 0
1000000 42 49 0
1000000 43 50 0
1000000 44 50 0
1000000 45 48 0
1000000 46 48 0
1000000 -35 -47 0
1000000 -36 -49 0
1000000 -37 -47 0
1000000 -38 -48 0
1000000 -39 -47 0
1000000 -40 -49 0
1000000 -41 -50 0
1000000 -42 -49 0
1000000 -43 -50 0
1000000 -44 -50 0
1000000 -45 -48 0
1000000 -46 -48 0
14700 -47 0
11100 -48 0
11100 -49 0
10400 -50 0
700 35 0
3400 36 0
700 37 0
3400 38 0
700 39 0
800 40 0
800 41 0
800 42 0
2000 43 0
700 44 0
2000 45 0
3400 46 0
3220 -13 0
11900 -16 0
7150 -22 0
10325 19 -25 0
2950 -19 25 0
12242 -19 -25 0
9880 23 26 -17 0
14820 23 -26 17 0
18772 23 -26 -17 0
14820 -23 26 17 0
18772 -23 26 -17 0
20748 -23 -26 17 0
22329 -23 -26 -17 0
58565 20 28 -27 0
27560 20 -28 27 0
62699 20 -28 -27 0
34450 -20 28 27 0
63733 -20 28 -27 0
48230 -20 -28 27 0
65800 -20 -28 -27 0
4175 32 -24 0
15030 -32 24 0
15447 -32 -24 0
10450 21 -29 0
3520 -21 29 0
10626 -21 -29 0
494 -18 0
7904 34 14 -30 0
17290 34 -14 30 0
19661 34 -14 -30 0
1235 -34 14 30 0
8744 -34 14 -30 0
17660 -34 -14 30 0
19913 -34 -14 -30 0
1380 33 31 -15 0
6900 33 -31 15 0
7245 33 -31 -15 0
1380 -33 31 15 0
2553 -33 31 -15 0
7245 -33 -31 15 0
7538 -33 -31 -15 0
