p wcnf 47 143 1000000
1000000 1 0
1000000 2 -13 0
1000000 13 -34 -1 0
1000000 11 -14 0
1000000 14 -37 -1 0
1000000 3 -15 0
1000000 15 -38 -1 0
1000000 5 -16 0
1000000 16 -35 -36 -40 -1 0
1000000 7 -17 0
1000000 17 -41 -1 0
1000000 9 -18 0
1000000 18 -34 -35 -1 0
1000000 4 -19 0
1000000 19 -37 -42 -40 -2 0
1000000 6 -20 0
1000000 20 -36 -2 0
1000000 9 -21 0
1000000 21 -43 -2 0
1000000 12 -22 0
1000000 22 -38 -42 -11 0
1000000 11 -23 0
1000000 23 -40 -38 -39 -3 0
1000000 8 -24 0
1000000 24 -41 -43 -36 -3 0
1000000 11 -25 0
1000000 25 -35 -41 -42 -4 0
1000000 12 -26 0
1000000 26 -34 -36 -4 0
1000000 6 -27 0
1000000 27 -43 -5 0
1000000 9 -28 0
1000000 28 -43 -39 -35 -5 0
1000000 7 -29 0
1000000 29 -40 -34 -6 0
1000000 10 -30 0
1000000 30 -42 -37 -7 0
1000000 12 -31 0
1000000 31 -37 -34 -39 -8 0
1000000 9 -32 0
1000000 32 -39 -8 0
1000000 10 -33 0
1000000 33 -35 -9 0
1000000 1 0
1000000 -2 13 0
1000000 -3 15 0
1000000 -4 19 0
1000000 -5 16 0
1000000 -6 20 27 0
1000000 -7 29 17 0
1000000 -8 24 0
1000000 -9 21 18 32 28 0
1000000 -10 30 33 0
1000000 -11 14 23 25 0
1000000 -12 22 26 31 0
1000000 34 45 0
1000000 35 46 0
1000000 36 47 0
1000000 37 47 0
1000000 38 45 0
1000000 39 46 0
1000000 40 44 0
1000000 41 46 0
1000000 42 47 0
1000000 43 45 0
1000000 -34 -45 0
1000000 -35 -46 0
1000000 -36 -47 0
1000000 -37 -47 0
1000000 -38 -45 0
1000000 -39 -46 0
1000000 -40 -44 0
1000000 -41 -46 0
1000000 -42 -47 0
1000000 -43 -45 0
11700 -44 0
11700 -45 0
11700 -46 0
11700 -47 0
3000 34 0
800 35 0
800 36 0
1200 37 0
800 38 0
800 39 0
1200 40 0
3000 41 0
2000 42 0
3000 43 0
1830 -13 0
1220 -15 0
3705 -19 0
6592 -16 0
6960 20 -27 0
37120 -20 27 0
38512 -20 -27 0
6180 29 -17 0
14420 -29 17 0
16274 -29 -17 0
5800 -24 0
7860 21 18 32 -28 0
13755 21 18 -32 28 0
18864 21 18 -32 -28 0
14934 21 -18 32 28 0
19807 21 -18 32 -28 0
23462 21 -18 -32 28 0
26630 21 -18 -32 -28 0
1965 -21 18 32 28 0
9432 -21 18 32 -28 0
15032 -21 18 -32 28 0
19886 -21 18 -32 -28 0
16152 -21 -18 32 28 0
20782 -21 -18 32 -28 0
24254 -21 -18 -32 28 0
27263 -21 -18 -32 -28 0
9386 30 -33 0
17290 -30 33 0
20106 -30 -33 0
4656 14 23 -25 0
21340 14 -23 25 0
23435 14 -23 -25 0
14744 -14 23 25 0
17631 -14 23 -25 0
27975 -14 -23 25 0
29274 -14 -23 -25 0
2350 22 26 -31 0
23500 22 -26 31 0
24675 22 -26 -31 0
44650 -22 26 31 0
44767 -22 26 -31 0
45825 -22 -26 31 0
45884 -22 -26 -31 0
