p wcnf 83 285 1000000
1000000 1 0
1000000 2 -18 0
1000000 18 -58 -1 0
1000000 3 -19 0
1000000 19 -61 -65 -59 -1 0
1000000 5 -20 0
1000000 20 -66 -62 -1 0
1000000 8 -21 0
1000000 21 -67 -68 -1 0
1000000 3 -22 0
1000000 22 -63 -2 0
1000000 4 -23 0
1000000 23 -60 -70 -2 0
1000000 6 -24 0
1000000 24 -69 -2 0
1000000 10 -25 0
1000000 25 -71 -57 -76 -2 0
1000000 14 -26 0
1000000 26 -74 -75 -11 0
1000000 15 -27 0
1000000 27 -57 -64 -73 -11 0
1000000 16 -28 0
1000000 28 -72 -11 0
1000000 15 -29 0
1000000 29 -60 -13 0
1000000 17 -30 0
1000000 30 -67 -59 -65 -13 0
1000000 15 -31 0
1000000 31 -58 -63 -14 0
1000000 16 -32 0
1000000 32 -62 -14 0
1000000 11 -33 0
1000000 33 -71 -72 -69 -3 0
1000000 12 -34 0
1000000 34 -68 -61 -3 0
1000000 13 -35 0
1000000 35 -70 -75 -64 -3 0
1000000 4 -36 0
1000000 36 -58 -57 -3 0
1000000 7 -37 0
1000000 37 -66 -74 -3 0
1000000 8 -38 0
1000000 38 -73 -64 -61 -3 0
1000000 5 -39 0
1000000 39 -76 -65 -68 -4 0
1000000 6 -40 0
1000000 40 -62 -4 0
1000000 7 -41 0
1000000 41 -60 -4 0
1000000 9 -42 0
1000000 42 -69 -59 -63 -4 0
1000000 16 -43 0
1000000 43 -66 -5 0
1000000 7 -44 0
1000000 44 -73 -71 -75 -5 0
1000000 10 -45 0
1000000 45 -72 -60 -76 -5 0
1000000 12 -46 0
1000000 46 -74 -59 -6 0
1000000 10 -47 0
1000000 47 -57 -58 -6 0
1000000 8 -48 0
1000000 48 -62 -64 -66 -7 0
1000000 10 -49 0
1000000 49 -70 -68 -61 -7 0
1000000 16 -50 0
1000000 50 -67 -71 -8 0
1000000 17 -51 0
1000000 51 -75 -72 -67 -8 0
1000000 11 -52 0
1000000 52 -58 -73 -69 -9 0
1000000 15 -53 0
1000000 53 -61 -60 -59 -9 0
1000000 10 -54 0
1000000 54 -63 -76 -9 0
1000000 12 -55 0
1000000 55 -63 -65 -10 0
1000000 13 -56 0
1000000 56 -67 -64 -62 -10 0
1000000 1 0
1000000 -2 18 0
1000000 -3 19 22 0
1000000 -4 23 36 0
1000000 -5 20 39 0
1000000 -6 40 24 0
1000000 -7 37 41 44 0
1000000 -8 21 38 48 0
1000000 -9 42 0
1000000 -10 54 49 25 47 45 0
1000000 -11 33 52 0
1000000 -12 55 34 46 0
1000000 -13 35 56 0
1000000 -14 26 0
1000000 -15 31 53 29 27 0
1000000 -16 43 50 28 32 0
1000000 -17 30 51 0
1000000 57 80 0
1000000 58 77 0
1000000 59 80 0
1000000 60 82 0
1000000 61 79 0
1000000 62 79 0
1000000 63 78 0
1000000 64 77 0
1000000 65 79 0
1000000 66 80 0
1000000 67 82 0
1000000 68 82 0
1000000 69 77 0
1000000 70 81 0
1000000 71 78 0
1000000 72 81 0
1000000 73 83 0
1000000 74 83 0
1000000 75 78 0
1000000 76 81 0
1000000 -57 -80 0
1000000 -58 -77 0
1000000 -59 -80 0
1000000 -60 -82 0
1000000 -61 -79 0
1000000 -62 -79 0
1000000 -63 -78 0
1000000 -64 -77 0
1000000 -65 -79 0
1000000 -66 -80 0
1000000 -67 -82 0
1000000 -68 -82 0
1000000 -69 -77 0
1000000 -70 -81 0
1000000 -71 -78 0
1000000 -72 -81 0
1000000 -73 -83 0
1000000 -74 -83 0
1000000 -75 -78 0
1000000 -76 -81 0
11900 -77 0
9000 -78 0
8300 -79 0
13300 -80 0
11900 -81 0
8300 -82 0
8300 -83 0
700 57 0
3800 58 0
1800 59 0
2100 60 0
900 61 0
2600 62 0
2300 63 0
2600 64 0
2300 65 0
3800 66 0
1800 67 0
3800 68 0
1400 69 0
1400 70 0
1400 71 0
3000 72 0
2300 73 0
2100 74 0
1900 75 0
2600 76 0
11340 -18 0
55360 19 -22 0
41520 -19 22 0
63664 -19 -22 0
18540 23 -36 0
29355 -23 36 0
30282 -23 -36 0
58820 20 -39 0
34600 -20 39 0
64010 -20 -39 0
55125 40 -24 0
14700 -40 24 0
58800 -40 -24 0
14700 37 41 -44 0
1470 37 -41 44 0
15876 37 -41 -44 0
13230 -37 41 44 0
25284 -37 41 -44 0
14435 -37 -41 44 0
26248 -37 -41 -44 0
29400 21 38 -48 0
19600 21 -38 48 0
37240 21 -38 -48 0
8820 -21 38 48 0
32928 -21 38 -48 0
24892 -21 -38 48 0
39357 -21 -38 -48 0
14225 -42 0
9270 54 49 25 47 -45 0
20085 54 49 25 -47 45 0
23329 54 49 25 -47 -45 0
10815 54 49 -25 47 45 0
16841 54 49 -25 47 -45 0
23870 54 49 -25 -47 45 0
25979 54 49 -25 -47 -45 0
3090 54 -49 25 47 45 0
11433 54 -49 25 47 -45 0
21167 54 -49 25 -47 45 0
24087 54 -49 25 -47 -45 0
12823 54 -49 -25 47 45 0
18246 54 -49 -25 47 -45 0
24573 54 -49 -25 -47 45 0
26471 54 -49 -25 -47 -45 0
26265 -54 49 25 47 45 0
27656 -54 49 25 47 -45 0
29278 -54 49 25 -47 45 0
29764 -54 49 25 -47 -45 0
27887 -54 49 -25 47 45 0
28791 -54 49 -25 47 -45 0
29846 -54 49 -25 -47 45 0
30162 -54 49 -25 -47 -45 0
26729 -54 -49 25 47 45 0
27980 -54 -49 25 47 -45 0
29440 -54 -49 25 -47 45 0
29878 -54 -49 25 -47 -45 0
28189 -54 -49 -25 47 45 0
29002 -54 -49 -25 47 -45 0
29951 -54 -49 -25 -47 45 0
30236 -54 -49 -25 -47 -45 0
25740 33 -52 0
8580 -33 52 0
30459 -33 -52 0
14300 55 34 -46 0
48620 55 -34 46 0
50765 55 -34 -46 0
11440 -55 34 46 0
22880 -55 34 -46 0
50336 -55 -34 46 0
52052 -55 -34 -46 0
1470 35 -56 0
58800 -35 56 0
59094 -35 -56 0
28448 -26 0
25500 31 53 29 -27 0
25500 31 53 -29 27 0
31875 31 53 -29 -27 0
6120 31 -53 29 27 0
27030 31 -53 29 -27 0
27030 31 -53 -29 27 0
32257 31 -53 -29 -27 0
11900 -31 53 29 27 0
28475 -31 53 29 -27 0
28475 -31 53 -29 27 0
32619 -31 53 -29 -27 0
15878 -31 -53 29 27 0
29469 -31 -53 29 -27 0
29469 -31 -53 -29 27 0
32867 -31 -53 -29 -27 0
21736 43 50 28 -32 0
21736 43 50 -28 32 0
35212 43 50 -28 -32 0
48620 43 -50 28 32 0
51880 43 -50 28 -32 0
51880 43 -50 -28 32 0
53902 43 -50 -28 -32 0
8580 -43 50 28 32 0
27056 -43 50 28 -32 0
27056 -43 50 -28 32 0
38510 -43 50 -28 -32 0
49907 -43 -50 28 32 0
52678 -43 -50 28 -32 0
52678 -43 -50 -28 32 0
54397 -43 -50 -28 -32 0
60525 30 -51 0
40350 -30 51 0
70612 -30 -51 0
