p wcnf 63 216 1000000
1000000 1 0
1000000 2 -16 0
1000000 16 -48 -1 0
1000000 3 -17 0
1000000 17 -49 -46 -1 0
1000000 6 -18 0
1000000 18 -51 -1 0
1000000 7 -19 0
1000000 19 -50 -1 0
1000000 10 -20 0
1000000 20 -53 -1 0
1000000 5 -21 0
1000000 21 -54 -2 0
1000000 7 -22 0
1000000 22 -46 -49 -48 -2 0
1000000 8 -23 0
1000000 23 -52 -2 0
1000000 10 -24 0
1000000 24 -47 -55 -50 -2 0
1000000 14 -25 0
1000000 25 -51 -57 -13 0
1000000 12 -26 0
1000000 26 -58 -52 -3 0
1000000 4 -27 0
1000000 27 -53 -3 0
1000000 5 -28 0
1000000 28 -47 -54 -58 -3 0
1000000 6 -29 0
1000000 29 -46 -56 -4 0
1000000 8 -30 0
1000000 30 -55 -4 0
1000000 9 -31 0
1000000 31 -47 -4 0
1000000 11 -32 0
1000000 32 -57 -50 -49 -5 0
1000000 12 -33 0
1000000 33 -52 -51 -55 -5 0
1000000 11 -34 0
1000000 34 -53 -6 0
1000000 10 -35 0
1000000 35 -48 -6 0
1000000 8 -36 0
1000000 36 -56 -7 0
1000000 9 -37 0
1000000 37 -56 -7 0
1000000 12 -38 0
1000000 38 -57 -54 -51 -8 0
1000000 13 -39 0
1000000 39 -46 -8 0
1000000 9 -40 0
1000000 40 -50 -58 -8 0
1000000 11 -41 0
1000000 41 -47 -49 -9 0
1000000 12 -42 0
1000000 42 -54 -48 -9 0
1000000 11 -43 0
1000000 43 -57 -56 -10 0
1000000 12 -44 0
1000000 44 -52 -10 0
1000000 15 -45 0
1000000 45 -50 -46 -58 -10 0
1000000 1 0
1000000 -2 16 0
1000000 -3 17 0
1000000 -4 27 0
1000000 -5 21 28 0
1000000 -6 18 29 0
1000000 -7 22 19 0
1000000 -8 30 36 23 0
1000000 -9 40 31 37 0
1000000 -10 24 35 20 0
1000000 -11 43 41 32 34 0
1000000 -12 38 42 33 44 26 0
1000000 -13 39 0
1000000 -14 25 0
1000000 -15 45 0
1000000 46 59 0
1000000 47 61 0
1000000 48 61 0
1000000 49 60 0
1000000 50 60 0
1000000 51 59 0
1000000 52 59 0
1000000 53 61 0
1000000 54 62 0
1000000 55 62 0
1000000 56 62 0
1000000 57 63 0
1000000 58 60 0
1000000 -46 -59 0
1000000 -47 -61 0
1000000 -48 -61 0
1000000 -49 -60 0
1000000 -50 -60 0
1000000 -51 -59 0
1000000 -52 -59 0
1000000 -53 -61 0
1000000 -54 -62 0
1000000 -55 -62 0
1000000 -56 -62 0
1000000 -57 -63 0
1000000 -58 -60 0
9100 -59 0
8900 -60 0
10200 -61 0
9100 -62 0
10500 -63 0
2700 46 0
2700 47 0
3000 48 0
2700 49 0
900 50 0
1700 51 0
800 52 0
1700 53 0
2100 54 0
900 55 0
1700 56 0
2500 57 0
1400 58 0
6096 -16 0
31625 -17 0
8040 -27 0
21184 21 -28 0
19860 -21 28 0
34689 -21 -28 0
14010 18 -29 0
28020 -18 29 0
33624 -18 -29 0
17170 22 -19 0
14140 -22 19 0
19291 -22 -19 0
19720 30 36 -23 0
17400 30 -36 23 0
22330 30 -36 -23 0
4640 -30 36 23 0
20416 -30 36 -23 0
18560 -30 -36 23 0
22504 -30 -36 -23 0
18000 40 31 -37 0
12000 40 -31 37 0
21000 40 -31 -37 0
2400 -40 31 37 0
18600 -40 31 -37 0
13200 -40 -31 37 0
21300 -40 -31 -37 0
35560 24 35 -20 0
25400 24 -35 20 0
43180 24 -35 -20 0
17780 -24 35 20 0
40894 -24 35 -20 0
34290 -24 -35 20 0
45847 -24 -35 -20 0
13400 43 41 32 -34 0
10720 43 41 -32 34 0
21440 43 41 -32 -34 0
29480 43 -41 32 34 0
35510 43 -41 32 -34 0
34304 43 -41 -32 34 0
39128 43 -41 -32 -34 0
17152 -43 41 32 34 0
26264 -43 41 32 -34 0
24442 -43 41 -32 34 0
31731 -43 41 -32 -34 0
37198 -43 -41 32 34 0
41299 -43 -41 32 -34 0
40479 -43 -41 -32 34 0
43759 -43 -41 -32 -34 0
26480 38 42 33 44 -26 0
23170 38 42 33 -44 26 0
40382 38 42 33 -44 -26 0
49650 38 42 -33 44 26 0
56270 38 42 -33 44 -26 0
55443 38 42 -33 -44 26 0
59745 38 42 -33 -44 -26 0
62890 38 -42 33 44 26 0
64214 38 -42 33 44 -26 0
64049 38 -42 33 -44 26 0
64909 38 -42 33 -44 -26 0
65373 38 -42 -33 44 26 0
65703 38 -42 -33 44 -26 0
65662 38 -42 -33 -44 26 0
65877 38 -42 -33 -44 -26 0
6620 -38 42 33 44 26 0
30452 -38 42 33 44 -26 0
27473 -38 42 33 -44 26 0
42964 -38 42 33 -44 -26 0
51305 -38 42 -33 44 26 0
57263 -38 42 -33 44 -26 0
56518 -38 42 -33 -44 26 0
60391 -38 42 -33 -44 -26 0
63221 -38 -42 33 44 26 0
64413 -38 -42 33 44 -26 0
64264 -38 -42 33 -44 26 0
65038 -38 -42 33 -44 -26 0
65455 -38 -42 -33 44 26 0
65753 -38 -42 -33 44 -26 0
65716 -38 -42 -33 -44 26 0
65910 -38 -42 -33 -44 -26 0
4554 -39 0
18900 -25 0
21600 -45 0
