p wcnf 54 171 1000000
1000000 1 0
1000000 2 -13 0
1000000 13 -42 -39 -1 0
1000000 3 -14 0
1000000 14 -41 -38 -1 0
1000000 4 -15 0
1000000 15 -47 -46 -37 -1 0
1000000 6 -16 0
1000000 16 -40 -1 0
1000000 9 -17 0
1000000 17 -45 -44 -1 0
1000000 4 -18 0
1000000 18 -42 -41 -39 -2 0
1000000 5 -19 0
1000000 19 -49 -40 -2 0
1000000 6 -20 0
1000000 20 -48 -43 -45 -2 0
1000000 9 -21 0
1000000 21 -38 -43 -2 0
1000000 12 -22 0
1000000 22 -37 -48 -49 -11 0
1000000 12 -23 0
1000000 23 -39 -37 -42 -3 0
1000000 6 -24 0
1000000 24 -38 -44 -43 -3 0
1000000 7 -25 0
1000000 25 -47 -41 -3 0
1000000 5 -26 0
1000000 26 -46 -4 0
1000000 6 -27 0
1000000 27 -48 -47 -4 0
1000000 7 -28 0
1000000 28 -37 -44 -5 0
1000000 11 -29 0
1000000 29 -38 -39 -42 -6 0
1000000 9 -30 0
1000000 30 -43 -41 -6 0
1000000 10 -31 0
1000000 31 -45 -47 -44 -6 0
1000000 8 -32 0
1000000 32 -46 -39 -48 -7 0
1000000 9 -33 0
1000000 33 -45 -40 -7 0
1000000 10 -34 0
1000000 34 -46 -49 -7 0
1000000 11 -35 0
1000000 35 -49 -42 -8 0
1000000 11 -36 0
1000000 36 -38 -9 0
1000000 1 0
1000000 -2 13 0
1000000 -3 14 0
1000000 -4 15 18 0
1000000 -5 19 26 0
1000000 -6 20 24 16 27 0
1000000 -7 25 28 0
1000000 -8 32 0
1000000 -9 21 33 30 17 0
1000000 -10 31 34 0
1000000 -11 36 29 35 0
1000000 -12 22 23 0
1000000 37 53 0
1000000 38 54 0
1000000 39 51 0
1000000 40 53 0
1000000 41 54 0
1000000 42 53 0
1000000 43 54 0
1000000 44 50 0
1000000 45 52 0
1000000 46 52 0
1000000 47 50 0
1000000 48 51 0
1000000 49 51 0
1000000 -37 -53 0
1000000 -38 -54 0
1000000 -39 -51 0
1000000 -40 -53 0
1000000 -41 -54 0
1000000 -42 -53 0
1000000 -43 -54 0
1000000 -44 -50 0
1000000 -45 -52 0
1000000 -46 -52 0
1000000 -47 -50 0
1000000 -48 -51 0
1000000 -49 -51 0
13200 -50 0
8100 -51 0
12300 -52 0
12300 -53 0
13200 -54 0
2300 37 0
1400 38 0
800 39 0
2900 40 0
2300 41 0
1400 42 0
2300 43 0
1400 44 0
1400 45 0
1400 46 0
2900 47 0
3200 48 0
1900 49 0
12120 -13 0
2020 -14 0
412 15 -18 0
11330 -15 18 0
11515 -15 -18 0
5385 19 -26 0
5385 -19 26 0
9962 -19 -26 0
2472 20 24 16 -27 0
3090 20 24 -16 27 0
5191 20 24 -16 -27 0
16480 20 -24 16 27 0
16974 20 -24 16 -27 0
17098 20 -24 -16 27 0
17518 20 -24 -16 -27 0
3090 -20 24 16 27 0
5191 -20 24 16 -27 0
5717 -20 24 -16 27 0
7503 -20 24 -16 -27 0
17098 -20 -24 16 27 0
17518 -20 -24 16 -27 0
17623 -20 -24 -16 27 0
17981 -20 -24 -16 -27 0
15600 25 -28 0
480 -25 28 0
15768 -25 -28 0
14560 -32 0
20720 21 33 30 -17 0
5180 21 33 -30 17 0
23828 21 33 -30 -17 0
18130 21 -33 30 17 0
31598 21 -33 30 -17 0
21497 21 -33 -30 17 0
33618 21 -33 -30 -17 0
23310 -21 33 30 17 0
34706 -21 33 30 -17 0
26159 -21 33 -30 17 0
36415 -21 33 -30 -17 0
33281 -21 -33 30 17 0
40689 -21 -33 30 -17 0
35133 -21 -33 -30 17 0
41800 -21 -33 -30 -17 0
54450 31 -34 0
24200 -31 34 0
56870 -31 -34 0
4700 36 29 -35 0
14100 36 -29 35 0
15980 36 -29 -35 0
10575 -36 29 35 0
13160 -36 29 -35 0
18330 -36 -29 35 0
19364 -36 -29 -35 0
54450 22 -23 0
19360 -22 23 0
56386 -22 -23 0
