p wcnf 81 323 1000000
1000000 1 0
1000000 2 -18 0
1000000 18 -63 -61 -1 0
1000000 11 -19 0
1000000 19 -62 -65 -1 0
1000000 14 -20 0
1000000 20 -66 -59 -1 0
1000000 5 -21 0
1000000 21 -60 -1 0
1000000 7 -22 0
1000000 22 -67 -1 0
1000000 10 -23 0
1000000 23 -68 -1 0
1000000 11 -24 0
1000000 24 -64 -2 0
1000000 12 -25 0
1000000 25 -70 -72 -2 0
1000000 16 -26 0
1000000 26 -59 -71 -2 0
1000000 3 -27 0
1000000 27 -73 -64 -74 -2 0
1000000 6 -28 0
1000000 28 -60 -2 0
1000000 12 -29 0
1000000 29 -62 -61 -11 0
1000000 13 -30 0
1000000 30 -75 -68 -63 -11 0
1000000 14 -31 0
1000000 31 -70 -71 -11 0
1000000 15 -32 0
1000000 32 -72 -75 -66 -13 0
1000000 17 -33 0
1000000 33 -67 -13 0
1000000 16 -34 0
1000000 34 -60 -65 -73 -14 0
1000000 16 -35 0
1000000 35 -74 -15 0
1000000 17 -36 0
1000000 36 -62 -65 -63 -16 0
1000000 12 -37 0
1000000 37 -69 -3 0
1000000 4 -38 0
1000000 38 -59 -71 -61 -3 0
1000000 6 -39 0
1000000 39 -64 -3 0
1000000 7 -40 0
1000000 40 -70 -72 -73 -3 0
1000000 5 -41 0
1000000 41 -69 -4 0
1000000 6 -42 0
1000000 42 -69 -75 -4 0
1000000 13 -43 0
1000000 43 -62 -66 -59 -5 0
1000000 12 -44 0
1000000 44 -60 -68 -6 0
1000000 15 -45 0
1000000 45 -67 -6 0
1000000 9 -46 0
1000000 46 -64 -61 -6 0
1000000 10 -47 0
1000000 47 -74 -6 0
1000000 11 -48 0
1000000 48 -66 -67 -7 0
1000000 12 -49 0
1000000 49 -63 -7 0
1000000 13 -50 0
1000000 50 -65 -7 0
1000000 8 -51 0
1000000 51 -70 -74 -72 -7 0
1000000 13 -52 0
1000000 52 -73 -71 -8 0
1000000 10 -53 0
1000000 53 -59 -69 -8 0
1000000 12 -54 0
1000000 54 -75 -62 -9 0
1000000 17 -55 0
1000000 55 -61 -68 -9 0
1000000 10 -56 0
1000000 56 -67 -63 -9 0
1000000 11 -57 0
1000000 57 -64 -10 0
1000000 15 -58 0
1000000 58 -65 -10 0
1000000 1 0
1000000 -2 18 0
1000000 -3 27 0
1000000 -4 38 0
1000000 -5 21 41 0
1000000 -6 28 42 39 0
1000000 -7 40 22 0
1000000 -8 51 0
1000000 -9 46 0
1000000 -10 23 56 47 53 0
1000000 -11 24 48 19 57 0
1000000 -12 54 49 29 44 25 37 0
1000000 -13 43 50 30 52 0
1000000 -14 20 31 0
1000000 -15 58 45 32 0
1000000 -16 26 34 35 0
1000000 -17 33 55 36 0
1000000 59 80 0
1000000 60 78 0
1000000 61 78 0
1000000 62 79 0
1000000 63 81 0
1000000 64 80 0
1000000 65 81 0
1000000 66 80 0
1000000 67 76 0
1000000 68 77 0
1000000 69 77 0
1000000 70 81 0
1000000 71 78 0
1000000 72 77 0
1000000 73 79 0
1000000 74 79 0
1000000 75 76 0
1000000 -59 -80 0
1000000 -60 -78 0
1000000 -61 -78 0
1000000 -62 -79 0
1000000 -63 -81 0
1000000 -64 -80 0
1000000 -65 -81 0
1000000 -66 -80 0
1000000 -67 -76 0
1000000 -68 -77 0
1000000 -69 -77 0
1000000 -70 -81 0
1000000 -71 -78 0
1000000 -72 -77 0
1000000 -73 -79 0
1000000 -74 -79 0
1000000 -75 -76 0
9800 -76 0
10600 -77 0
12700 -78 0
9200 -79 0
9200 -80 0
12700 -81 0
1200 59 0
900 60 0
2300 61 0
1200 62 0
1500 63 0
900 64 0
2300 65 0
2300 66 0
2300 67 0
1200 68 0
1200 69 0
2300 70 0
900 71 0
900 72 0
1200 73 0
1500 74 0
700 75 0
24840 -18 0
11385 -27 0
1395 -38 0
3255 21 -41 0
6510 -21 41 0
8789 -21 -41 0
45080 28 42 -39 0
16100 28 -42 39 0
49910 28 -42 -39 0
28980 -28 42 39 0
53774 -28 42 -39 0
37835 -28 -42 39 0
56430 -28 -42 -39 0
33120 40 -22 0
17664 -40 22 0
40186 -40 -22 0
2530 -51 0
17100 -46 0
17650 23 56 47 -53 0
706 23 56 -47 53 0
18003 23 56 -47 -53 0
706 23 -56 47 53 0
18003 23 -56 47 -53 0
1398 23 -56 -47 53 0
18349 23 -56 -47 -53 0
13414 -23 56 47 53 0
24357 -23 56 47 -53 0
13852 -23 56 -47 53 0
24576 -23 56 -47 -53 0
13852 -23 -56 47 53 0
24576 -23 -56 47 -53 0
14281 -23 -56 -47 53 0
24790 -23 -56 -47 -53 0
5310 24 48 19 -57 0
22125 24 48 -19 57 0
23452 24 48 -19 -57 0
16225 24 -48 19 57 0
18615 24 -48 19 -57 0
26181 24 -48 -19 57 0
26779 24 -48 -19 -57 0
23600 -24 48 19 57 0
24662 -24 48 19 -57 0
28025 -24 48 -19 57 0
28290 -24 48 -19 -57 0
26845 -24 -48 19 57 0
27323 -24 -48 19 -57 0
28836 -24 -48 -19 57 0
28956 -24 -48 -19 -57 0
8625 54 49 29 44 25 -37 0
24150 54 49 29 44 -25 37 0
26737 54 49 29 44 -25 -37 0
6210 54 49 29 -44 25 37 0
13283 54 49 29 -44 25 -37 0
26013 54 49 29 -44 -25 37 0
28135 54 49 29 -44 -25 -37 0
3450 54 49 -29 44 25 37 0
11212 54 49 -29 44 25 -37 0
25185 54 49 -29 44 -25 37 0
27514 54 49 -29 44 -25 -37 0
9039 54 49 -29 -44 25 37 0
15404 54 49 -29 -44 25 -37 0
26862 54 49 -29 -44 -25 37 0
28771 54 49 -29 -44 -25 -37 0
5175 54 -49 29 44 25 37 0
12506 54 -49 29 44 25 -37 0
25702 54 -49 29 44 -25 37 0
27902 54 -49 29 44 -25 -37 0
10453 54 -49 29 -44 25 37 0
16465 54 -49 29 -44 25 -37 0
27286 54 -49 29 -44 -25 37 0
29090 54 -49 29 -44 -25 -37 0
8107 54 -49 -29 44 25 37 0
14706 54 -49 -29 44 25 -37 0
26582 54 -49 -29 44 -25 37 0
28562 54 -49 -29 44 -25 -37 0
12858 54 -49 -29 -44 25 37 0
18269 54 -49 -29 -44 25 -37 0
28007 54 -49 -29 -44 -25 37 0
29631 54 -49 -29 -44 -25 -37 0
10350 -54 49 29 44 25 37 0
16388 -54 49 29 44 25 -37 0
27255 -54 49 29 44 -25 37 0
29066 -54 49 29 44 -25 -37 0
14697 -54 49 29 -44 25 37 0
19648 -54 49 29 -44 25 -37 0
28559 -54 49 29 -44 -25 37 0
30044 -54 49 29 -44 -25 -37 0
12765 -54 49 -29 44 25 37 0
18199 -54 49 -29 44 25 -37 0
27979 -54 49 -29 44 -25 37 0
29610 -54 49 -29 44 -25 -37 0
16677 -54 49 -29 -44 25 37 0
21133 -54 49 -29 -44 25 -37 0
29153 -54 49 -29 -44 -25 37 0
30490 -54 49 -29 -44 -25 -37 0
13973 -54 -49 29 44 25 37 0
19104 -54 -49 29 44 25 -37 0
28342 -54 -49 29 44 -25 37 0
29881 -54 -49 29 44 -25 -37 0
17667 -54 -49 29 -44 25 37 0
21876 -54 -49 29 -44 25 -37 0
29450 -54 -49 29 -44 -25 37 0
30713 -54 -49 29 -44 -25 -37 0
16025 -54 -49 -29 44 25 37 0
20644 -54 -49 -29 44 25 -37 0
28958 -54 -49 -29 44 -25 37 0
30343 -54 -49 -29 44 -25 -37 0
19351 -54 -49 -29 -44 25 37 0
23138 -54 -49 -29 -44 25 -37 0
29955 -54 -49 -29 -44 -25 37 0
31091 -54 -49 -29 -44 -25 -37 0
782 43 50 30 -52 0
37145 43 50 -30 52 0
37184 43 50 -30 -52 0
7038 43 -50 30 52 0
7679 43 -50 30 -52 0
37497 43 -50 -30 52 0
37529 43 -50 -30 -52 0
27370 -43 50 30 52 0
27605 -43 50 30 -52 0
38513 -43 50 -30 52 0
38525 -43 50 -30 -52 0
29481 -43 -50 30 52 0
29674 -43 -50 30 -52 0
38619 -43 -50 -30 52 0
38629 -43 -50 -30 -52 0
41400 20 -31 0
2760 -20 31 0
42090 -20 -31 0
17710 58 45 -32 0
8096 58 -45 32 0
20139 58 -45 -32 0
22770 -58 45 32 0
24541 -58 45 -32 0
23580 -58 -45 32 0
24784 -58 -45 -32 0
32200 26 34 -35 0
57960 26 -34 35 0
61180 26 -34 -35 0
51520 -26 34 35 0
57960 -26 34 -35 0
63112 -26 -34 35 0
63756 -26 -34 -35 0
13300 33 55 -36 0
32300 33 -55 36 0
34295 33 -55 -36 0
7600 -33 55 36 0
18240 -33 55 -36 0
33440 -33 -55 36 0
35036 -33 -55 -36 0
