p wcnf 74 292 1000000
1000000 1 0
1000000 2 -18 0
1000000 18 -53 -58 -61 -1 0
1000000 13 -19 0
1000000 19 -56 -60 -1 0
1000000 5 -20 0
1000000 20 -54 -63 -1 0
1000000 8 -21 0
1000000 21 -55 -57 -1 0
1000000 17 -22 0
1000000 22 -68 -65 -54 -2 0
1000000 3 -23 0
1000000 23 -53 -64 -2 0
1000000 8 -24 0
1000000 24 -58 -66 -67 -2 0
1000000 9 -25 0
1000000 25 -56 -60 -2 0
1000000 14 -26 0
1000000 26 -61 -57 -11 0
1000000 17 -27 0
1000000 27 -55 -15 0
1000000 4 -28 0
1000000 28 -59 -64 -3 0
1000000 5 -29 0
1000000 29 -59 -3 0
1000000 8 -30 0
1000000 30 -54 -66 -68 -3 0
1000000 12 -31 0
1000000 31 -58 -65 -63 -4 0
1000000 14 -32 0
1000000 32 -67 -62 -4 0
1000000 16 -33 0
1000000 33 -53 -4 0
1000000 5 -34 0
1000000 34 -63 -55 -64 -4 0
1000000 6 -35 0
1000000 35 -57 -62 -4 0
1000000 10 -36 0
1000000 36 -61 -56 -4 0
1000000 12 -37 0
1000000 37 -66 -60 -5 0
1000000 8 -38 0
1000000 38 -62 -53 -56 -5 0
1000000 11 -39 0
1000000 39 -65 -6 0
1000000 12 -40 0
1000000 40 -67 -6 0
1000000 7 -41 0
1000000 41 -55 -59 -58 -6 0
1000000 9 -42 0
1000000 42 -68 -6 0
1000000 12 -43 0
1000000 43 -62 -57 -7 0
1000000 14 -44 0
1000000 44 -59 -7 0
1000000 17 -45 0
1000000 45 -64 -54 -7 0
1000000 12 -46 0
1000000 46 -65 -61 -8 0
1000000 9 -47 0
1000000 47 -60 -8 0
1000000 11 -48 0
1000000 48 -67 -66 -54 -9 0
1000000 14 -49 0
1000000 49 -55 -68 -9 0
1000000 12 -50 0
1000000 50 -63 -10 0
1000000 15 -51 0
1000000 51 -53 -56 -10 0
1000000 17 -52 0
1000000 52 -61 -58 -10 0
1000000 1 0
1000000 -2 18 0
1000000 -3 23 0
1000000 -4 28 0
1000000 -5 20 34 29 0
1000000 -6 35 0
1000000 -7 41 0
1000000 -8 24 21 38 30 0
1000000 -9 25 42 47 0
1000000 -10 36 0
1000000 -11 39 48 0
1000000 -12 40 43 50 31 46 37 0
1000000 -13 19 0
1000000 -14 49 32 26 44 0
1000000 -15 51 0
1000000 -16 33 0
1000000 -17 52 22 45 27 0
1000000 53 74 0
1000000 54 71 0
1000000 55 72 0
1000000 56 70 0
1000000 57 69 0
1000000 58 73 0
1000000 59 73 0
1000000 60 73 0
1000000 61 72 0
1000000 62 70 0
1000000 63 72 0
1000000 64 69 0
1000000 65 69 0
1000000 66 71 0
1000000 67 74 0
1000000 68 71 0
1000000 -53 -74 0
1000000 -54 -71 0
1000000 -55 -72 0
1000000 -56 -70 0
1000000 -57 -69 0
1000000 -58 -73 0
1000000 -59 -73 0
1000000 -60 -73 0
1000000 -61 -72 0
1000000 -62 -70 0
1000000 -63 -72 0
1000000 -64 -69 0
1000000 -65 -69 0
1000000 -66 -71 0
1000000 -67 -74 0
1000000 -68 -71 0
10300 -69 0
9700 -70 0
10900 -71 0
10300 -72 0
8400 -73 0
8400 -74 0
1600 53 0
2300 54 0
1600 55 0
2700 56 0
2700 57 0
3100 58 0
2900 59 0
2300 60 0
2300 61 0
2700 62 0
2300 63 0
2900 64 0
2500 65 0
2900 66 0
1600 67 0
1600 68 0
11214 -18 0
30960 -23 0
57825 -28 0
14430 20 34 -29 0
8658 20 -34 29 0
20491 20 -34 -29 0
31265 -20 34 29 0
36316 -20 34 -29 0
34295 -20 -34 29 0
38437 -20 -34 -29 0
36810 -35 0
62795 -41 0
12025 24 21 38 -30 0
36075 24 21 -38 30 0
39081 24 21 -38 -30 0
21645 24 -21 38 30 0
28259 24 -21 38 -30 0
41486 24 -21 -38 30 0
43140 24 -21 -38 -30 0
40885 -24 21 38 30 0
42689 -24 21 38 -30 0
46296 -24 21 -38 30 0
46747 -24 21 -38 -30 0
44132 -24 -21 38 30 0
45124 -24 -21 38 -30 0
47108 -24 -21 -38 30 0
47356 -24 -21 -38 -30 0
4410 25 42 -47 0
4410 25 -42 47 0
8379 25 -42 -47 0
33075 -25 42 47 0
34178 -25 42 -47 0
34178 -25 -42 47 0
35170 -25 -42 -47 0
32720 -36 0
33530 39 -48 0
43110 -39 48 0
46463 -39 -48 0
11025 40 43 50 31 46 -37 0
33075 40 43 50 31 -46 37 0
35831 40 43 50 31 -46 -37 0
30870 40 43 50 -31 46 37 0
34177 40 43 50 -31 46 -37 0
40793 40 43 50 -31 -46 37 0
41619 40 43 50 -31 -46 -37 0
28665 40 43 -50 31 46 37 0
32524 40 43 -50 31 46 -37 0
40241 40 43 -50 31 -46 37 0
41206 40 43 -50 31 -46 -37 0
39469 40 43 -50 -31 46 37 0
40627 40 43 -50 -31 46 -37 0
42942 40 43 -50 -31 -46 37 0
43232 40 43 -50 -31 -46 -37 0
15435 40 -43 50 31 46 37 0
22601 40 -43 50 31 46 -37 0
36934 40 -43 50 31 -46 37 0
38725 40 -43 50 31 -46 -37 0
35500 40 -43 50 -31 46 37 0
37650 40 -43 50 -31 46 -37 0
41950 40 -43 50 -31 -46 37 0
42488 40 -43 50 -31 -46 -37 0
34067 40 -43 -50 31 46 37 0
36575 40 -43 -50 31 46 -37 0
41592 40 -43 -50 31 -46 37 0
42219 40 -43 -50 31 -46 -37 0
41090 40 -43 -50 -31 46 37 0
41843 40 -43 -50 -31 46 -37 0
43348 40 -43 -50 -31 -46 37 0
43536 40 -43 -50 -31 -46 -37 0
7938 -40 43 50 31 46 37 0
16978 -40 43 50 31 46 -37 0
35059 -40 43 50 31 -46 37 0
37320 -40 43 50 31 -46 -37 0
33251 -40 43 50 -31 46 37 0
35964 -40 43 50 -31 46 -37 0
41388 -40 43 50 -31 -46 37 0
42066 -40 43 50 -31 -46 -37 0
31443 -40 43 -50 31 46 37 0
34607 -40 43 -50 31 46 -37 0
40936 -40 43 -50 31 -46 37 0
41727 -40 43 -50 31 -46 -37 0
40303 -40 43 -50 -31 46 37 0
41252 -40 43 -50 -31 46 -37 0
43151 -40 43 -50 -31 -46 37 0
43388 -40 43 -50 -31 -46 -37 0
20595 -40 -43 50 31 46 37 0
26471 -40 -43 50 31 46 -37 0
38224 -40 -43 50 31 -46 37 0
39693 -40 -43 50 31 -46 -37 0
37048 -40 -43 50 -31 46 37 0
38811 -40 -43 50 -31 46 -37 0
42337 -40 -43 50 -31 -46 37 0
42778 -40 -43 50 -31 -46 -37 0
35873 -40 -43 -50 31 46 37 0
37930 -40 -43 -50 31 46 -37 0
42043 -40 -43 -50 31 -46 37 0
42557 -40 -43 -50 31 -46 -37 0
41632 -40 -43 -50 -31 46 37 0
42249 -40 -43 -50 -31 46 -37 0
43483 -40 -43 -50 -31 -46 37 0
43637 -40 -43 -50 -31 -46 -37 0
19936 -19 0
56430 49 32 26 -44 0
7128 49 32 -26 44 0
56786 49 32 -26 -44 0
53460 49 -32 26 44 0
59103 49 -32 26 -44 0
54173 49 -32 -26 44 0
59139 49 -32 -26 -44 0
7128 -49 32 26 44 0
56786 -49 32 26 -44 0
13401 -49 32 -26 44 0
57100 -49 32 -26 -44 0
54173 -49 -32 26 44 0
59139 -49 -32 26 -44 0
54800 -49 -32 -26 44 0
59170 -49 -32 -26 -44 0
18655 -51 0
47040 -33 0
10320 52 22 45 -27 0
43860 52 22 -45 27 0
45408 52 22 -45 -27 0
7740 52 -22 45 27 0
16512 52 -22 45 -27 0
45021 52 -22 -45 27 0
46337 52 -22 -45 -27 0
6192 -52 22 45 27 0
15274 -52 22 45 -27 0
44789 -52 22 -45 27 0
46151 -52 22 -45 -27 0
13003 -52 -22 45 27 0
20723 -52 -22 45 -27 0
45810 -52 -22 -45 27 0
46968 -52 -22 -45 -27 0
