p wcnf 867 4069 1000000
1000000 1 0
1000000 2 -159 0
1000000 159 -627 -628 -620 -1 0
1000000 102 -160 0
1000000 160 -622 -1 0
1000000 110 -161 0
1000000 161 -623 -1 0
1000000 12 -162 0
1000000 162 -631 -621 -633 -1 0
1000000 3 -163 0
1000000 163 -624 -626 -1 0
1000000 4 -164 0
1000000 164 -629 -1 0
1000000 5 -165 0
1000000 165 -630 -1 0
1000000 6 -166 0
1000000 166 -635 -636 -1 0
1000000 8 -167 0
1000000 167 -637 -639 -1 0
1000000 11 -168 0
1000000 168 -642 -643 -638 -2 0
1000000 13 -169 0
1000000 169 -632 -2 0
1000000 15 -170 0
1000000 170 -634 -2 0
1000000 6 -171 0
1000000 171 -641 -625 -648 -2 0
1000000 74 -172 0
1000000 172 -645 -2 0
1000000 76 -173 0
1000000 173 -646 -649 -2 0
1000000 10 -174 0
1000000 174 -650 -652 -2 0
1000000 12 -175 0
1000000 175 -653 -655 -647 -11 0
1000000 13 -176 0
1000000 176 -651 -11 0
1000000 20 -177 0
1000000 177 -661 -658 -657 -11 0
1000000 23 -178 0
1000000 178 -656 -640 -664 -11 0
1000000 105 -179 0
1000000 179 -659 -660 -101 0
1000000 114 -180 0
1000000 180 -654 -101 0
1000000 105 -181 0
1000000 181 -644 -102 0
1000000 108 -182 0
1000000 182 -663 -102 0
1000000 147 -183 0
1000000 183 -662 -102 0
1000000 104 -184 0
1000000 184 -666 -103 0
1000000 105 -185 0
1000000 185 -668 -672 -667 -103 0
1000000 135 -186 0
1000000 186 -669 -103 0
1000000 106 -187 0
1000000 187 -671 -674 -104 0
1000000 112 -188 0
1000000 188 -673 -104 0
1000000 136 -189 0
1000000 189 -675 -104 0
1000000 131 -190 0
1000000 190 -676 -677 -105 0
1000000 141 -191 0
1000000 191 -665 -681 -105 0
1000000 107 -192 0
1000000 192 -685 -679 -684 -106 0
1000000 114 -193 0
1000000 193 -686 -687 -689 -106 0
1000000 120 -194 0
1000000 194 -680 -107 0
1000000 121 -195 0
1000000 195 -682 -683 -107 0
1000000 122 -196 0
1000000 196 -691 -678 -670 -107 0
1000000 114 -197 0
1000000 197 -692 -698 -696 -108 0
1000000 120 -198 0
1000000 198 -693 -695 -694 -108 0
1000000 126 -199 0
1000000 199 -699 -688 -108 0
1000000 113 -200 0
1000000 200 -703 -701 -109 0
1000000 114 -201 0
1000000 201 -690 -109 0
1000000 113 -202 0
1000000 202 -700 -706 -110 0
1000000 115 -203 0
1000000 203 -708 -704 -110 0
1000000 119 -204 0
1000000 204 -705 -110 0
1000000 21 -205 0
1000000 205 -702 -713 -710 -12 0
1000000 26 -206 0
1000000 206 -707 -697 -12 0
1000000 38 -207 0
1000000 207 -715 -716 -709 -12 0
1000000 115 -208 0
1000000 208 -714 -111 0
1000000 120 -209 0
1000000 209 -712 -111 0
1000000 119 -210 0
1000000 210 -720 -724 -723 -112 0
1000000 122 -211 0
1000000 211 -719 -725 -711 -112 0
1000000 119 -212 0
1000000 212 -729 -730 -727 -113 0
1000000 124 -213 0
1000000 213 -717 -726 -113 0
1000000 119 -214 0
1000000 214 -718 -732 -114 0
1000000 120 -215 0
1000000 215 -728 -114 0
1000000 146 -216 0
1000000 216 -731 -114 0
1000000 149 -217 0
1000000 217 -721 -114 0
1000000 117 -218 0
1000000 218 -737 -735 -115 0
1000000 124 -219 0
1000000 219 -722 -740 -734 -115 0
1000000 117 -220 0
1000000 220 -738 -736 -116 0
1000000 125 -221 0
1000000 221 -741 -116 0
1000000 138 -222 0
1000000 222 -744 -743 -116 0
1000000 122 -223 0
1000000 223 -742 -117 0
1000000 124 -224 0
1000000 224 -739 -750 -746 -117 0
1000000 122 -225 0
1000000 225 -747 -118 0
1000000 124 -226 0
1000000 226 -733 -118 0
1000000 120 -227 0
1000000 227 -749 -119 0
1000000 122 -228 0
1000000 228 -748 -119 0
1000000 121 -229 0
1000000 229 -752 -753 -758 -120 0
1000000 125 -230 0
1000000 230 -756 -751 -120 0
1000000 15 -231 0
1000000 231 -754 -757 -13 0
1000000 18 -232 0
1000000 232 -760 -745 -13 0
1000000 19 -233 0
1000000 233 -766 -765 -759 -13 0
1000000 20 -234 0
1000000 234 -755 -13 0
1000000 30 -235 0
1000000 235 -762 -13 0
1000000 42 -236 0
1000000 236 -763 -764 -13 0
1000000 43 -237 0
1000000 237 -768 -13 0
1000000 125 -238 0
1000000 238 -769 -121 0
1000000 126 -239 0
1000000 239 -761 -775 -772 -121 0
1000000 126 -240 0
1000000 240 -774 -767 -777 -122 0
1000000 141 -241 0
1000000 241 -776 -780 -782 -122 0
1000000 125 -242 0
1000000 242 -770 -779 -123 0
1000000 131 -243 0
1000000 243 -771 -785 -784 -123 0
1000000 141 -244 0
1000000 244 -778 -123 0
1000000 128 -245 0
1000000 245 -788 -781 -124 0
1000000 134 -246 0
1000000 246 -773 -124 0
1000000 127 -247 0
1000000 247 -786 -125 0
1000000 130 -248 0
1000000 248 -787 -789 -125 0
1000000 132 -249 0
1000000 249 -791 -790 -796 -125 0
1000000 135 -250 0
1000000 250 -792 -797 -125 0
1000000 128 -251 0
1000000 251 -783 -795 -126 0
1000000 133 -252 0
1000000 252 -804 -802 -801 -126 0
1000000 134 -253 0
1000000 253 -800 -799 -621 -126 0
1000000 128 -254 0
1000000 254 -793 -794 -127 0
1000000 139 -255 0
1000000 255 -805 -127 0
1000000 130 -256 0
1000000 256 -620 -627 -623 -128 0
1000000 137 -257 0
1000000 257 -629 -626 -628 -128 0
1000000 130 -258 0
1000000 258 -803 -798 -129 0
1000000 132 -259 0
1000000 259 -631 -624 -129 0
1000000 156 -260 0
1000000 260 -630 -129 0
1000000 132 -261 0
1000000 261 -622 -634 -130 0
1000000 138 -262 0
1000000 262 -635 -633 -130 0
1000000 15 -263 0
1000000 263 -632 -14 0
1000000 17 -264 0
1000000 264 -639 -642 -636 -14 0
1000000 132 -265 0
1000000 265 -625 -131 0
1000000 134 -266 0
1000000 266 -641 -646 -644 -131 0
1000000 139 -267 0
1000000 267 -640 -132 0
1000000 141 -268 0
1000000 268 -647 -648 -132 0
1000000 136 -269 0
1000000 269 -653 -651 -643 -133 0
1000000 142 -270 0
1000000 270 -656 -645 -637 -133 0
1000000 136 -271 0
1000000 271 -652 -638 -134 0
1000000 138 -272 0
1000000 272 -654 -134 0
1000000 143 -273 0
1000000 273 -649 -650 -135 0
1000000 149 -274 0
1000000 274 -659 -661 -657 -136 0
1000000 138 -275 0
1000000 275 -660 -664 -137 0
1000000 139 -276 0
1000000 276 -662 -666 -137 0
1000000 155 -277 0
1000000 277 -655 -658 -137 0
1000000 141 -278 0
1000000 278 -665 -138 0
1000000 142 -279 0
1000000 279 -667 -138 0
1000000 142 -280 0
1000000 280 -668 -139 0
1000000 147 -281 0
1000000 281 -663 -139 0
1000000 146 -282 0
1000000 282 -671 -140 0
1000000 153 -283 0
1000000 283 -674 -669 -140 0
1000000 17 -284 0
1000000 284 -676 -677 -15 0
1000000 25 -285 0
1000000 285 -673 -675 -15 0
1000000 85 -286 0
1000000 286 -670 -15 0
1000000 88 -287 0
1000000 287 -681 -678 -15 0
1000000 145 -288 0
1000000 288 -672 -680 -141 0
1000000 151 -289 0
1000000 289 -679 -141 0
1000000 151 -290 0
1000000 290 -683 -689 -688 -142 0
1000000 158 -291 0
1000000 291 -682 -142 0
1000000 145 -292 0
1000000 292 -685 -143 0
1000000 151 -293 0
1000000 293 -684 -143 0
1000000 145 -294 0
1000000 294 -686 -144 0
1000000 151 -295 0
1000000 295 -694 -687 -144 0
1000000 153 -296 0
1000000 296 -691 -695 -145 0
1000000 155 -297 0
1000000 297 -701 -696 -699 -145 0
1000000 149 -298 0
1000000 298 -704 -697 -692 -146 0
1000000 158 -299 0
1000000 299 -690 -702 -146 0
1000000 152 -300 0
1000000 300 -706 -698 -147 0
1000000 151 -301 0
1000000 301 -708 -707 -148 0
1000000 152 -302 0
1000000 302 -693 -705 -148 0
1000000 150 -303 0
1000000 303 -703 -149 0
1000000 153 -304 0
1000000 304 -716 -715 -710 -149 0
1000000 151 -305 0
1000000 305 -709 -714 -150 0
1000000 154 -306 0
1000000 306 -711 -720 -721 -150 0
1000000 17 -307 0
1000000 307 -719 -700 -16 0
1000000 18 -308 0
1000000 308 -718 -713 -725 -16 0
1000000 46 -309 0
1000000 309 -717 -728 -727 -16 0
1000000 97 -310 0
1000000 310 -723 -731 -726 -16 0
1000000 153 -311 0
1000000 311 -722 -151 0
1000000 155 -312 0
1000000 312 -730 -712 -152 0
1000000 158 -313 0
1000000 313 -737 -735 -734 -152 0
1000000 155 -314 0
1000000 314 -736 -729 -153 0
1000000 156 -315 0
1000000 315 -740 -733 -741 -153 0
1000000 155 -316 0
1000000 316 -732 -154 0
1000000 158 -317 0
1000000 317 -724 -744 -154 0
1000000 157 -318 0
1000000 318 -742 -738 -155 0
1000000 131 -319 0
1000000 319 -746 -747 -745 -17 0
1000000 20 -320 0
1000000 320 -751 -748 -749 -17 0
1000000 22 -321 0
1000000 321 -743 -17 0
1000000 28 -322 0
1000000 322 -752 -17 0
1000000 45 -323 0
1000000 323 -756 -758 -750 -17 0
1000000 20 -324 0
1000000 324 -760 -739 -754 -18 0
1000000 23 -325 0
1000000 325 -757 -18 0
1000000 139 -326 0
1000000 326 -753 -763 -762 -19 0
1000000 21 -327 0
1000000 327 -766 -755 -767 -19 0
1000000 22 -328 0
1000000 328 -759 -19 0
1000000 30 -329 0
1000000 329 -770 -764 -19 0
1000000 35 -330 0
1000000 330 -761 -768 -19 0
1000000 98 -331 0
1000000 331 -775 -773 -772 -19 0
1000000 145 -332 0
1000000 332 -776 -769 -20 0
1000000 21 -333 0
1000000 333 -782 -774 -777 -20 0
1000000 22 -334 0
1000000 334 -765 -20 0
1000000 25 -335 0
1000000 335 -779 -20 0
1000000 66 -336 0
1000000 336 -771 -781 -20 0
1000000 14 -337 0
1000000 337 -788 -785 -784 -3 0
1000000 22 -338 0
1000000 338 -792 -780 -783 -3 0
1000000 29 -339 0
1000000 339 -789 -778 -3 0
1000000 36 -340 0
1000000 340 -786 -794 -3 0
1000000 48 -341 0
1000000 341 -790 -3 0
1000000 6 -342 0
1000000 342 -793 -3 0
1000000 53 -343 0
1000000 343 -797 -791 -3 0
1000000 7 -344 0
1000000 344 -795 -798 -3 0
1000000 8 -345 0
1000000 345 -799 -3 0
1000000 23 -346 0
1000000 346 -787 -21 0
1000000 28 -347 0
1000000 347 -796 -21 0
1000000 33 -348 0
1000000 348 -800 -21 0
1000000 73 -349 0
1000000 349 -805 -802 -803 -21 0
1000000 150 -350 0
1000000 350 -620 -22 0
1000000 28 -351 0
1000000 351 -624 -622 -626 -22 0
1000000 32 -352 0
1000000 352 -627 -801 -22 0
1000000 61 -353 0
1000000 353 -625 -628 -631 -22 0
1000000 113 -354 0
1000000 354 -632 -621 -23 0
1000000 26 -355 0
1000000 355 -804 -635 -636 -23 0
1000000 30 -356 0
1000000 356 -637 -623 -23 0
1000000 37 -357 0
1000000 357 -638 -640 -641 -23 0
1000000 99 -358 0
1000000 358 -630 -23 0
1000000 29 -359 0
1000000 359 -639 -643 -642 -24 0
1000000 30 -360 0
1000000 360 -633 -629 -24 0
1000000 62 -361 0
1000000 361 -634 -24 0
1000000 118 -362 0
1000000 362 -649 -644 -25 0
1000000 29 -363 0
1000000 363 -645 -647 -25 0
1000000 30 -364 0
1000000 364 -653 -652 -650 -25 0
1000000 38 -365 0
1000000 365 -648 -25 0
1000000 39 -366 0
1000000 366 -654 -26 0
1000000 41 -367 0
1000000 367 -655 -26 0
1000000 83 -368 0
1000000 368 -646 -651 -26 0
1000000 42 -369 0
1000000 369 -656 -27 0
1000000 44 -370 0
1000000 370 -660 -659 -665 -27 0
1000000 32 -371 0
1000000 371 -661 -28 0
1000000 33 -372 0
1000000 372 -658 -662 -28 0
1000000 51 -373 0
1000000 373 -664 -28 0
1000000 30 -374 0
1000000 374 -657 -29 0
1000000 31 -375 0
1000000 375 -670 -663 -29 0
1000000 75 -376 0
1000000 376 -669 -666 -668 -29 0
1000000 89 -377 0
1000000 377 -667 -673 -29 0
1000000 34 -378 0
1000000 378 -678 -671 -677 -30 0
1000000 35 -379 0
1000000 379 -675 -30 0
1000000 67 -380 0
1000000 380 -681 -679 -30 0
1000000 16 -381 0
1000000 381 -676 -4 0
1000000 17 -382 0
1000000 382 -687 -672 -686 -4 0
1000000 27 -383 0
1000000 383 -682 -685 -4 0
1000000 31 -384 0
1000000 384 -684 -689 -4 0
1000000 5 -385 0
1000000 385 -680 -691 -4 0
1000000 47 -386 0
1000000 386 -688 -695 -692 -4 0
1000000 9 -387 0
1000000 387 -674 -696 -4 0
1000000 32 -388 0
1000000 388 -697 -690 -701 -31 0
1000000 39 -389 0
1000000 389 -702 -700 -693 -31 0
1000000 40 -390 0
1000000 390 -694 -31 0
1000000 41 -391 0
1000000 391 -698 -31 0
1000000 64 -392 0
1000000 392 -703 -31 0
1000000 34 -393 0
1000000 393 -704 -683 -32 0
1000000 44 -394 0
1000000 394 -709 -699 -32 0
1000000 46 -395 0
1000000 395 -705 -33 0
1000000 51 -396 0
1000000 396 -707 -33 0
1000000 126 -397 0
1000000 397 -706 -708 -712 -34 0
1000000 142 -398 0
1000000 398 -713 -710 -34 0
1000000 143 -399 0
1000000 399 -711 -720 -719 -34 0
1000000 144 -400 0
1000000 400 -718 -714 -722 -34 0
1000000 36 -401 0
1000000 401 -727 -721 -723 -34 0
1000000 40 -402 0
1000000 402 -715 -717 -34 0
1000000 108 -403 0
1000000 403 -728 -716 -35 0
1000000 153 -404 0
1000000 404 -724 -35 0
1000000 36 -405 0
1000000 405 -731 -726 -35 0
1000000 40 -406 0
1000000 406 -732 -733 -35 0
1000000 112 -407 0
1000000 407 -729 -730 -36 0
1000000 123 -408 0
1000000 408 -725 -36 0
1000000 37 -409 0
1000000 409 -736 -36 0
1000000 44 -410 0
1000000 410 -735 -738 -36 0
1000000 72 -411 0
1000000 411 -739 -737 -744 -36 0
1000000 39 -412 0
1000000 412 -748 -740 -746 -37 0
1000000 44 -413 0
1000000 413 -745 -741 -37 0
1000000 80 -414 0
1000000 414 -753 -750 -751 -37 0
1000000 105 -415 0
1000000 415 -742 -38 0
1000000 43 -416 0
1000000 416 -747 -734 -38 0
1000000 47 -417 0
1000000 417 -754 -743 -38 0
1000000 43 -418 0
1000000 418 -749 -755 -759 -39 0
1000000 52 -419 0
1000000 419 -752 -758 -39 0
1000000 42 -420 0
1000000 420 -766 -763 -765 -40 0
1000000 44 -421 0
1000000 421 -756 -757 -40 0
1000000 6 -422 0
1000000 422 -762 -5 0
1000000 9 -423 0
1000000 423 -760 -764 -5 0
1000000 42 -424 0
1000000 424 -774 -767 -772 -41 0
1000000 43 -425 0
1000000 425 -769 -41 0
1000000 43 -426 0
1000000 426 -775 -768 -773 -42 0
1000000 48 -427 0
1000000 427 -771 -42 0
1000000 59 -428 0
1000000 428 -761 -779 -778 -42 0
1000000 48 -429 0
1000000 429 -777 -43 0
1000000 49 -430 0
1000000 430 -770 -786 -784 -43 0
1000000 49 -431 0
1000000 431 -781 -783 -782 -44 0
1000000 50 -432 0
1000000 432 -780 -44 0
1000000 53 -433 0
1000000 433 -793 -791 -787 -44 0
1000000 58 -434 0
1000000 434 -788 -44 0
1000000 87 -435 0
1000000 435 -794 -785 -796 -44 0
1000000 46 -436 0
1000000 436 -776 -45 0
1000000 53 -437 0
1000000 437 -789 -45 0
1000000 56 -438 0
1000000 438 -790 -45 0
1000000 70 -439 0
1000000 439 -799 -795 -45 0
1000000 49 -440 0
1000000 440 -792 -46 0
1000000 50 -441 0
1000000 441 -803 -805 -802 -46 0
1000000 52 -442 0
1000000 442 -800 -798 -46 0
1000000 55 -443 0
1000000 443 -801 -797 -46 0
1000000 81 -444 0
1000000 444 -621 -46 0
1000000 50 -445 0
1000000 445 -623 -620 -624 -47 0
1000000 53 -446 0
1000000 446 -626 -627 -630 -47 0
1000000 86 -447 0
1000000 447 -628 -629 -47 0
1000000 53 -448 0
1000000 448 -622 -633 -631 -48 0
1000000 54 -449 0
1000000 449 -637 -639 -634 -48 0
1000000 55 -450 0
1000000 450 -640 -625 -638 -48 0
1000000 57 -451 0
1000000 451 -632 -48 0
1000000 50 -452 0
1000000 452 -646 -635 -642 -49 0
1000000 55 -453 0
1000000 453 -641 -49 0
1000000 52 -454 0
1000000 454 -636 -50 0
1000000 53 -455 0
1000000 455 -648 -649 -645 -50 0
1000000 11 -456 0
1000000 456 -651 -643 -654 -6 0
1000000 26 -457 0
1000000 457 -656 -644 -653 -6 0
1000000 71 -458 0
1000000 458 -650 -657 -659 -6 0
1000000 9 -459 0
1000000 459 -660 -662 -655 -6 0
1000000 65 -460 0
1000000 460 -661 -652 -51 0
1000000 69 -461 0
1000000 461 -658 -51 0
1000000 57 -462 0
1000000 462 -647 -668 -804 -52 0
1000000 58 -463 0
1000000 463 -669 -664 -52 0
1000000 60 -464 0
1000000 464 -672 -673 -670 -52 0
1000000 84 -465 0
1000000 465 -667 -665 -52 0
1000000 63 -466 0
1000000 466 -679 -676 -671 -53 0
1000000 68 -467 0
1000000 467 -674 -675 -663 -53 0
1000000 58 -468 0
1000000 468 -666 -680 -684 -54 0
1000000 60 -469 0
1000000 469 -682 -681 -54 0
1000000 63 -470 0
1000000 470 -689 -683 -688 -54 0
1000000 56 -471 0
1000000 471 -690 -685 -55 0
1000000 58 -472 0
1000000 472 -686 -687 -695 -55 0
1000000 59 -473 0
1000000 473 -692 -694 -678 -55 0
1000000 111 -474 0
1000000 474 -698 -691 -56 0
1000000 58 -475 0
1000000 475 -696 -697 -677 -56 0
1000000 59 -476 0
1000000 476 -700 -702 -56 0
1000000 92 -477 0
1000000 477 -693 -56 0
1000000 61 -478 0
1000000 478 -706 -704 -699 -57 0
1000000 72 -479 0
1000000 479 -701 -57 0
1000000 76 -480 0
1000000 480 -713 -705 -703 -58 0
1000000 80 -481 0
1000000 481 -707 -58 0
1000000 61 -482 0
1000000 482 -711 -716 -710 -59 0
1000000 65 -483 0
1000000 483 -709 -708 -59 0
1000000 69 -484 0
1000000 484 -718 -714 -59 0
1000000 71 -485 0
1000000 485 -717 -712 -59 0
1000000 62 -486 0
1000000 486 -721 -723 -715 -60 0
1000000 65 -487 0
1000000 487 -724 -719 -60 0
1000000 34 -488 0
1000000 488 -722 -7 0
1000000 39 -489 0
1000000 489 -727 -725 -7 0
1000000 8 -490 0
1000000 490 -720 -7 0
1000000 10 -491 0
1000000 491 -728 -7 0
1000000 93 -492 0
1000000 492 -731 -729 -7 0
1000000 66 -493 0
1000000 493 -726 -734 -730 -61 0
1000000 68 -494 0
1000000 494 -736 -733 -61 0
1000000 96 -495 0
1000000 495 -732 -735 -739 -61 0
1000000 124 -496 0
1000000 496 -737 -62 0
1000000 64 -497 0
1000000 497 -741 -743 -744 -62 0
1000000 68 -498 0
1000000 498 -738 -62 0
1000000 72 -499 0
1000000 499 -748 -740 -749 -62 0
1000000 158 -500 0
1000000 500 -746 -745 -63 0
1000000 64 -501 0
1000000 501 -753 -756 -755 -63 0
1000000 73 -502 0
1000000 502 -742 -63 0
1000000 72 -503 0
1000000 503 -754 -757 -758 -64 0
1000000 80 -504 0
1000000 504 -750 -752 -64 0
1000000 141 -505 0
1000000 505 -747 -751 -65 0
1000000 69 -506 0
1000000 506 -759 -764 -65 0
1000000 71 -507 0
1000000 507 -763 -761 -65 0
1000000 71 -508 0
1000000 508 -768 -760 -66 0
1000000 74 -509 0
1000000 509 -765 -769 -66 0
1000000 74 -510 0
1000000 510 -772 -771 -762 -67 0
1000000 76 -511 0
1000000 511 -770 -67 0
1000000 115 -512 0
1000000 512 -766 -68 0
1000000 69 -513 0
1000000 513 -774 -773 -68 0
1000000 72 -514 0
1000000 514 -776 -68 0
1000000 71 -515 0
1000000 515 -779 -783 -782 -69 0
1000000 75 -516 0
1000000 516 -786 -778 -777 -69 0
1000000 71 -517 0
1000000 517 -787 -781 -780 -70 0
1000000 76 -518 0
1000000 518 -767 -784 -70 0
1000000 79 -519 0
1000000 519 -785 -70 0
1000000 13 -520 0
1000000 520 -795 -794 -775 -8 0
1000000 122 -521 0
1000000 521 -789 -788 -793 -8 0
1000000 15 -522 0
1000000 522 -790 -8 0
1000000 91 -523 0
1000000 523 -802 -791 -796 -8 0
1000000 151 -524 0
1000000 524 -801 -797 -71 0
1000000 74 -525 0
1000000 525 -798 -803 -71 0
1000000 76 -526 0
1000000 526 -792 -800 -71 0
1000000 154 -527 0
1000000 527 -622 -805 -72 0
1000000 74 -528 0
1000000 528 -625 -626 -627 -72 0
1000000 76 -529 0
1000000 529 -621 -629 -623 -72 0
1000000 78 -530 0
1000000 530 -799 -72 0
1000000 132 -531 0
1000000 531 -804 -73 0
1000000 77 -532 0
1000000 532 -624 -73 0
1000000 78 -533 0
1000000 533 -633 -631 -73 0
1000000 82 -534 0
1000000 534 -637 -630 -638 -73 0
1000000 76 -535 0
1000000 535 -620 -74 0
1000000 80 -536 0
1000000 536 -635 -632 -641 -74 0
1000000 77 -537 0
1000000 537 -628 -634 -636 -75 0
1000000 78 -538 0
1000000 538 -643 -642 -75 0
1000000 87 -539 0
1000000 539 -644 -75 0
1000000 79 -540 0
1000000 540 -640 -639 -645 -76 0
1000000 82 -541 0
1000000 541 -646 -76 0
1000000 134 -542 0
1000000 542 -649 -77 0
1000000 80 -543 0
1000000 543 -653 -651 -77 0
1000000 87 -544 0
1000000 544 -658 -648 -652 -77 0
1000000 137 -545 0
1000000 545 -654 -78 0
1000000 86 -546 0
1000000 546 -647 -78 0
1000000 87 -547 0
1000000 547 -650 -78 0
1000000 90 -548 0
1000000 548 -655 -661 -78 0
1000000 82 -549 0
1000000 549 -662 -659 -79 0
1000000 83 -550 0
1000000 550 -660 -656 -79 0
1000000 103 -551 0
1000000 551 -665 -667 -80 0
1000000 82 -552 0
1000000 552 -670 -657 -668 -80 0
1000000 87 -553 0
1000000 553 -673 -669 -663 -80 0
1000000 95 -554 0
1000000 554 -675 -671 -80 0
1000000 107 -555 0
1000000 555 -664 -9 0
1000000 128 -556 0
1000000 556 -666 -9 0
1000000 15 -557 0
1000000 557 -678 -679 -9 0
1000000 16 -558 0
1000000 558 -674 -9 0
1000000 17 -559 0
1000000 559 -672 -9 0
1000000 32 -560 0
1000000 560 -676 -9 0
1000000 44 -561 0
1000000 561 -684 -680 -9 0
1000000 116 -562 0
1000000 562 -689 -685 -688 -81 0
1000000 87 -563 0
1000000 563 -677 -81 0
1000000 88 -564 0
1000000 564 -682 -81 0
1000000 140 -565 0
1000000 565 -693 -681 -692 -82 0
1000000 83 -566 0
1000000 566 -694 -686 -82 0
1000000 84 -567 0
1000000 567 -690 -695 -697 -82 0
1000000 106 -568 0
1000000 568 -700 -698 -691 -83 0
1000000 84 -569 0
1000000 569 -683 -704 -687 -83 0
1000000 87 -570 0
1000000 570 -703 -696 -83 0
1000000 100 -571 0
1000000 571 -709 -699 -707 -83 0
1000000 104 -572 0
1000000 572 -702 -706 -84 0
1000000 90 -573 0
1000000 573 -701 -84 0
1000000 98 -574 0
1000000 574 -710 -713 -84 0
1000000 129 -575 0
1000000 575 -718 -714 -715 -85 0
1000000 87 -576 0
1000000 576 -705 -720 -719 -85 0
1000000 89 -577 0
1000000 577 -708 -85 0
1000000 92 -578 0
1000000 578 -711 -722 -86 0
1000000 93 -579 0
1000000 579 -717 -86 0
1000000 117 -580 0
1000000 580 -716 -721 -87 0
1000000 90 -581 0
1000000 581 -726 -727 -725 -87 0
1000000 94 -582 0
1000000 582 -712 -723 -87 0
1000000 96 -583 0
1000000 583 -724 -731 -87 0
1000000 93 -584 0
1000000 584 -730 -728 -737 -88 0
1000000 98 -585 0
1000000 585 -729 -734 -732 -88 0
1000000 114 -586 0
1000000 586 -736 -89 0
1000000 148 -587 0
1000000 587 -733 -89 0
1000000 90 -588 0
1000000 588 -738 -89 0
1000000 93 -589 0
1000000 589 -742 -741 -89 0
1000000 91 -590 0
1000000 590 -740 -745 -90 0
1000000 92 -591 0
1000000 591 -735 -90 0
1000000 11 -592 0
1000000 592 -744 -746 -10 0
1000000 109 -593 0
1000000 593 -747 -748 -10 0
1000000 12 -594 0
1000000 594 -751 -750 -752 -10 0
1000000 13 -595 0
1000000 595 -743 -754 -10 0
1000000 17 -596 0
1000000 596 -753 -10 0
1000000 24 -597 0
1000000 597 -749 -10 0
1000000 93 -598 0
1000000 598 -739 -91 0
1000000 95 -599 0
1000000 599 -755 -91 0
1000000 101 -600 0
1000000 600 -756 -760 -92 0
1000000 95 -601 0
1000000 601 -764 -758 -759 -92 0
1000000 101 -602 0
1000000 602 -757 -765 -93 0
1000000 157 -603 0
1000000 603 -761 -762 -93 0
1000000 100 -604 0
1000000 604 -766 -93 0
1000000 97 -605 0
1000000 605 -763 -94 0
1000000 98 -606 0
1000000 606 -767 -94 0
1000000 101 -607 0
1000000 607 -770 -768 -772 -95 0
1000000 104 -608 0
1000000 608 -771 -769 -778 -95 0
1000000 96 -609 0
1000000 609 -774 -95 0
1000000 101 -610 0
1000000 610 -773 -779 -96 0
1000000 99 -611 0
1000000 611 -777 -96 0
1000000 103 -612 0
1000000 612 -775 -97 0
1000000 104 -613 0
1000000 613 -786 -785 -776 -97 0
1000000 105 -614 0
1000000 614 -780 -98 0
1000000 106 -615 0
1000000 615 -782 -787 -98 0
1000000 104 -616 0
1000000 616 -784 -793 -791 -99 0
1000000 109 -617 0
1000000 617 -788 -99 0
1000000 101 -618 0
1000000 618 -790 -792 -100 0
1000000 102 -619 0
1000000 619 -781 -783 -100 0
1000000 1 0
1000000 -2 159 0
1000000 -3 163 0
1000000 -4 164 0
1000000 -5 385 165 0
1000000 -6 422 171 342 166 0
1000000 -7 344 0
1000000 -8 345 167 490 0
1000000 -9 423 387 459 0
1000000 -10 174 491 0
1000000 -11 168 592 456 0
1000000 -12 175 162 594 0
1000000 -13 595 169 520 176 0
1000000 -14 337 0
1000000 -15 557 170 231 263 522 0
1000000 -16 558 381 0
1000000 -17 596 284 264 382 307 559 0
1000000 -18 308 232 0
1000000 -19 233 0
1000000 -20 320 234 324 177 0
1000000 -21 205 327 333 0
1000000 -22 328 338 321 334 0
1000000 -23 346 178 325 0
1000000 -24 597 0
1000000 -25 335 285 0
1000000 -26 206 457 355 0
1000000 -27 383 0
1000000 -28 351 322 347 0
1000000 -29 339 359 363 0
1000000 -30 360 235 329 356 374 364 0
1000000 -31 384 375 0
1000000 -32 352 388 560 371 0
1000000 -33 348 372 0
1000000 -34 488 393 378 0
1000000 -35 330 379 0
1000000 -36 405 340 401 0
1000000 -37 357 409 0
1000000 -38 207 365 0
1000000 -39 489 366 412 389 0
1000000 -40 402 390 406 0
1000000 -41 367 391 0
1000000 -42 420 424 369 236 0
1000000 -43 425 237 418 416 426 0
1000000 -44 421 410 413 561 394 370 0
1000000 -45 323 0
1000000 -46 309 395 436 0
1000000 -47 386 417 0
1000000 -48 341 429 427 0
1000000 -49 430 440 431 0
1000000 -50 452 441 445 432 0
1000000 -51 396 373 0
1000000 -52 442 419 454 0
1000000 -53 446 437 455 433 448 343 0
1000000 -54 449 0
1000000 -55 450 453 443 0
1000000 -56 471 438 0
1000000 -57 451 462 0
1000000 -58 468 472 475 463 434 0
1000000 -59 476 473 428 0
1000000 -60 469 464 0
1000000 -61 482 353 478 0
1000000 -62 361 486 0
1000000 -63 470 466 0
1000000 -64 497 392 501 0
1000000 -65 487 483 460 0
1000000 -66 493 336 0
1000000 -67 380 0
1000000 -68 494 467 498 0
1000000 -69 461 484 513 506 0
1000000 -70 439 0
1000000 -71 485 508 458 515 507 517 0
1000000 -72 514 503 499 411 479 0
1000000 -73 349 502 0
1000000 -74 510 172 528 509 525 0
1000000 -75 516 376 0
1000000 -76 511 173 529 535 526 480 518 0
1000000 -77 532 537 0
1000000 -78 538 530 533 0
1000000 -79 519 540 0
1000000 -80 481 543 536 504 414 0
1000000 -81 444 0
1000000 -82 549 541 552 534 0
1000000 -83 550 566 368 0
1000000 -84 567 569 465 0
1000000 -85 286 0
1000000 -86 447 546 0
1000000 -87 570 563 539 547 576 553 435 544 0
1000000 -88 564 287 0
1000000 -89 377 577 0
1000000 -90 581 548 588 573 0
1000000 -91 590 523 0
1000000 -92 477 591 578 0
1000000 -93 579 584 492 589 598 0
1000000 -94 582 0
1000000 -95 601 599 554 0
1000000 -96 609 495 583 0
1000000 -97 605 310 0
1000000 -98 606 574 331 585 0
1000000 -99 611 358 0
1000000 -100 604 571 0
1000000 -101 607 618 610 600 602 0
1000000 -102 160 619 0
1000000 -103 551 612 0
1000000 -104 616 608 184 613 572 0
1000000 -105 179 181 185 415 614 0
1000000 -106 187 568 615 0
1000000 -107 555 192 0
1000000 -108 182 403 0
1000000 -109 617 593 0
1000000 -110 161 0
1000000 -111 474 0
1000000 -112 407 188 0
1000000 -113 200 354 202 0
1000000 -114 180 586 193 201 197 0
1000000 -115 203 208 512 0
1000000 -116 562 0
1000000 -117 218 220 580 0
1000000 -118 362 0
1000000 -119 214 204 210 212 0
1000000 -120 209 215 198 194 227 0
1000000 -121 229 195 0
1000000 -122 223 228 196 211 521 225 0
1000000 -123 408 0
1000000 -124 213 226 224 496 219 0
1000000 -125 242 238 221 230 0
1000000 -126 240 397 199 239 0
1000000 -127 247 0
1000000 -128 245 251 556 254 0
1000000 -129 575 0
1000000 -130 258 256 248 0
1000000 -131 190 243 319 0
1000000 -132 261 265 259 531 249 0
1000000 -133 252 0
1000000 -134 266 246 253 542 0
1000000 -135 186 250 0
1000000 -136 271 189 269 0
1000000 -137 257 545 0
1000000 -138 272 262 222 275 0
1000000 -139 267 276 326 255 0
1000000 -140 565 0
1000000 -141 268 244 505 241 191 278 0
1000000 -142 270 398 279 280 0
1000000 -143 399 273 0
1000000 -144 400 0
1000000 -145 288 332 294 292 0
1000000 -146 282 216 0
1000000 -147 281 183 0
1000000 -148 587 0
1000000 -149 274 298 217 0
1000000 -150 303 350 0
1000000 -151 295 293 289 524 305 290 301 0
1000000 -152 300 302 0
1000000 -153 311 283 404 296 304 0
1000000 -154 306 527 0
1000000 -155 316 277 312 314 297 0
1000000 -156 260 315 0
1000000 -157 603 318 0
1000000 -158 291 500 317 313 299 0
1000000 620 851 0
1000000 621 864 0
1000000 622 847 0
1000000 623 818 0
1000000 624 852 0
1000000 625 824 0
1000000 626 849 0
1000000 627 814 0
1000000 628 812 0
1000000 629 860 0
1000000 630 830 0
1000000 631 810 0
1000000 632 821 0
1000000 633 829 0
1000000 634 844 0
1000000 635 853 0
1000000 636 809 0
1000000 637 841 0
1000000 638 826 0
1000000 639 837 0
1000000 640 824 0
1000000 641 820 0
1000000 642 829 0
1000000 643 856 0
1000000 644 831 0
1000000 645 857 0
1000000 646 834 0
1000000 647 809 0
1000000 648 807 0
1000000 649 867 0
1000000 650 851 0
1000000 651 818 0
1000000 652 808 0
1000000 653 859 0
1000000 654 843 0
1000000 655 843 0
1000000 656 808 0
1000000 657 853 0
1000000 658 840 0
1000000 659 847 0
1000000 660 862 0
1000000 661 822 0
1000000 662 838 0
1000000 663 834 0
1000000 664 846 0
1000000 665 833 0
1000000 666 811 0
1000000 667 806 0
1000000 668 832 0
1000000 669 812 0
1000000 670 828 0
1000000 671 846 0
1000000 672 857 0
1000000 673 861 0
1000000 674 841 0
1000000 675 826 0
1000000 676 824 0
1000000 677 847 0
1000000 678 853 0
1000000 679 826 0
1000000 680 852 0
1000000 681 859 0
1000000 682 838 0
1000000 683 863 0
1000000 684 836 0
1000000 685 820 0
1000000 686 858 0
1000000 687 844 0
1000000 688 835 0
1000000 689 843 0
1000000 690 821 0
1000000 691 809 0
1000000 692 858 0
1000000 693 851 0
1000000 694 819 0
1000000 695 820 0
1000000 696 808 0
1000000 697 836 0
1000000 698 821 0
1000000 699 812 0
1000000 700 862 0
1000000 701 814 0
1000000 702 858 0
1000000 703 806 0
1000000 704 816 0
1000000 705 815 0
1000000 706 815 0
1000000 707 819 0
1000000 708 852 0
1000000 709 865 0
1000000 710 836 0
1000000 711 835 0
1000000 712 859 0
1000000 713 828 0
1000000 714 816 0
1000000 715 837 0
1000000 716 806 0
1000000 717 838 0
1000000 718 857 0
1000000 719 835 0
1000000 720 814 0
1000000 721 864 0
1000000 722 813 0
1000000 723 834 0
1000000 724 831 0
1000000 725 811 0
1000000 726 813 0
1000000 727 849 0
1000000 728 860 0
1000000 729 864 0
1000000 730 825 0
1000000 731 829 0
1000000 732 822 0
1000000 733 845 0
1000000 734 848 0
1000000 735 810 0
1000000 736 846 0
1000000 737 832 0
1000000 738 862 0
1000000 739 844 0
1000000 740 818 0
1000000 741 833 0
1000000 742 850 0
1000000 743 850 0
1000000 744 816 0
1000000 745 827 0
1000000 746 867 0
1000000 747 861 0
1000000 748 840 0
1000000 749 828 0
1000000 750 866 0
1000000 751 823 0
1000000 752 839 0
1000000 753 841 0
1000000 754 832 0
1000000 755 867 0
1000000 756 856 0
1000000 757 839 0
1000000 758 856 0
1000000 759 855 0
1000000 760 854 0
1000000 761 823 0
1000000 762 817 0
1000000 763 823 0
1000000 764 848 0
1000000 765 854 0
1000000 766 848 0
1000000 767 863 0
1000000 768 854 0
1000000 769 827 0
1000000 770 825 0
1000000 771 863 0
1000000 772 861 0
1000000 773 865 0
1000000 774 850 0
1000000 775 807 0
1000000 776 855 0
1000000 777 825 0
1000000 778 845 0
1000000 779 830 0
1000000 780 860 0
1000000 781 807 0
1000000 782 866 0
1000000 783 845 0
1000000 784 849 0
1000000 785 827 0
1000000 786 811 0
1000000 787 830 0
1000000 788 813 0
1000000 789 837 0
1000000 790 819 0
1000000 791 840 0
1000000 792 815 0
1000000 793 833 0
1000000 794 817 0
1000000 795 810 0
1000000 796 866 0
1000000 797 839 0
1000000 798 865 0
1000000 799 817 0
1000000 800 822 0
1000000 801 855 0
1000000 802 831 0
1000000 803 842 0
1000000 804 842 0
1000000 805 842 0
1000000 -620 -851 0
1000000 -621 -864 0
1000000 -622 -847 0
1000000 -623 -818 0
1000000 -624 -852 0
1000000 -625 -824 0
1000000 -626 -849 0
1000000 -627 -814 0
1000000 -628 -812 0
1000000 -629 -860 0
1000000 -630 -830 0
1000000 -631 -810 0
1000000 -632 -821 0
1000000 -633 -829 0
1000000 -634 -844 0
1000000 -635 -853 0
1000000 -636 -809 0
1000000 -637 -841 0
1000000 -638 -826 0
1000000 -639 -837 0
1000000 -640 -824 0
1000000 -641 -820 0
1000000 -642 -829 0
1000000 -643 -856 0
1000000 -644 -831 0
1000000 -645 -857 0
1000000 -646 -834 0
1000000 -647 -809 0
1000000 -648 -807 0
1000000 -649 -867 0
1000000 -650 -851 0
1000000 -651 -818 0
1000000 -652 -808 0
1000000 -653 -859 0
1000000 -654 -843 0
1000000 -655 -843 0
1000000 -656 -808 0
1000000 -657 -853 0
1000000 -658 -840 0
1000000 -659 -847 0
1000000 -660 -862 0
1000000 -661 -822 0
1000000 -662 -838 0
1000000 -663 -834 0
1000000 -664 -846 0
1000000 -665 -833 0
1000000 -666 -811 0
1000000 -667 -806 0
1000000 -668 -832 0
1000000 -669 -812 0
1000000 -670 -828 0
1000000 -671 -846 0
1000000 -672 -857 0
1000000 -673 -861 0
1000000 -674 -841 0
1000000 -675 -826 0
1000000 -676 -824 0
1000000 -677 -847 0
1000000 -678 -853 0
1000000 -679 -826 0
1000000 -680 -852 0
1000000 -681 -859 0
1000000 -682 -838 0
1000000 -683 -863 0
1000000 -684 -836 0
1000000 -685 -820 0
1000000 -686 -858 0
1000000 -687 -844 0
1000000 -688 -835 0
1000000 -689 -843 0
1000000 -690 -821 0
1000000 -691 -809 0
1000000 -692 -858 0
1000000 -693 -851 0
1000000 -694 -819 0
1000000 -695 -820 0
1000000 -696 -808 0
1000000 -697 -836 0
1000000 -698 -821 0
1000000 -699 -812 0
1000000 -700 -862 0
1000000 -701 -814 0
1000000 -702 -858 0
1000000 -703 -806 0
1000000 -704 -816 0
1000000 -705 -815 0
1000000 -706 -815 0
1000000 -707 -819 0
1000000 -708 -852 0
1000000 -709 -865 0
1000000 -710 -836 0
1000000 -711 -835 0
1000000 -712 -859 0
1000000 -713 -828 0
1000000 -714 -816 0
1000000 -715 -837 0
1000000 -716 -806 0
1000000 -717 -838 0
1000000 -718 -857 0
1000000 -719 -835 0
1000000 -720 -814 0
1000000 -721 -864 0
1000000 -722 -813 0
1000000 -723 -834 0
1000000 -724 -831 0
1000000 -725 -811 0
1000000 -726 -813 0
1000000 -727 -849 0
1000000 -728 -860 0
1000000 -729 -864 0
1000000 -730 -825 0
1000000 -731 -829 0
1000000 -732 -822 0
1000000 -733 -845 0
1000000 -734 -848 0
1000000 -735 -810 0
1000000 -736 -846 0
1000000 -737 -832 0
1000000 -738 -862 0
1000000 -739 -844 0
1000000 -740 -818 0
1000000 -741 -833 0
1000000 -742 -850 0
1000000 -743 -850 0
1000000 -744 -816 0
1000000 -745 -827 0
1000000 -746 -867 0
1000000 -747 -861 0
1000000 -748 -840 0
1000000 -749 -828 0
1000000 -750 -866 0
1000000 -751 -823 0
1000000 -752 -839 0
1000000 -753 -841 0
1000000 -754 -832 0
1000000 -755 -867 0
1000000 -756 -856 0
1000000 -757 -839 0
1000000 -758 -856 0
1000000 -759 -855 0
1000000 -760 -854 0
1000000 -761 -823 0
1000000 -762 -817 0
1000000 -763 -823 0
1000000 -764 -848 0
1000000 -765 -854 0
1000000 -766 -848 0
1000000 -767 -863 0
1000000 -768 -854 0
1000000 -769 -827 0
1000000 -770 -825 0
1000000 -771 -863 0
1000000 -772 -861 0
1000000 -773 -865 0
1000000 -774 -850 0
1000000 -775 -807 0
1000000 -776 -855 0
1000000 -777 -825 0
1000000 -778 -845 0
1000000 -779 -830 0
1000000 -780 -860 0
1000000 -781 -807 0
1000000 -782 -866 0
1000000 -783 -845 0
1000000 -784 -849 0
1000000 -785 -827 0
1000000 -786 -811 0
1000000 -787 -830 0
1000000 -788 -813 0
1000000 -789 -837 0
1000000 -790 -819 0
1000000 -791 -840 0
1000000 -792 -815 0
1000000 -793 -833 0
1000000 -794 -817 0
1000000 -795 -810 0
1000000 -796 -866 0
1000000 -797 -839 0
1000000 -798 -865 0
1000000 -799 -817 0
1000000 -800 -822 0
1000000 -801 -855 0
1000000 -802 -831 0
1000000 -803 -842 0
1000000 -804 -842 0
1000000 -805 -842 0
7600 -806 0
6700 -807 0
7500 -808 0
7500 -809 0
11300 -810 0
8500 -811 0
6500 -812 0
7600 -813 0
7500 -814 0
7500 -815 0
9500 -816 0
6500 -817 0
7500 -818 0
7600 -819 0
6700 -820 0
9500 -821 0
7500 -822 0
6500 -823 0
11300 -824 0
7500 -825 0
12800 -826 0
12800 -827 0
8500 -828 0
6700 -829 0
7500 -830 0
7600 -831 0
7600 -832 0
11300 -833 0
9500 -834 0
12800 -835 0
7600 -836 0
6700 -837 0
8500 -838 0
8400 -839 0
8500 -840 0
6700 -841 0
8500 -842 0
11300 -843 0
7500 -844 0
6700 -845 0
8300 -846 0
7500 -847 0
9500 -848 0
6500 -849 0
7600 -850 0
7500 -851 0
6700 -852 0
7500 -853 0
7600 -854 0
7500 -855 0
8500 -856 0
8500 -857 0
8500 -858 0
8400 -859 0
11300 -860 0
9500 -861 0
7600 -862 0
7600 -863 0
6700 -864 0
8500 -865 0
11300 -866 0
7600 -867 0
1700 620 0
1700 621 0
2300 622 0
2300 623 0
2300 624 0
2700 625 0
1400 626 0
1900 627 0
1400 628 0
1700 629 0
1900 630 0
2700 631 0
1200 632 0
1900 633 0
1900 634 0
2300 635 0
1700 636 0
2700 637 0
1700 638 0
2300 639 0
2100 640 0
1700 641 0
1500 642 0
1700 643 0
2400 644 0
1500 645 0
1500 646 0
1900 647 0
1900 648 0
1200 649 0
2400 650 0
2400 651 0
1500 652 0
1900 653 0
1700 654 0
2300 655 0
1200 656 0
1200 657 0
1500 658 0
1200 659 0
2400 660 0
2100 661 0
1900 662 0
1900 663 0
1000 664 0
1300 665 0
1300 666 0
2400 667 0
1500 668 0
1300 669 0
1200 670 0
1700 671 0
2400 672 0
1300 673 0
1900 674 0
1500 675 0
1500 676 0
2400 677 0
1200 678 0
1900 679 0
1400 680 0
1000 681 0
1500 682 0
1500 683 0
1900 684 0
1500 685 0
1900 686 0
1700 687 0
1900 688 0
2400 689 0
1300 690 0
2700 691 0
1900 692 0
1700 693 0
1300 694 0
1200 695 0
2400 696 0
1200 697 0
2100 698 0
1300 699 0
2400 700 0
1200 701 0
1900 702 0
1900 703 0
2400 704 0
1200 705 0
1200 706 0
1700 707 0
2400 708 0
1200 709 0
1900 710 0
2400 711 0
1500 712 0
1700 713 0
1900 714 0
1200 715 0
1700 716 0
1700 717 0
1900 718 0
1500 719 0
2700 720 0
2400 721 0
1300 722 0
1700 723 0
1900 724 0
1200 725 0
1900 726 0
1500 727 0
1900 728 0
2400 729 0
2400 730 0
1700 731 0
1500 732 0
1500 733 0
1500 734 0
2100 735 0
1300 736 0
1300 737 0
2100 738 0
1000 739 0
1700 740 0
1000 741 0
1700 742 0
1900 743 0
1700 744 0
1200 745 0
1900 746 0
2400 747 0
2400 748 0
1700 749 0
1700 750 0
2300 751 0
2300 752 0
1700 753 0
2400 754 0
1500 755 0
2100 756 0
1700 757 0
1000 758 0
2400 759 0
1200 760 0
1200 761 0
1700 762 0
1500 763 0
2400 764 0
1200 765 0
1900 766 0
1900 767 0
1700 768 0
1900 769 0
1500 770 0
1200 771 0
1500 772 0
1500 773 0
1200 774 0
1200 775 0
1700 776 0
1900 777 0
1700 778 0
2400 779 0
1200 780 0
1400 781 0
1500 782 0
2300 783 0
2400 784 0
1900 785 0
1200 786 0
1900 787 0
1900 788 0
1200 789 0
1500 790 0
1700 791 0
1200 792 0
1700 793 0
1500 794 0
1500 795 0
1500 796 0
1900 797 0
2400 798 0
1900 799 0
1500 800 0
1700 801 0
2400 802 0
1700 803 0
1900 804 0
2100 805 0
45010 -159 0
19260 -163 0
18760 -164 0
2140 385 -165 0
16264 -385 165 0
17591 -385 -165 0
17120 422 171 342 -166 0
2140 422 171 -342 166 0
18404 422 171 -342 -166 0
27820 422 -171 342 166 0
33812 422 -171 342 -166 0
28569 422 -171 -342 166 0
34261 422 -171 -342 -166 0
4280 -422 171 342 166 0
19688 -422 171 342 -166 0
6206 -422 171 -342 166 0
20844 -422 171 -342 -166 0
29318 -422 -171 342 166 0
34711 -422 -171 342 -166 0
29992 -422 -171 -342 166 0
35115 -422 -171 -342 -166 0
10980 -344 0
12860 345 167 -490 0
22505 345 -167 490 0
30864 345 -167 -490 0
9645 -345 167 490 0
20576 -345 167 -490 0
28774 -345 -167 490 0
35879 -345 -167 -490 0
6948 423 387 -459 0
14668 423 -387 459 0
18976 423 -387 -459 0
19300 -423 387 459 0
22774 -423 387 -459 0
26634 -423 -387 459 0
28788 -423 -387 -459 0
12175 174 -491 0
18506 -174 491 0
26055 -174 -491 0
21915 168 592 -456 0
974 168 -592 456 0
22451 168 -592 -456 0
24350 -168 592 456 0
35307 -168 592 -456 0
24837 -168 -592 456 0
35575 -168 -592 -456 0
5360 175 162 -594 0
18760 175 -162 594 0
22244 175 -162 -594 0
9648 -175 162 594 0
14043 -175 162 -594 0
25031 -175 -162 594 0
27888 -175 -162 -594 0
3050 595 169 520 -176 0
27450 595 169 -520 176 0
29128 595 169 -520 -176 0
48800 595 -169 520 176 0
49410 595 -169 520 -176 0
54290 595 -169 -520 176 0
54625 595 -169 -520 -176 0
10980 -595 169 520 176 0
13481 -595 169 520 -176 0
33489 -595 169 -520 176 0
34865 -595 169 -520 -176 0
50996 -595 -169 520 176 0
51496 -595 -169 520 -176 0
55498 -595 -169 -520 176 0
55773 -595 -169 -520 -176 0
35325 -337 0
21195 557 170 231 263 -522 0
16485 557 170 231 -263 522 0
30262 557 170 231 -263 -522 0
17898 557 170 -231 263 522 0
31039 557 170 -231 263 -522 0
28119 557 170 -231 -263 522 0
36660 557 170 -231 -263 -522 0
30615 557 -170 231 263 522 0
38033 557 -170 231 263 -522 0
36385 557 -170 231 -263 522 0
41207 557 -170 231 -263 -522 0
36879 557 -170 -231 263 522 0
41479 557 -170 -231 263 -522 0
40457 557 -170 -231 -263 522 0
43446 557 -170 -231 -263 -522 0
7065 -557 170 231 263 522 0
25081 -557 170 231 263 -522 0
21077 -557 170 231 -263 522 0
32787 -557 170 231 -263 -522 0
22278 -557 170 -231 263 522 0
33448 -557 170 -231 263 -522 0
30966 -557 170 -231 -263 522 0
38226 -557 170 -231 -263 -522 0
33088 -557 -170 231 263 522 0
39393 -557 -170 231 263 -522 0
37992 -557 -170 231 -263 522 0
42091 -557 -170 231 -263 -522 0
38412 -557 -170 -231 263 522 0
42322 -557 -170 -231 263 -522 0
41453 -557 -170 -231 -263 522 0
43994 -557 -170 -231 -263 -522 0
15440 558 -381 0
23160 -558 381 0
29336 -558 -381 0
36600 596 284 264 382 307 -559 0
21350 596 284 264 382 -307 559 0
45140 596 284 264 382 -307 -559 0
15250 596 284 264 -382 307 559 0
42700 596 284 264 -382 307 -559 0
31262 596 284 264 -382 -307 559 0
49105 596 284 264 -382 -307 -559 0
24400 596 284 -264 382 307 559 0
46360 596 284 -264 382 307 -559 0
37210 596 284 -264 382 -307 559 0
51484 596 284 -264 382 -307 -559 0
33550 596 284 -264 -382 307 559 0
50020 596 284 -264 -382 307 -559 0
43157 596 284 -264 -382 -307 559 0
53863 596 284 -264 -382 -307 -559 0
19520 596 -284 264 382 307 559 0
44408 596 -284 264 382 307 -559 0
34038 596 -284 264 382 -307 559 0
50215 596 -284 264 382 -307 -559 0
29890 596 -284 264 -382 307 559 0
48556 596 -284 264 -382 307 -559 0
40778 596 -284 264 -382 -307 559 0
52911 596 -284 264 -382 -307 -559 0
36112 596 -284 -264 382 307 559 0
51045 596 -284 -264 382 307 -559 0
44823 596 -284 -264 382 -307 559 0
54529 596 -284 -264 382 -307 -559 0
42334 596 -284 -264 -382 307 559 0
53534 596 -284 -264 -382 307 -559 0
48867 596 -284 -264 -382 -307 559 0
56147 596 -284 -264 -382 -307 -559 0
54900 -596 284 264 382 307 559 0
58560 -596 284 264 382 307 -559 0
57035 -596 284 264 382 -307 559 0
59414 -596 284 264 382 -307 -559 0
56425 -596 284 264 -382 307 559 0
59170 -596 284 264 -382 307 -559 0
58026 -596 284 264 -382 -307 559 0
59811 -596 284 264 -382 -307 -559 0
57340 -596 284 -264 382 307 559 0
59536 -596 284 -264 382 307 -559 0
58621 -596 284 -264 382 -307 559 0
60048 -596 284 -264 382 -307 -559 0
58255 -596 284 -264 -382 307 559 0
59902 -596 284 -264 -382 307 -559 0
59216 -596 284 -264 -382 -307 559 0
60286 -596 284 -264 -382 -307 -559 0
56852 -596 -284 264 382 307 559 0
59341 -596 -284 264 382 307 -559 0
58304 -596 -284 264 382 -307 559 0
59922 -596 -284 264 382 -307 -559 0
57889 -596 -284 264 -382 307 559 0
59756 -596 -284 264 -382 307 -559 0
58978 -596 -284 264 -382 -307 559 0
60191 -596 -284 264 -382 -307 -559 0
58511 -596 -284 -264 382 307 559 0
60004 -596 -284 -264 382 307 -559 0
59382 -596 -284 -264 382 -307 559 0
60353 -596 -284 -264 382 -307 -559 0
59133 -596 -284 -264 -382 307 559 0
60253 -596 -284 -264 -382 307 -559 0
59787 -596 -284 -264 -382 -307 559 0
60515 -596 -284 -264 -382 -307 -559 0
31740 308 -232 0
50255 -308 232 0
51842 -308 -232 0
3310 -233 0
43725 320 234 324 -177 0
9540 320 234 -324 177 0
48018 320 234 -324 -177 0
30210 320 -234 324 177 0
57320 320 -234 324 -177 0
36125 320 -234 -324 177 0
59981 320 -234 -324 -177 0
1590 -320 234 324 177 0
44441 -320 234 324 -177 0
10939 -320 234 -324 177 0
48648 -320 234 -324 -177 0
31196 -320 -234 324 177 0
57763 -320 -234 324 -177 0
36992 -320 -234 -324 177 0
60372 -320 -234 -324 -177 0
5652 205 327 -333 0
35325 205 -327 333 0
36738 205 -327 -333 0
14130 -205 327 333 0
18086 -205 327 -333 0
38857 -205 -327 333 0
39847 -205 -327 -333 0
36600 328 338 321 -334 0
54900 328 338 -321 334 0
58560 328 338 -321 -334 0
6100 328 -338 321 334 0
39040 328 -338 321 -334 0
55510 328 -338 -321 334 0
58804 328 -338 -321 -334 0
30500 -328 338 321 334 0
48800 -328 338 321 -334 0
57950 -328 338 -321 334 0
59780 -328 338 -321 -334 0
33550 -328 -338 321 334 0
50020 -328 -338 321 -334 0
58255 -328 -338 -321 334 0
59902 -328 -338 -321 -334 0
18515 346 178 -325 0
29095 346 -178 325 0
37427 346 -178 -325 0
15870 -346 178 325 0
28831 -346 178 -325 0
36237 -346 -178 325 0
42069 -346 -178 -325 0
13408 -597 0
18855 335 -285 0
2095 -335 285 0
20007 -335 -285 0
28950 206 457 -355 0
28950 206 -457 355 0
36188 206 -457 -355 0
772 -206 457 355 0
29143 -206 457 -355 0
29143 -206 -457 355 0
36236 -206 -457 -355 0
21960 -383 0
63600 351 322 -347 0
47700 351 -322 347 0
73140 351 -322 -347 0
3975 -351 322 347 0
64395 -351 322 -347 0
49290 -351 -322 347 0
73458 -351 -322 -347 0
8766 339 359 -363 0
12175 339 -359 363 0
18750 339 -359 -363 0
2435 -339 359 363 0
10763 -339 359 -363 0
14001 -339 -359 363 0
20247 -339 -359 -363 0
7944 360 235 329 356 374 -364 0
9930 360 235 329 356 -374 364 0
16682 360 235 329 356 -374 -364 0
1324 360 235 329 -356 374 364 0
9109 360 235 329 -356 374 -364 0
11055 360 235 329 -356 -374 364 0
17673 360 235 329 -356 -374 -364 0
56270 360 235 -329 356 374 364 0
57462 360 235 -329 356 374 -364 0
57760 360 235 -329 356 -374 364 0
58772 360 235 -329 356 -374 -364 0
56469 360 235 -329 -356 374 364 0
57636 360 235 -329 -356 374 -364 0
57928 360 235 -329 -356 -374 364 0
58921 360 235 -329 -356 -374 -364 0
19860 360 -235 329 356 374 364 0
25421 360 -235 329 356 374 -364 0
26811 360 -235 329 356 -374 364 0
31538 360 -235 329 356 -374 -364 0
20787 360 -235 329 -356 374 364 0
26236 360 -235 329 -356 374 -364 0
27599 360 -235 329 -356 -374 364 0
32231 360 -235 329 -356 -374 -364 0
59249 360 -235 -329 356 374 364 0
60083 360 -235 -329 356 374 -364 0
60292 360 -235 -329 356 -374 364 0
61001 360 -235 -329 356 -374 -364 0
59388 360 -235 -329 -356 374 364 0
60205 360 -235 -329 -356 374 -364 0
60410 360 -235 -329 -356 -374 364 0
61105 360 -235 -329 -356 -374 -364 0
29790 -360 235 329 356 374 364 0
34159 -360 235 329 356 374 -364 0
35251 -360 235 329 356 -374 364 0
38965 -360 235 329 356 -374 -364 0
30518 -360 235 329 -356 374 364 0
34800 -360 235 329 -356 374 -364 0
35870 -360 235 329 -356 -374 364 0
39510 -360 235 329 -356 -374 -364 0
60738 -360 235 -329 356 374 364 0
61394 -360 235 -329 356 374 -364 0
61558 -360 235 -329 356 -374 364 0
62115 -360 235 -329 356 -374 -364 0
60848 -360 235 -329 -356 374 364 0
61490 -360 235 -329 -356 374 -364 0
61651 -360 235 -329 -356 -374 364 0
62197 -360 235 -329 -356 -374 -364 0
40713 -360 -235 329 356 374 364 0
43771 -360 -235 329 356 374 -364 0
44536 -360 -235 329 356 -374 364 0
47136 -360 -235 329 356 -374 -364 0
41223 -360 -235 329 -356 374 364 0
44220 -360 -235 329 -356 374 -364 0
44969 -360 -235 329 -356 -374 364 0
47517 -360 -235 329 -356 -374 -364 0
62377 -360 -235 -329 356 374 364 0
62836 -360 -235 -329 356 374 -364 0
62950 -360 -235 -329 356 -374 364 0
63340 -360 -235 -329 356 -374 -364 0
62453 -360 -235 -329 -356 374 364 0
62903 -360 -235 -329 -356 374 -364 0
63015 -360 -235 -329 -356 -374 364 0
63398 -360 -235 -329 -356 -374 -364 0
43830 384 -375 0
43830 -384 375 0
48213 -384 -375 0
10240 352 388 560 -371 0
25600 352 388 -560 371 0
30720 352 388 -560 -371 0
43520 352 -388 560 371 0
45056 352 -388 560 -371 0
47360 352 -388 -560 371 0
48128 352 -388 -560 -371 0
46080 -352 388 560 371 0
47104 -352 388 560 -371 0
48640 -352 388 -560 371 0
49152 -352 388 -560 -371 0
50432 -352 -388 560 371 0
50586 -352 -388 560 -371 0
50816 -352 -388 -560 371 0
50893 -352 -388 -560 -371 0
15922 348 -372 0
838 -348 372 0
16442 -348 -372 0
23045 488 393 -378 0
838 488 -393 378 0
23422 488 -393 -378 0
39805 -488 393 378 0
40957 -488 393 -378 0
39847 -488 -393 378 0
40976 -488 -393 -378 0
3515 330 -379 0
8436 -330 379 0
11529 -330 -379 0
16485 405 340 -401 0
42390 405 -340 401 0
44039 405 -340 -401 0
9420 -405 340 401 0
22608 -405 340 -401 0
43332 -405 -340 401 0
44651 -405 -340 -401 0
37710 357 -409 0
39805 -357 409 0
41690 -357 -409 0
24350 207 -365 0
974 -207 365 0
24837 -207 -365 0
20950 489 366 412 -389 0
35615 489 366 -412 389 0
38758 489 366 -412 -389 0
15922 489 -366 412 389 0
28911 489 -366 412 -389 0
38003 489 -366 -412 389 0
39952 489 -366 -412 -389 0
15922 -489 366 412 389 0
28911 -489 366 412 -389 0
38003 -489 366 -412 389 0
39952 -489 366 -412 -389 0
25794 -489 -366 412 389 0
33847 -489 -366 412 -389 0
39484 -489 -366 -412 389 0
40692 -489 -366 -412 -389 0
5028 402 390 -406 0
39805 402 -390 406 0
40056 402 -390 -406 0
12570 -402 390 406 0
16090 -402 390 -406 0
40433 -402 -390 406 0
40609 -402 -390 -406 0
33280 367 -391 0
25600 -367 391 0
42240 -367 -391 0
5120 420 424 369 -236 0
48640 420 424 -369 236 0
48896 420 424 -369 -236 0
43520 420 -424 369 236 0
44288 420 -424 369 -236 0
50816 420 -424 -369 236 0
50854 420 -424 -369 -236 0
7680 -420 424 369 236 0
12032 -420 424 369 -236 0
49024 -420 424 -369 236 0
49242 -420 424 -369 -236 0
44672 -420 -424 369 236 0
45325 -420 -424 369 -236 0
50874 -420 -424 -369 236 0
50906 -420 -424 -369 -236 0
10475 425 237 418 416 -426 0
18855 425 237 418 -416 426 0
24616 425 237 418 -416 -426 0
2095 425 237 -418 416 426 0
12046 425 237 -418 416 -426 0
20007 425 237 -418 -416 426 0
25480 425 237 -418 -416 -426 0
2095 425 -237 418 416 426 0
12046 425 -237 418 416 -426 0
20007 425 -237 418 -416 426 0
25480 425 -237 418 -416 -426 0
4085 425 -237 -418 416 426 0
13539 425 -237 -418 416 -426 0
21102 425 -237 -418 -416 426 0
26301 425 -237 -418 -416 -426 0
33520 -425 237 418 416 426 0
35615 -425 237 418 416 -426 0
37291 -425 237 418 -416 426 0
38443 -425 237 418 -416 -426 0
33939 -425 237 -418 416 426 0
35929 -425 237 -418 416 -426 0
37521 -425 237 -418 -416 426 0
38616 -425 237 -418 -416 -426 0
33939 -425 -237 418 416 426 0
35929 -425 -237 418 416 -426 0
37521 -425 -237 418 -416 426 0
38616 -425 -237 418 -416 -426 0
34337 -425 -237 -418 416 426 0
36228 -425 -237 -418 416 -426 0
37740 -425 -237 -418 -416 426 0
38780 -425 -237 -418 -416 -426 0
50255 421 410 413 561 394 -370 0
26450 421 410 413 561 -394 370 0
51577 421 410 413 561 -394 -370 0
42320 421 410 413 -561 394 370 0
52371 421 410 413 -561 394 -370 0
47610 421 410 413 -561 -394 370 0
52636 421 410 413 -561 -394 -370 0
23805 421 410 -413 561 394 370 0
51445 421 410 -413 561 394 -370 0
38352 421 410 -413 561 -394 370 0
52173 421 410 -413 561 -394 -370 0
47081 421 410 -413 -561 394 370 0
52609 421 410 -413 -561 394 -370 0
49991 421 410 -413 -561 -394 370 0
52755 421 410 -413 -561 -394 -370 0
44965 421 -410 413 561 394 370 0
52503 421 -410 413 561 394 -370 0
48933 421 -410 413 561 -394 370 0
52702 421 -410 413 561 -394 -370 0
51313 421 -410 413 -561 394 370 0
52821 421 -410 413 -561 394 -370 0
52106 421 -410 413 -561 -394 370 0
52860 421 -410 413 -561 -394 -370 0
48536 421 -410 -413 561 394 370 0
52682 421 -410 -413 561 394 -370 0
50718 421 -410 -413 561 -394 370 0
52791 421 -410 -413 561 -394 -370 0
52027 421 -410 -413 -561 394 370 0
52856 421 -410 -413 -561 394 -370 0
52464 421 -410 -413 -561 -394 370 0
52878 421 -410 -413 -561 -394 -370 0
50255 -421 410 413 561 394 370 0
52768 -421 410 413 561 394 -370 0
51577 -421 410 413 561 -394 370 0
52834 -421 410 413 561 -394 -370 0
52371 -421 410 413 -561 394 370 0
52874 -421 410 413 -561 394 -370 0
52636 -421 410 413 -561 -394 370 0
52887 -421 410 413 -561 -394 -370 0
51445 -421 410 -413 561 394 370 0
52827 -421 410 -413 561 394 -370 0
52173 -421 410 -413 561 -394 370 0
52864 -421 410 -413 561 -394 -370 0
52609 -421 410 -413 -561 394 370 0
52885 -421 410 -413 -561 394 -370 0
52755 -421 410 -413 -561 -394 370 0
52893 -421 410 -413 -561 -394 -370 0
52503 -421 -410 413 561 394 370 0
52880 -421 -410 413 561 394 -370 0
52702 -421 -410 413 561 -394 370 0
52890 -421 -410 413 561 -394 -370 0
52821 -421 -410 413 -561 394 370 0
52896 -421 -410 413 -561 394 -370 0
52860 -421 -410 413 -561 -394 370 0
52898 -421 -410 413 -561 -394 -370 0
52682 -421 -410 -413 561 394 370 0
52889 -421 -410 -413 561 394 -370 0
52791 -421 -410 -413 561 -394 370 0
52895 -421 -410 -413 561 -394 -370 0
52856 -421 -410 -413 -561 394 370 0
52898 -421 -410 -413 -561 394 -370 0
52878 -421 -410 -413 -561 -394 370 0
52899 -421 -410 -413 -561 -394 -370 0
35775 -323 0
59625 309 395 -436 0
11925 309 -395 436 0
62606 309 -395 -436 0
47700 -309 395 436 0
71550 -309 395 -436 0
52470 -309 -395 436 0
72743 -309 -395 -436 0
27450 386 -417 0
27450 -386 417 0
42548 -386 -417 0
3050 341 429 -427 0
57950 341 -429 427 0
58102 341 -429 -427 0
6100 -341 429 427 0
8845 -341 429 -427 0
58255 -341 -429 427 0
58392 -341 -429 -427 0
66785 430 440 -431 0
3515 430 -440 431 0
66961 430 -440 -431 0
7030 -430 440 431 0
67137 -430 440 -431 0
10194 -430 -440 431 0
67295 -430 -440 -431 0
11916 452 441 445 -432 0
49650 452 441 -445 432 0
52629 452 441 -445 -432 0
52960 452 -441 445 432 0
55343 452 -441 445 -432 0
62890 452 -441 -445 432 0
63486 452 -441 -445 -432 0
9930 -452 441 445 432 0
20059 -452 441 445 -432 0
52132 -452 441 -445 432 0
54665 -452 441 -445 -432 0
54946 -452 -441 445 432 0
56972 -452 -441 445 -432 0
63387 -452 -441 -445 432 0
63893 -452 -441 -445 -432 0
21356 396 -373 0
21356 -396 373 0
34597 -396 -373 0
17376 442 419 -454 0
21720 442 -419 454 0
32146 442 -419 -454 0
24435 -442 419 454 0
33992 -442 419 -454 0
36381 -442 -419 454 0
42115 -442 -419 -454 0
6948 446 437 455 433 448 -343 0
14668 446 437 455 433 -448 343 0
18976 446 437 455 433 -448 -343 0
7720 446 437 455 -433 448 343 0
13278 446 437 455 -433 448 -343 0
19454 446 437 455 -433 -448 343 0
22901 446 437 455 -433 -448 -343 0
32810 446 437 -455 433 448 343 0
33852 446 437 -455 433 448 -343 0
35010 446 437 -455 433 -448 343 0
35656 446 437 -455 433 -448 -343 0
33968 446 437 -455 -433 448 343 0
34802 446 437 -455 -433 448 -343 0
35728 446 437 -455 -433 -448 343 0
36245 446 437 -455 -433 -448 -343 0
32810 446 -437 455 433 448 343 0
33852 446 -437 455 433 448 -343 0
35010 446 -437 455 433 -448 343 0
35656 446 -437 455 433 -448 -343 0
33968 446 -437 455 -433 448 343 0
34802 446 -437 455 -433 448 -343 0
35728 446 -437 455 -433 -448 343 0
36245 446 -437 455 -433 -448 -343 0
37731 446 -437 -455 433 448 343 0
37888 446 -437 -455 433 448 -343 0
38062 446 -437 -455 433 -448 343 0
38158 446 -437 -455 433 -448 -343 0
37905 446 -437 -455 -433 448 343 0
38030 446 -437 -455 -433 448 -343 0
38169 446 -437 -455 -433 -448 343 0
38247 446 -437 -455 -433 -448 -343 0
34740 -446 437 455 433 448 343 0
35435 -446 437 455 433 448 -343 0
36207 -446 437 455 433 -448 343 0
36638 -446 437 455 433 -448 -343 0
35512 -446 437 455 -433 448 343 0
36068 -446 437 455 -433 448 -343 0
36685 -446 437 455 -433 -448 343 0
37030 -446 437 455 -433 -448 -343 0
38021 -446 437 -455 433 448 343 0
38125 -446 437 -455 433 448 -343 0
38241 -446 437 -455 433 -448 343 0
38306 -446 437 -455 433 -448 -343 0
38137 -446 437 -455 -433 448 343 0
38220 -446 437 -455 -433 448 -343 0
38313 -446 437 -455 -433 -448 343 0
38365 -446 437 -455 -433 -448 -343 0
38021 -446 -437 455 433 448 343 0
38125 -446 -437 455 433 448 -343 0
38241 -446 -437 455 433 -448 343 0
38306 -446 -437 455 433 -448 -343 0
38137 -446 -437 455 -433 448 343 0
38220 -446 -437 455 -433 448 -343 0
38313 -446 -437 455 -433 -448 343 0
38365 -446 -437 455 -433 -448 -343 0
38513 -446 -437 -455 433 448 343 0
38529 -446 -437 -455 433 448 -343 0
38546 -446 -437 -455 433 -448 343 0
38556 -446 -437 -455 433 -448 -343 0
38531 -446 -437 -455 -433 448 343 0
38543 -446 -437 -455 -433 448 -343 0
38557 -446 -437 -455 -433 -448 343 0
38565 -446 -437 -455 -433 -448 -343 0
52960 -449 0
52960 450 453 -443 0
9930 450 -453 443 0
54946 450 -453 -443 0
19860 -450 453 443 0
56932 -450 453 -443 0
26811 -450 -453 443 0
58322 -450 -453 -443 0
1688 471 -438 0
37980 -471 438 0
38908 -471 -438 0
42320 451 -462 0
13225 -451 462 0
44965 -451 -462 0
32072 468 472 475 463 -434 0
25320 468 472 475 -463 434 0
47770 468 472 475 -463 -434 0
80180 468 472 -475 463 434 0
81784 468 472 -475 463 -434 0
81446 468 472 -475 -463 434 0
82569 468 472 -475 -463 -434 0
4220 468 -472 475 463 434 0
34688 468 -472 475 463 -434 0
28274 468 -472 475 -463 434 0
49602 468 -472 475 -463 -434 0
80391 468 -472 -475 463 434 0
81914 468 -472 -475 463 -434 0
81594 468 -472 -475 -463 434 0
82660 468 -472 -475 -463 -434 0
12660 -468 472 475 463 434 0
39921 -468 472 475 463 -434 0
34182 -468 472 475 -463 434 0
53265 -468 472 475 -463 -434 0
80813 -468 472 -475 463 434 0
82176 -468 472 -475 463 -434 0
81889 -468 472 -475 -463 434 0
82843 -468 472 -475 -463 -434 0
16247 -468 -472 475 463 434 0
42145 -468 -472 475 463 -434 0
36693 -468 -472 475 -463 434 0
54822 -468 -472 475 -463 -434 0
80992 -468 -472 -475 463 434 0
82287 -468 -472 -475 463 -434 0
82015 -468 -472 -475 -463 434 0
82921 -468 -472 -475 -463 -434 0
35295 476 473 -428 0
21720 476 -473 428 0
42897 476 -473 -428 0
17376 -476 473 428 0
41377 -476 473 -428 0
32146 -476 -473 428 0
46546 -476 -473 -428 0
17376 469 -464 0
6516 -469 464 0
21807 -469 -464 0
31425 482 353 -478 0
8380 482 -353 478 0
33520 482 -353 -478 0
10475 -482 353 478 0
34044 -482 353 -478 0
16760 -482 -353 478 0
35615 -482 -353 -478 0
63270 361 -486 0
1406 -361 486 0
63411 -361 -486 0
6620 470 -466 0
39720 -470 466 0
42368 -470 -466 0
12800 497 392 -501 0
16384 497 -392 501 0
25088 497 -392 -501 0
15360 -497 392 501 0
24320 -497 392 -501 0
26829 -497 -392 501 0
32922 -497 -392 -501 0
7068 487 483 -460 0
2945 487 -483 460 0
9660 487 -483 -460 0
41230 -487 483 460 0
43350 -487 483 -460 0
42113 -487 -483 460 0
44128 -487 -483 -460 0
8430 493 -336 0
19670 -493 336 0
25150 -493 -336 0
3515 -380 0
39805 494 467 -498 0
10475 494 -467 498 0
40329 494 -467 -498 0
31425 -494 467 498 0
41376 -494 467 -498 0
34044 -494 -467 498 0
41507 -494 -467 -498 0
24605 461 484 513 -506 0
22496 461 484 -513 506 0
39227 461 484 -513 -506 0
22496 461 -484 513 506 0
39227 461 -484 513 -506 0
37793 461 -484 -513 506 0
49171 461 -484 -513 -506 0
66785 -461 484 513 506 0
68015 -461 484 513 -506 0
67910 -461 484 -513 506 0
68746 -461 484 -513 -506 0
67910 -461 -484 513 506 0
68746 -461 -484 513 -506 0
68675 -461 -484 -513 506 0
69244 -461 -484 -513 -506 0
21090 -439 0
32940 485 508 458 515 507 -517 0
10980 485 508 458 515 -507 517 0
38979 485 508 458 515 -507 -517 0
27816 485 508 458 -515 507 517 0
48239 485 508 458 -515 507 -517 0
34624 485 508 458 -515 -507 517 0
51983 485 508 458 -515 -507 -517 0
7320 485 508 -458 515 507 517 0
36966 485 508 -458 515 507 -517 0
17202 485 508 -458 515 -507 517 0
42401 485 508 -458 515 -507 -517 0
32354 485 508 -458 -515 507 517 0
50735 485 508 -458 -515 507 -517 0
38481 485 508 -458 -515 -507 517 0
54105 485 508 -458 -515 -507 -517 0
7320 485 -508 458 515 507 517 0
36966 485 -508 458 515 507 -517 0
17202 485 -508 458 515 -507 517 0
42401 485 -508 458 515 -507 -517 0
32354 485 -508 458 -515 507 517 0
50735 485 -508 458 -515 507 -517 0
38481 485 -508 458 -515 -507 517 0
54105 485 -508 458 -515 -507 -517 0
13908 485 -508 -458 515 507 517 0
40589 485 -508 -458 515 507 -517 0
22802 485 -508 -458 515 -507 517 0
45481 485 -508 -458 515 -507 -517 0
36439 485 -508 -458 -515 507 517 0
52981 485 -508 -458 -515 507 -517 0
41953 485 -508 -458 -515 -507 517 0
56014 485 -508 -458 -515 -507 -517 0
29280 -485 508 458 515 507 517 0
49044 -485 508 458 515 507 -517 0
35868 -485 508 458 515 -507 517 0
52667 -485 508 458 515 -507 -517 0
45970 -485 508 458 -515 507 517 0
58223 -485 508 458 -515 507 -517 0
50054 -485 508 458 -515 -507 517 0
60470 -485 508 458 -515 -507 -517 0
33672 -485 508 -458 515 507 517 0
51460 -485 508 -458 515 507 -517 0
39601 -485 508 -458 515 -507 517 0
54721 -485 508 -458 515 -507 -517 0
48693 -485 508 -458 -515 507 517 0
59721 -485 508 -458 -515 507 -517 0
52369 -485 508 -458 -515 -507 517 0
61743 -485 508 -458 -515 -507 -517 0
33672 -485 -508 458 515 507 517 0
51460 -485 -508 458 515 507 -517 0
39601 -485 -508 458 515 -507 517 0
54721 -485 -508 458 515 -507 -517 0
48693 -485 -508 458 -515 507 517 0
59721 -485 -508 458 -515 507 -517 0
52369 -485 -508 458 -515 -507 517 0
61743 -485 -508 458 -515 -507 -517 0
37625 -485 -508 -458 515 507 517 0
53634 -485 -508 -458 515 507 -517 0
42961 -485 -508 -458 515 -507 517 0
56569 -485 -508 -458 515 -507 -517 0
51143 -485 -508 -458 -515 507 517 0
61069 -485 -508 -458 -515 507 -517 0
54452 -485 -508 -458 -515 -507 517 0
62889 -485 -508 -458 -515 -507 -517 0
2560 514 503 499 411 -479 0
1024 514 503 499 -411 479 0
3533 514 503 499 -411 -479 0
9216 514 503 -499 411 479 0
11315 514 503 -499 411 -479 0
10056 514 503 -499 -411 479 0
12113 514 503 -499 -411 -479 0
28160 514 -503 499 411 479 0
29312 514 -503 499 411 -479 0
28621 514 -503 499 -411 479 0
29750 514 -503 499 -411 -479 0
32307 514 -503 -499 411 479 0
33252 514 -503 -499 411 -479 0
32685 514 -503 -499 -411 479 0
33611 514 -503 -499 -411 -479 0
35840 -514 503 499 411 479 0
36608 -514 503 499 411 -479 0
36147 -514 503 499 -411 479 0
36900 -514 503 499 -411 -479 0
38605 -514 503 -499 411 479 0
39235 -514 503 -499 411 -479 0
38857 -514 503 -499 -411 479 0
39474 -514 503 -499 -411 -479 0
44288 -514 -503 499 411 479 0
44634 -514 -503 499 411 -479 0
44426 -514 -503 499 -411 479 0
44765 -514 -503 499 -411 -479 0
45532 -514 -503 -499 411 479 0
45816 -514 -503 -499 411 -479 0
45646 -514 -503 -499 -411 479 0
45923 -514 -503 -499 -411 -479 0
46080 349 -502 0
20480 -349 502 0
48128 -349 -502 0
28950 510 172 528 509 -525 0
9650 510 172 528 -509 525 0
31362 510 172 528 -509 -525 0
14668 510 172 -528 509 525 0
32617 510 172 -528 509 -525 0
20651 510 172 -528 -509 525 0
34113 510 172 -528 -509 -525 0
11580 510 -172 528 509 525 0
31845 510 -172 528 509 -525 0
18335 510 -172 528 -509 525 0
33534 510 -172 528 -509 -525 0
21848 510 -172 -528 509 525 0
34412 510 -172 -528 509 -525 0
26036 510 -172 -528 -509 525 0
35459 510 -172 -528 -509 -525 0
1930 -510 172 528 509 525 0
29432 -510 172 528 509 -525 0
11098 -510 172 528 -509 525 0
31724 -510 172 528 -509 -525 0
15865 -510 172 -528 509 525 0
32916 -510 172 -528 509 -525 0
21548 -510 172 -528 -509 525 0
34337 -510 172 -528 -509 -525 0
12931 -510 -172 528 509 525 0
32183 -510 -172 528 509 -525 0
19348 -510 -172 528 -509 525 0
33787 -510 -172 528 -509 -525 0
22685 -510 -172 -528 509 525 0
34621 -510 -172 -528 509 -525 0
26664 -510 -172 -528 -509 525 0
35616 -510 -172 -528 -509 -525 0
33520 516 -376 0
838 -516 376 0
33688 -516 -376 0
44745 511 173 529 535 526 480 -518 0
37680 511 173 529 535 526 -480 518 0
46629 511 173 529 535 526 -480 -518 0
35325 511 173 529 535 -526 480 518 0
46511 511 173 529 535 -526 480 -518 0
44745 511 173 529 535 -526 -480 518 0
46982 511 173 529 535 -526 -480 -518 0
2355 511 173 529 -535 526 480 518 0
44863 511 173 529 -535 526 480 -518 0
38151 511 173 529 -535 526 -480 518 0
46653 511 173 529 -535 526 -480 -518 0
35914 511 173 529 -535 -526 480 518 0
46541 511 173 529 -535 -526 480 -518 0
44863 511 173 529 -535 -526 -480 518 0
46988 511 173 529 -535 -526 -480 -518 0
37680 511 173 -529 535 526 480 518 0
46629 511 173 -529 535 526 480 -518 0
45216 511 173 -529 535 526 -480 518 0
47006 511 173 -529 535 526 -480 -518 0
44745 511 173 -529 535 -526 480 518 0
46982 511 173 -529 535 -526 480 -518 0
46629 511 173 -529 535 -526 -480 518 0
47076 511 173 -529 535 -526 -480 -518 0
38151 511 173 -529 -535 526 480 518 0
46653 511 173 -529 -535 526 480 -518 0
45310 511 173 -529 -535 526 -480 518 0
47011 511 173 -529 -535 526 -480 -518 0
44863 511 173 -529 -535 -526 480 518 0
46988 511 173 -529 -535 -526 480 -518 0
46653 511 173 -529 -535 -526 -480 518 0
47078 511 173 -529 -535 -526 -480 -518 0
32970 511 -173 529 535 526 480 518 0
46394 511 -173 529 535 526 480 -518 0
44274 511 -173 529 535 526 -480 518 0
46959 511 -173 529 535 526 -480 -518 0
43568 511 -173 529 535 -526 480 518 0
46923 511 -173 529 535 -526 480 -518 0
46394 511 -173 529 535 -526 -480 518 0
47065 511 -173 529 535 -526 -480 -518 0
33676 511 -173 529 -535 526 480 518 0
46429 511 -173 529 -535 526 480 -518 0
44415 511 -173 529 -535 526 -480 518 0
46966 511 -173 529 -535 526 -480 -518 0
43744 511 -173 529 -535 -526 480 518 0
46932 511 -173 529 -535 -526 480 -518 0
46429 511 -173 529 -535 -526 -480 518 0
47066 511 -173 529 -535 -526 -480 -518 0
44274 511 -173 -529 535 526 480 518 0
46959 511 -173 -529 535 526 480 -518 0
46535 511 -173 -529 535 526 -480 518 0
47072 511 -173 -529 535 526 -480 -518 0
46394 511 -173 -529 535 -526 480 518 0
47065 511 -173 -529 535 -526 480 -518 0
46959 511 -173 -529 535 -526 -480 518 0
47093 511 -173 -529 535 -526 -480 -518 0
44415 511 -173 -529 -535 526 480 518 0
46966 511 -173 -529 -535 526 480 -518 0
46563 511 -173 -529 -535 526 -480 518 0
47073 511 -173 -529 -535 526 -480 -518 0
46429 511 -173 -529 -535 -526 480 518 0
47066 511 -173 -529 -535 -526 480 -518 0
46966 511 -173 -529 -535 -526 -480 518 0
47093 511 -173 -529 -535 -526 -480 -518 0
28260 -511 173 529 535 526 480 518 0
46158 -511 173 529 535 526 480 -518 0
43332 -511 173 529 535 526 -480 518 0
46912 -511 173 529 535 526 -480 -518 0
42390 -511 173 529 535 -526 480 518 0
46864 -511 173 529 535 -526 480 -518 0
46158 -511 173 529 535 -526 -480 518 0
47053 -511 173 529 535 -526 -480 -518 0
29202 -511 173 529 -535 526 480 518 0
46205 -511 173 529 -535 526 480 -518 0
43520 -511 173 529 -535 526 -480 518 0
46921 -511 173 529 -535 526 -480 -518 0
42625 -511 173 529 -535 -526 480 518 0
46876 -511 173 529 -535 -526 480 -518 0
46205 -511 173 529 -535 -526 -480 518 0
47055 -511 173 529 -535 -526 -480 -518 0
43332 -511 173 -529 535 526 480 518 0
46912 -511 173 -529 535 526 480 -518 0
46346 -511 173 -529 535 526 -480 518 0
47062 -511 173 -529 535 526 -480 -518 0
46158 -511 173 -529 535 -526 480 518 0
47053 -511 173 -529 535 -526 480 -518 0
46912 -511 173 -529 535 -526 -480 518 0
47091 -511 173 -529 535 -526 -480 -518 0
43520 -511 173 -529 -535 526 480 518 0
46921 -511 173 -529 -535 526 480 -518 0
46384 -511 173 -529 -535 526 -480 518 0
47064 -511 173 -529 -535 526 -480 -518 0
46205 -511 173 -529 -535 -526 480 518 0
47055 -511 173 -529 -535 -526 480 -518 0
46921 -511 173 -529 -535 -526 -480 518 0
47091 -511 173 -529 -535 -526 -480 -518 0
41448 -511 -173 529 535 526 480 518 0
46817 -511 -173 529 535 526 480 -518 0
45970 -511 -173 529 535 526 -480 518 0
47043 -511 -173 529 535 526 -480 -518 0
45687 -511 -173 529 535 -526 480 518 0
47029 -511 -173 529 535 -526 480 -518 0
46817 -511 -173 529 535 -526 -480 518 0
47086 -511 -173 529 535 -526 -480 -518 0
41731 -511 -173 529 -535 526 480 518 0
46832 -511 -173 529 -535 526 480 -518 0
46026 -511 -173 529 -535 526 -480 518 0
47046 -511 -173 529 -535 526 -480 -518 0
45758 -511 -173 529 -535 -526 480 518 0
47033 -511 -173 529 -535 -526 480 -518 0
46832 -511 -173 529 -535 -526 -480 518 0
47087 -511 -173 529 -535 -526 -480 -518 0
45970 -511 -173 -529 535 526 480 518 0
47043 -511 -173 -529 535 526 480 -518 0
46874 -511 -173 -529 535 526 -480 518 0
47089 -511 -173 -529 535 526 -480 -518 0
46817 -511 -173 -529 535 -526 480 518 0
47086 -511 -173 -529 535 -526 480 -518 0
47043 -511 -173 -529 535 -526 -480 518 0
47097 -511 -173 -529 535 -526 -480 -518 0
46026 -511 -173 -529 -535 526 480 518 0
47046 -511 -173 -529 -535 526 480 -518 0
46885 -511 -173 -529 -535 526 -480 518 0
47089 -511 -173 -529 -535 526 -480 -518 0
46832 -511 -173 -529 -535 -526 480 518 0
47087 -511 -173 -529 -535 -526 480 -518 0
47046 -511 -173 -529 -535 -526 -480 518 0
47097 -511 -173 -529 -535 -526 -480 -518 0
27150 532 -537 0
24435 -532 537 0
39368 -532 -537 0
2225 538 530 -533 0
31150 538 -530 533 0
31818 538 -530 -533 0
35600 -538 530 533 0
36045 -538 530 -533 0
41830 -538 -530 533 0
41964 -538 -530 -533 0
39805 519 -540 0
18855 -519 540 0
40748 -519 -540 0
25440 481 543 536 504 -414 0
3975 481 543 536 -504 414 0
28143 481 543 536 -504 -414 0
31800 481 543 -536 504 414 0
47064 481 543 -536 504 -414 0
34185 481 543 -536 -504 414 0
48686 481 543 -536 -504 -414 0
35775 481 -543 536 504 414 0
49767 481 -543 536 504 -414 0
37961 481 -543 536 -504 414 0
51254 481 -543 536 -504 -414 0
53265 481 -543 -536 504 414 0
61660 481 -543 -536 504 -414 0
54577 481 -543 -536 -504 414 0
62552 481 -543 -536 -504 -414 0
71550 -481 543 536 504 414 0
74094 -481 543 536 504 -414 0
71948 -481 543 536 -504 414 0
74364 -481 543 536 -504 -414 0
74730 -481 543 -536 504 414 0
76256 -481 543 -536 504 -414 0
74969 -481 543 -536 -504 414 0
76419 -481 543 -536 -504 -414 0
75128 -481 -543 536 504 414 0
76527 -481 -543 536 504 -414 0
75346 -481 -543 536 -504 414 0
76675 -481 -543 536 -504 -414 0
76876 -481 -543 -536 504 414 0
77716 -481 -543 -536 504 -414 0
77008 -481 -543 -536 -504 414 0
77805 -481 -543 -536 -504 -414 0
6744 -444 0
23805 549 541 552 -534 0
29095 549 541 -552 534 0
39807 549 541 -552 -534 0
23805 549 -541 552 534 0
36898 549 -541 552 -534 0
39807 549 -541 -552 534 0
45699 549 -541 -552 -534 0
47610 -549 541 552 534 0
49991 -549 541 552 -534 0
50520 -549 541 -552 534 0
51591 -549 541 -552 -534 0
49991 -549 -541 552 534 0
51300 -549 -541 552 -534 0
51591 -549 -541 -552 534 0
52180 -549 -541 -552 -534 0
33280 550 566 -368 0
38400 550 -566 368 0
46720 550 -566 -368 0
43520 -550 566 368 0
48512 -550 566 -368 0
49280 -550 -566 368 0
50528 -550 -566 -368 0
42275 567 569 -465 0
13350 567 -569 465 0
42943 567 -569 -465 0
26700 -567 569 465 0
43610 -567 569 -465 0
32040 -567 -569 465 0
43877 -567 -569 -465 0
47700 -286 0
75525 447 -546 0
63600 -447 546 0
78705 -447 -546 0
20025 570 563 539 547 576 553 435 -544 0
4450 570 563 539 547 576 553 -435 544 0
22472 570 563 539 547 576 553 -435 -544 0
5340 570 563 539 547 576 -553 435 544 0
22962 570 563 539 547 576 -553 435 -544 0
9256 570 563 539 547 576 -553 -435 544 0
25116 570 563 539 547 576 -553 -435 -544 0
8900 570 563 539 547 -576 553 435 544 0
24920 570 563 539 547 -576 553 435 -544 0
12460 570 563 539 547 -576 553 -435 544 0
26878 570 563 539 547 -576 553 -435 -544 0
13172 570 563 539 547 -576 -553 435 544 0
27270 570 563 539 547 -576 -553 435 -544 0
16305 570 563 539 547 -576 -553 -435 544 0
28993 570 563 539 547 -576 -553 -435 -544 0
37825 570 563 539 -547 576 553 435 544 0
40829 570 563 539 -547 576 553 435 -544 0
38493 570 563 539 -547 576 553 -435 544 0
41196 570 563 539 -547 576 553 -435 -544 0
38626 570 563 539 -547 576 -553 435 544 0
41269 570 563 539 -547 576 -553 435 -544 0
39213 570 563 539 -547 576 -553 -435 544 0
41592 570 563 539 -547 576 -553 -435 -544 0
39160 570 563 539 -547 -576 553 435 544 0
41563 570 563 539 -547 -576 553 435 -544 0
39694 570 563 539 -547 -576 553 -435 544 0
41857 570 563 539 -547 -576 553 -435 -544 0
39801 570 563 539 -547 -576 -553 435 544 0
41915 570 563 539 -547 -576 -553 435 -544 0
40271 570 563 539 -547 -576 -553 -435 544 0
42174 570 563 539 -547 -576 -553 -435 -544 0
24475 570 563 -539 547 576 553 435 544 0
33486 570 563 -539 547 576 553 435 -544 0
26477 570 563 -539 547 576 553 -435 544 0
34588 570 563 -539 547 576 553 -435 -544 0
26878 570 563 -539 547 576 -553 435 544 0
34808 570 563 -539 547 576 -553 435 -544 0
28640 570 563 -539 547 576 -553 -435 544 0
35777 570 563 -539 547 576 -553 -435 -544 0
28480 570 563 -539 547 -576 553 435 544 0
35689 570 563 -539 547 -576 553 435 -544 0
30082 570 563 -539 547 -576 553 -435 544 0
36570 570 563 -539 547 -576 553 -435 -544 0
30402 570 563 -539 547 -576 -553 435 544 0
36746 570 563 -539 547 -576 -553 435 -544 0
31812 570 563 -539 547 -576 -553 -435 544 0
37522 570 563 -539 547 -576 -553 -435 -544 0
41496 570 563 -539 -547 576 553 435 544 0
42848 570 563 -539 -547 576 553 435 -544 0
41797 570 563 -539 -547 576 553 -435 544 0
43013 570 563 -539 -547 576 553 -435 -544 0
41857 570 563 -539 -547 576 -553 435 544 0
43046 570 563 -539 -547 576 -553 435 -544 0
42121 570 563 -539 -547 576 -553 -435 544 0
43192 570 563 -539 -547 576 -553 -435 -544 0
42097 570 563 -539 -547 -576 553 435 544 0
43178 570 563 -539 -547 -576 553 435 -544 0
42337 570 563 -539 -547 -576 553 -435 544 0
43311 570 563 -539 -547 -576 553 -435 -544 0
42385 570 563 -539 -547 -576 -553 435 544 0
43337 570 563 -539 -547 -576 -553 435 -544 0
42597 570 563 -539 -547 -576 -553 -435 544 0
43453 570 563 -539 -547 -576 -553 -435 -544 0
4450 570 -563 539 547 576 553 435 544 0
22472 570 -563 539 547 576 553 435 -544 0
8455 570 -563 539 547 576 553 -435 544 0
24675 570 -563 539 547 576 553 -435 -544 0
9256 570 -563 539 547 576 -553 435 544 0
25116 570 -563 539 547 576 -553 435 -544 0
12780 570 -563 539 547 576 -553 -435 544 0
27054 570 -563 539 547 576 -553 -435 -544 0
12460 570 -563 539 547 -576 553 435 544 0
26878 570 -563 539 547 -576 553 435 -544 0
15664 570 -563 539 547 -576 553 -435 544 0
28640 570 -563 539 547 -576 553 -435 -544 0
16305 570 -563 539 547 -576 -553 435 544 0
28993 570 -563 539 547 -576 -553 435 -544 0
19124 570 -563 539 547 -576 -553 -435 544 0
30543 570 -563 539 547 -576 -553 -435 -544 0
38493 570 -563 539 -547 576 553 435 544 0
41196 570 -563 539 -547 576 553 435 -544 0
39093 570 -563 539 -547 576 553 -435 544 0
41526 570 -563 539 -547 576 553 -435 -544 0
39213 570 -563 539 -547 576 -553 435 544 0
41592 570 -563 539 -547 576 -553 435 -544 0
39742 570 -563 539 -547 576 -553 -435 544 0
41883 570 -563 539 -547 576 -553 -435 -544 0
39694 570 -563 539 -547 -576 553 435 544 0
41857 570 -563 539 -547 -576 553 435 -544 0
40175 570 -563 539 -547 -576 553 -435 544 0
42121 570 -563 539 -547 -576 553 -435 -544 0
40271 570 -563 539 -547 -576 -553 435 544 0
42174 570 -563 539 -547 -576 -553 435 -544 0
40694 570 -563 539 -547 -576 -553 -435 544 0
42407 570 -563 539 -547 -576 -553 -435 -544 0
26477 570 -563 -539 547 576 553 435 544 0
34588 570 -563 -539 547 576 553 435 -544 0
28280 570 -563 -539 547 576 553 -435 544 0
35579 570 -563 -539 547 576 553 -435 -544 0
28640 570 -563 -539 547 576 -553 435 544 0
35777 570 -563 -539 547 576 -553 435 -544 0
30226 570 -563 -539 547 576 -553 -435 544 0
36649 570 -563 -539 547 576 -553 -435 -544 0
30082 570 -563 -539 547 -576 553 435 544 0
36570 570 -563 -539 547 -576 553 435 -544 0
31524 570 -563 -539 547 -576 553 -435 544 0
37363 570 -563 -539 547 -576 553 -435 -544 0
31812 570 -563 -539 547 -576 -553 435 544 0
37522 570 -563 -539 547 -576 -553 435 -544 0
33081 570 -563 -539 547 -576 -553 -435 544 0
38220 570 -563 -539 547 -576 -553 -435 -544 0
41797 570 -563 -539 -547 576 553 435 544 0
43013 570 -563 -539 -547 576 553 435 -544 0
42067 570 -563 -539 -547 576 553 -435 544 0
43162 570 -563 -539 -547 576 553 -435 -544 0
42121 570 -563 -539 -547 576 -553 435 544 0
43192 570 -563 -539 -547 576 -553 435 -544 0
42359 570 -563 -539 -547 576 -553 -435 544 0
43322 570 -563 -539 -547 576 -553 -435 -544 0
42337 570 -563 -539 -547 -576 553 435 544 0
43311 570 -563 -539 -547 -576 553 435 -544 0
42554 570 -563 -539 -547 -576 553 -435 544 0
43429 570 -563 -539 -547 -576 553 -435 -544 0
42597 570 -563 -539 -547 -576 -553 435 544 0
43453 570 -563 -539 -547 -576 -553 435 -544 0
42787 570 -563 -539 -547 -576 -553 -435 544 0
43558 570 -563 -539 -547 -576 -553 -435 -544 0
31150 -570 563 539 547 576 553 435 544 0
37157 -570 563 539 547 576 553 435 -544 0
32485 -570 563 539 547 576 553 -435 544 0
37892 -570 563 539 547 576 553 -435 -544 0
32752 -570 563 539 547 576 -553 435 544 0
38039 -570 563 539 547 576 -553 435 -544 0
33927 -570 563 539 547 576 -553 -435 544 0
38685 -570 563 539 547 576 -553 -435 -544 0
33820 -570 563 539 547 -576 553 435 544 0
38626 -570 563 539 547 -576 553 435 -544 0
34888 -570 563 539 547 -576 553 -435 544 0
39213 -570 563 539 547 -576 553 -435 -544 0
35102 -570 563 539 547 -576 -553 435 544 0
39331 -570 563 539 547 -576 -553 435 -544 0
36041 -570 563 539 547 -576 -553 -435 544 0
39848 -570 563 539 547 -576 -553 -435 -544 0
42497 -570 563 539 -547 576 553 435 544 0
43399 -570 563 539 -547 576 553 435 -544 0
42698 -570 563 539 -547 576 553 -435 544 0
43509 -570 563 539 -547 576 553 -435 -544 0
42738 -570 563 539 -547 576 -553 435 544 0
43531 -570 563 539 -547 576 -553 435 -544 0
42914 -570 563 539 -547 576 -553 -435 544 0
43628 -570 563 539 -547 576 -553 -435 -544 0
42898 -570 563 539 -547 -576 553 435 544 0
43619 -570 563 539 -547 -576 553 435 -544 0
43058 -570 563 539 -547 -576 553 -435 544 0
43707 -570 563 539 -547 -576 553 -435 -544 0
43090 -570 563 539 -547 -576 -553 435 544 0
43725 -570 563 539 -547 -576 -553 435 -544 0
43231 -570 563 539 -547 -576 -553 -435 544 0
43802 -570 563 539 -547 -576 -553 -435 -544 0
38493 -570 563 -539 547 576 553 435 544 0
41196 -570 563 -539 547 576 553 435 -544 0
39093 -570 563 -539 547 576 553 -435 544 0
41526 -570 563 -539 547 576 553 -435 -544 0
39213 -570 563 -539 547 576 -553 435 544 0
41592 -570 563 -539 547 576 -553 435 -544 0
39742 -570 563 -539 547 576 -553 -435 544 0
41883 -570 563 -539 547 576 -553 -435 -544 0
39694 -570 563 -539 547 -576 553 435 544 0
41857 -570 563 -539 547 -576 553 435 -544 0
40175 -570 563 -539 547 -576 553 -435 544 0
42121 -570 563 -539 547 -576 553 -435 -544 0
40271 -570 563 -539 547 -576 -553 435 544 0
42174 -570 563 -539 547 -576 -553 435 -544 0
40694 -570 563 -539 547 -576 -553 -435 544 0
42407 -570 563 -539 547 -576 -553 -435 -544 0
43599 -570 563 -539 -547 576 553 435 544 0
44004 -570 563 -539 -547 576 553 435 -544 0
43689 -570 563 -539 -547 576 553 -435 544 0
44054 -570 563 -539 -547 576 553 -435 -544 0
43707 -570 563 -539 -547 576 -553 435 544 0
44064 -570 563 -539 -547 576 -553 435 -544 0
43786 -570 563 -539 -547 576 -553 -435 544 0
44107 -570 563 -539 -547 576 -553 -435 -544 0
43779 -570 563 -539 -547 -576 553 435 544 0
44104 -570 563 -539 -547 -576 553 435 -544 0
43851 -570 563 -539 -547 -576 553 -435 544 0
44143 -570 563 -539 -547 -576 553 -435 -544 0
43866 -570 563 -539 -547 -576 -553 435 544 0
44151 -570 563 -539 -547 -576 -553 435 -544 0
43929 -570 563 -539 -547 -576 -553 -435 544 0
44186 -570 563 -539 -547 -576 -553 -435 -544 0
32485 -570 -563 539 547 576 553 435 544 0
37892 -570 -563 539 547 576 553 435 -544 0
33686 -570 -563 539 547 576 553 -435 544 0
38553 -570 -563 539 547 576 553 -435 -544 0
33927 -570 -563 539 547 576 -553 435 544 0
38685 -570 -563 539 547 576 -553 435 -544 0
34984 -570 -563 539 547 576 -553 -435 544 0
39266 -570 -563 539 547 576 -553 -435 -544 0
34888 -570 -563 539 547 -576 553 435 544 0
39213 -570 -563 539 547 -576 553 435 -544 0
35849 -570 -563 539 547 -576 553 -435 544 0
39742 -570 -563 539 547 -576 553 -435 -544 0
36041 -570 -563 539 547 -576 -553 435 544 0
39848 -570 -563 539 547 -576 -553 435 -544 0
36887 -570 -563 539 547 -576 -553 -435 544 0
40313 -570 -563 539 547 -576 -553 -435 -544 0
42698 -570 -563 539 -547 576 553 435 544 0
43509 -570 -563 539 -547 576 553 435 -544 0
42878 -570 -563 539 -547 576 553 -435 544 0
43608 -570 -563 539 -547 576 553 -435 -544 0
42914 -570 -563 539 -547 576 -553 435 544 0
43628 -570 -563 539 -547 576 -553 435 -544 0
43073 -570 -563 539 -547 576 -553 -435 544 0
43715 -570 -563 539 -547 576 -553 -435 -544 0
43058 -570 -563 539 -547 -576 553 435 544 0
43707 -570 -563 539 -547 -576 553 435 -544 0
43202 -570 -563 539 -547 -576 553 -435 544 0
43786 -570 -563 539 -547 -576 553 -435 -544 0
43231 -570 -563 539 -547 -576 -553 435 544 0
43802 -570 -563 539 -547 -576 -553 435 -544 0
43358 -570 -563 539 -547 -576 -553 -435 544 0
43872 -570 -563 539 -547 -576 -553 -435 -544 0
39093 -570 -563 -539 547 576 553 435 544 0
41526 -570 -563 -539 547 576 553 435 -544 0
39634 -570 -563 -539 547 576 553 -435 544 0
41824 -570 -563 -539 547 576 553 -435 -544 0
39742 -570 -563 -539 547 576 -553 435 544 0
41883 -570 -563 -539 547 576 -553 435 -544 0
40218 -570 -563 -539 547 576 -553 -435 544 0
42145 -570 -563 -539 547 576 -553 -435 -544 0
40175 -570 -563 -539 547 -576 553 435 544 0
42121 -570 -563 -539 547 -576 553 435 -544 0
40607 -570 -563 -539 547 -576 553 -435 544 0
42359 -570 -563 -539 547 -576 553 -435 -544 0
40694 -570 -563 -539 547 -576 -553 435 544 0
42407 -570 -563 -539 547 -576 -553 435 -544 0
41074 -570 -563 -539 547 -576 -553 -435 544 0
42616 -570 -563 -539 547 -576 -553 -435 -544 0
43689 -570 -563 -539 -547 576 553 435 544 0
44054 -570 -563 -539 -547 576 553 435 -544 0
43770 -570 -563 -539 -547 576 553 -435 544 0
44099 -570 -563 -539 -547 576 553 -435 -544 0
43786 -570 -563 -539 -547 576 -553 435 544 0
44107 -570 -563 -539 -547 576 -553 435 -544 0
43858 -570 -563 -539 -547 576 -553 -435 544 0
44147 -570 -563 -539 -547 576 -553 -435 -544 0
43851 -570 -563 -539 -547 -576 553 435 544 0
44143 -570 -563 -539 -547 -576 553 435 -544 0
43916 -570 -563 -539 -547 -576 553 -435 544 0
44179 -570 -563 -539 -547 -576 553 -435 -544 0
43929 -570 -563 -539 -547 -576 -553 435 544 0
44186 -570 -563 -539 -547 -576 -553 435 -544 0
43986 -570 -563 -539 -547 -576 -553 -435 544 0
44217 -570 -563 -539 -547 -576 -553 -435 -544 0
5120 564 -287 0
28160 -564 287 0
30464 -564 -287 0
4190 377 -577 0
4190 -377 577 0
7961 -377 -577 0
1086 581 548 588 -573 0
9774 581 548 -588 573 0
10665 581 548 -588 -573 0
24435 581 -548 588 573 0
25032 581 -548 588 -573 0
29811 581 -548 -588 573 0
30300 581 -548 -588 -573 0
48870 -581 548 588 573 0
48979 -581 548 588 -573 0
49847 -581 548 -588 573 0
49936 -581 548 -588 -573 0
51313 -581 -548 588 573 0
51373 -581 -548 588 -573 0
51851 -581 -548 -588 573 0
51900 -581 -548 -588 -573 0
21195 590 -523 0
17898 -590 523 0
31039 -590 -523 0
44960 477 591 -578 0
5620 477 -591 578 0
46084 477 -591 -578 0
14050 -477 591 578 0
47770 -477 591 -578 0
18265 -477 -591 578 0
48613 -477 -591 -578 0
21160 579 584 492 589 -598 0
29095 579 584 492 -589 598 0
38617 579 584 492 -589 -598 0
9522 579 584 -492 589 598 0
26873 579 584 -492 589 -598 0
33380 579 584 -492 -589 598 0
41188 579 584 -492 -589 -598 0
20102 579 -584 492 589 598 0
33221 579 -584 492 589 -598 0
38141 579 -584 492 -589 598 0
44045 579 -584 492 -589 -598 0
26006 579 -584 -492 589 598 0
36763 579 -584 -492 589 -598 0
40798 579 -584 -492 -589 598 0
45639 579 -584 -492 -589 -598 0
2645 -579 584 492 589 598 0
22747 -579 584 492 589 -598 0
30285 -579 584 492 -589 598 0
39331 -579 584 492 -589 -598 0
11691 -579 584 -492 589 598 0
28175 -579 584 -492 589 -598 0
34356 -579 584 -492 -589 598 0
41774 -579 584 -492 -589 -598 0
21742 -579 -584 492 589 598 0
34205 -579 -584 492 589 -598 0
38879 -579 -584 492 -589 598 0
44487 -579 -584 492 -589 -598 0
27350 -579 -584 -492 589 598 0
37570 -579 -584 -492 589 -598 0
41403 -579 -584 -492 -589 598 0
46002 -579 -584 -492 -589 -598 0
10602 -582 0
10580 601 599 -554 0
39675 601 -599 554 0
42320 601 -599 -554 0
21160 -601 599 554 0
27508 -601 599 -554 0
44965 -601 -599 554 0
46552 -601 -599 -554 0
52725 609 495 -583 0
3515 609 -495 583 0
53604 609 -495 -583 0
24605 -609 495 583 0
58876 -609 495 -583 0
26890 -609 -495 583 0
59447 -609 -495 -583 0
28160 605 -310 0
48640 -605 310 0
50048 -605 -310 0
21720 606 574 331 -585 0
46155 606 574 -331 585 0
49413 606 574 -331 -585 0
20634 606 -574 331 585 0
34100 606 -574 331 -585 0
49250 606 -574 -331 585 0
51270 606 -574 -331 -585 0
13575 -606 574 331 585 0
29865 -606 574 331 -585 0
48191 -606 574 -331 585 0
50635 -606 574 -331 -585 0
29050 -606 -574 331 585 0
39150 -606 -574 331 -585 0
50513 -606 -574 -331 585 0
52028 -606 -574 -331 -585 0
36530 611 -358 0
25290 -611 358 0
45381 -611 -358 0
38665 604 -571 0
14060 -604 571 0
44992 -604 -571 0
47770 607 618 610 600 -602 0
36530 607 618 610 -600 602 0
53250 607 618 610 -600 -602 0
22480 607 618 -610 600 602 0
51142 607 618 -610 600 -602 0
44398 607 618 -610 -600 602 0
54430 607 618 -610 -600 -602 0
28100 607 -618 610 600 602 0
51985 607 -618 610 600 -602 0
46365 607 -618 610 -600 602 0
54725 607 -618 610 -600 -602 0
39340 607 -618 -610 600 602 0
53671 607 -618 -610 600 -602 0
50299 607 -618 -610 -600 602 0
55315 607 -618 -610 -600 -602 0
6744 -607 618 610 600 602 0
48782 -607 618 610 600 -602 0
38890 -607 618 610 -600 602 0
53604 -607 618 610 -600 -602 0
26526 -607 618 -610 600 602 0
51749 -607 618 -610 600 -602 0
45814 -607 618 -610 -600 602 0
54642 -607 618 -610 -600 -602 0
31472 -607 -618 610 600 602 0
52491 -607 -618 610 600 -602 0
47545 -607 -618 610 -600 602 0
54902 -607 -618 610 -600 -602 0
41363 -607 -618 -610 600 602 0
53974 -607 -618 -610 600 -602 0
51007 -607 -618 -610 -600 602 0
55421 -607 -618 -610 -600 -602 0
32160 160 -619 0
18760 -160 619 0
39664 -160 -619 0
26714 551 -612 0
12654 -551 612 0
34559 -551 -612 0
17800 616 608 184 613 -572 0
5340 616 608 184 -613 572 0
21004 616 608 184 -613 -572 0
14240 616 608 -184 613 572 0
26344 616 608 -184 613 -572 0
17871 616 608 -184 -613 572 0
28523 616 608 -184 -613 -572 0
16910 616 -608 184 613 572 0
27946 616 -608 184 613 -572 0
20221 616 -608 184 -613 572 0
29932 616 -608 184 -613 -572 0
25739 616 -608 -184 613 572 0
33243 616 -608 -184 613 -572 0
27990 616 -608 -184 -613 572 0
34594 616 -608 -184 -613 -572 0
33375 -616 608 184 613 572 0
37825 -616 608 184 613 -572 0
34710 -616 608 184 -613 572 0
38626 -616 608 184 -613 -572 0
36935 -616 608 -184 613 572 0
39961 -616 608 -184 613 -572 0
37843 -616 608 -184 -613 572 0
40506 -616 608 -184 -613 -572 0
37602 -616 -608 184 613 572 0
40362 -616 -608 184 613 -572 0
38430 -616 -608 184 -613 572 0
40858 -616 -608 184 -613 -572 0
39810 -616 -608 -184 613 572 0
41686 -616 -608 -184 613 -572 0
40373 -616 -608 -184 -613 572 0
42024 -616 -608 -184 -613 -572 0
24350 179 181 185 415 -614 0
34090 179 181 185 -415 614 0
41395 179 181 185 -415 -614 0
12175 179 181 -185 415 614 0
30438 179 181 -185 415 -614 0
37742 179 181 -185 -415 614 0
43221 179 181 -185 -415 -614 0
41395 179 -181 185 415 614 0
45048 179 -181 185 415 -614 0
46508 179 -181 185 -415 614 0
47604 179 -181 185 -415 -614 0
43221 179 -181 -185 415 614 0
45961 179 -181 -185 415 -614 0
47056 179 -181 -185 -415 614 0
47878 179 -181 -185 -415 -614 0
43830 -179 181 185 415 614 0
46265 -179 181 185 415 -614 0
47239 -179 181 185 -415 614 0
47969 -179 181 185 -415 -614 0
45048 -179 181 -185 415 614 0
46874 -179 181 -185 415 -614 0
47604 -179 181 -185 -415 614 0
48152 -179 181 -185 -415 -614 0
47969 -179 -181 185 415 614 0
48335 -179 -181 185 415 -614 0
48481 -179 -181 185 -415 614 0
48590 -179 -181 185 -415 -614 0
48152 -179 -181 -185 415 614 0
48426 -179 -181 -185 415 -614 0
48536 -179 -181 -185 -415 614 0
48618 -179 -181 -185 -415 -614 0
30910 187 568 -615 0
33720 187 -568 615 0
46084 187 -568 -615 0
17984 -187 568 615 0
39003 -187 568 -615 0
40914 -187 -568 615 0
49321 -187 -568 -615 0
33100 555 -192 0
9930 -555 192 0
38065 -555 -192 0
44745 182 -403 0
5652 -182 403 0
45028 -182 -403 0
47610 617 -593 0
7935 -617 593 0
48404 -617 -593 0
24120 -161 0
7068 -474 0
46340 407 -188 0
43030 -407 188 0
59249 -407 -188 0
11775 200 354 -202 0
28260 200 -354 202 0
32970 200 -354 -202 0
28260 -200 354 202 0
32970 -200 354 -202 0
39564 -200 -354 202 0
41448 -200 -354 -202 0
29095 180 586 193 201 -197 0
44965 180 586 193 -201 197 0
49329 180 586 193 -201 -197 0
1058 180 586 -193 201 197 0
29571 180 586 -193 201 -197 0
45124 180 586 -193 -201 197 0
49401 180 586 -193 -201 -197 0
9522 180 -586 193 201 197 0
33380 180 -586 193 201 -197 0
46393 180 -586 193 -201 197 0
49972 180 -586 193 -201 -197 0
10390 180 -586 -193 201 197 0
33770 180 -586 -193 201 -197 0
46523 180 -586 -193 -201 197 0
50031 180 -586 -193 -201 -197 0
39675 -180 586 193 201 197 0
46949 -180 586 193 201 -197 0
50916 -180 586 193 -201 197 0
52007 -180 586 193 -201 -197 0
39939 -180 586 -193 201 197 0
47068 -180 586 -193 201 -197 0
50956 -180 586 -193 -201 197 0
52025 -180 586 -193 -201 -197 0
42055 -180 -586 193 201 197 0
48020 -180 -586 193 201 -197 0
51273 -180 -586 193 -201 197 0
52168 -180 -586 193 -201 -197 0
42272 -180 -586 -193 201 197 0
48118 -180 -586 -193 201 -197 0
51306 -180 -586 -193 -201 197 0
52183 -180 -586 -193 -201 -197 0
942 203 208 -512 0
30615 203 -208 512 0
30945 203 -208 -512 0
16485 -203 208 512 0
17097 -203 208 -512 0
36385 -203 -208 512 0
36599 -203 -208 -512 0
53010 -562 0
47610 218 220 -580 0
29095 218 -220 580 0
50520 218 -220 -580 0
34385 -218 220 580 0
51048 -218 220 -580 0
44568 -218 -220 580 0
52067 -218 -220 -580 0
2225 -362 0
25090 214 204 210 -212 0
17370 214 204 -210 212 0
31169 214 204 -210 -212 0
6948 214 -204 210 212 0
27522 214 -204 210 -212 0
21191 214 -204 -210 212 0
32507 214 -204 -210 -212 0
9650 -214 204 210 212 0
28468 -214 204 210 -212 0
22677 -214 204 -210 212 0
33027 -214 204 -210 -212 0
14861 -214 -204 210 212 0
30291 -214 -204 210 -212 0
25544 -214 -204 -210 212 0
34030 -214 -204 -210 -212 0
40960 209 215 198 194 -227 0
38400 209 215 198 -194 227 0
48640 209 215 198 -194 -227 0
16384 209 215 -198 194 227 0
44237 209 215 -198 194 -227 0
42496 209 215 -198 -194 227 0
49459 209 215 -198 -194 -227 0
38400 209 -215 198 194 227 0
48640 209 -215 198 194 -227 0
48000 209 -215 198 -194 227 0
50560 209 -215 198 -194 -227 0
42496 209 -215 -198 194 227 0
49459 209 -215 -198 194 -227 0
49024 209 -215 -198 -194 227 0
50765 209 -215 -198 -194 -227 0
5120 -209 215 198 194 227 0
41984 -209 215 198 194 -227 0
39680 -209 215 198 -194 227 0
48896 -209 215 198 -194 -227 0
19866 -209 215 -198 194 227 0
44933 -209 215 -198 194 -227 0
43366 -209 215 -198 -194 227 0
49633 -209 215 -198 -194 -227 0
39680 -209 -215 198 194 227 0
48896 -209 -215 198 194 -227 0
48320 -209 -215 198 -194 227 0
50624 -209 -215 198 -194 -227 0
43366 -209 -215 -198 194 227 0
49633 -209 -215 -198 194 -227 0
49242 -209 -215 -198 -194 227 0
50808 -209 -215 -198 -194 -227 0
5620 229 -195 0
42150 -229 195 0
43555 -229 -195 0
15440 223 228 196 211 521 -225 0
27020 223 228 196 211 -521 225 0
31652 223 228 196 211 -521 -225 0
21230 223 228 196 -211 521 225 0
28178 223 228 196 -211 521 -225 0
33389 223 228 196 -211 -521 225 0
35473 223 228 196 -211 -521 -225 0
7720 223 228 -196 211 521 225 0
20072 223 228 -196 211 521 -225 0
29336 223 228 -196 211 -521 225 0
33042 223 228 -196 211 -521 -225 0
24704 223 228 -196 -211 521 225 0
30262 223 228 -196 -211 521 -225 0
34431 223 228 -196 -211 -521 225 0
36099 223 228 -196 -211 -521 -225 0
25090 223 -228 196 211 521 225 0
30494 223 -228 196 211 521 -225 0
34547 223 -228 196 211 -521 225 0
36168 223 -228 196 211 -521 -225 0
32520 223 -228 196 -211 521 225 0
34952 223 -228 196 -211 521 -225 0
36776 223 -228 196 -211 -521 225 0
37506 223 -228 196 -211 -521 -225 0
27792 223 -228 -196 211 521 225 0
32115 223 -228 -196 211 521 -225 0
35358 223 -228 -196 211 -521 225 0
36655 223 -228 -196 211 -521 -225 0
33736 223 -228 -196 -211 521 225 0
35682 223 -228 -196 -211 521 -225 0
37141 223 -228 -196 -211 -521 225 0
37725 223 -228 -196 -211 -521 -225 0
13510 -223 228 196 211 521 225 0
23546 -223 228 196 211 521 -225 0
31073 -223 228 196 211 -521 225 0
34084 -223 228 196 211 -521 -225 0
27310 -223 228 196 -211 521 225 0
31826 -223 228 196 -211 521 -225 0
35213 -223 228 196 -211 -521 225 0
36568 -223 228 196 -211 -521 -225 0
18528 -223 228 -196 211 521 225 0
26557 -223 228 -196 211 521 -225 0
32578 -223 228 -196 211 -521 225 0
34987 -223 228 -196 211 -521 -225 0
29568 -223 228 -196 -211 521 225 0
33181 -223 228 -196 -211 521 -225 0
35890 -223 228 -196 -211 -521 225 0
36974 -223 228 -196 -211 -521 -225 0
29819 -223 -228 196 211 521 225 0
33331 -223 -228 196 211 521 -225 0
35966 -223 -228 196 211 -521 225 0
37019 -223 -228 196 211 -521 -225 0
34648 -223 -228 196 -211 521 225 0
36229 -223 -228 196 -211 521 -225 0
37414 -223 -228 196 -211 -521 225 0
37889 -223 -228 196 -211 -521 -225 0
31575 -223 -228 -196 211 521 225 0
34385 -223 -228 -196 211 521 -225 0
36492 -223 -228 -196 211 -521 225 0
37335 -223 -228 -196 211 -521 -225 0
35439 -223 -228 -196 -211 521 225 0
36703 -223 -228 -196 -211 521 -225 0
37652 -223 -228 -196 -211 -521 225 0
38031 -223 -228 -196 -211 -521 -225 0
43520 -408 0
13240 213 226 224 496 -219 0
62890 213 226 224 -496 219 0
63552 213 226 224 -496 -219 0
9930 213 226 -224 496 219 0
21184 213 226 -224 496 -219 0
63387 213 226 -224 -496 219 0
63949 213 226 -224 -496 -219 0
21184 213 -226 224 496 219 0
30187 213 -226 224 496 -219 0
63949 213 -226 224 -496 219 0
64399 213 -226 224 -496 -219 0
27936 213 -226 -224 496 219 0
35589 213 -226 -224 496 -219 0
64287 213 -226 -224 -496 219 0
64669 213 -226 -224 -496 -219 0
49650 -213 226 224 496 219 0
52960 -213 226 224 496 -219 0
65373 -213 226 224 -496 219 0
65538 -213 226 224 -496 -219 0
52132 -213 226 -224 496 219 0
54946 -213 226 -224 496 -219 0
65497 -213 226 -224 -496 219 0
65637 -213 226 -224 -496 -219 0
54946 -213 -226 224 496 219 0
57197 -213 -226 224 496 -219 0
65637 -213 -226 224 -496 219 0
65750 -213 -226 224 -496 -219 0
56634 -213 -226 -224 496 219 0
58547 -213 -226 -224 496 -219 0
65722 -213 -226 -224 -496 219 0
65817 -213 -226 -224 -496 -219 0
17800 242 238 221 -230 0
14240 242 238 -221 230 0
26344 242 238 -221 -230 0
4450 242 -238 221 230 0
20470 242 -238 221 -230 0
17266 242 -238 -221 230 0
28160 242 -238 -221 -230 0
890 -242 238 221 230 0
18334 -242 238 221 -230 0
14845 -242 238 -221 230 0
26707 -242 238 -221 -230 0
5251 -242 -238 221 230 0
20951 -242 -238 221 -230 0
17811 -242 -238 -221 230 0
28486 -242 -238 -221 -230 0
27235 240 397 199 -239 0
10475 240 397 -199 239 0
30901 240 397 -199 -239 0
29330 240 -397 199 239 0
37500 240 -397 199 -239 0
32472 240 -397 -199 239 0
38600 240 -397 -199 -239 0
15922 -240 397 199 239 0
32808 -240 397 199 -239 0
22417 -240 397 -199 239 0
35081 -240 397 -199 -239 0
34107 -240 -397 199 239 0
39172 -240 -397 199 -239 0
36055 -240 -397 -199 239 0
39854 -240 -397 -199 -239 0
32395 -247 0
28160 245 251 556 -254 0
9216 245 251 -556 254 0
32307 245 251 -556 -254 0
1024 245 -251 556 254 0
28621 245 -251 556 -254 0
10056 245 -251 -556 254 0
32685 245 -251 -556 -254 0
40960 -245 251 556 254 0
46592 -245 251 556 -254 0
42803 -245 251 -556 254 0
47421 -245 251 -556 -254 0
41165 -245 -251 556 254 0
46684 -245 -251 556 -254 0
42971 -245 -251 -556 254 0
47497 -245 -251 -556 -254 0
33720 -575 0
16910 258 256 -248 0
35600 258 -256 248 0
38982 258 -256 -248 0
2225 -258 256 248 0
18290 -258 256 -248 0
36045 -258 -256 248 0
39258 -258 -256 -248 0
25440 190 243 -319 0
31800 190 -243 319 0
47064 190 -243 -319 0
47700 -190 243 319 0
57876 -190 243 -319 0
60420 -190 -243 319 0
66526 -190 -243 -319 0
71740 261 265 259 531 -249 0
50640 261 265 259 -531 249 0
79336 261 265 259 -531 -249 0
25320 261 265 -259 531 249 0
75538 261 265 -259 531 -249 0
60768 261 265 -259 -531 249 0
80855 261 265 -259 -531 -249 0
67520 261 -265 259 531 249 0
81868 261 -265 259 531 -249 0
77648 261 -265 259 -531 249 0
83387 261 -265 259 -531 -249 0
72584 261 -265 -259 531 249 0
82628 261 -265 -259 531 -249 0
79674 261 -265 -259 -531 249 0
83691 261 -265 -259 -531 -249 0
8440 -261 265 259 531 249 0
73006 -261 265 259 531 -249 0
54016 -261 265 259 -531 249 0
79842 -261 265 259 -531 -249 0
31228 -261 265 -259 531 249 0
76424 -261 265 -259 531 -249 0
63131 -261 265 -259 -531 249 0
81210 -261 265 -259 -531 -249 0
69208 -261 -265 259 531 249 0
82121 -261 -265 259 531 -249 0
78323 -261 -265 259 -531 249 0
83488 -261 -265 259 -531 -249 0
73766 -261 -265 -259 531 249 0
82805 -261 -265 -259 531 -249 0
80146 -261 -265 -259 -531 249 0
83762 -261 -265 -259 -531 -249 0
12654 -252 0
37980 266 246 253 -542 0
25320 266 246 -253 542 0
51906 266 246 -253 -542 0
67520 266 -246 253 542 0
75116 266 -246 253 -542 0
72584 266 -246 -253 542 0
77901 266 -246 -253 -542 0
75960 -266 246 253 542 0
79758 -266 246 253 -542 0
78492 -266 246 -253 542 0
81151 -266 246 -253 -542 0
82712 -266 -246 253 542 0
83472 -266 -246 253 -542 0
83218 -266 -246 -253 542 0
83750 -266 -246 -253 -542 0
10242 186 -250 0
54055 -186 250 0
54567 -186 -250 0
15912 271 189 -269 0
66300 271 -189 269 0
70278 271 -189 -269 0
70720 -271 189 269 0
73902 -271 189 -269 0
83980 -271 -189 269 0
84776 -271 -189 -269 0
11125 257 -545 0
20025 -257 545 0
26144 -257 -545 0
13980 272 262 222 -275 0
32620 272 262 -222 275 0
36814 272 262 -222 -275 0
932 272 -262 222 275 0
14632 272 -262 222 -275 0
32900 272 -262 -222 275 0
37010 272 -262 -222 -275 0
44270 -272 262 222 275 0
44969 -272 262 222 -275 0
45901 -272 262 -222 275 0
46111 -272 262 -222 -275 0
44317 -272 -262 222 275 0
45002 -272 -262 222 -275 0
45915 -272 -262 -222 275 0
46120 -272 -262 -222 -275 0
80180 267 276 326 -255 0
15192 267 276 -326 255 0
80940 267 276 -326 -255 0
16880 267 -276 326 255 0
81024 267 -276 326 -255 0
29034 267 -276 -326 255 0
81632 267 -276 -326 -255 0
25320 -267 276 326 255 0
81446 -267 276 326 -255 0
35954 -267 276 -326 255 0
81978 -267 276 -326 -255 0
37136 -267 -276 326 255 0
82037 -267 -276 326 -255 0
45644 -267 -276 -326 255 0
82462 -267 -276 -326 -255 0
2225 -565 0
1590 268 244 505 241 191 -278 0
15900 268 244 505 241 -191 278 0
17172 268 244 505 241 -191 -278 0
47700 268 244 505 -241 191 278 0
48336 268 244 505 -241 191 -278 0
54060 268 244 505 -241 -191 278 0
54569 268 244 505 -241 -191 -278 0
59625 268 244 -505 241 191 278 0
60023 268 244 -505 241 191 -278 0
63600 268 244 -505 241 -191 278 0
63918 268 244 -505 241 -191 -278 0
71550 268 244 -505 -241 191 278 0
71709 268 244 -505 -241 191 -278 0
73140 268 244 -505 -241 -191 278 0
73267 268 244 -505 -241 -191 -278 0
51675 268 -244 505 241 191 278 0
52232 268 -244 505 241 191 -278 0
57240 268 -244 505 241 -191 278 0
57685 268 -244 505 241 -191 -278 0
68370 268 -244 505 -241 191 278 0
68593 268 -244 505 -241 191 -278 0
70596 268 -244 505 -241 -191 278 0
70774 268 -244 505 -241 -191 -278 0
72544 268 -244 -505 241 191 278 0
72683 268 -244 -505 241 191 -278 0
73935 268 -244 -505 241 -191 278 0
74046 268 -244 -505 241 -191 -278 0
76717 268 -244 -505 -241 191 278 0
76773 268 -244 -505 -241 191 -278 0
77274 268 -244 -505 -241 -191 278 0
77319 268 -244 -505 -241 -191 -278 0
1590 -268 244 505 241 191 278 0
3148 -268 244 505 241 191 -278 0
17172 -268 244 505 241 -191 278 0
18419 -268 244 505 241 -191 -278 0
48336 -268 244 505 -241 191 278 0
48959 -268 244 505 -241 191 -278 0
54569 -268 244 505 -241 -191 278 0
55067 -268 244 505 -241 -191 -278 0
60023 -268 244 -505 241 191 278 0
60412 -268 244 -505 241 191 -278 0
63918 -268 244 -505 241 -191 278 0
64230 -268 244 -505 241 -191 -278 0
71709 -268 244 -505 -241 191 278 0
71865 -268 244 -505 -241 191 -278 0
73267 -268 244 -505 -241 -191 278 0
73392 -268 244 -505 -241 -191 -278 0
52232 -268 -244 505 241 191 278 0
52777 -268 -244 505 241 191 -278 0
57685 -268 -244 505 241 -191 278 0
58121 -268 -244 505 241 -191 -278 0
68593 -268 -244 505 -241 191 278 0
68811 -268 -244 505 -241 191 -278 0
70774 -268 -244 505 -241 -191 278 0
70949 -268 -244 505 -241 -191 -278 0
72683 -268 -244 -505 241 191 278 0
72819 -268 -244 -505 241 191 -278 0
74046 -268 -244 -505 241 -191 278 0
74155 -268 -244 -505 241 -191 -278 0
76773 -268 -244 -505 -241 191 278 0
76828 -268 -244 -505 -241 191 -278 0
77319 -268 -244 -505 -241 -191 278 0
77362 -268 -244 -505 -241 -191 -278 0
15192 270 398 279 -280 0
4220 270 398 -279 280 0
18652 270 398 -279 -280 0
15192 270 -398 279 280 0
27649 270 -398 279 -280 0
18652 270 -398 -279 280 0
30487 270 -398 -279 -280 0
10128 -270 398 279 280 0
23497 -270 398 279 -280 0
13842 -270 398 -279 280 0
26542 -270 398 -279 -280 0
23497 -270 -398 279 280 0
34460 -270 -398 279 -280 0
26542 -270 -398 -279 280 0
36957 -270 -398 -279 -280 0
35150 399 -273 0
24605 -399 273 0
47453 -399 -273 0
6675 -400 0
10128 288 332 294 -292 0
42200 288 332 -294 292 0
47264 288 332 -294 -292 0
27008 288 -332 294 292 0
33895 288 -332 294 -292 0
55704 288 -332 -294 292 0
59148 288 -332 -294 -292 0
27008 -288 332 294 292 0
33895 -288 332 294 -292 0
55704 -288 332 -294 292 0
59148 -288 332 -294 -292 0
45373 -288 -332 294 292 0
50057 -288 -332 294 -292 0
64887 -288 -332 -294 292 0
67228 -288 -332 -294 -292 0
13575 282 -216 0
24435 -282 216 0
31901 -282 -216 0
21960 281 -183 0
27816 -281 183 0
41431 -281 -183 0
29540 -587 0
48870 274 298 -217 0
46155 274 -298 217 0
53486 274 -298 -217 0
43440 -274 298 217 0
53214 -274 298 -217 0
52671 -274 -298 217 0
54137 -274 -298 -217 0
18515 303 -350 0
20102 -303 350 0
31581 -303 -350 0
18515 295 293 289 524 305 290 -301 0
23805 295 293 289 524 305 -290 301 0
33988 295 293 289 524 305 -290 -301 0
1058 295 293 289 524 -305 290 301 0
19203 295 293 289 524 -305 290 -301 0
24387 295 293 289 524 -305 -290 301 0
34366 295 293 289 524 -305 -290 -301 0
34385 295 293 289 -524 305 290 301 0
40865 295 293 289 -524 305 290 -301 0
42717 295 293 289 -524 305 -290 301 0
46281 295 293 289 -524 305 -290 -301 0
34755 295 293 289 -524 -305 290 301 0
41106 295 293 289 -524 -305 290 -301 0
42920 295 293 289 -524 -305 -290 301 0
46413 295 293 289 -524 -305 -290 -301 0
1058 295 293 -289 524 305 290 301 0
19203 295 293 -289 524 305 290 -301 0
24387 295 293 -289 524 305 -290 301 0
34366 295 293 -289 524 305 -290 -301 0
2095 295 293 -289 524 -305 290 301 0
19877 295 293 -289 524 -305 290 -301 0
24957 295 293 -289 524 -305 -290 301 0
34737 295 293 -289 524 -305 -290 -301 0
34755 295 293 -289 -524 305 290 301 0
41106 295 293 -289 -524 305 290 -301 0
42920 295 293 -289 -524 305 -290 301 0
46413 295 293 -289 -524 305 -290 -301 0
35118 295 293 -289 -524 -305 290 301 0
41342 295 293 -289 -524 -305 290 -301 0
43120 295 293 -289 -524 -305 -290 301 0
46543 295 293 -289 -524 -305 -290 -301 0
42320 295 -293 289 524 305 290 301 0
46023 295 -293 289 524 305 290 -301 0
47081 295 -293 289 524 305 -290 301 0
49118 295 -293 289 524 305 -290 -301 0
42532 295 -293 289 524 -305 290 301 0
46161 295 -293 289 524 -305 290 -301 0
47197 295 -293 289 524 -305 -290 301 0
49193 295 -293 289 524 -305 -290 -301 0
49197 295 -293 289 -524 305 290 301 0
50493 295 -293 289 -524 305 290 -301 0
50863 295 -293 289 -524 305 -290 301 0
51576 295 -293 289 -524 305 -290 -301 0
49271 295 -293 289 -524 -305 290 301 0
50541 295 -293 289 -524 -305 290 -301 0
50904 295 -293 289 -524 -305 -290 301 0
51603 295 -293 289 -524 -305 -290 -301 0
42532 295 -293 -289 524 305 290 301 0
46161 295 -293 -289 524 305 290 -301 0
47197 295 -293 -289 524 305 -290 301 0
49193 295 -293 -289 524 305 -290 -301 0
42739 295 -293 -289 524 -305 290 301 0
46295 295 -293 -289 524 -305 290 -301 0
47311 295 -293 -289 524 -305 -290 301 0
49267 295 -293 -289 524 -305 -290 -301 0
49271 295 -293 -289 -524 305 290 301 0
50541 295 -293 -289 -524 305 290 -301 0
50904 295 -293 -289 -524 305 -290 301 0
51603 295 -293 -289 -524 305 -290 -301 0
49344 295 -293 -289 -524 -305 290 301 0
50588 295 -293 -289 -524 -305 290 -301 0
50944 295 -293 -289 -524 -305 -290 301 0
51629 295 -293 -289 -524 -305 -290 -301 0
21160 -295 293 289 524 305 290 301 0
32269 -295 293 289 524 305 290 -301 0
35443 -295 293 289 524 305 -290 301 0
41553 -295 293 289 524 305 -290 -301 0
21795 -295 293 289 524 -305 290 301 0
32682 -295 293 289 524 -305 290 -301 0
35792 -295 293 289 524 -305 -290 301 0
41780 -295 293 289 524 -305 -290 -301 0
41791 -295 293 289 -524 305 290 301 0
45679 -295 293 289 -524 305 290 -301 0
46790 -295 293 289 -524 305 -290 301 0
48929 -295 293 289 -524 305 -290 -301 0
42013 -295 293 289 -524 -305 290 301 0
45824 -295 293 289 -524 -305 290 -301 0
46912 -295 293 289 -524 -305 -290 301 0
49008 -295 293 289 -524 -305 -290 -301 0
21795 -295 293 -289 524 305 290 301 0
32682 -295 293 -289 524 305 290 -301 0
35792 -295 293 -289 524 305 -290 301 0
41780 -295 293 -289 524 305 -290 -301 0
22417 -295 293 -289 524 -305 290 301 0
33086 -295 293 -289 524 -305 290 -301 0
36134 -295 293 -289 524 -305 -290 301 0
42002 -295 293 -289 524 -305 -290 -301 0
42013 -295 293 -289 -524 305 290 301 0
45824 -295 293 -289 -524 305 290 -301 0
46912 -295 293 -289 -524 305 -290 301 0
49008 -295 293 -289 -524 305 -290 -301 0
42231 -295 293 -289 -524 -305 290 301 0
45965 -295 293 -289 -524 -305 290 -301 0
47032 -295 293 -289 -524 -305 -290 301 0
49086 -295 293 -289 -524 -305 -290 -301 0
46552 -295 -293 289 524 305 290 301 0
48774 -295 -293 289 524 305 290 -301 0
49409 -295 -293 289 524 305 -290 301 0
50631 -295 -293 289 524 305 -290 -301 0
46679 -295 -293 289 524 -305 290 301 0
48856 -295 -293 289 524 -305 290 -301 0
49478 -295 -293 289 524 -305 -290 301 0
50676 -295 -293 289 524 -305 -290 -301 0
50678 -295 -293 289 -524 305 290 301 0
51456 -295 -293 289 -524 305 290 -301 0
51678 -295 -293 289 -524 305 -290 301 0
52106 -295 -293 289 -524 305 -290 -301 0
50723 -295 -293 289 -524 -305 290 301 0
51485 -295 -293 289 -524 -305 290 -301 0
51702 -295 -293 289 -524 -305 -290 301 0
52122 -295 -293 289 -524 -305 -290 -301 0
46679 -295 -293 -289 524 305 290 301 0
48856 -295 -293 -289 524 305 290 -301 0
49478 -295 -293 -289 524 305 -290 301 0
50676 -295 -293 -289 524 305 -290 -301 0
46803 -295 -293 -289 524 -305 290 301 0
48937 -295 -293 -289 524 -305 290 -301 0
49547 -295 -293 -289 524 -305 -290 301 0
50720 -295 -293 -289 524 -305 -290 -301 0
50723 -295 -293 -289 -524 305 290 301 0
51485 -295 -293 -289 -524 305 290 -301 0
51702 -295 -293 -289 -524 305 -290 301 0
52122 -295 -293 -289 -524 305 -290 -301 0
50766 -295 -293 -289 -524 -305 290 301 0
51513 -295 -293 -289 -524 -305 290 -301 0
51726 -295 -293 -289 -524 -305 -290 301 0
52137 -295 -293 -289 -524 -305 -290 -301 0
71550 300 -302 0
15900 -300 302 0
73140 -300 -302 0
33760 311 283 404 296 -304 0
42200 311 283 404 -296 304 0
59080 311 283 404 -296 -304 0
4220 311 283 -404 296 304 0
36292 311 283 -404 296 -304 0
44310 311 283 -404 -296 304 0
60346 311 283 -404 -296 -304 0
37980 311 -283 404 296 304 0
56548 311 -283 404 296 -304 0
61190 311 -283 404 -296 304 0
70474 311 -283 404 -296 -304 0
40301 311 -283 -404 296 304 0
57941 311 -283 -404 296 -304 0
62350 311 -283 -404 -296 304 0
71170 311 -283 -404 -296 -304 0
27008 -311 283 404 296 304 0
49965 -311 283 404 296 -304 0
55704 -311 283 404 -296 304 0
67182 -311 283 404 -296 -304 0
29878 -311 283 -404 296 304 0
51687 -311 283 -404 296 -304 0
57139 -311 283 -404 -296 304 0
68043 -311 283 -404 -296 -304 0
52834 -311 -283 404 296 304 0
65461 -311 -283 404 296 -304 0
68617 -311 -283 404 -296 304 0
74930 -311 -283 404 -296 -304 0
54413 -311 -283 -404 296 304 0
66408 -311 -283 -404 296 -304 0
69406 -311 -283 -404 -296 304 0
75404 -311 -283 -404 -296 -304 0
33760 306 -527 0
12660 -306 527 0
41356 -306 -527 0
32580 316 277 312 314 -297 0
2715 316 277 312 -314 297 0
33666 316 277 312 -314 -297 0
32580 316 277 -312 314 297 0
45612 316 277 -312 314 -297 0
33666 316 277 -312 -314 297 0
46046 316 277 -312 -314 -297 0
17376 316 -277 312 314 297 0
39530 316 -277 312 314 -297 0
19222 316 -277 312 -314 297 0
40269 316 -277 312 -314 -297 0
39530 316 -277 -312 314 297 0
48392 316 -277 -312 314 -297 0
40269 316 -277 -312 -314 297 0
48688 316 -277 -312 -314 -297 0
13575 -316 277 312 314 297 0
38010 -316 277 312 314 -297 0
15611 -316 277 312 -314 297 0
38825 -316 277 312 -314 -297 0
38010 -316 277 -312 314 297 0
47784 -316 277 -312 314 -297 0
38825 -316 277 -312 -314 297 0
48110 -316 277 -312 -314 -297 0
26607 -316 -277 312 314 297 0
43223 -316 -277 312 314 -297 0
27992 -316 -277 312 -314 297 0
43777 -316 -277 312 -314 -297 0
43223 -316 -277 -312 314 297 0
49869 -316 -277 -312 314 -297 0
43777 -316 -277 -312 -314 297 0
50091 -316 -277 -312 -314 -297 0
51520 260 -315 0
47840 -260 315 0
65872 -260 -315 0
20025 603 -318 0
14240 -603 318 0
27857 -603 -318 0
13575 291 500 317 313 -299 0
21720 291 500 317 -313 299 0
29865 291 500 317 -313 -299 0
40725 291 500 -317 313 299 0
44119 291 500 -317 313 -299 0
46155 291 500 -317 -313 299 0
48191 291 500 -317 -313 -299 0
24435 291 -500 317 313 299 0
31901 291 -500 317 313 -299 0
36381 291 -500 317 -313 299 0
40861 291 -500 317 -313 -299 0
46834 291 -500 -317 313 299 0
48700 291 -500 -317 313 -299 0
49820 291 -500 -317 -313 299 0
50940 291 -500 -317 -313 -299 0
10860 -291 500 317 313 299 0
21720 -291 500 317 313 -299 0
28236 -291 500 317 -313 299 0
34752 -291 500 317 -313 -299 0
43440 -291 500 -317 313 299 0
46155 -291 500 -317 313 -299 0
47784 -291 500 -317 -313 299 0
49413 -291 500 -317 -313 -299 0
30408 -291 -500 317 313 299 0
36381 -291 -500 317 313 -299 0
39965 -291 -500 317 -313 299 0
43549 -291 -500 317 -313 -299 0
48327 -291 -500 -317 313 299 0
49820 -291 -500 -317 313 -299 0
50716 -291 -500 -317 -313 299 0
51612 -291 -500 -317 -313 -299 0
