p wcnf 59 201 1000000
1000000 1 0
1000000 2 -14 0
1000000 14 -45 -43 -1 0
1000000 13 -15 0
1000000 15 -41 -1 0
1000000 3 -16 0
1000000 16 -48 -47 -50 -1 0
1000000 5 -17 0
1000000 17 -51 -46 -1 0
1000000 6 -18 0
1000000 18 -44 -1 0
1000000 4 -19 0
1000000 19 -45 -43 -54 -2 0
1000000 7 -20 0
1000000 20 -49 -2 0
1000000 8 -21 0
1000000 21 -41 -42 -2 0
1000000 13 -22 0
1000000 22 -52 -48 -46 -11 0
1000000 13 -23 0
1000000 23 -44 -42 -54 -12 0
1000000 6 -24 0
1000000 24 -49 -50 -3 0
1000000 7 -25 0
1000000 25 -52 -47 -3 0
1000000 8 -26 0
1000000 26 -42 -43 -46 -3 0
1000000 11 -27 0
1000000 27 -45 -53 -51 -4 0
1000000 6 -28 0
1000000 28 -53 -48 -4 0
1000000 9 -29 0
1000000 29 -44 -51 -4 0
1000000 6 -30 0
1000000 30 -50 -43 -53 -5 0
1000000 7 -31 0
1000000 31 -54 -42 -49 -5 0
1000000 9 -32 0
1000000 32 -41 -46 -5 0
1000000 11 -33 0
1000000 33 -45 -44 -6 0
1000000 7 -34 0
1000000 34 -47 -6 0
1000000 11 -35 0
1000000 35 -41 -7 0
1000000 12 -36 0
1000000 36 -48 -47 -7 0
1000000 11 -37 0
1000000 37 -51 -54 -50 -8 0
1000000 13 -38 0
1000000 38 -41 -52 -8 0
1000000 10 -39 0
1000000 39 -47 -49 -53 -8 0
1000000 12 -40 0
1000000 40 -42 -46 -52 -9 0
1000000 1 0
1000000 -2 14 0
1000000 -3 16 0
1000000 -4 19 0
1000000 -5 17 0
1000000 -6 24 30 18 28 0
1000000 -7 31 25 20 34 0
1000000 -8 21 26 0
1000000 -9 32 29 0
1000000 -10 39 0
1000000 -11 37 35 33 27 0
1000000 -12 36 40 0
1000000 -13 15 22 38 23 0
1000000 41 55 0
1000000 42 59 0
1000000 43 57 0
1000000 44 59 0
1000000 45 59 0
1000000 46 57 0
1000000 47 55 0
1000000 48 55 0
1000000 49 57 0
1000000 50 58 0
1000000 51 58 0
1000000 52 58 0
1000000 53 56 0
1000000 54 56 0
1000000 -41 -55 0
1000000 -42 -59 0
1000000 -43 -57 0
1000000 -44 -59 0
1000000 -45 -59 0
1000000 -46 -57 0
1000000 -47 -55 0
1000000 -48 -55 0
1000000 -49 -57 0
1000000 -50 -58 0
1000000 -51 -58 0
1000000 -52 -58 0
1000000 -53 -56 0
1000000 -54 -56 0
11900 -55 0
13600 -56 0
10200 -57 0
13600 -58 0
13600 -59 0
2200 41 0
3200 42 0
1600 43 0
1600 44 0
3200 45 0
2900 46 0
800 47 0
800 48 0
800 49 0
1600 50 0
3200 51 0
2900 52 0
2200 53 0
800 54 0
39900 -14 0
40560 -16 0
7345 -19 0
6240 -17 0
21840 24 30 18 -28 0
13650 24 30 -18 28 0
24570 24 30 -18 -28 0
4095 24 -30 18 28 0
22659 24 -30 18 -28 0
15697 24 -30 -18 28 0
24980 24 -30 -18 -28 0
15015 -24 30 18 28 0
24843 -24 30 18 -28 0
21158 -24 30 -18 28 0
26072 -24 30 -18 -28 0
16858 -24 -30 18 28 0
25212 -24 -30 18 -28 0
22079 -24 -30 -18 28 0
26256 -24 -30 -18 -28 0
2260 31 25 20 -34 0
226 31 25 -20 34 0
2441 31 25 -20 -34 0
226 31 -25 20 34 0
2441 31 -25 20 -34 0
447 31 -25 -20 34 0
2618 31 -25 -20 -34 0
7345 -31 25 20 34 0
8136 -31 25 20 -34 0
7424 -31 25 -20 34 0
8199 -31 25 -20 -34 0
7424 -31 -25 20 34 0
8199 -31 -25 20 -34 0
7502 -31 -25 -20 34 0
8261 -31 -25 -20 -34 0
62370 21 -26 0
10395 -21 26 0
63410 -21 -26 0
9040 32 -29 0
8475 -32 29 0
10735 -32 -29 0
30514 -39 0
51975 37 35 33 -27 0
51975 37 35 -33 27 0
64969 37 35 -33 -27 0
12474 37 -35 33 27 0
55093 37 -35 33 -27 0
55093 37 -35 -33 27 0
65748 37 -35 -33 -27 0
12474 -37 35 33 27 0
55093 -37 35 33 -27 0
55093 -37 35 -33 27 0
65748 -37 35 -33 -27 0
22703 -37 -35 33 27 0
57651 -37 -35 33 -27 0
57651 -37 -35 -33 27 0
66388 -37 -35 -33 -27 0
8060 36 -40 0
3720 -36 40 0
9362 -36 -40 0
53460 15 22 38 -23 0
20790 15 22 -38 23 0
55539 15 22 -38 -23 0
56430 15 -22 38 23 0
59103 15 -22 38 -23 0
57470 15 -22 -38 23 0
59207 15 -22 -38 -23 0
7128 -15 22 38 23 0
54173 -15 22 38 -23 0
25423 -15 22 -38 23 0
56002 -15 22 -38 -23 0
56786 -15 -22 38 23 0
59139 -15 -22 38 -23 0
57701 -15 -22 -38 23 0
59230 -15 -22 -38 -23 0
