p wcnf 59 204 1000000
1000000 1 0
1000000 2 -14 0
1000000 14 -43 -1 0
1000000 11 -15 0
1000000 15 -42 -47 -1 0
1000000 7 -16 0
1000000 16 -44 -48 -1 0
1000000 8 -17 0
1000000 17 -52 -50 -53 -1 0
1000000 11 -18 0
1000000 18 -51 -43 -45 -2 0
1000000 3 -19 0
1000000 19 -46 -2 0
1000000 4 -20 0
1000000 20 -45 -49 -2 0
1000000 5 -21 0
1000000 21 -47 -46 -2 0
1000000 7 -22 0
1000000 22 -42 -2 0
1000000 10 -23 0
1000000 23 -49 -44 -2 0
1000000 12 -24 0
1000000 24 -54 -11 0
1000000 4 -25 0
1000000 25 -54 -52 -3 0
1000000 5 -26 0
1000000 26 -50 -3 0
1000000 8 -27 0
1000000 27 -48 -3 0
1000000 11 -28 0
1000000 28 -42 -45 -4 0
1000000 12 -29 0
1000000 29 -43 -4 0
1000000 13 -30 0
1000000 30 -51 -47 -4 0
1000000 6 -31 0
1000000 31 -46 -4 0
1000000 12 -32 0
1000000 32 -44 -5 0
1000000 10 -33 0
1000000 33 -48 -5 0
1000000 11 -34 0
1000000 34 -49 -51 -6 0
1000000 7 -35 0
1000000 35 -42 -53 -45 -6 0
1000000 8 -36 0
1000000 36 -53 -6 0
1000000 8 -37 0
1000000 37 -54 -43 -7 0
1000000 9 -38 0
1000000 38 -46 -50 -7 0
1000000 10 -39 0
1000000 39 -48 -50 -54 -7 0
1000000 10 -40 0
1000000 40 -43 -45 -53 -9 0
1000000 12 -41 0
1000000 41 -46 -52 -48 -10 0
1000000 1 0
1000000 -2 14 0
1000000 -3 19 0
1000000 -4 20 25 0
1000000 -5 21 26 0
1000000 -6 31 0
1000000 -7 16 35 22 0
1000000 -8 17 37 27 36 0
1000000 -9 38 0
1000000 -10 39 40 33 23 0
1000000 -11 18 28 34 15 0
1000000 -12 29 41 32 24 0
1000000 -13 30 0
1000000 42 56 0
1000000 43 58 0
1000000 44 55 0
1000000 45 58 0
1000000 46 59 0
1000000 47 57 0
1000000 48 56 0
1000000 49 56 0
1000000 50 58 0
1000000 51 57 0
1000000 52 59 0
1000000 53 55 0
1000000 54 59 0
1000000 -42 -56 0
1000000 -43 -58 0
1000000 -44 -55 0
1000000 -45 -58 0
1000000 -46 -59 0
1000000 -47 -57 0
1000000 -48 -56 0
1000000 -49 -56 0
1000000 -50 -58 0
1000000 -51 -57 0
1000000 -52 -59 0
1000000 -53 -55 0
1000000 -54 -59 0
7600 -55 0
13600 -56 0
12600 -57 0
7600 -58 0
7600 -59 0
1600 42 0
1000 43 0
2100 44 0
2600 45 0
800 46 0
1600 47 0
1100 48 0
1600 49 0
2600 50 0
1000 51 0
2600 52 0
2600 53 0
1000 54 0
11200 -14 0
11096 -19 0
43035 20 -25 0
2265 -20 25 0
43148 -20 -25 0
41080 21 -26 0
24016 -21 26 0
49486 -21 -26 0
21600 -31 0
24390 16 35 -22 0
46070 16 -35 22 0
49728 16 -35 -22 0
2710 -16 35 22 0
25881 -16 35 -22 0
46476 -16 -35 22 0
49952 -16 -35 -22 0
12550 17 37 27 -36 0
21335 17 37 -27 36 0
23218 17 37 -27 -36 0
4518 17 -37 27 36 0
14809 17 -37 27 -36 0
22013 17 -37 -27 36 0
23556 17 -37 -27 -36 0
9538 -17 37 27 36 0
17319 -17 37 27 -36 0
22766 -17 37 -27 36 0
23933 -17 37 -27 -36 0
12339 -17 -37 27 36 0
18720 -17 -37 27 -36 0
23186 -17 -37 -27 36 0
24143 -17 -37 -27 -36 0
31065 -38 0
4530 39 40 33 -23 0
31710 39 40 -33 23 0
33069 39 40 -33 -23 0
17214 39 -40 33 23 0
20023 39 -40 33 -23 0
36874 39 -40 -33 23 0
37717 39 -40 -33 -23 0
2265 -39 40 33 23 0
6569 -39 40 33 -23 0
32389 -39 40 -33 23 0
33681 -39 40 -33 -23 0
18618 -39 -40 33 23 0
21286 -39 -40 33 -23 0
37295 -39 -40 -33 23 0
38096 -39 -40 -33 -23 0
12550 18 28 34 -15 0
11295 18 28 -34 15 0
18197 18 28 -34 -15 0
16315 18 -28 34 15 0
20707 18 -28 34 -15 0
20268 18 -28 -34 15 0
22684 18 -28 -34 -15 0
1255 -18 28 34 15 0
13178 -18 28 34 -15 0
11985 -18 28 -34 15 0
18543 -18 28 -34 -15 0
16754 -18 -28 34 15 0
20927 -18 -28 34 -15 0
20510 -18 -28 -34 15 0
22805 -18 -28 -34 -15 0
13590 29 41 32 -24 0
11325 29 41 -32 24 0
21518 29 41 -32 -24 0
9060 29 -41 32 24 0
19932 29 -41 32 -24 0
18120 29 -41 -32 24 0
26274 29 -41 -32 -24 0
4530 -29 41 32 24 0
16761 -29 41 32 -24 0
14722 -29 41 -32 24 0
23896 -29 41 -32 -24 0
12684 -29 -41 32 24 0
22469 -29 -41 32 -24 0
20838 -29 -41 -32 24 0
28177 -29 -41 -32 -24 0
7200 -30 0
