p wcnf 869 3448 1000000
1000000 1 0
1000000 2 -160 0
1000000 160 -627 -624 -1 0
1000000 12 -161 0
1000000 161 -626 -625 -1 0
1000000 34 -162 0
1000000 162 -629 -622 -623 -1 0
1000000 7 -163 0
1000000 163 -631 -1 0
1000000 8 -164 0
1000000 164 -634 -633 -1 0
1000000 72 -165 0
1000000 165 -630 -628 -1 0
1000000 11 -166 0
1000000 166 -632 -2 0
1000000 12 -167 0
1000000 167 -637 -2 0
1000000 117 -168 0
1000000 168 -639 -635 -2 0
1000000 16 -169 0
1000000 169 -638 -642 -2 0
1000000 3 -170 0
1000000 170 -636 -2 0
1000000 4 -171 0
1000000 171 -640 -2 0
1000000 5 -172 0
1000000 172 -644 -2 0
1000000 6 -173 0
1000000 173 -641 -2 0
1000000 74 -174 0
1000000 174 -649 -648 -2 0
1000000 16 -175 0
1000000 175 -643 -11 0
1000000 18 -176 0
1000000 176 -650 -653 -651 -11 0
1000000 20 -177 0
1000000 177 -647 -646 -11 0
1000000 22 -178 0
1000000 178 -658 -655 -657 -11 0
1000000 32 -179 0
1000000 179 -645 -11 0
1000000 91 -180 0
1000000 180 -654 -11 0
1000000 103 -181 0
1000000 181 -652 -101 0
1000000 104 -182 0
1000000 182 -663 -659 -101 0
1000000 104 -183 0
1000000 183 -662 -660 -102 0
1000000 107 -184 0
1000000 184 -666 -664 -656 -102 0
1000000 107 -185 0
1000000 185 -670 -661 -669 -103 0
1000000 112 -186 0
1000000 186 -668 -675 -671 -103 0
1000000 106 -187 0
1000000 187 -665 -676 -104 0
1000000 109 -188 0
1000000 188 -672 -677 -680 -104 0
1000000 152 -189 0
1000000 189 -673 -667 -679 -104 0
1000000 108 -190 0
1000000 190 -681 -682 -105 0
1000000 116 -191 0
1000000 191 -678 -674 -105 0
1000000 109 -192 0
1000000 192 -687 -688 -106 0
1000000 112 -193 0
1000000 193 -684 -685 -686 -106 0
1000000 115 -194 0
1000000 194 -693 -691 -107 0
1000000 119 -195 0
1000000 195 -683 -107 0
1000000 110 -196 0
1000000 196 -692 -690 -698 -108 0
1000000 113 -197 0
1000000 197 -689 -697 -701 -108 0
1000000 110 -198 0
1000000 198 -699 -695 -109 0
1000000 111 -199 0
1000000 199 -694 -696 -109 0
1000000 111 -200 0
1000000 200 -700 -110 0
1000000 115 -201 0
1000000 201 -710 -705 -707 -110 0
1000000 120 -202 0
1000000 202 -702 -706 -110 0
1000000 104 -203 0
1000000 203 -708 -715 -712 -12 0
1000000 128 -204 0
1000000 204 -713 -718 -714 -12 0
1000000 17 -205 0
1000000 205 -711 -716 -12 0
1000000 18 -206 0
1000000 206 -717 -722 -721 -12 0
1000000 22 -207 0
1000000 207 -704 -12 0
1000000 68 -208 0
1000000 208 -709 -12 0
1000000 115 -209 0
1000000 209 -725 -728 -726 -111 0
1000000 118 -210 0
1000000 210 -727 -723 -111 0
1000000 131 -211 0
1000000 211 -703 -111 0
1000000 153 -212 0
1000000 212 -732 -734 -720 -111 0
1000000 113 -213 0
1000000 213 -719 -112 0
1000000 114 -214 0
1000000 214 -730 -729 -724 -112 0
1000000 122 -215 0
1000000 215 -735 -739 -733 -113 0
1000000 125 -216 0
1000000 216 -731 -113 0
1000000 118 -217 0
1000000 217 -738 -737 -114 0
1000000 122 -218 0
1000000 218 -740 -114 0
1000000 119 -219 0
1000000 219 -741 -742 -748 -115 0
1000000 123 -220 0
1000000 220 -736 -115 0
1000000 126 -221 0
1000000 221 -744 -751 -749 -115 0
1000000 128 -222 0
1000000 222 -746 -753 -747 -116 0
1000000 129 -223 0
1000000 223 -754 -745 -116 0
1000000 120 -224 0
1000000 224 -756 -755 -760 -117 0
1000000 127 -225 0
1000000 225 -752 -758 -117 0
1000000 119 -226 0
1000000 226 -759 -743 -762 -118 0
1000000 123 -227 0
1000000 227 -750 -764 -118 0
1000000 124 -228 0
1000000 228 -761 -119 0
1000000 127 -229 0
1000000 229 -765 -119 0
1000000 127 -230 0
1000000 230 -757 -120 0
1000000 129 -231 0
1000000 231 -767 -120 0
1000000 138 -232 0
1000000 232 -766 -13 0
1000000 15 -233 0
1000000 233 -773 -769 -772 -13 0
1000000 21 -234 0
1000000 234 -768 -771 -13 0
1000000 40 -235 0
1000000 235 -763 -13 0
1000000 81 -236 0
1000000 236 -777 -778 -13 0
1000000 125 -237 0
1000000 237 -774 -776 -121 0
1000000 132 -238 0
1000000 238 -770 -121 0
1000000 125 -239 0
1000000 239 -780 -122 0
1000000 133 -240 0
1000000 240 -783 -784 -122 0
1000000 124 -241 0
1000000 241 -779 -785 -775 -123 0
1000000 126 -242 0
1000000 242 -786 -123 0
1000000 125 -243 0
1000000 243 -787 -124 0
1000000 126 -244 0
1000000 244 -794 -790 -791 -124 0
1000000 131 -245 0
1000000 245 -793 -788 -125 0
1000000 143 -246 0
1000000 246 -789 -125 0
1000000 127 -247 0
1000000 247 -781 -797 -126 0
1000000 128 -248 0
1000000 248 -792 -126 0
1000000 132 -249 0
1000000 249 -799 -801 -800 -127 0
1000000 133 -250 0
1000000 250 -796 -127 0
1000000 151 -251 0
1000000 251 -798 -127 0
1000000 133 -252 0
1000000 252 -802 -622 -805 -128 0
1000000 152 -253 0
1000000 253 -782 -128 0
1000000 143 -254 0
1000000 254 -807 -804 -129 0
1000000 145 -255 0
1000000 255 -625 -623 -129 0
1000000 147 -256 0
1000000 256 -795 -129 0
1000000 139 -257 0
1000000 257 -630 -626 -627 -130 0
1000000 146 -258 0
1000000 258 -803 -624 -629 -130 0
1000000 15 -259 0
1000000 259 -631 -806 -14 0
1000000 146 -260 0
1000000 260 -634 -628 -636 -14 0
1000000 25 -261 0
1000000 261 -632 -639 -642 -14 0
1000000 29 -262 0
1000000 262 -633 -14 0
1000000 30 -263 0
1000000 263 -638 -635 -14 0
1000000 48 -264 0
1000000 264 -637 -14 0
1000000 135 -265 0
1000000 265 -640 -644 -131 0
1000000 141 -266 0
1000000 266 -641 -643 -131 0
1000000 135 -267 0
1000000 267 -650 -647 -132 0
1000000 138 -268 0
1000000 268 -651 -652 -132 0
1000000 136 -269 0
1000000 269 -649 -648 -133 0
1000000 139 -270 0
1000000 270 -655 -656 -133 0
1000000 135 -271 0
1000000 271 -653 -658 -134 0
1000000 140 -272 0
1000000 272 -663 -661 -659 -134 0
1000000 159 -273 0
1000000 273 -645 -657 -134 0
1000000 137 -274 0
1000000 274 -665 -662 -135 0
1000000 144 -275 0
1000000 275 -660 -646 -135 0
1000000 141 -276 0
1000000 276 -664 -136 0
1000000 146 -277 0
1000000 277 -666 -136 0
1000000 150 -278 0
1000000 278 -667 -674 -669 -137 0
1000000 151 -279 0
1000000 279 -668 -672 -670 -137 0
1000000 141 -280 0
1000000 280 -680 -677 -678 -138 0
1000000 145 -281 0
1000000 281 -679 -671 -673 -138 0
1000000 143 -282 0
1000000 282 -654 -139 0
1000000 150 -283 0
1000000 283 -681 -139 0
1000000 155 -284 0
1000000 284 -675 -139 0
1000000 159 -285 0
1000000 285 -683 -140 0
1000000 22 -286 0
1000000 286 -684 -15 0
1000000 23 -287 0
1000000 287 -687 -686 -15 0
1000000 35 -288 0
1000000 288 -676 -15 0
1000000 142 -289 0
1000000 289 -682 -690 -141 0
1000000 146 -290 0
1000000 290 -693 -691 -141 0
1000000 145 -291 0
1000000 291 -685 -142 0
1000000 153 -292 0
1000000 292 -699 -694 -698 -142 0
1000000 145 -293 0
1000000 293 -697 -700 -688 -143 0
1000000 145 -294 0
1000000 294 -704 -703 -702 -144 0
1000000 156 -295 0
1000000 295 -696 -689 -144 0
1000000 148 -296 0
1000000 296 -707 -705 -145 0
1000000 152 -297 0
1000000 297 -692 -695 -145 0
1000000 147 -298 0
1000000 298 -708 -146 0
1000000 149 -299 0
1000000 299 -701 -715 -713 -146 0
1000000 150 -300 0
1000000 300 -710 -147 0
1000000 151 -301 0
1000000 301 -711 -706 -147 0
1000000 159 -302 0
1000000 302 -709 -148 0
1000000 150 -303 0
1000000 303 -714 -149 0
1000000 152 -304 0
1000000 304 -716 -149 0
1000000 156 -305 0
1000000 305 -722 -719 -712 -150 0
1000000 159 -306 0
1000000 306 -717 -718 -724 -150 0
1000000 106 -307 0
1000000 307 -723 -16 0
1000000 24 -308 0
1000000 308 -721 -728 -16 0
1000000 25 -309 0
1000000 309 -729 -727 -730 -16 0
1000000 159 -310 0
1000000 310 -725 -733 -726 -151 0
1000000 156 -311 0
1000000 311 -731 -153 0
1000000 156 -312 0
1000000 312 -734 -154 0
1000000 158 -313 0
1000000 313 -735 -154 0
1000000 158 -314 0
1000000 314 -720 -737 -741 -155 0
1000000 157 -315 0
1000000 315 -738 -156 0
1000000 158 -316 0
1000000 316 -736 -157 0
1000000 23 -317 0
1000000 317 -732 -740 -17 0
1000000 24 -318 0
1000000 318 -739 -17 0
1000000 65 -319 0
1000000 319 -743 -17 0
1000000 21 -320 0
1000000 320 -748 -744 -18 0
1000000 24 -321 0
1000000 321 -746 -745 -18 0
1000000 37 -322 0
1000000 322 -747 -18 0
1000000 42 -323 0
1000000 323 -753 -750 -756 -18 0
1000000 46 -324 0
1000000 324 -758 -757 -754 -18 0
1000000 82 -325 0
1000000 325 -751 -18 0
1000000 31 -326 0
1000000 326 -742 -755 -760 -19 0
1000000 46 -327 0
1000000 327 -759 -19 0
1000000 23 -328 0
1000000 328 -762 -765 -763 -20 0
1000000 24 -329 0
1000000 329 -752 -20 0
1000000 27 -330 0
1000000 330 -761 -20 0
1000000 30 -331 0
1000000 331 -768 -772 -771 -20 0
1000000 34 -332 0
1000000 332 -769 -764 -20 0
1000000 71 -333 0
1000000 333 -767 -20 0
1000000 12 -334 0
1000000 334 -749 -774 -3 0
1000000 111 -335 0
1000000 335 -773 -3 0
1000000 13 -336 0
1000000 336 -770 -3 0
1000000 135 -337 0
1000000 337 -776 -3 0
1000000 21 -338 0
1000000 338 -766 -3 0
1000000 27 -339 0
1000000 339 -775 -3 0
1000000 28 -340 0
1000000 340 -778 -777 -782 -3 0
1000000 5 -341 0
1000000 341 -780 -3 0
1000000 7 -342 0
1000000 342 -783 -3 0
1000000 24 -343 0
1000000 343 -786 -789 -785 -21 0
1000000 26 -344 0
1000000 344 -788 -787 -21 0
1000000 27 -345 0
1000000 345 -781 -21 0
1000000 79 -346 0
1000000 346 -793 -779 -21 0
1000000 25 -347 0
1000000 347 -791 -797 -798 -22 0
1000000 26 -348 0
1000000 348 -795 -796 -22 0
1000000 36 -349 0
1000000 349 -799 -784 -22 0
1000000 134 -350 0
1000000 350 -790 -23 0
1000000 28 -351 0
1000000 351 -800 -792 -23 0
1000000 29 -352 0
1000000 352 -794 -802 -23 0
1000000 31 -353 0
1000000 353 -622 -803 -801 -23 0
1000000 26 -354 0
1000000 354 -807 -806 -24 0
1000000 29 -355 0
1000000 355 -625 -623 -624 -24 0
1000000 28 -356 0
1000000 356 -805 -25 0
1000000 33 -357 0
1000000 357 -627 -626 -25 0
1000000 48 -358 0
1000000 358 -630 -804 -633 -26 0
1000000 53 -359 0
1000000 359 -634 -635 -26 0
1000000 28 -360 0
1000000 360 -636 -637 -628 -27 0
1000000 31 -361 0
1000000 361 -640 -639 -629 -27 0
1000000 38 -362 0
1000000 362 -638 -632 -27 0
1000000 52 -363 0
1000000 363 -645 -647 -641 -27 0
1000000 29 -364 0
1000000 364 -643 -648 -644 -28 0
1000000 32 -365 0
1000000 365 -649 -631 -646 -28 0
1000000 33 -366 0
1000000 366 -642 -655 -654 -28 0
1000000 38 -367 0
1000000 367 -653 -658 -659 -28 0
1000000 63 -368 0
1000000 368 -662 -660 -651 -28 0
1000000 133 -369 0
1000000 369 -656 -650 -29 0
1000000 32 -370 0
1000000 370 -665 -664 -29 0
1000000 41 -371 0
1000000 371 -668 -670 -669 -29 0
1000000 61 -372 0
1000000 372 -652 -29 0
1000000 78 -373 0
1000000 373 -657 -29 0
1000000 32 -374 0
1000000 374 -663 -661 -30 0
1000000 36 -375 0
1000000 375 -671 -30 0
1000000 44 -376 0
1000000 376 -666 -674 -672 -30 0
1000000 11 -377 0
1000000 377 -667 -4 0
1000000 13 -378 0
1000000 378 -675 -677 -4 0
1000000 6 -379 0
1000000 379 -680 -676 -681 -4 0
1000000 10 -380 0
1000000 380 -684 -673 -4 0
1000000 37 -381 0
1000000 381 -678 -679 -31 0
1000000 39 -382 0
1000000 382 -685 -31 0
1000000 93 -383 0
1000000 383 -682 -31 0
1000000 34 -384 0
1000000 384 -683 -686 -32 0
1000000 39 -385 0
1000000 385 -687 -695 -693 -32 0
1000000 62 -386 0
1000000 386 -698 -696 -690 -32 0
1000000 85 -387 0
1000000 387 -691 -700 -692 -32 0
1000000 44 -388 0
1000000 388 -699 -694 -33 0
1000000 45 -389 0
1000000 389 -701 -697 -33 0
1000000 83 -390 0
1000000 390 -704 -702 -33 0
1000000 137 -391 0
1000000 391 -688 -706 -34 0
1000000 35 -392 0
1000000 392 -703 -709 -34 0
1000000 36 -393 0
1000000 393 -705 -34 0
1000000 95 -394 0
1000000 394 -712 -711 -34 0
1000000 36 -395 0
1000000 395 -689 -35 0
1000000 38 -396 0
1000000 396 -713 -710 -35 0
1000000 49 -397 0
1000000 397 -719 -716 -715 -35 0
1000000 61 -398 0
1000000 398 -717 -720 -35 0
1000000 39 -399 0
1000000 399 -725 -723 -722 -36 0
1000000 47 -400 0
1000000 400 -714 -36 0
1000000 139 -401 0
1000000 401 -726 -707 -37 0
1000000 38 -402 0
1000000 402 -708 -37 0
1000000 53 -403 0
1000000 403 -727 -718 -37 0
1000000 43 -404 0
1000000 404 -728 -729 -38 0
1000000 44 -405 0
1000000 405 -724 -38 0
1000000 50 -406 0
1000000 406 -731 -38 0
1000000 54 -407 0
1000000 407 -730 -735 -38 0
1000000 150 -408 0
1000000 408 -737 -732 -39 0
1000000 40 -409 0
1000000 409 -733 -39 0
1000000 41 -410 0
1000000 410 -734 -721 -39 0
1000000 67 -411 0
1000000 411 -738 -39 0
1000000 118 -412 0
1000000 412 -740 -739 -745 -40 0
1000000 156 -413 0
1000000 413 -746 -744 -40 0
1000000 41 -414 0
1000000 414 -736 -741 -40 0
1000000 45 -415 0
1000000 415 -747 -750 -40 0
1000000 47 -416 0
1000000 416 -754 -748 -743 -40 0
1000000 54 -417 0
1000000 417 -742 -40 0
1000000 143 -418 0
1000000 418 -749 -756 -5 0
1000000 7 -419 0
1000000 419 -753 -5 0
1000000 8 -420 0
1000000 420 -755 -5 0
1000000 87 -421 0
1000000 421 -758 -751 -5 0
1000000 119 -422 0
1000000 422 -764 -760 -759 -41 0
1000000 130 -423 0
1000000 423 -765 -757 -752 -41 0
1000000 136 -424 0
1000000 424 -763 -762 -766 -41 0
1000000 47 -425 0
1000000 425 -767 -772 -774 -41 0
1000000 54 -426 0
1000000 426 -773 -776 -769 -41 0
1000000 59 -427 0
1000000 427 -761 -771 -41 0
1000000 44 -428 0
1000000 428 -778 -780 -768 -42 0
1000000 53 -429 0
1000000 429 -775 -42 0
1000000 46 -430 0
1000000 430 -783 -770 -43 0
1000000 52 -431 0
1000000 431 -779 -784 -43 0
1000000 47 -432 0
1000000 432 -790 -786 -788 -44 0
1000000 49 -433 0
1000000 433 -793 -791 -785 -44 0
1000000 53 -434 0
1000000 434 -777 -792 -44 0
1000000 86 -435 0
1000000 435 -798 -781 -794 -44 0
1000000 121 -436 0
1000000 436 -797 -789 -45 0
1000000 46 -437 0
1000000 437 -787 -45 0
1000000 49 -438 0
1000000 438 -782 -799 -45 0
1000000 55 -439 0
1000000 439 -796 -45 0
1000000 144 -440 0
1000000 440 -795 -804 -46 0
1000000 49 -441 0
1000000 441 -801 -803 -46 0
1000000 54 -442 0
1000000 442 -805 -46 0
1000000 73 -443 0
1000000 443 -806 -46 0
1000000 107 -444 0
1000000 444 -807 -47 0
1000000 48 -445 0
1000000 445 -625 -802 -622 -47 0
1000000 55 -446 0
1000000 446 -631 -800 -629 -47 0
1000000 49 -447 0
1000000 447 -628 -627 -623 -48 0
1000000 50 -448 0
1000000 448 -626 -634 -48 0
1000000 69 -449 0
1000000 449 -630 -636 -48 0
1000000 51 -450 0
1000000 450 -639 -632 -635 -49 0
1000000 54 -451 0
1000000 451 -624 -640 -49 0
1000000 84 -452 0
1000000 452 -643 -641 -49 0
1000000 55 -453 0
1000000 453 -633 -50 0
1000000 57 -454 0
1000000 454 -638 -50 0
1000000 14 -455 0
1000000 455 -644 -642 -6 0
1000000 22 -456 0
1000000 456 -648 -649 -6 0
1000000 9 -457 0
1000000 457 -637 -646 -650 -6 0
1000000 10 -458 0
1000000 458 -651 -6 0
1000000 102 -459 0
1000000 459 -653 -658 -655 -51 0
1000000 132 -460 0
1000000 460 -660 -652 -659 -51 0
1000000 56 -461 0
1000000 461 -645 -654 -51 0
1000000 60 -462 0
1000000 462 -663 -665 -657 -51 0
1000000 66 -463 0
1000000 463 -667 -668 -647 -51 0
1000000 105 -464 0
1000000 464 -661 -52 0
1000000 54 -465 0
1000000 465 -662 -666 -52 0
1000000 58 -466 0
1000000 466 -674 -671 -656 -52 0
1000000 54 -467 0
1000000 467 -675 -672 -53 0
1000000 56 -468 0
1000000 468 -670 -53 0
1000000 57 -469 0
1000000 469 -677 -678 -53 0
1000000 75 -470 0
1000000 470 -673 -676 -53 0
1000000 71 -471 0
1000000 471 -664 -685 -681 -54 0
1000000 72 -472 0
1000000 472 -679 -54 0
1000000 97 -473 0
1000000 473 -682 -687 -689 -54 0
1000000 100 -474 0
1000000 474 -680 -686 -54 0
1000000 58 -475 0
1000000 475 -694 -691 -688 -55 0
1000000 65 -476 0
1000000 476 -690 -693 -692 -55 0
1000000 67 -477 0
1000000 477 -683 -55 0
1000000 58 -478 0
1000000 478 -698 -700 -684 -56 0
1000000 59 -479 0
1000000 479 -704 -696 -669 -56 0
1000000 113 -480 0
1000000 480 -701 -699 -695 -57 0
1000000 64 -481 0
1000000 481 -703 -57 0
1000000 65 -482 0
1000000 482 -705 -702 -710 -57 0
1000000 68 -483 0
1000000 483 -707 -709 -57 0
1000000 157 -484 0
1000000 484 -712 -711 -716 -58 0
1000000 60 -485 0
1000000 485 -706 -58 0
1000000 63 -486 0
1000000 486 -715 -714 -58 0
1000000 63 -487 0
1000000 487 -718 -697 -59 0
1000000 65 -488 0
1000000 488 -719 -724 -722 -59 0
1000000 62 -489 0
1000000 489 -717 -721 -708 -60 0
1000000 69 -490 0
1000000 490 -713 -60 0
1000000 98 -491 0
1000000 491 -727 -728 -731 -60 0
1000000 11 -492 0
1000000 492 -726 -730 -7 0
1000000 108 -493 0
1000000 493 -733 -723 -7 0
1000000 149 -494 0
1000000 494 -725 -732 -734 -7 0
1000000 158 -495 0
1000000 495 -737 -729 -736 -7 0
1000000 20 -496 0
1000000 496 -739 -738 -7 0
1000000 39 -497 0
1000000 497 -740 -743 -7 0
1000000 90 -498 0
1000000 498 -748 -735 -747 -7 0
1000000 10 -499 0
1000000 499 -751 -746 -745 -7 0
1000000 103 -500 0
1000000 500 -741 -61 0
1000000 63 -501 0
1000000 501 -752 -755 -744 -61 0
1000000 66 -502 0
1000000 502 -720 -61 0
1000000 76 -503 0
1000000 503 -750 -61 0
1000000 147 -504 0
1000000 504 -756 -753 -62 0
1000000 71 -505 0
1000000 505 -758 -754 -62 0
1000000 74 -506 0
1000000 506 -749 -62 0
1000000 64 -507 0
1000000 507 -761 -764 -759 -63 0
1000000 66 -508 0
1000000 508 -742 -63 0
1000000 127 -509 0
1000000 509 -766 -768 -765 -64 0
1000000 66 -510 0
1000000 510 -760 -762 -64 0
1000000 73 -511 0
1000000 511 -763 -64 0
1000000 78 -512 0
1000000 512 -769 -757 -64 0
1000000 66 -513 0
1000000 513 -775 -772 -770 -65 0
1000000 73 -514 0
1000000 514 -771 -777 -65 0
1000000 70 -515 0
1000000 515 -782 -774 -778 -66 0
1000000 72 -516 0
1000000 516 -780 -767 -66 0
1000000 125 -517 0
1000000 517 -784 -783 -785 -67 0
1000000 70 -518 0
1000000 518 -776 -788 -787 -67 0
1000000 72 -519 0
1000000 519 -773 -793 -779 -67 0
1000000 73 -520 0
1000000 520 -789 -786 -67 0
1000000 89 -521 0
1000000 521 -781 -67 0
1000000 69 -522 0
1000000 522 -790 -68 0
1000000 70 -523 0
1000000 523 -794 -68 0
1000000 96 -524 0
1000000 524 -792 -795 -68 0
1000000 74 -525 0
1000000 525 -803 -796 -801 -69 0
1000000 76 -526 0
1000000 526 -802 -799 -69 0
1000000 77 -527 0
1000000 527 -804 -797 -69 0
1000000 122 -528 0
1000000 528 -798 -70 0
1000000 71 -529 0
1000000 529 -807 -625 -623 -70 0
1000000 73 -530 0
1000000 530 -805 -806 -70 0
1000000 140 -531 0
1000000 531 -800 -8 0
1000000 16 -532 0
1000000 532 -622 -791 -8 0
1000000 17 -533 0
1000000 533 -630 -624 -8 0
1000000 19 -534 0
1000000 534 -631 -629 -8 0
1000000 51 -535 0
1000000 535 -632 -636 -626 -8 0
1000000 57 -536 0
1000000 536 -635 -627 -8 0
1000000 78 -537 0
1000000 537 -638 -639 -71 0
1000000 79 -538 0
1000000 538 -634 -628 -71 0
1000000 74 -539 0
1000000 539 -633 -641 -72 0
1000000 76 -540 0
1000000 540 -645 -644 -72 0
1000000 116 -541 0
1000000 541 -642 -640 -646 -73 0
1000000 74 -542 0
1000000 542 -647 -73 0
1000000 86 -543 0
1000000 543 -648 -652 -643 -73 0
1000000 79 -544 0
1000000 544 -650 -74 0
1000000 80 -545 0
1000000 545 -649 -653 -74 0
1000000 81 -546 0
1000000 546 -654 -74 0
1000000 99 -547 0
1000000 547 -661 -655 -657 -74 0
1000000 77 -548 0
1000000 548 -662 -656 -651 -75 0
1000000 80 -549 0
1000000 549 -659 -663 -75 0
1000000 78 -550 0
1000000 550 -637 -76 0
1000000 81 -551 0
1000000 551 -669 -666 -670 -76 0
1000000 81 -552 0
1000000 552 -664 -77 0
1000000 87 -553 0
1000000 553 -660 -667 -77 0
1000000 129 -554 0
1000000 554 -672 -671 -78 0
1000000 82 -555 0
1000000 555 -673 -674 -78 0
1000000 83 -556 0
1000000 556 -668 -675 -677 -78 0
1000000 148 -557 0
1000000 557 -682 -676 -683 -79 0
1000000 80 -558 0
1000000 558 -680 -681 -79 0
1000000 82 -559 0
1000000 559 -665 -79 0
1000000 141 -560 0
1000000 560 -686 -684 -658 -80 0
1000000 85 -561 0
1000000 561 -688 -678 -80 0
1000000 89 -562 0
1000000 562 -685 -80 0
1000000 11 -563 0
1000000 563 -687 -9 0
1000000 12 -564 0
1000000 564 -696 -692 -693 -9 0
1000000 112 -565 0
1000000 565 -690 -9 0
1000000 45 -566 0
1000000 566 -697 -679 -9 0
1000000 10 -567 0
1000000 567 -689 -9 0
1000000 88 -568 0
1000000 568 -698 -694 -81 0
1000000 91 -569 0
1000000 569 -700 -695 -81 0
1000000 95 -570 0
1000000 570 -702 -691 -81 0
1000000 104 -571 0
1000000 571 -701 -82 0
1000000 115 -572 0
1000000 572 -705 -703 -82 0
1000000 85 -573 0
1000000 573 -709 -699 -82 0
1000000 123 -574 0
1000000 574 -714 -712 -706 -83 0
1000000 87 -575 0
1000000 575 -707 -83 0
1000000 92 -576 0
1000000 576 -710 -83 0
1000000 93 -577 0
1000000 577 -708 -83 0
1000000 86 -578 0
1000000 578 -716 -715 -84 0
1000000 92 -579 0
1000000 579 -719 -718 -711 -84 0
1000000 88 -580 0
1000000 580 -713 -721 -85 0
1000000 95 -581 0
1000000 581 -704 -85 0
1000000 114 -582 0
1000000 582 -720 -86 0
1000000 87 -583 0
1000000 583 -722 -86 0
1000000 91 -584 0
1000000 584 -724 -725 -730 -86 0
1000000 89 -585 0
1000000 585 -731 -732 -727 -87 0
1000000 96 -586 0
1000000 586 -733 -736 -729 -87 0
1000000 105 -587 0
1000000 587 -734 -728 -88 0
1000000 107 -588 0
1000000 588 -723 -717 -88 0
1000000 124 -589 0
1000000 589 -738 -743 -739 -88 0
1000000 94 -590 0
1000000 590 -746 -726 -745 -88 0
1000000 90 -591 0
1000000 591 -740 -89 0
1000000 91 -592 0
1000000 592 -735 -744 -89 0
1000000 109 -593 0
1000000 593 -749 -741 -90 0
1000000 111 -594 0
1000000 594 -737 -754 -751 -90 0
1000000 154 -595 0
1000000 595 -747 -90 0
1000000 11 -596 0
1000000 596 -750 -748 -10 0
1000000 12 -597 0
1000000 597 -752 -756 -10 0
1000000 108 -598 0
1000000 598 -742 -91 0
1000000 95 -599 0
1000000 599 -753 -91 0
1000000 104 -600 0
1000000 600 -762 -759 -757 -92 0
1000000 142 -601 0
1000000 601 -761 -764 -92 0
1000000 97 -602 0
1000000 602 -755 -760 -763 -92 0
1000000 94 -603 0
1000000 603 -766 -93 0
1000000 97 -604 0
1000000 604 -765 -768 -93 0
1000000 95 -605 0
1000000 605 -767 -775 -774 -94 0
1000000 96 -606 0
1000000 606 -758 -94 0
1000000 109 -607 0
1000000 607 -769 -95 0
1000000 117 -608 0
1000000 608 -770 -95 0
1000000 97 -609 0
1000000 609 -772 -776 -96 0
1000000 98 -610 0
1000000 610 -777 -96 0
1000000 101 -611 0
1000000 611 -771 -97 0
1000000 98 -612 0
1000000 612 -778 -97 0
1000000 105 -613 0
1000000 613 -783 -779 -785 -98 0
1000000 110 -614 0
1000000 614 -780 -98 0
1000000 101 -615 0
1000000 615 -782 -99 0
1000000 102 -616 0
1000000 616 -787 -773 -99 0
1000000 100 -617 0
1000000 617 -788 -786 -784 -99 0
1000000 102 -618 0
1000000 618 -789 -100 0
1000000 109 -619 0
1000000 619 -781 -790 -100 0
1000000 110 -620 0
1000000 620 -795 -792 -100 0
1000000 118 -621 0
1000000 621 -799 -793 -791 -100 0
1000000 1 0
1000000 -2 160 0
1000000 -3 170 0
1000000 -4 171 0
1000000 -5 341 172 0
1000000 -6 173 379 0
1000000 -7 419 342 163 0
1000000 -8 164 420 0
1000000 -9 457 0
1000000 -10 458 499 380 567 0
1000000 -11 596 166 377 563 492 0
1000000 -12 597 161 167 564 334 0
1000000 -13 378 336 0
1000000 -14 455 0
1000000 -15 233 259 0
1000000 -16 532 169 175 0
1000000 -17 205 533 0
1000000 -18 206 176 0
1000000 -19 534 0
1000000 -20 177 496 0
1000000 -21 234 320 338 0
1000000 -22 207 286 178 456 0
1000000 -23 317 328 287 0
1000000 -24 329 321 318 343 308 0
1000000 -25 309 261 347 0
1000000 -26 348 354 344 0
1000000 -27 330 339 345 0
1000000 -28 340 360 356 351 0
1000000 -29 352 262 355 364 0
1000000 -30 331 263 0
1000000 -31 326 353 361 0
1000000 -32 179 365 370 374 0
1000000 -33 366 357 0
1000000 -34 384 162 332 0
1000000 -35 288 392 0
1000000 -36 395 375 393 349 0
1000000 -37 381 322 0
1000000 -38 402 367 362 396 0
1000000 -39 385 399 497 382 0
1000000 -40 235 409 0
1000000 -41 414 371 410 0
1000000 -42 323 0
1000000 -43 404 0
1000000 -44 428 405 388 376 0
1000000 -45 389 566 415 0
1000000 -46 327 430 324 437 0
1000000 -47 416 432 400 425 0
1000000 -48 264 445 358 0
1000000 -49 447 397 438 441 433 0
1000000 -50 448 406 0
1000000 -51 450 535 0
1000000 -52 363 431 0
1000000 -53 429 434 359 403 0
1000000 -54 442 465 426 417 467 451 407 0
1000000 -55 453 439 446 0
1000000 -56 461 468 0
1000000 -57 536 454 469 0
1000000 -58 466 475 478 0
1000000 -59 479 427 0
1000000 -60 485 462 0
1000000 -61 372 398 0
1000000 -62 489 386 0
1000000 -63 368 501 487 486 0
1000000 -64 481 507 0
1000000 -65 488 319 476 482 0
1000000 -66 508 463 513 510 502 0
1000000 -67 477 411 0
1000000 -68 208 483 0
1000000 -69 522 490 449 0
1000000 -70 523 518 515 0
1000000 -71 471 333 505 529 0
1000000 -72 165 519 472 516 0
1000000 -73 520 511 443 530 514 0
1000000 -74 542 539 506 174 525 0
1000000 -75 470 0
1000000 -76 540 503 526 0
1000000 -77 527 548 0
1000000 -78 550 373 537 512 0
1000000 -79 346 538 544 0
1000000 -80 549 545 558 0
1000000 -81 552 551 236 546 0
1000000 -82 325 559 555 0
1000000 -83 390 556 0
1000000 -84 452 0
1000000 -85 573 561 387 0
1000000 -86 435 543 578 0
1000000 -87 575 553 421 583 0
1000000 -88 568 580 0
1000000 -89 562 521 585 0
1000000 -90 498 591 0
1000000 -91 569 592 584 180 0
1000000 -92 579 576 0
1000000 -93 577 383 0
1000000 -94 590 603 0
1000000 -95 570 599 394 605 581 0
1000000 -96 586 524 606 0
1000000 -97 473 604 609 602 0
1000000 -98 491 612 610 0
1000000 -99 547 0
1000000 -100 474 617 0
1000000 -101 611 615 0
1000000 -102 616 618 459 0
1000000 -103 500 181 0
1000000 -104 182 183 600 571 203 0
1000000 -105 613 464 587 0
1000000 -106 307 187 0
1000000 -107 185 184 588 444 0
1000000 -108 493 598 190 0
1000000 -109 188 192 607 593 619 0
1000000 -110 614 198 196 620 0
1000000 -111 594 199 335 200 0
1000000 -112 565 193 186 0
1000000 -113 197 480 213 0
1000000 -114 214 582 0
1000000 -115 194 209 572 201 0
1000000 -116 541 191 0
1000000 -117 168 608 0
1000000 -118 217 210 412 621 0
1000000 -119 195 226 422 219 0
1000000 -120 224 202 0
1000000 -121 436 0
1000000 -122 215 528 218 0
1000000 -123 220 574 227 0
1000000 -124 241 228 589 0
1000000 -125 243 237 216 239 517 0
1000000 -126 242 221 244 0
1000000 -127 247 509 229 230 225 0
1000000 -128 248 204 222 0
1000000 -129 231 554 223 0
1000000 -130 423 0
1000000 -131 245 211 0
1000000 -132 249 238 460 0
1000000 -133 252 369 240 250 0
1000000 -134 350 0
1000000 -135 337 271 265 267 0
1000000 -136 424 269 0
1000000 -137 274 391 0
1000000 -138 268 232 0
1000000 -139 270 401 257 0
1000000 -140 531 272 0
1000000 -141 280 560 266 276 0
1000000 -142 289 601 0
1000000 -143 254 282 418 246 0
1000000 -144 275 440 0
1000000 -145 281 291 293 255 294 0
1000000 -146 290 260 277 258 0
1000000 -147 504 256 298 0
1000000 -148 296 557 0
1000000 -149 299 494 0
1000000 -150 278 303 408 283 300 0
1000000 -151 251 279 301 0
1000000 -152 189 253 304 297 0
1000000 -153 292 212 0
1000000 -154 595 0
1000000 -155 284 0
1000000 -156 311 295 413 305 312 0
1000000 -157 484 315 0
1000000 -158 495 313 316 314 0
1000000 -159 302 306 273 310 285 0
1000000 622 846 0
1000000 623 810 0
1000000 624 857 0
1000000 625 860 0
1000000 626 855 0
1000000 627 812 0
1000000 628 808 0
1000000 629 814 0
1000000 630 859 0
1000000 631 862 0
1000000 632 834 0
1000000 633 809 0
1000000 634 866 0
1000000 635 849 0
1000000 636 814 0
1000000 637 862 0
1000000 638 812 0
1000000 639 840 0
1000000 640 813 0
1000000 641 864 0
1000000 642 840 0
1000000 643 858 0
1000000 644 840 0
1000000 645 822 0
1000000 646 864 0
1000000 647 847 0
1000000 648 866 0
1000000 649 835 0
1000000 650 813 0
1000000 651 846 0
1000000 652 850 0
1000000 653 869 0
1000000 654 863 0
1000000 655 860 0
1000000 656 836 0
1000000 657 832 0
1000000 658 818 0
1000000 659 859 0
1000000 660 826 0
1000000 661 862 0
1000000 662 827 0
1000000 663 858 0
1000000 664 857 0
1000000 665 822 0
1000000 666 822 0
1000000 667 843 0
1000000 668 845 0
1000000 669 834 0
1000000 670 845 0
1000000 671 815 0
1000000 672 830 0
1000000 673 863 0
1000000 674 828 0
1000000 675 865 0
1000000 676 826 0
1000000 677 819 0
1000000 678 844 0
1000000 679 829 0
1000000 680 821 0
1000000 681 812 0
1000000 682 836 0
1000000 683 810 0
1000000 684 830 0
1000000 685 864 0
1000000 686 830 0
1000000 687 865 0
1000000 688 809 0
1000000 689 868 0
1000000 690 818 0
1000000 691 859 0
1000000 692 856 0
1000000 693 832 0
1000000 694 851 0
1000000 695 867 0
1000000 696 811 0
1000000 697 863 0
1000000 698 839 0
1000000 699 818 0
1000000 700 828 0
1000000 701 809 0
1000000 702 844 0
1000000 703 844 0
1000000 704 816 0
1000000 705 833 0
1000000 706 832 0
1000000 707 843 0
1000000 708 855 0
1000000 709 852 0
1000000 710 837 0
1000000 711 819 0
1000000 712 866 0
1000000 713 848 0
1000000 714 827 0
1000000 715 865 0
1000000 716 868 0
1000000 717 835 0
1000000 718 851 0
1000000 719 854 0
1000000 720 853 0
1000000 721 841 0
1000000 722 835 0
1000000 723 845 0
1000000 724 841 0
1000000 725 850 0
1000000 726 860 0
1000000 727 811 0
1000000 728 867 0
1000000 729 868 0
1000000 730 811 0
1000000 731 833 0
1000000 732 848 0
1000000 733 852 0
1000000 734 819 0
1000000 735 820 0
1000000 736 851 0
1000000 737 854 0
1000000 738 815 0
1000000 739 833 0
1000000 740 810 0
1000000 741 857 0
1000000 742 856 0
1000000 743 849 0
1000000 744 842 0
1000000 745 849 0
1000000 746 855 0
1000000 747 826 0
1000000 748 869 0
1000000 749 842 0
1000000 750 867 0
1000000 751 843 0
1000000 752 829 0
1000000 753 837 0
1000000 754 825 0
1000000 755 814 0
1000000 756 816 0
1000000 757 841 0
1000000 758 827 0
1000000 759 850 0
1000000 760 837 0
1000000 761 838 0
1000000 762 847 0
1000000 763 853 0
1000000 764 816 0
1000000 765 829 0
1000000 766 842 0
1000000 767 836 0
1000000 768 815 0
1000000 769 824 0
1000000 770 869 0
1000000 771 813 0
1000000 772 848 0
1000000 773 821 0
1000000 774 820 0
1000000 775 834 0
1000000 776 808 0
1000000 777 853 0
1000000 778 828 0
1000000 779 838 0
1000000 780 817 0
1000000 781 839 0
1000000 782 856 0
1000000 783 839 0
1000000 784 861 0
1000000 785 854 0
1000000 786 817 0
1000000 787 858 0
1000000 788 831 0
1000000 789 861 0
1000000 790 824 0
1000000 791 846 0
1000000 792 823 0
1000000 793 847 0
1000000 794 808 0
1000000 795 852 0
1000000 796 838 0
1000000 797 831 0
1000000 798 825 0
1000000 799 820 0
1000000 800 831 0
1000000 801 825 0
1000000 802 823 0
1000000 803 824 0
1000000 804 823 0
1000000 805 821 0
1000000 806 817 0
1000000 807 861 0
1000000 -622 -846 0
1000000 -623 -810 0
1000000 -624 -857 0
1000000 -625 -860 0
1000000 -626 -855 0
1000000 -627 -812 0
1000000 -628 -808 0
1000000 -629 -814 0
1000000 -630 -859 0
1000000 -631 -862 0
1000000 -632 -834 0
1000000 -633 -809 0
1000000 -634 -866 0
1000000 -635 -849 0
1000000 -636 -814 0
1000000 -637 -862 0
1000000 -638 -812 0
1000000 -639 -840 0
1000000 -640 -813 0
1000000 -641 -864 0
1000000 -642 -840 0
1000000 -643 -858 0
1000000 -644 -840 0
1000000 -645 -822 0
1000000 -646 -864 0
1000000 -647 -847 0
1000000 -648 -866 0
1000000 -649 -835 0
1000000 -650 -813 0
1000000 -651 -846 0
1000000 -652 -850 0
1000000 -653 -869 0
1000000 -654 -863 0
1000000 -655 -860 0
1000000 -656 -836 0
1000000 -657 -832 0
1000000 -658 -818 0
1000000 -659 -859 0
1000000 -660 -826 0
1000000 -661 -862 0
1000000 -662 -827 0
1000000 -663 -858 0
1000000 -664 -857 0
1000000 -665 -822 0
1000000 -666 -822 0
1000000 -667 -843 0
1000000 -668 -845 0
1000000 -669 -834 0
1000000 -670 -845 0
1000000 -671 -815 0
1000000 -672 -830 0
1000000 -673 -863 0
1000000 -674 -828 0
1000000 -675 -865 0
1000000 -676 -826 0
1000000 -677 -819 0
1000000 -678 -844 0
1000000 -679 -829 0
1000000 -680 -821 0
1000000 -681 -812 0
1000000 -682 -836 0
1000000 -683 -810 0
1000000 -684 -830 0
1000000 -685 -864 0
1000000 -686 -830 0
1000000 -687 -865 0
1000000 -688 -809 0
1000000 -689 -868 0
1000000 -690 -818 0
1000000 -691 -859 0
1000000 -692 -856 0
1000000 -693 -832 0
1000000 -694 -851 0
1000000 -695 -867 0
1000000 -696 -811 0
1000000 -697 -863 0
1000000 -698 -839 0
1000000 -699 -818 0
1000000 -700 -828 0
1000000 -701 -809 0
1000000 -702 -844 0
1000000 -703 -844 0
1000000 -704 -816 0
1000000 -705 -833 0
1000000 -706 -832 0
1000000 -707 -843 0
1000000 -708 -855 0
1000000 -709 -852 0
1000000 -710 -837 0
1000000 -711 -819 0
1000000 -712 -866 0
1000000 -713 -848 0
1000000 -714 -827 0
1000000 -715 -865 0
1000000 -716 -868 0
1000000 -717 -835 0
1000000 -718 -851 0
1000000 -719 -854 0
1000000 -720 -853 0
1000000 -721 -841 0
1000000 -722 -835 0
1000000 -723 -845 0
1000000 -724 -841 0
1000000 -725 -850 0
1000000 -726 -860 0
1000000 -727 -811 0
1000000 -728 -867 0
1000000 -729 -868 0
1000000 -730 -811 0
1000000 -731 -833 0
1000000 -732 -848 0
1000000 -733 -852 0
1000000 -734 -819 0
1000000 -735 -820 0
1000000 -736 -851 0
1000000 -737 -854 0
1000000 -738 -815 0
1000000 -739 -833 0
1000000 -740 -810 0
1000000 -741 -857 0
1000000 -742 -856 0
1000000 -743 -849 0
1000000 -744 -842 0
1000000 -745 -849 0
1000000 -746 -855 0
1000000 -747 -826 0
1000000 -748 -869 0
1000000 -749 -842 0
1000000 -750 -867 0
1000000 -751 -843 0
1000000 -752 -829 0
1000000 -753 -837 0
1000000 -754 -825 0
1000000 -755 -814 0
1000000 -756 -816 0
1000000 -757 -841 0
1000000 -758 -827 0
1000000 -759 -850 0
1000000 -760 -837 0
1000000 -761 -838 0
1000000 -762 -847 0
1000000 -763 -853 0
1000000 -764 -816 0
1000000 -765 -829 0
1000000 -766 -842 0
1000000 -767 -836 0
1000000 -768 -815 0
1000000 -769 -824 0
1000000 -770 -869 0
1000000 -771 -813 0
1000000 -772 -848 0
1000000 -773 -821 0
1000000 -774 -820 0
1000000 -775 -834 0
1000000 -776 -808 0
1000000 -777 -853 0
1000000 -778 -828 0
1000000 -779 -838 0
1000000 -780 -817 0
1000000 -781 -839 0
1000000 -782 -856 0
1000000 -783 -839 0
1000000 -784 -861 0
1000000 -785 -854 0
1000000 -786 -817 0
1000000 -787 -858 0
1000000 -788 -831 0
1000000 -789 -861 0
1000000 -790 -824 0
1000000 -791 -846 0
1000000 -792 -823 0
1000000 -793 -847 0
1000000 -794 -808 0
1000000 -795 -852 0
1000000 -796 -838 0
1000000 -797 -831 0
1000000 -798 -825 0
1000000 -799 -820 0
1000000 -800 -831 0
1000000 -801 -825 0
1000000 -802 -823 0
1000000 -803 -824 0
1000000 -804 -823 0
1000000 -805 -821 0
1000000 -806 -817 0
1000000 -807 -861 0
9200 -808 0
12200 -809 0
8400 -810 0
8400 -811 0
9200 -812 0
10400 -813 0
8400 -814 0
8200 -815 0
7200 -816 0
9200 -817 0
10400 -818 0
8200 -819 0
12200 -820 0
8400 -821 0
12700 -822 0
8200 -823 0
9200 -824 0
8200 -825 0
9500 -826 0
8200 -827 0
10400 -828 0
7200 -829 0
12200 -830 0
10400 -831 0
11100 -832 0
10400 -833 0
8200 -834 0
9500 -835 0
7200 -836 0
8400 -837 0
11100 -838 0
7200 -839 0
13900 -840 0
9500 -841 0
8400 -842 0
8200 -843 0
12700 -844 0
13900 -845 0
11100 -846 0
9200 -847 0
9500 -848 0
12700 -849 0
13900 -850 0
8200 -851 0
12700 -852 0
13900 -853 0
12700 -854 0
7200 -855 0
12200 -856 0
9200 -857 0
9500 -858 0
12200 -859 0
11100 -860 0
9500 -861 0
12200 -862 0
10400 -863 0
13900 -864 0
13900 -865 0
8400 -866 0
12700 -867 0
12700 -868 0
8200 -869 0
3500 622 0
1200 623 0
1200 624 0
1200 625 0
2000 626 0
2000 627 0
3500 628 0
2000 629 0
3200 630 0
1200 631 0
1000 632 0
2000 633 0
3500 634 0
2100 635 0
2800 636 0
3200 637 0
1000 638 0
1000 639 0
1000 640 0
1700 641 0
3100 642 0
2800 643 0
2800 644 0
1000 645 0
1000 646 0
1700 647 0
2100 648 0
2800 649 0
1000 650 0
1000 651 0
2500 652 0
1000 653 0
1900 654 0
3100 655 0
2500 656 0
2800 657 0
1700 658 0
1000 659 0
2100 660 0
2100 661 0
1000 662 0
1000 663 0
1900 664 0
3100 665 0
2500 666 0
3100 667 0
2500 668 0
2700 669 0
2700 670 0
2100 671 0
2500 672 0
1700 673 0
900 674 0
2500 675 0
1000 676 0
1000 677 0
1700 678 0
1200 679 0
3100 680 0
2100 681 0
2100 682 0
2500 683 0
3100 684 0
2800 685 0
2000 686 0
2800 687 0
2100 688 0
3100 689 0
900 690 0
2100 691 0
3500 692 0
2000 693 0
1500 694 0
1700 695 0
1200 696 0
900 697 0
2700 698 0
1900 699 0
1500 700 0
1700 701 0
2800 702 0
1700 703 0
3100 704 0
2800 705 0
1700 706 0
3100 707 0
3100 708 0
1700 709 0
1500 710 0
2100 711 0
1000 712 0
3100 713 0
1700 714 0
2800 715 0
2800 716 0
2100 717 0
2800 718 0
2500 719 0
3100 720 0
2800 721 0
3100 722 0
3100 723 0
2700 724 0
2100 725 0
1000 726 0
1500 727 0
2700 728 0
2800 729 0
2100 730 0
2400 731 0
1700 732 0
1700 733 0
1700 734 0
2100 735 0
3100 736 0
3100 737 0
1700 738 0
3100 739 0
1700 740 0
3100 741 0
1700 742 0
1000 743 0
2700 744 0
2100 745 0
3100 746 0
1700 747 0
2800 748 0
1200 749 0
2100 750 0
2800 751 0
3200 752 0
3200 753 0
1900 754 0
2000 755 0
2500 756 0
2100 757 0
1900 758 0
1000 759 0
1900 760 0
2700 761 0
1000 762 0
1900 763 0
2500 764 0
2700 765 0
2700 766 0
3200 767 0
1900 768 0
3500 769 0
1700 770 0
2700 771 0
900 772 0
3200 773 0
2500 774 0
2100 775 0
1500 776 0
1500 777 0
1500 778 0
3500 779 0
3200 780 0
2700 781 0
900 782 0
2500 783 0
2800 784 0
2500 785 0
2500 786 0
2500 787 0
1900 788 0
900 789 0
900 790 0
2800 791 0
2800 792 0
3500 793 0
900 794 0
900 795 0
1000 796 0
900 797 0
1500 798 0
2100 799 0
3100 800 0
3100 801 0
3100 802 0
2100 803 0
1900 804 0
1500 805 0
2500 806 0
900 807 0
17080 -160 0
12465 -170 0
13086 -171 0
18005 341 -172 0
1385 -341 172 0
18490 -341 -172 0
8400 173 -379 0
33600 -173 379 0
36960 -173 -379 0
35820 419 342 -163 0
1990 419 -342 163 0
36019 419 -342 -163 0
7164 -419 342 163 0
36536 -419 342 -163 0
8796 -419 -342 163 0
36700 -419 -342 -163 0
27860 164 -420 0
4776 -164 420 0
29293 -164 -420 0
4515 -457 0
5280 458 499 380 -567 0
10560 458 499 -380 567 0
14256 458 499 -380 -567 0
3520 458 -499 380 567 0
8272 458 -499 380 -567 0
13024 458 -499 -380 567 0
16350 458 -499 -380 -567 0
8800 -458 499 380 567 0
12760 -458 499 380 -567 0
16720 -458 499 -380 567 0
19492 -458 499 -380 -567 0
11440 -458 -499 380 567 0
15004 -458 -499 380 -567 0
18568 -458 -499 -380 567 0
21063 -458 -499 -380 -567 0
26315 596 166 377 563 -492 0
22160 596 166 377 -563 492 0
27423 596 166 377 -563 -492 0
8864 596 166 -377 563 492 0
26758 596 166 -377 563 -492 0
23933 596 166 -377 -563 492 0
27512 596 166 -377 -563 -492 0
24930 596 -166 377 563 492 0
27562 596 -166 377 563 -492 0
27146 596 -166 377 -563 492 0
27672 596 -166 377 -563 -492 0
25816 596 -166 -377 563 492 0
27606 596 -166 -377 563 -492 0
27323 596 -166 -377 -563 492 0
27681 596 -166 -377 -563 -492 0
20775 -596 166 377 563 492 0
27354 -596 166 377 563 -492 0
26315 -596 166 377 -563 492 0
27631 -596 166 377 -563 -492 0
22991 -596 166 -377 563 492 0
27465 -596 166 -377 563 -492 0
26758 -596 166 -377 -563 492 0
27653 -596 166 -377 -563 -492 0
27007 -596 -166 377 563 492 0
27665 -596 -166 377 563 -492 0
27562 -596 -166 377 -563 492 0
27693 -596 -166 377 -563 -492 0
27229 -596 -166 -377 563 492 0
27676 -596 -166 -377 563 -492 0
27606 -596 -166 -377 -563 492 0
27695 -596 -166 -377 -563 -492 0
15450 597 161 167 564 -334 0
3090 597 161 167 -564 334 0
16995 597 161 167 -564 -334 0
4635 597 161 -167 564 334 0
17767 597 161 -167 564 -334 0
7261 597 161 -167 -564 334 0
19081 597 161 -167 -564 -334 0
9888 597 -161 167 564 334 0
20394 597 -161 167 564 -334 0
11989 597 -161 167 -564 334 0
21445 597 -161 167 -564 -334 0
13040 597 -161 -167 564 334 0
21970 597 -161 -167 564 -334 0
14826 597 -161 -167 -564 334 0
22863 597 -161 -167 -564 -334 0
29355 -597 161 167 564 334 0
30127 -597 161 167 564 -334 0
29509 -597 161 167 -564 334 0
30205 -597 161 167 -564 -334 0
29587 -597 161 -167 564 334 0
30243 -597 161 -167 564 -334 0
29718 -597 161 -167 -564 334 0
30309 -597 161 -167 -564 -334 0
29849 -597 -161 167 564 334 0
30375 -597 -161 167 564 -334 0
29954 -597 -161 167 -564 334 0
30427 -597 -161 167 -564 -334 0
30007 -597 -161 -167 564 334 0
30453 -597 -161 -167 564 -334 0
30096 -597 -161 -167 -564 334 0
30498 -597 -161 -167 -564 -334 0
8856 378 -336 0
36900 -378 336 0
39114 -378 -336 0
21010 -455 0
41990 233 -259 0
19380 -233 259 0
48773 -233 -259 0
6925 532 169 -175 0
23545 532 -169 175 0
24584 532 -169 -175 0
4986 -532 169 175 0
10664 -532 169 -175 0
24293 -532 -169 175 0
25145 -532 -169 -175 0
39200 205 -533 0
14000 -205 533 0
43400 -205 -533 0
11264 206 -176 0
26400 -206 176 0
29216 -206 -176 0
20385 -534 0
25200 177 -496 0
1120 -177 496 0
25816 -177 -496 0
36540 234 320 -338 0
39585 234 -320 338 0
52374 234 -320 -338 0
7308 -234 320 338 0
39463 -234 320 -338 0
42143 -234 -320 338 0
53397 -234 -320 -338 0
27626 207 286 178 -456 0
65430 207 286 -178 456 0
68193 207 286 -178 -456 0
32715 207 -286 178 456 0
47909 207 -286 178 -456 0
68702 207 -286 -178 456 0
70221 207 -286 -178 -456 0
36350 -207 286 178 456 0
50163 -207 286 178 -456 0
69065 -207 286 -178 456 0
70446 -207 286 -178 -456 0
52707 -207 -286 178 456 0
60305 -207 -286 178 -456 0
70701 -207 -286 -178 456 0
71460 -207 -286 -178 -456 0
30450 317 328 -287 0
21315 317 -328 287 0
41108 317 -328 -287 0
23142 -317 328 287 0
42021 -317 328 -287 0
36357 -317 -328 287 0
48629 -317 -328 -287 0
6020 329 321 318 343 -308 0
7525 329 321 318 -343 308 0
12040 329 321 318 -343 -308 0
4515 329 321 -318 343 308 0
9632 329 321 -318 343 -308 0
10911 329 321 -318 -343 308 0
14749 329 321 -318 -343 -308 0
4515 329 -321 318 343 308 0
9632 329 -321 318 343 -308 0
10911 329 -321 318 -343 308 0
14749 329 -321 318 -343 -308 0
8353 329 -321 -318 343 308 0
12702 329 -321 -318 343 -308 0
13790 329 -321 -318 -343 308 0
17052 329 -321 -318 -343 -308 0
15050 -329 321 318 343 308 0
18060 -329 321 318 343 -308 0
18812 -329 321 318 -343 308 0
21070 -329 321 318 -343 -308 0
17307 -329 321 -318 343 308 0
19866 -329 321 -318 343 -308 0
20506 -329 321 -318 -343 308 0
22425 -329 321 -318 -343 -308 0
17307 -329 -321 318 343 308 0
19866 -329 -321 318 343 -308 0
20506 -329 -321 318 -343 308 0
22425 -329 -321 318 -343 -308 0
19226 -329 -321 -318 343 308 0
21401 -329 -321 -318 343 -308 0
21945 -329 -321 -318 -343 308 0
23576 -329 -321 -318 -343 -308 0
71100 309 261 -347 0
14220 309 -261 347 0
72522 309 -261 -347 0
14220 -309 261 347 0
72522 -309 261 -347 0
25880 -309 -261 347 0
73688 -309 -261 -347 0
5904 348 354 -344 0
7380 348 -354 344 0
12398 348 -354 -344 0
27060 -348 354 344 0
29717 -348 354 -344 0
30381 -348 -354 344 0
32639 -348 -354 -344 0
12224 330 339 -345 0
5730 330 -339 345 0
16120 330 -339 -345 0
28650 -330 339 345 0
31706 -330 339 -345 0
30082 -330 -339 345 0
32680 -330 -339 -345 0
39585 340 360 356 -351 0
42630 340 360 -356 351 0
54506 340 360 -356 -351 0
57855 340 -360 356 351 0
59834 340 -360 356 -351 0
59987 340 -360 -356 351 0
60580 340 -360 -356 -351 0
18270 -340 360 356 351 0
45980 -340 360 356 -351 0
48111 -340 360 -356 351 0
56424 -340 360 -356 -351 0
58768 -340 -360 356 351 0
60154 -340 -360 356 -351 0
60261 -340 -360 -356 351 0
60676 -340 -360 -356 -351 0
58730 352 262 355 -364 0
54535 352 262 -355 364 0
75090 352 262 -355 -364 0
1678 352 -262 355 364 0
59233 352 -262 355 -364 0
55122 352 -262 -355 364 0
75267 352 -262 -355 -364 0
46145 -352 262 355 364 0
72574 -352 262 355 -364 0
70686 -352 262 -355 364 0
79936 -352 262 -355 -364 0
46900 -352 -262 355 364 0
72800 -352 -262 355 -364 0
70950 -352 -262 -355 364 0
80015 -352 -262 -355 -364 0
39585 331 -263 0
30450 -331 263 0
50242 -331 -263 0
9480 326 353 -361 0
47400 326 -353 361 0
51192 326 -353 -361 0
30020 -326 353 361 0
35898 -326 353 -361 0
59408 -326 -353 361 0
61759 -326 -353 -361 0
75050 179 365 370 -374 0
31600 179 365 -370 374 0
76630 179 365 -370 -374 0
55300 179 -365 370 374 0
77815 179 -365 370 -374 0
64780 179 -365 -370 374 0
78289 179 -365 -370 -374 0
3950 -179 365 370 374 0
75247 -179 365 370 -374 0
33970 -179 365 -370 374 0
76749 -179 365 -370 -374 0
56485 -179 -365 370 374 0
77874 -179 -365 370 -374 0
65491 -179 -365 -370 374 0
78325 -179 -365 -370 -374 0
25840 366 -357 0
11628 -366 357 0
32817 -366 -357 0
23880 384 162 -332 0
15920 384 -162 332 0
30248 384 -162 -332 0
37810 -384 162 332 0
39004 -384 162 -332 0
38606 -384 -162 332 0
39322 -384 -162 -332 0
2770 288 -392 0
26315 -288 392 0
26453 -288 -392 0
7040 395 375 393 -349 0
10560 395 375 -393 349 0
15488 395 375 -393 -349 0
12320 395 -375 393 349 0
16896 395 -375 393 -349 0
19184 395 -375 -393 349 0
22387 395 -375 -393 -349 0
24640 -395 375 393 349 0
26752 -395 375 393 -349 0
27808 -395 375 -393 349 0
29286 -395 375 -393 -349 0
28336 -395 -375 393 349 0
29709 -395 -375 393 -349 0
30395 -395 -375 -393 349 0
31356 -395 -375 -393 -349 0
1910 381 -322 0
24830 -381 322 0
25498 -381 -322 0
6876 402 367 362 -396 0
15280 402 367 -362 396 0
19406 402 367 -362 -396 0
1910 402 -367 362 396 0
8442 402 -367 362 -396 0
16426 402 -367 -362 396 0
20345 402 -367 -362 -396 0
12224 -402 367 362 396 0
16900 -402 367 362 -396 0
22614 -402 367 -362 396 0
25420 -402 367 -362 -396 0
13523 -402 -367 362 396 0
17965 -402 -367 362 -396 0
23394 -402 -367 -362 396 0
26059 -402 -367 -362 -396 0
17214 385 399 497 -382 0
9060 385 399 -497 382 0
22831 385 399 -497 -382 0
31710 385 -399 497 382 0
36874 385 -399 497 -382 0
34428 385 -399 -497 382 0
38559 385 -399 -497 -382 0
24915 -385 399 497 382 0
32661 -385 399 497 -382 0
28992 -385 399 -497 382 0
35189 -385 399 -497 -382 0
39184 -385 -399 497 382 0
41508 -385 -399 497 -382 0
40408 -385 -399 -497 382 0
42267 -385 -399 -497 -382 0
18696 235 -409 0
44280 -235 409 0
46150 -235 -409 0
21315 414 371 -410 0
24360 414 -371 410 0
37149 414 -371 -410 0
24360 -414 371 410 0
37149 -414 371 -410 0
38976 -414 -371 410 0
46649 -414 -371 -410 0
19565 -323 0
41990 -404 0
20672 428 405 388 -376 0
32300 428 405 -388 376 0
42636 428 405 -388 -376 0
45220 428 -405 388 376 0
51422 428 -405 388 -376 0
54910 428 -405 -388 376 0
58011 428 -405 -388 -376 0
20672 -428 405 388 376 0
34729 -428 405 388 -376 0
42636 -428 405 -388 376 0
49664 -428 405 -388 -376 0
51422 -428 -405 388 376 0
55639 -428 -405 388 -376 0
58011 -428 -405 -388 376 0
60119 -428 -405 -388 -376 0
1044 389 566 -415 0
23490 389 -566 415 0
24064 389 -566 -415 0
28710 -389 566 415 0
29180 -389 566 -415 0
39280 -389 -566 415 0
39539 -389 -566 -415 0
34380 327 430 324 -437 0
34380 327 430 -324 437 0
37818 327 430 -324 -437 0
28650 327 -430 324 437 0
37245 327 -430 324 -437 0
37245 327 -430 -324 437 0
38105 327 -430 -324 -437 0
21010 -327 430 324 437 0
36481 -327 430 324 -437 0
36481 -327 430 -324 437 0
38028 -327 430 -324 -437 0
33902 -327 -430 324 437 0
37770 -327 -430 324 -437 0
37770 -327 -430 -324 437 0
38157 -327 -430 -324 -437 0
22140 416 432 400 -425 0
24600 416 432 -400 425 0
35670 416 432 -400 -425 0
8856 416 -432 400 425 0
27011 416 -432 400 -425 0
29028 416 -432 -400 425 0
38105 416 -432 -400 -425 0
34440 -416 432 400 425 0
41082 -416 432 400 -425 0
41820 -416 432 -400 425 0
45141 -416 432 -400 -425 0
37097 -416 -432 400 425 0
42543 -416 -432 400 -425 0
43148 -416 -432 -400 425 0
45872 -416 -432 -400 -425 0
20880 264 445 -358 0
41760 264 -445 358 0
45936 264 -445 -358 0
18270 -264 445 358 0
31842 -264 445 -358 0
45414 -264 -445 358 0
48128 -264 -445 -358 0
36900 447 397 438 441 -433 0
18696 447 397 438 -441 433 0
41574 447 397 438 -441 -433 0
36900 447 397 -438 441 433 0
46125 447 397 -438 441 -433 0
41574 447 397 -438 -441 433 0
47294 447 397 -438 -441 -433 0
17220 447 -397 438 441 433 0
41205 447 -397 438 441 -433 0
29372 447 -397 438 -441 433 0
44243 447 -397 438 -441 -433 0
41205 447 -397 -438 441 433 0
47201 447 -397 -438 441 -433 0
44243 447 -397 -438 -441 433 0
47961 447 -397 -438 -441 -433 0
5904 -447 397 438 441 433 0
38376 -447 397 438 441 -433 0
22356 -447 397 438 -441 433 0
42489 -447 397 438 -441 -433 0
38376 -447 397 -438 441 433 0
46494 -447 397 -438 441 -433 0
42489 -447 397 -438 -441 433 0
47522 -447 397 -438 -441 -433 0
21058 -447 -397 438 441 433 0
42164 -447 -397 438 441 -433 0
31752 -447 -397 438 -441 433 0
44838 -447 -397 438 -441 -433 0
42164 -447 -397 -438 441 433 0
47441 -447 -397 -438 441 -433 0
44838 -447 -397 -438 -441 433 0
48109 -447 -397 -438 -441 -433 0
13050 448 -406 0
1044 -448 406 0
13833 -448 -406 0
11080 450 -535 0
2770 -450 535 0
12742 -450 -535 0
29070 363 -431 0
58140 -363 431 0
61047 -363 -431 0
48450 429 434 359 -403 0
7752 429 434 -359 403 0
50388 429 434 -359 -403 0
16150 429 -434 359 403 0
52488 429 -434 359 -403 0
21964 429 -434 -359 403 0
53941 429 -434 -359 -403 0
6460 -429 434 359 403 0
50065 -429 434 359 -403 0
13437 -429 434 -359 403 0
51809 -429 434 -359 -403 0
20995 -429 -434 359 403 0
53699 -429 -434 359 -403 0
26228 -429 -434 -359 403 0
55007 -429 -434 -359 -403 0
17600 442 465 426 417 467 451 -407 0
12160 442 465 426 417 467 -451 407 0
23072 442 465 426 417 467 -451 -407 0
8000 442 465 426 417 -467 451 407 0
21200 442 465 426 417 -467 451 -407 0
17120 442 465 426 417 -467 -451 407 0
25304 442 465 426 417 -467 -451 -407 0
3840 442 465 426 -417 467 451 407 0
19328 442 465 426 -417 467 451 -407 0
14541 442 465 426 -417 467 -451 407 0
24143 442 465 426 -417 467 -451 -407 0
10880 442 465 426 -417 -467 451 407 0
22496 442 465 426 -417 -467 451 -407 0
18906 442 465 426 -417 -467 -451 407 0
26108 442 465 426 -417 -467 -451 -407 0
16000 442 465 -426 417 467 451 407 0
24800 442 465 -426 417 467 451 -407 0
22080 442 465 -426 417 467 -451 407 0
27536 442 465 -426 417 467 -451 -407 0
20000 442 465 -426 417 -467 451 407 0
26600 442 465 -426 417 -467 451 -407 0
24560 442 465 -426 417 -467 -451 407 0
28652 442 465 -426 417 -467 -451 -407 0
17920 442 465 -426 -417 467 451 407 0
25664 442 465 -426 -417 467 451 -407 0
23270 442 465 -426 -417 467 -451 407 0
28072 442 465 -426 -417 467 -451 -407 0
21440 442 465 -426 -417 -467 451 407 0
27248 442 465 -426 -417 -467 451 -407 0
25453 442 465 -426 -417 -467 -451 407 0
29054 442 465 -426 -417 -467 -451 -407 0
22400 442 -465 426 417 467 451 407 0
27680 442 -465 426 417 467 451 -407 0
26048 442 -465 426 417 467 -451 407 0
29322 442 -465 426 417 467 -451 -407 0
24800 442 -465 426 417 -467 451 407 0
28760 442 -465 426 417 -467 451 -407 0
27536 442 -465 426 417 -467 -451 407 0
29991 442 -465 426 417 -467 -451 -407 0
23552 442 -465 426 -417 467 451 407 0
28198 442 -465 426 -417 467 451 -407 0
26762 442 -465 426 -417 467 -451 407 0
29643 442 -465 426 -417 467 -451 -407 0
25664 442 -465 426 -417 -467 451 407 0
29149 442 -465 426 -417 -467 451 -407 0
28072 442 -465 426 -417 -467 -451 407 0
30232 442 -465 426 -417 -467 -451 -407 0
27200 442 -465 -426 417 467 451 407 0
29840 442 -465 -426 417 467 451 -407 0
29024 442 -465 -426 417 467 -451 407 0
30661 442 -465 -426 417 467 -451 -407 0
28400 442 -465 -426 417 -467 451 407 0
30380 442 -465 -426 417 -467 451 -407 0
29768 442 -465 -426 417 -467 -451 407 0
30996 442 -465 -426 417 -467 -451 -407 0
27776 442 -465 -426 -417 467 451 407 0
30099 442 -465 -426 -417 467 451 -407 0
29381 442 -465 -426 -417 467 -451 407 0
30822 442 -465 -426 -417 467 -451 -407 0
28832 442 -465 -426 -417 -467 451 407 0
30574 442 -465 -426 -417 -467 451 -407 0
30036 442 -465 -426 -417 -467 -451 407 0
31116 442 -465 -426 -417 -467 -451 -407 0
1600 -442 465 426 417 467 451 407 0
18320 -442 465 426 417 467 451 -407 0
13152 -442 465 426 417 467 -451 407 0
23518 -442 465 426 417 467 -451 -407 0
9200 -442 465 426 417 -467 451 407 0
21740 -442 465 426 417 -467 451 -407 0
17864 -442 465 426 417 -467 -451 407 0
25639 -442 465 426 417 -467 -451 -407 0
5248 -442 465 426 -417 467 451 407 0
19962 -442 465 426 -417 467 451 -407 0
15414 -442 465 426 -417 467 -451 407 0
24536 -442 465 426 -417 467 -451 -407 0
11936 -442 465 426 -417 -467 451 407 0
22971 -442 465 426 -417 -467 451 -407 0
19560 -442 465 426 -417 -467 -451 407 0
26402 -442 465 426 -417 -467 -451 -407 0
16800 -442 465 -426 417 467 451 407 0
25160 -442 465 -426 417 467 451 -407 0
22576 -442 465 -426 417 467 -451 407 0
27759 -442 465 -426 417 467 -451 -407 0
20600 -442 465 -426 417 -467 451 407 0
26870 -442 465 -426 417 -467 451 -407 0
24932 -442 465 -426 417 -467 -451 407 0
28819 -442 465 -426 417 -467 -451 -407 0
18624 -442 465 -426 -417 467 451 407 0
25981 -442 465 -426 -417 467 451 -407 0
23707 -442 465 -426 -417 467 -451 407 0
28268 -442 465 -426 -417 467 -451 -407 0
21968 -442 465 -426 -417 -467 451 407 0
27486 -442 465 -426 -417 -467 451 -407 0
25780 -442 465 -426 -417 -467 -451 407 0
29201 -442 465 -426 -417 -467 -451 -407 0
22880 -442 -465 426 417 467 451 407 0
27896 -442 -465 426 417 467 451 -407 0
26346 -442 -465 426 417 467 -451 407 0
29456 -442 -465 426 417 467 -451 -407 0
25160 -442 -465 426 417 -467 451 407 0
28922 -442 -465 426 417 -467 451 -407 0
27759 -442 -465 426 417 -467 -451 407 0
30092 -442 -465 426 417 -467 -451 -407 0
23974 -442 -465 426 -417 467 451 407 0
28388 -442 -465 426 -417 467 451 -407 0
27024 -442 -465 426 -417 467 -451 407 0
29761 -442 -465 426 -417 467 -451 -407 0
25981 -442 -465 426 -417 -467 451 407 0
29291 -442 -465 426 -417 -467 451 -407 0
28268 -442 -465 426 -417 -467 -451 407 0
30321 -442 -465 426 -417 -467 -451 -407 0
27440 -442 -465 -426 417 467 451 407 0
29948 -442 -465 -426 417 467 451 -407 0
29173 -442 -465 -426 417 467 -451 407 0
30728 -442 -465 -426 417 467 -451 -407 0
28580 -442 -465 -426 417 -467 451 407 0
30461 -442 -465 -426 417 -467 451 -407 0
29880 -442 -465 -426 417 -467 -451 407 0
31046 -442 -465 -426 417 -467 -451 -407 0
27987 -442 -465 -426 -417 467 451 407 0
30194 -442 -465 -426 -417 467 451 -407 0
29512 -442 -465 -426 -417 467 -451 407 0
30880 -442 -465 -426 -417 467 -451 -407 0
28990 -442 -465 -426 -417 -467 451 407 0
30646 -442 -465 -426 -417 -467 451 -407 0
30134 -442 -465 -426 -417 -467 -451 407 0
31160 -442 -465 -426 -417 -467 -451 -407 0
7830 453 439 -446 0
6264 453 -439 446 0
13154 453 -439 -446 0
16704 -453 439 446 0
22028 -453 439 -446 0
20964 -453 -439 446 0
25649 -453 -439 -446 0
28650 461 -468 0
36290 -461 468 0
37723 -461 -468 0
19600 536 454 -469 0
17920 536 -454 469 0
31248 536 -454 -469 0
33600 -536 454 469 0
41440 -536 454 -469 0
40768 -536 -454 469 0
46099 -536 -454 -469 0
15660 466 475 -478 0
5220 466 -475 478 0
19314 466 -475 -478 0
36540 -466 475 478 0
41238 -466 475 -478 0
38106 -466 -475 478 0
42334 -466 -475 -478 0
24000 479 -427 0
30400 -479 427 0
31600 -479 -427 0
27090 485 -462 0
13545 -485 462 0
28444 -485 -462 0
7525 372 -398 0
25585 -372 398 0
26714 -372 -398 0
3230 489 -386 0
45220 -489 386 0
46189 -489 -386 0
28420 368 501 487 -486 0
12180 368 501 -487 486 0
32074 368 501 -487 -486 0
12992 368 -501 487 486 0
32318 368 -501 487 -486 0
21274 368 -501 -487 486 0
34802 368 -501 -487 -486 0
7308 -368 501 487 486 0
30612 -368 501 487 -486 0
17296 -368 501 -487 486 0
33609 -368 501 -487 -486 0
17961 -368 -501 487 486 0
33808 -368 -501 487 -486 0
24753 -368 -501 -487 486 0
35846 -368 -501 -487 -486 0
14760 481 -507 0
29520 -481 507 0
35424 -481 -507 0
13370 488 319 476 -482 0
5730 488 319 -476 482 0
17094 488 319 -476 -482 0
36290 488 -319 476 482 0
36959 488 -319 476 -482 0
36576 488 -319 -476 482 0
37145 488 -319 -476 -482 0
6876 -488 319 476 482 0
17839 -488 319 476 -482 0
11575 -488 319 -476 482 0
20893 -488 319 -476 -482 0
36634 -488 -319 476 482 0
37182 -488 -319 476 -482 0
36869 -488 -319 -476 482 0
37335 -488 -319 -476 -482 0
1505 508 463 513 510 -502 0
1505 508 463 513 -510 502 0
2935 508 463 513 -510 -502 0
1505 508 463 -513 510 502 0
2935 508 463 -513 510 -502 0
2935 508 463 -513 -510 502 0
4293 508 463 -513 -510 -502 0
18060 508 -463 513 510 502 0
18662 508 -463 513 510 -502 0
18662 508 -463 513 -510 502 0
19234 508 -463 513 -510 -502 0
18662 508 -463 -513 510 502 0
19234 508 -463 -513 510 -502 0
19234 508 -463 -513 -510 502 0
19777 508 -463 -513 -510 -502 0
28595 -508 463 513 510 502 0
28670 -508 463 513 510 -502 0
28670 -508 463 513 -510 502 0
28742 -508 463 513 -510 -502 0
28670 -508 463 -513 510 502 0
28742 -508 463 -513 510 -502 0
28742 -508 463 -513 -510 502 0
28810 -508 463 -513 -510 -502 0
29498 -508 -463 513 510 502 0
29528 -508 -463 513 510 -502 0
29528 -508 -463 513 -510 502 0
29557 -508 -463 513 -510 -502 0
29528 -508 -463 -513 510 502 0
29557 -508 -463 -513 510 -502 0
29557 -508 -463 -513 -510 502 0
29584 -508 -463 -513 -510 -502 0
48720 477 -411 0
7308 -477 411 0
50182 -477 -411 0
14000 208 -483 0
50400 -208 483 0
51800 -208 -483 0
44280 522 490 -449 0
31980 522 -490 449 0
47478 522 -490 -449 0
12300 -522 490 449 0
45510 -522 490 -449 0
36285 -522 -490 449 0
47908 -522 -490 -449 0
22920 523 518 -515 0
24830 523 -518 515 0
32852 523 -518 -515 0
34380 -523 518 515 0
36672 -523 518 -515 0
36863 -523 -518 515 0
37665 -523 -518 -515 0
6020 471 333 505 -529 0
12040 471 333 -505 529 0
15652 471 333 -505 -529 0
12040 471 -333 505 529 0
15652 471 -333 505 -529 0
19264 471 -333 -505 529 0
21431 471 -333 -505 -529 0
22575 -471 333 505 529 0
24080 -471 333 505 -529 0
25585 -471 333 -505 529 0
26488 -471 333 -505 -529 0
25585 -471 -333 505 529 0
26488 -471 -333 505 -529 0
27391 -471 -333 -505 529 0
27933 -471 -333 -505 -529 0
9840 165 519 472 -516 0
7380 165 519 -472 516 0
15744 165 519 -472 -516 0
19680 165 -519 472 516 0
25584 165 -519 472 -516 0
24108 165 -519 -472 516 0
29126 165 -519 -472 -516 0
41820 -165 519 472 516 0
43296 -165 519 472 -516 0
42927 -165 519 -472 516 0
44182 -165 519 -472 -516 0
44772 -165 -519 472 516 0
45658 -165 -519 472 -516 0
45436 -165 -519 -472 516 0
46189 -165 -519 -472 -516 0
3200 520 511 443 530 -514 0
22400 520 511 443 -530 514 0
23360 520 511 443 -530 -514 0
10240 520 511 -443 530 514 0
12416 520 511 -443 530 -514 0
25472 520 511 -443 -530 514 0
26125 520 511 -443 -530 -514 0
28800 520 -511 443 530 514 0
29120 520 -511 443 530 -514 0
31040 520 -511 443 -530 514 0
31136 520 -511 443 -530 -514 0
29824 520 -511 -443 530 514 0
30042 520 -511 -443 530 -514 0
31347 520 -511 -443 -530 514 0
31412 520 -511 -443 -530 -514 0
1600 -520 511 443 530 514 0
4640 -520 511 443 530 -514 0
22880 -520 511 443 -530 514 0
23792 -520 511 443 -530 -514 0
11328 -520 511 -443 530 514 0
13395 -520 511 -443 530 -514 0
25798 -520 511 -443 -530 514 0
26419 -520 511 -443 -530 -514 0
28960 -520 -511 443 530 514 0
29264 -520 -511 443 530 -514 0
31088 -520 -511 443 -530 514 0
31179 -520 -511 443 -530 -514 0
29933 -520 -511 -443 530 514 0
30140 -520 -511 -443 530 -514 0
31380 -520 -511 -443 -530 514 0
31442 -520 -511 -443 -530 -514 0
25200 542 539 506 174 -525 0
8400 542 539 506 -174 525 0
29820 542 539 506 -174 -525 0
53200 542 539 -506 174 525 0
54460 542 539 -506 174 -525 0
53620 542 539 -506 -174 525 0
54691 542 539 -506 -174 -525 0
5600 542 -539 506 174 525 0
28280 542 -539 506 174 -525 0
13160 542 -539 506 -174 525 0
32438 542 -539 506 -174 -525 0
53480 542 -539 -506 174 525 0
54614 542 -539 -506 174 -525 0
53858 542 -539 -506 -174 525 0
54822 542 -539 -506 -174 -525 0
33600 -542 539 506 174 525 0
43680 -542 539 506 174 -525 0
36960 -542 539 506 -174 525 0
45528 -542 539 506 -174 -525 0
54880 -542 539 -506 174 525 0
55384 -542 539 -506 174 -525 0
55048 -542 539 -506 -174 525 0
55476 -542 539 -506 -174 -525 0
35840 -542 -539 506 174 525 0
44912 -542 -539 506 174 -525 0
38864 -542 -539 506 -174 525 0
46575 -542 -539 506 -174 -525 0
54992 -542 -539 -506 174 525 0
55446 -542 -539 -506 174 -525 0
55143 -542 -539 -506 -174 525 0
55529 -542 -539 -506 -174 -525 0
57070 -470 0
69065 540 503 -526 0
50890 540 -503 526 0
71610 540 -503 -526 0
58160 -540 503 526 0
71973 -540 503 -526 0
68338 -540 -503 526 0
72482 -540 -503 -526 0
45220 527 -548 0
9690 -527 548 0
48127 -527 -548 0
1580 550 373 537 -512 0
15800 550 373 -537 512 0
17064 550 373 -537 -512 0
51350 550 -373 537 512 0
51903 550 -373 537 -512 0
56880 550 -373 -537 512 0
57322 550 -373 -537 -512 0
27650 -550 373 537 512 0
28677 -550 373 537 -512 0
37920 -550 373 -537 512 0
38742 -550 373 -537 -512 0
61027 -550 -373 537 512 0
61387 -550 -373 537 -512 0
64622 -550 -373 -537 512 0
64910 -550 -373 -537 -512 0
16555 346 538 -544 0
1505 346 -538 544 0
17232 346 -538 -544 0
3010 -346 538 544 0
17909 -346 538 -544 0
4365 -346 -538 544 0
18519 -346 -538 -544 0
29520 549 545 -558 0
39360 549 -545 558 0
45264 549 -545 -558 0
46740 -549 545 558 0
48216 -549 545 -558 0
48708 -549 -545 558 0
49003 -549 -545 -558 0
18270 552 551 236 -546 0
24360 552 551 -236 546 0
35322 552 551 -236 -546 0
36540 552 -551 236 546 0
43848 552 -551 236 -546 0
46284 552 -551 -236 546 0
50669 552 -551 -236 -546 0
23142 -552 551 236 546 0
34469 -552 551 236 -546 0
38245 -552 551 -236 546 0
45042 -552 551 -236 -546 0
45797 -552 -551 236 546 0
50328 -552 -551 236 -546 0
51838 -552 -551 -236 546 0
54557 -552 -551 -236 -546 0
75050 325 559 -555 0
67150 325 -559 555 0
78407 325 -559 -555 0
35550 -325 559 555 0
76827 -325 559 -555 0
72482 -325 -559 555 0
78674 -325 -559 -555 0
33560 390 -556 0
58730 -390 556 0
68798 -390 -556 0
12920 -452 0
19380 573 561 -387 0
12920 573 -561 387 0
28424 573 -561 -387 0
48450 -573 561 387 0
53295 -573 561 -387 0
51680 -573 -561 387 0
55556 -573 -561 -387 0
24615 435 543 -578 0
8205 435 -543 578 0
29128 435 -543 -578 0
27350 -435 543 578 0
39657 -435 543 -578 0
31452 -435 -543 578 0
41914 -435 -543 -578 0
19565 575 553 421 -583 0
1505 575 553 -421 583 0
20092 575 553 -421 -583 0
602 575 -553 421 583 0
19776 575 -553 421 -583 0
2077 575 -553 -421 583 0
20292 575 -553 -421 -583 0
12040 -575 553 421 583 0
23779 -575 553 421 -583 0
12943 -575 553 -421 583 0
24095 -575 553 -421 -583 0
12401 -575 -553 421 583 0
23905 -575 -553 421 -583 0
13286 -575 -553 -421 583 0
24215 -575 -553 -421 -583 0
15660 568 -580 0
10440 -568 580 0
22968 -568 -580 0
14210 562 521 -585 0
18270 562 -521 585 0
26085 562 -521 -585 0
30450 -562 521 585 0
34003 -562 521 -585 0
35018 -562 -521 585 0
36971 -562 -521 -585 0
6336 498 -591 0
15840 -498 591 0
19325 -498 -591 0
18270 569 592 584 -180 0
30450 569 592 -584 180 0
39585 569 592 -584 -180 0
6090 569 -592 584 180 0
22533 569 -592 584 -180 0
33495 569 -592 -584 180 0
41717 569 -592 -584 -180 0
19488 -569 592 584 180 0
31912 -569 592 584 -180 0
40194 -569 592 -584 180 0
46406 -569 592 -584 -180 0
23629 -569 -592 584 180 0
34810 -569 -592 584 -180 0
42265 -569 -592 -584 180 0
47855 -569 -592 -584 -180 0
35555 579 -576 0
38290 -579 576 0
48956 -579 -576 0
26100 577 -383 0
23490 -577 383 0
37845 -577 -383 0
43900 590 -603 0
15804 -590 603 0
51802 -590 -603 0
29080 570 599 394 605 -581 0
7270 570 599 394 -605 581 0
33442 570 599 394 -605 -581 0
39985 570 599 -394 605 581 0
53071 570 599 -394 605 -581 0
43256 570 599 -394 -605 581 0
55034 570 599 -394 -605 -581 0
21810 570 -599 394 605 581 0
42166 570 -599 394 605 -581 0
26899 570 -599 394 -605 581 0
45219 570 -599 394 -605 -581 0
49800 570 -599 -394 605 581 0
58960 570 -599 -394 605 -581 0
52090 570 -599 -394 -605 581 0
60334 570 -599 -394 -605 -581 0
25445 -570 599 394 605 581 0
44347 -570 599 394 605 -581 0
30170 -570 599 394 -605 581 0
47182 -570 599 394 -605 -581 0
51435 -570 599 -394 605 581 0
59941 -570 599 -394 605 -581 0
53562 -570 599 -394 -605 581 0
61217 -570 599 -394 -605 -581 0
39622 -570 -599 394 605 581 0
52853 -570 -599 394 605 -581 0
42929 -570 -599 394 -605 581 0
54838 -570 -599 394 -605 -581 0
57815 -570 -599 -394 605 581 0
63769 -570 -599 -394 605 -581 0
59303 -570 -599 -394 -605 581 0
64662 -570 -599 -394 -605 -581 0
36290 586 524 -606 0
24830 586 -524 606 0
37531 586 -524 -606 0
15280 -586 524 606 0
37054 -586 524 -606 0
30178 -586 -524 606 0
37799 -586 -524 -606 0
24360 473 604 609 -602 0
4060 473 604 -609 602 0
25984 473 604 -609 -602 0
4060 473 -604 609 602 0
25984 473 -604 609 -602 0
7714 473 -604 -609 602 0
27446 473 -604 -609 -602 0
10150 -473 604 609 602 0
28420 -473 604 609 -602 0
13195 -473 604 -609 602 0
29638 -473 604 -609 -602 0
13195 -473 -604 609 602 0
29638 -473 -604 609 -602 0
15935 -473 -604 -609 602 0
30734 -473 -604 -609 -602 0
10068 491 612 -610 0
29365 491 -612 610 0
35909 491 -612 -610 0
4195 -491 612 610 0
13760 -491 612 -610 0
32092 -491 -612 610 0
38309 -491 -612 -610 0
24830 -547 0
6264 474 -617 0
15660 -474 617 0
20045 -474 -617 0
12800 611 -615 0
20800 -611 615 0
25280 -611 -615 0
29520 616 618 -459 0
34440 616 -618 459 0
43296 616 -618 -459 0
27060 -616 618 459 0
40344 -616 618 -459 0
42558 -616 -618 459 0
46543 -616 -618 -459 0
18270 500 -181 0
24360 -500 181 0
31668 -500 -181 0
19360 182 183 600 571 -203 0
1760 182 183 600 -571 203 0
20152 182 183 600 -571 -203 0
17600 182 183 -600 571 203 0
27280 182 183 -600 571 -203 0
18480 182 183 -600 -571 203 0
27676 182 183 -600 -571 -203 0
21120 182 -183 600 571 203 0
28864 182 -183 600 571 -203 0
21824 182 -183 600 -571 203 0
29181 182 -183 600 -571 -203 0
28160 182 -183 -600 571 203 0
32032 182 -183 -600 571 -203 0
28512 182 -183 -600 -571 203 0
32190 182 -183 -600 -571 -203 0
15840 -182 183 600 571 203 0
26488 -182 183 600 571 -203 0
16808 -182 183 600 -571 203 0
26924 -182 183 600 -571 -203 0
25520 -182 183 -600 571 203 0
30844 -182 183 -600 571 -203 0
26004 -182 183 -600 -571 203 0
31062 -182 183 -600 -571 -203 0
27456 -182 -183 600 571 203 0
31715 -182 -183 600 571 -203 0
27843 -182 -183 600 -571 203 0
31889 -182 -183 600 -571 -203 0
31328 -182 -183 -600 571 203 0
33458 -182 -183 -600 571 -203 0
31522 -182 -183 -600 -571 203 0
33545 -182 -183 -600 -571 -203 0
57545 613 464 -587 0
60930 613 -464 587 0
66685 613 -464 -587 0
40620 -613 464 587 0
63638 -613 464 -587 0
64992 -613 -464 587 0
67294 -613 -464 -587 0
1580 307 -187 0
67150 -307 187 0
67387 -307 -187 0
38760 185 184 588 -444 0
25840 185 184 -588 444 0
49096 185 184 -588 -444 0
32300 185 -184 588 444 0
51680 185 -184 588 -444 0
45220 185 -184 -588 444 0
56848 185 -184 -588 -444 0
41990 -185 184 588 444 0
55556 -185 184 588 -444 0
51034 -185 184 -588 444 0
59174 -185 184 -588 -444 0
53295 -185 -184 588 444 0
60078 -185 -184 588 -444 0
57817 -185 -184 -588 444 0
61887 -185 -184 -588 -444 0
11325 493 598 -190 0
22650 493 -598 190 0
28312 493 -598 -190 0
6795 -493 598 190 0
16421 -493 598 -190 0
26047 -493 -598 190 0
30861 -493 -598 -190 0
24600 188 192 607 593 -619 0
8856 188 192 607 -593 619 0
29028 188 192 607 -593 -619 0
9840 188 192 -607 593 619 0
29520 188 192 -607 593 -619 0
16925 188 192 -607 -593 619 0
33062 188 192 -607 -593 -619 0
14760 188 -192 607 593 619 0
31980 188 -192 607 593 -619 0
20959 188 -192 607 -593 619 0
35080 188 -192 607 -593 -619 0
21648 188 -192 -607 593 619 0
35424 188 -192 -607 593 -619 0
26607 188 -192 -607 -593 619 0
37904 188 -192 -607 -593 -619 0
8856 -188 192 607 593 619 0
29028 -188 192 607 593 -619 0
16118 -188 192 607 -593 619 0
32659 -188 192 607 -593 -619 0
16925 -188 192 -607 593 619 0
33062 -188 192 -607 593 -619 0
22734 -188 192 -607 -593 619 0
35967 -188 192 -607 -593 -619 0
20959 -188 -192 607 593 619 0
35080 -188 -192 607 593 -619 0
26043 -188 -192 607 -593 619 0
37621 -188 -192 607 -593 -619 0
26607 -188 -192 -607 593 619 0
37904 -188 -192 -607 593 -619 0
30674 -188 -192 -607 -593 619 0
39937 -188 -192 -607 -593 -619 0
14220 614 198 196 -620 0
30020 614 198 -196 620 0
38836 614 198 -196 -620 0
63200 614 -198 196 620 0
66044 614 -198 196 -620 0
69204 614 -198 -196 620 0
70967 614 -198 -196 -620 0
30020 -614 198 196 620 0
38836 -614 198 196 -620 0
48632 -614 198 -196 620 0
54099 -614 198 -196 -620 0
69204 -614 -198 196 620 0
70967 -614 -198 196 -620 0
72926 -614 -198 -196 620 0
74020 -614 -198 -196 -620 0
42630 594 199 335 -200 0
21315 594 199 -335 200 0
49024 594 199 -335 -200 0
15225 594 -199 335 200 0
47197 594 -199 335 -200 0
31211 594 -199 -335 200 0
51993 594 -199 -335 -200 0
27405 -594 199 335 200 0
50851 -594 199 335 -200 0
39128 -594 199 -335 200 0
54368 -594 199 -335 -200 0
35779 -594 -199 335 200 0
53364 -594 -199 335 -200 0
44571 -594 -199 -335 200 0
56001 -594 -199 -335 -200 0
8000 565 193 -186 0
28800 565 -193 186 0
29600 565 -193 -186 0
17600 -565 193 186 0
21200 -565 193 -186 0
30560 -565 -193 186 0
30920 -565 -193 -186 0
21070 197 480 -213 0
9030 197 -480 213 0
23779 197 -480 -213 0
28595 -197 480 213 0
29649 -197 480 -213 0
29046 -197 -480 213 0
29784 -197 -480 -213 0
23695 214 -582 0
25726 -214 582 0
40417 -214 -582 0
32300 194 209 572 -201 0
22610 194 209 -572 201 0
43605 194 209 -572 -201 0
54910 194 -209 572 201 0
59755 194 -209 572 -201 0
58301 194 -209 -572 201 0
61451 194 -209 -572 -201 0
54910 -194 209 572 201 0
59755 -194 209 572 -201 0
58301 -194 209 -572 201 0
61451 -194 209 -572 -201 0
63147 -194 -209 572 201 0
63873 -194 -209 572 -201 0
63655 -194 -209 -572 201 0
64128 -194 -209 -572 -201 0
13600 541 -191 0
27625 -541 191 0
32385 -541 -191 0
25200 168 -608 0
30800 -168 608 0
42140 -168 -608 0
45220 217 210 412 -621 0
11628 217 210 -412 621 0
48708 217 210 -412 -621 0
19380 217 -210 412 621 0
51034 217 -210 412 -621 0
27520 217 -210 -412 621 0
53476 217 -210 -412 -621 0
61370 -217 210 412 621 0
63631 -217 210 412 -621 0
61951 -217 210 -412 621 0
63805 -217 210 -412 -621 0
62339 -217 -210 412 621 0
63922 -217 -210 412 -621 0
62746 -217 -210 -412 621 0
64044 -217 -210 -412 -621 0
24360 195 226 422 -219 0
28420 195 226 -422 219 0
35728 195 226 -422 -219 0
10150 195 -226 422 219 0
28420 195 -226 422 -219 0
31465 195 -226 -422 219 0
36946 195 -226 -422 -219 0
15428 -195 226 422 219 0
30531 -195 226 422 -219 0
33048 -195 226 -422 219 0
37579 -195 226 -422 -219 0
21721 -195 -226 422 219 0
33048 -195 -226 422 -219 0
34936 -195 -226 -422 219 0
38335 -195 -226 -422 -219 0
22575 224 -202 0
22575 -224 202 0
28219 -224 -202 0
20100 -436 0
7308 215 528 -218 0
10150 215 -528 218 0
15631 215 -528 -218 0
34510 -215 528 218 0
35606 -215 528 -218 0
36032 -215 -528 218 0
36855 -215 -528 -218 0
6564 220 574 -227 0
41025 220 -574 227 0
42666 220 -574 -227 0
30085 -220 574 227 0
33039 -220 574 -227 0
48546 -220 -574 227 0
49285 -220 -574 -227 0
23695 241 228 -589 0
10155 241 -228 589 0
30296 241 -228 -589 0
8124 -241 228 589 0
28976 -241 228 -589 0
17060 -241 -228 589 0
34784 -241 -228 -589 0
5760 243 237 216 239 -517 0
8000 243 237 216 -239 517 0
12320 243 237 216 -239 -517 0
8000 243 237 -216 239 517 0
12320 243 237 -216 239 -517 0
14000 243 237 -216 -239 517 0
17240 243 237 -216 -239 -517 0
19200 243 -237 216 239 517 0
21504 243 -237 216 239 -517 0
22400 243 -237 216 -239 517 0
24128 243 -237 216 -239 -517 0
22400 243 -237 -216 239 517 0
24128 243 -237 -216 239 -517 0
24800 243 -237 -216 -239 517 0
26096 243 -237 -216 -239 -517 0
3840 -243 237 216 239 517 0
8909 -243 237 216 239 -517 0
10880 -243 237 216 -239 517 0
14682 -243 237 216 -239 -517 0
10880 -243 237 -216 239 517 0
14682 -243 237 -216 239 -517 0
16160 -243 237 -216 -239 517 0
19011 -243 237 -216 -239 -517 0
20736 -243 -237 216 239 517 0
22764 -243 -237 216 239 -517 0
23552 -243 -237 216 -239 517 0
25073 -243 -237 216 -239 -517 0
23552 -243 -237 -216 239 517 0
25073 -243 -237 -216 239 -517 0
25664 -243 -237 -216 -239 517 0
26804 -243 -237 -216 -239 -517 0
16150 242 221 -244 0
25500 242 -221 244 0
31960 242 -221 -244 0
14875 -242 221 244 0
25372 -242 221 -244 0
31450 -242 -221 244 0
35649 -242 -221 -244 0
39585 247 509 229 230 -225 0
23142 247 509 229 -230 225 0
47685 247 509 229 -230 -225 0
39585 247 509 -229 230 225 0
53440 247 509 -229 230 -225 0
47685 247 509 -229 -230 225 0
56275 247 509 -229 -230 -225 0
36540 247 -509 229 230 225 0
52374 247 -509 229 230 -225 0
45797 247 -509 229 -230 225 0
55614 247 -509 229 -230 -225 0
52374 247 -509 -229 230 225 0
57916 247 -509 -229 230 -225 0
55614 247 -509 -229 -230 225 0
59050 247 -509 -229 -230 -225 0
10962 -247 509 229 230 225 0
43422 -247 509 229 230 -225 0
29938 -247 509 229 -230 225 0
50063 -247 509 229 -230 -225 0
43422 -247 509 -229 230 225 0
54783 -247 509 -229 230 -225 0
50063 -247 509 -229 -230 225 0
57107 -247 509 -229 -230 -225 0
40925 -247 -509 229 230 225 0
53909 -247 -509 229 230 -225 0
48515 -247 -509 229 -230 225 0
56565 -247 -509 229 -230 -225 0
53909 -247 -509 -229 230 225 0
58453 -247 -509 -229 230 -225 0
56565 -247 -509 -229 -230 225 0
59383 -247 -509 -229 -230 -225 0
43620 248 204 -222 0
29080 248 -204 222 0
55252 248 -204 -222 0
1454 -248 204 222 0
44202 -248 204 -222 0
29952 -248 -204 222 0
55601 -248 -204 -222 0
19380 231 554 -223 0
25840 231 -554 223 0
37468 231 -554 -223 0
41990 -231 554 223 0
48773 -231 554 -223 0
51034 -231 -554 223 0
55104 -231 -554 -223 0
20800 -423 0
16240 245 -211 0
22330 -245 211 0
29638 -245 -211 0
27060 249 238 -460 0
19680 249 -238 460 0
35916 249 -238 -460 0
46740 -249 238 460 0
48093 -249 238 -460 0
47724 -249 -238 460 0
48536 -249 -238 -460 0
3950 252 369 240 -250 0
25280 252 369 -240 250 0
27966 252 369 -240 -250 0
71100 252 -369 240 250 0
71495 252 -369 240 -250 0
73628 252 -369 -240 250 0
73897 252 -369 -240 -250 0
1580 -252 369 240 250 0
5451 -252 369 240 -250 0
26354 -252 369 -240 250 0
28987 -252 369 -240 -250 0
71258 -252 -369 240 250 0
71645 -252 -369 240 -250 0
73735 -252 -369 -240 250 0
73999 -252 -369 -240 -250 0
35530 -350 0
11438 337 271 265 -267 0
27090 337 271 -265 267 0
28234 337 271 -265 -267 0
27090 337 -271 265 267 0
28234 337 -271 265 -267 0
29799 337 -271 -265 267 0
29913 337 -271 -265 -267 0
16555 -337 271 265 267 0
21702 -337 271 265 -267 0
28746 -337 271 -265 267 0
29260 -337 271 -265 -267 0
28746 -337 -271 265 267 0
29260 -337 -271 265 -267 0
29965 -337 -271 -265 267 0
30016 -337 -271 -265 -267 0
61370 424 -269 0
6460 -424 269 0
61693 -424 -269 0
17600 274 -391 0
31680 -274 391 0
33440 -274 -391 0
7752 268 -232 0
61370 -268 232 0
61758 -268 -232 0
20300 270 401 -257 0
6090 270 -401 257 0
23345 270 -401 -257 0
26390 -270 401 257 0
33495 -270 401 -257 0
28522 -270 -401 257 0
34561 -270 -401 -257 0
69065 531 -272 0
27626 -531 272 0
70446 -531 -272 0
75510 280 560 266 -276 0
62925 280 560 -266 276 0
81802 280 560 -266 -276 0
4195 280 -560 266 276 0
75930 280 -560 266 -276 0
63974 280 -560 -266 276 0
81907 280 -560 -266 -276 0
67120 -280 560 266 276 0
82222 -280 560 266 -276 0
79705 -280 560 -266 276 0
83480 -280 560 -266 -276 0
67959 -280 -560 266 276 0
82306 -280 -560 266 -276 0
79915 -280 -560 -266 276 0
83501 -280 -560 -266 -276 0
17000 289 -601 0
17000 -289 601 0
27200 -289 -601 0
6876 254 282 418 -246 0
17190 254 282 -418 246 0
20972 254 282 -418 -246 0
22920 254 -282 418 246 0
25670 254 -282 418 -246 0
29796 254 -282 -418 246 0
31309 254 -282 -418 -246 0
34380 -254 282 418 246 0
35068 -254 282 418 -246 0
36099 -254 282 -418 246 0
36477 -254 282 -418 -246 0
36672 -254 -282 418 246 0
36947 -254 -282 418 -246 0
37360 -254 -282 -418 246 0
37511 -254 -282 -418 -246 0
19200 275 -440 0
24000 -275 440 0
28800 -275 -440 0
22610 281 291 293 255 -294 0
6460 281 291 293 -255 294 0
26809 281 291 293 -255 -294 0
32300 281 291 -293 255 294 0
43605 281 291 -293 255 -294 0
35530 281 291 -293 -255 294 0
45705 281 291 -293 -255 -294 0
25840 281 -291 293 255 294 0
39406 281 -291 293 255 -294 0
29716 281 -291 293 -255 294 0
41925 281 -291 293 -255 -294 0
45220 281 -291 -293 255 294 0
52003 281 -291 -293 255 -294 0
47158 281 -291 -293 -255 294 0
53263 281 -291 -293 -255 -294 0
1292 -281 291 293 255 294 0
23450 -281 291 293 255 -294 0
7623 -281 291 293 -255 294 0
27565 -281 291 293 -255 -294 0
32946 -281 291 -293 255 294 0
44025 -281 291 -293 255 -294 0
36111 -281 291 -293 -255 294 0
46082 -281 291 -293 -255 -294 0
26615 -281 -291 293 255 294 0
39910 -281 -291 293 255 -294 0
30414 -281 -291 293 -255 294 0
42379 -281 -291 293 -255 -294 0
45608 -281 -291 -293 255 294 0
52255 -281 -291 -293 255 -294 0
47507 -281 -291 -293 -255 294 0
53489 -281 -291 -293 -255 -294 0
14210 290 260 277 -258 0
22330 290 260 -277 258 0
28725 290 260 -277 -258 0
12180 290 -260 277 258 0
22127 290 -260 277 -258 0
27811 290 -260 -277 258 0
32287 290 -260 -277 -258 0
7308 -290 260 277 258 0
18960 -290 260 277 -258 0
25619 -290 260 -277 258 0
30862 -290 260 -277 -258 0
17296 -290 -260 277 258 0
25452 -290 -260 277 -258 0
30113 -290 -260 -277 258 0
33783 -290 -260 -277 -258 0
36125 504 256 -298 0
27625 504 -256 298 0
40269 504 -256 -298 0
850 -504 256 298 0
36252 -504 256 -298 0
27923 -504 -256 298 0
40313 -504 -256 -298 0
20975 296 -557 0
79705 -296 557 0
80754 -296 -557 0
25200 299 -494 0
25200 -299 494 0
39060 -299 -494 0
13370 278 303 408 283 -300 0
764 278 303 408 -283 300 0
13867 278 303 408 -283 -300 0
764 278 303 -408 283 300 0
13867 278 303 -408 283 -300 0
1513 278 303 -408 -283 300 0
14353 278 303 -408 -283 -300 0
4584 278 -303 408 283 300 0
16350 278 -303 408 283 -300 0
5256 278 -303 408 -283 300 0
16787 278 -303 408 -283 -300 0
5256 278 -303 -408 283 300 0
16787 278 -303 -408 283 -300 0
5915 278 -303 -408 -283 300 0
17215 278 -303 -408 -283 -300 0
17190 -278 303 408 283 300 0
24543 -278 303 408 283 -300 0
17610 -278 303 408 -283 300 0
24817 -278 303 408 -283 -300 0
17610 -278 303 -408 283 300 0
24817 -278 303 -408 283 -300 0
18022 -278 303 -408 -283 300 0
25084 -278 303 -408 -283 -300 0
19711 -278 -303 408 283 300 0
26182 -278 -303 408 283 -300 0
20081 -278 -303 408 -283 300 0
26423 -278 -303 408 -283 -300 0
20081 -278 -303 -408 283 300 0
26423 -278 -303 -408 283 -300 0
20443 -278 -303 -408 -283 300 0
26658 -278 -303 -408 -283 -300 0
39585 251 279 -301 0
39585 251 -279 301 0
53440 251 -279 -301 0
15225 -251 279 301 0
44914 -251 279 -301 0
44914 -251 -279 301 0
55305 -251 -279 -301 0
9632 189 253 304 -297 0
16555 189 253 -304 297 0
20889 189 253 -304 -297 0
28595 189 -253 304 297 0
29077 189 -253 304 -297 0
29423 189 -253 -304 297 0
29639 189 -253 -304 -297 0
27090 -189 253 304 297 0
28053 -189 253 304 -297 0
28746 -189 253 -304 297 0
29179 -189 253 -304 -297 0
29950 -189 -253 304 297 0
29998 -189 -253 304 -297 0
30032 -189 -253 -304 297 0
30054 -189 -253 -304 -297 0
22400 292 -212 0
3840 -292 212 0
23552 -292 -212 0
17220 -595 0
21664 -284 0
6400 311 295 413 305 -312 0
28800 311 295 413 -305 312 0
29440 311 295 413 -305 -312 0
640 311 295 -413 305 312 0
6912 311 295 -413 305 -312 0
28864 311 295 -413 -305 312 0
29491 311 295 -413 -305 -312 0
3200 311 -295 413 305 312 0
8960 311 -295 413 305 -312 0
29120 311 -295 413 -305 312 0
29696 311 -295 413 -305 -312 0
3776 311 -295 -413 305 312 0
9421 311 -295 -413 305 -312 0
29178 311 -295 -413 -305 312 0
29742 311 -295 -413 -305 -312 0
16000 -311 295 413 305 312 0
19200 -311 295 413 305 -312 0
30400 -311 295 413 -305 312 0
30720 -311 295 413 -305 -312 0
16320 -311 295 -413 305 312 0
19456 -311 295 -413 305 -312 0
30432 -311 295 -413 -305 312 0
30746 -311 295 -413 -305 -312 0
17600 -311 -295 413 305 312 0
20480 -311 -295 413 305 -312 0
30560 -311 -295 413 -305 312 0
30848 -311 -295 413 -305 -312 0
17888 -311 -295 -413 305 312 0
20710 -311 -295 -413 305 -312 0
30589 -311 -295 -413 -305 312 0
30871 -311 -295 -413 -305 -312 0
1675 484 -315 0
1675 -484 315 0
3266 -484 -315 0
22650 495 313 316 -314 0
33975 495 313 -316 314 0
39638 495 313 -316 -314 0
33975 495 -313 316 314 0
39638 495 -313 316 -314 0
42469 495 -313 -316 314 0
43884 495 -313 -316 -314 0
29445 -495 313 316 314 0
37372 -495 313 316 -314 0
41336 -495 313 -316 314 0
43318 -495 313 -316 -314 0
41336 -495 -313 316 314 0
43318 -495 -313 316 -314 0
44309 -495 -313 -316 314 0
44805 -495 -313 -316 -314 0
34440 302 306 273 310 -285 0
39360 302 306 273 -310 285 0
46248 302 306 273 -310 -285 0
2460 302 306 -273 310 285 0
35178 302 306 -273 310 -285 0
39852 302 306 -273 -310 285 0
46396 302 306 -273 -310 -285 0
5904 302 -306 273 310 285 0
36211 302 -306 273 310 -285 0
40541 302 -306 273 -310 285 0
46602 302 -306 273 -310 -285 0
8069 302 -306 -273 310 285 0
36861 302 -306 -273 310 -285 0
40974 302 -306 -273 -310 285 0
46732 302 -306 -273 -310 -285 0
29520 -302 306 273 310 285 0
43296 -302 306 273 310 -285 0
45264 -302 306 273 -310 285 0
48019 -302 306 273 -310 -285 0
30504 -302 306 -273 310 285 0
43591 -302 306 -273 310 -285 0
45461 -302 306 -273 -310 285 0
48078 -302 306 -273 -310 -285 0
31882 -302 -306 273 310 285 0
44004 -302 -306 273 310 -285 0
45736 -302 -306 273 -310 285 0
48161 -302 -306 273 -310 -285 0
32748 -302 -306 -273 310 285 0
44264 -302 -306 -273 310 -285 0
45910 -302 -306 -273 -310 285 0
48213 -302 -306 -273 -310 -285 0
