p wcnf 77 249 1000000
1000000 1 0
1000000 2 -18 0
1000000 18 -56 -1 0
1000000 3 -19 0
1000000 19 -58 -57 -1 0
1000000 4 -20 0
1000000 20 -59 -62 -1 0
1000000 7 -21 0
1000000 21 -65 -61 -1 0
1000000 10 -22 0
1000000 22 -63 -67 -1 0
1000000 3 -23 0
1000000 23 -69 -64 -2 0
1000000 4 -24 0
1000000 24 -66 -2 0
1000000 6 -25 0
1000000 25 -56 -68 -2 0
1000000 7 -26 0
1000000 26 -71 -57 -59 -2 0
1000000 8 -27 0
1000000 27 -70 -62 -2 0
1000000 14 -28 0
1000000 28 -60 -11 0
1000000 16 -29 0
1000000 29 -64 -55 -11 0
1000000 15 -30 0
1000000 30 -58 -14 0
1000000 16 -31 0
1000000 31 -66 -67 -65 -14 0
1000000 16 -32 0
1000000 32 -60 -15 0
1000000 17 -33 0
1000000 33 -68 -70 -16 0
1000000 12 -34 0
1000000 34 -57 -59 -71 -3 0
1000000 5 -35 0
1000000 35 -61 -69 -63 -3 0
1000000 6 -36 0
1000000 36 -58 -55 -3 0
1000000 6 -37 0
1000000 37 -56 -4 0
1000000 8 -38 0
1000000 38 -55 -60 -66 -4 0
1000000 10 -39 0
1000000 39 -68 -63 -69 -4 0
1000000 11 -40 0
1000000 40 -56 -71 -55 -5 0
1000000 13 -41 0
1000000 41 -64 -5 0
1000000 13 -42 0
1000000 42 -61 -6 0
1000000 14 -43 0
1000000 43 -67 -6 0
1000000 9 -44 0
1000000 44 -70 -6 0
1000000 10 -45 0
1000000 45 -57 -62 -6 0
1000000 11 -46 0
1000000 46 -58 -65 -7 0
1000000 14 -47 0
1000000 47 -61 -7 0
1000000 15 -48 0
1000000 48 -68 -59 -64 -7 0
1000000 10 -49 0
1000000 49 -63 -66 -7 0
1000000 13 -50 0
1000000 50 -55 -67 -69 -8 0
1000000 12 -51 0
1000000 51 -71 -62 -57 -9 0
1000000 15 -52 0
1000000 52 -60 -9 0
1000000 16 -53 0
1000000 53 -59 -62 -56 -9 0
1000000 12 -54 0
1000000 54 -63 -61 -10 0
1000000 1 0
1000000 -2 18 0
1000000 -3 23 19 0
1000000 -4 20 24 0
1000000 -5 35 0
1000000 -6 25 37 36 0
1000000 -7 26 21 0
1000000 -8 27 38 0
1000000 -9 44 0
1000000 -10 49 39 22 45 0
1000000 -11 46 40 0
1000000 -12 54 34 51 0
1000000 -13 41 50 42 0
1000000 -14 47 43 28 0
1000000 -15 52 30 48 0
1000000 -16 31 53 32 29 0
1000000 -17 33 0
1000000 55 77 0
1000000 56 74 0
1000000 57 75 0
1000000 58 75 0
1000000 59 73 0
1000000 60 76 0
1000000 61 77 0
1000000 62 77 0
1000000 63 74 0
1000000 64 73 0
1000000 65 76 0
1000000 66 75 0
1000000 67 72 0
1000000 68 76 0
1000000 69 73 0
1000000 70 72 0
1000000 71 72 0
1000000 -55 -77 0
1000000 -56 -74 0
1000000 -57 -75 0
1000000 -58 -75 0
1000000 -59 -73 0
1000000 -60 -76 0
1000000 -61 -77 0
1000000 -62 -77 0
1000000 -63 -74 0
1000000 -64 -73 0
1000000 -65 -76 0
1000000 -66 -75 0
1000000 -67 -72 0
1000000 -68 -76 0
1000000 -69 -73 0
1000000 -70 -72 0
1000000 -71 -72 0
11200 -72 0
9400 -73 0
11200 -74 0
11000 -75 0
11000 -76 0
11200 -77 0
1600 55 0
1900 56 0
3200 57 0
1900 58 0
2500 59 0
2700 60 0
2700 61 0
1900 62 0
2700 63 0
2500 64 0
800 65 0
800 66 0
3200 67 0
3200 68 0
1900 69 0
2700 70 0
2700 71 0
17400 -18 0
29580 23 -19 0
33060 -23 19 0
34539 -23 -19 0
2340 20 -24 0
11115 -20 24 0
11232 -20 -24 0
12100 -35 0
12000 25 37 -36 0
12000 25 -37 36 0
20400 25 -37 -36 0
14000 -25 37 36 0
21800 -25 37 -36 0
21800 -25 -37 36 0
27260 -25 -37 -36 0
382 26 -21 0
4775 -26 21 0
5062 -26 -21 0
28390 27 -38 0
8350 -27 38 0
29643 -27 -38 0
39330 -44 0
11600 49 39 22 -45 0
26100 49 39 -22 45 0
27260 49 39 -22 -45 0
18850 49 -39 22 45 0
22910 49 -39 22 -45 0
27985 49 -39 -22 45 0
28391 49 -39 -22 -45 0
11600 -49 39 22 45 0
18560 -49 39 22 -45 0
27260 -49 39 -22 45 0
27956 -49 39 -22 -45 0
22910 -49 -39 22 45 0
25346 -49 -39 22 -45 0
28391 -49 -39 -22 45 0
28635 -49 -39 -22 -45 0
22000 46 -40 0
36000 -46 40 0
38200 -46 -40 0
8100 54 34 -51 0
3375 54 -34 51 0
9450 54 -34 -51 0
6075 -54 34 51 0
10530 -54 34 -51 0
7931 -54 -34 51 0
11272 -54 -34 -51 0
21250 41 50 -42 0
22500 41 -50 42 0
24625 41 -50 -42 0
3750 -41 50 42 0
21812 -41 50 -42 0
22875 -41 -50 42 0
24681 -41 -50 -42 0
14885 47 43 -28 0
20610 47 -43 28 0
22098 47 -43 -28 0
16030 -47 43 28 0
20496 -47 43 -28 0
22213 -47 -43 28 0
22660 -47 -43 -28 0
14885 52 30 -48 0
3435 52 -30 48 0
16087 52 -30 -48 0
2290 -52 30 48 0
15687 -52 30 -48 0
5381 -52 -30 48 0
16769 -52 -30 -48 0
7350 31 53 32 -29 0
13965 31 53 -32 29 0
14332 31 53 -32 -29 0
2205 31 -53 32 29 0
8452 31 -53 32 -29 0
14075 31 -53 -32 29 0
14388 31 -53 -32 -29 0
11025 -31 53 32 29 0
12862 -31 53 32 -29 0
14516 -31 53 -32 29 0
14608 -31 53 -32 -29 0
11576 -31 -53 32 29 0
13138 -31 -53 32 -29 0
14544 -31 -53 -32 29 0
14622 -31 -53 -32 -29 0
11970 -33 0
