p wcnf 1091 4781 1000000
1000000 1 0
1000000 2 -199 0
1000000 199 -783 -781 -779 -1 0
1000000 166 -200 0
1000000 200 -789 -780 -788 -1 0
1000000 181 -201 0
1000000 201 -784 -1 0
1000000 3 -202 0
1000000 202 -785 -1 0
1000000 21 -203 0
1000000 203 -778 -791 -1 0
1000000 23 -204 0
1000000 204 -786 -1 0
1000000 4 -205 0
1000000 205 -787 -792 -1 0
1000000 5 -206 0
1000000 206 -793 -1 0
1000000 41 -207 0
1000000 207 -794 -795 -796 -1 0
1000000 10 -208 0
1000000 208 -798 -802 -797 -1 0
1000000 120 -209 0
1000000 209 -790 -2 0
1000000 151 -210 0
1000000 210 -800 -799 -2 0
1000000 26 -211 0
1000000 211 -808 -805 -804 -2 0
1000000 37 -212 0
1000000 212 -782 -803 -811 -2 0
1000000 5 -213 0
1000000 213 -813 -806 -807 -2 0
1000000 49 -214 0
1000000 214 -809 -815 -2 0
1000000 7 -215 0
1000000 215 -812 -814 -2 0
1000000 66 -216 0
1000000 216 -816 -2 0
1000000 9 -217 0
1000000 217 -810 -822 -820 -2 0
1000000 14 -218 0
1000000 218 -821 -801 -11 0
1000000 16 -219 0
1000000 219 -817 -823 -828 -11 0
1000000 25 -220 0
1000000 220 -819 -825 -11 0
1000000 39 -221 0
1000000 221 -830 -824 -827 -11 0
1000000 104 -222 0
1000000 222 -829 -101 0
1000000 109 -223 0
1000000 223 -831 -101 0
1000000 113 -224 0
1000000 224 -832 -101 0
1000000 153 -225 0
1000000 225 -833 -836 -101 0
1000000 158 -226 0
1000000 226 -818 -834 -840 -101 0
1000000 103 -227 0
1000000 227 -826 -102 0
1000000 105 -228 0
1000000 228 -838 -102 0
1000000 105 -229 0
1000000 229 -837 -103 0
1000000 106 -230 0
1000000 230 -835 -103 0
1000000 137 -231 0
1000000 231 -847 -844 -839 -103 0
1000000 142 -232 0
1000000 232 -843 -103 0
1000000 110 -233 0
1000000 233 -841 -104 0
1000000 123 -234 0
1000000 234 -842 -104 0
1000000 138 -235 0
1000000 235 -848 -853 -852 -104 0
1000000 107 -236 0
1000000 236 -846 -849 -854 -105 0
1000000 117 -237 0
1000000 237 -845 -859 -857 -105 0
1000000 146 -238 0
1000000 238 -862 -863 -850 -105 0
1000000 108 -239 0
1000000 239 -856 -861 -106 0
1000000 109 -240 0
1000000 240 -858 -106 0
1000000 155 -241 0
1000000 241 -865 -866 -106 0
1000000 108 -242 0
1000000 242 -870 -867 -868 -107 0
1000000 109 -243 0
1000000 243 -864 -871 -873 -107 0
1000000 111 -244 0
1000000 244 -860 -851 -108 0
1000000 118 -245 0
1000000 245 -855 -876 -879 -108 0
1000000 117 -246 0
1000000 246 -875 -872 -109 0
1000000 118 -247 0
1000000 247 -881 -880 -877 -109 0
1000000 120 -248 0
1000000 248 -883 -874 -110 0
1000000 125 -249 0
1000000 249 -869 -110 0
1000000 14 -250 0
1000000 250 -884 -882 -887 -12 0
1000000 15 -251 0
1000000 251 -891 -886 -889 -12 0
1000000 17 -252 0
1000000 252 -878 -12 0
1000000 31 -253 0
1000000 253 -888 -896 -895 -12 0
1000000 46 -254 0
1000000 254 -898 -900 -897 -12 0
1000000 59 -255 0
1000000 255 -885 -12 0
1000000 81 -256 0
1000000 256 -894 -893 -904 -12 0
1000000 113 -257 0
1000000 257 -905 -899 -907 -111 0
1000000 114 -258 0
1000000 258 -903 -906 -111 0
1000000 113 -259 0
1000000 259 -892 -908 -112 0
1000000 127 -260 0
1000000 260 -890 -912 -911 -112 0
1000000 184 -261 0
1000000 261 -917 -914 -913 -112 0
1000000 118 -262 0
1000000 262 -915 -901 -113 0
1000000 119 -263 0
1000000 263 -921 -920 -922 -113 0
1000000 130 -264 0
1000000 264 -918 -916 -113 0
1000000 134 -265 0
1000000 265 -909 -113 0
1000000 116 -266 0
1000000 266 -923 -924 -114 0
1000000 120 -267 0
1000000 267 -930 -929 -925 -114 0
1000000 120 -268 0
1000000 268 -910 -115 0
1000000 122 -269 0
1000000 269 -931 -933 -932 -115 0
1000000 131 -270 0
1000000 270 -928 -937 -936 -115 0
1000000 117 -271 0
1000000 271 -919 -116 0
1000000 118 -272 0
1000000 272 -902 -926 -116 0
1000000 168 -273 0
1000000 273 -934 -116 0
1000000 120 -274 0
1000000 274 -938 -117 0
1000000 122 -275 0
1000000 275 -942 -940 -117 0
1000000 120 -276 0
1000000 276 -945 -927 -943 -118 0
1000000 121 -277 0
1000000 277 -939 -118 0
1000000 145 -278 0
1000000 278 -950 -946 -944 -118 0
1000000 123 -279 0
1000000 279 -947 -948 -119 0
1000000 124 -280 0
1000000 280 -953 -956 -954 -119 0
1000000 121 -281 0
1000000 281 -949 -120 0
1000000 123 -282 0
1000000 282 -935 -120 0
1000000 17 -283 0
1000000 283 -961 -941 -957 -13 0
1000000 161 -284 0
1000000 284 -964 -955 -963 -13 0
1000000 18 -285 0
1000000 285 -958 -13 0
1000000 20 -286 0
1000000 286 -967 -960 -959 -13 0
1000000 22 -287 0
1000000 287 -952 -965 -13 0
1000000 36 -288 0
1000000 288 -970 -951 -13 0
1000000 53 -289 0
1000000 289 -968 -971 -13 0
1000000 72 -290 0
1000000 290 -977 -969 -976 -13 0
1000000 125 -291 0
1000000 291 -972 -121 0
1000000 127 -292 0
1000000 292 -962 -974 -121 0
1000000 123 -293 0
1000000 293 -975 -122 0
1000000 132 -294 0
1000000 294 -983 -978 -979 -122 0
1000000 126 -295 0
1000000 295 -987 -982 -973 -123 0
1000000 128 -296 0
1000000 296 -980 -123 0
1000000 132 -297 0
1000000 297 -966 -981 -990 -123 0
1000000 149 -298 0
1000000 298 -986 -993 -992 -123 0
1000000 197 -299 0
1000000 299 -985 -989 -991 -123 0
1000000 127 -300 0
1000000 300 -994 -124 0
1000000 131 -301 0
1000000 301 -996 -995 -998 -124 0
1000000 171 -302 0
1000000 302 -1000 -984 -124 0
1000000 130 -303 0
1000000 303 -988 -125 0
1000000 133 -304 0
1000000 304 -1002 -1005 -1001 -125 0
1000000 178 -305 0
1000000 305 -1007 -1003 -1006 -125 0
1000000 133 -306 0
1000000 306 -1004 -126 0
1000000 136 -307 0
1000000 307 -997 -126 0
1000000 132 -308 0
1000000 308 -1008 -127 0
1000000 133 -309 0
1000000 309 -1010 -127 0
1000000 140 -310 0
1000000 310 -1011 -128 0
1000000 144 -311 0
1000000 311 -1009 -128 0
1000000 132 -312 0
1000000 312 -779 -999 -129 0
1000000 133 -313 0
1000000 313 -1012 -129 0
1000000 179 -314 0
1000000 314 -787 -778 -782 -129 0
1000000 132 -315 0
1000000 315 -783 -130 0
1000000 133 -316 0
1000000 316 -786 -780 -130 0
1000000 157 -317 0
1000000 317 -788 -781 -14 0
1000000 21 -318 0
1000000 318 -789 -784 -14 0
1000000 30 -319 0
1000000 319 -794 -791 -14 0
1000000 145 -320 0
1000000 320 -795 -792 -131 0
1000000 147 -321 0
1000000 321 -793 -798 -797 -131 0
1000000 153 -322 0
1000000 322 -800 -790 -131 0
1000000 142 -323 0
1000000 323 -799 -132 0
1000000 144 -324 0
1000000 324 -807 -785 -804 -132 0
1000000 134 -325 0
1000000 325 -796 -133 0
1000000 135 -326 0
1000000 326 -803 -806 -133 0
1000000 142 -327 0
1000000 327 -805 -809 -134 0
1000000 144 -328 0
1000000 328 -801 -134 0
1000000 139 -329 0
1000000 329 -808 -812 -135 0
1000000 140 -330 0
1000000 330 -815 -813 -135 0
1000000 146 -331 0
1000000 331 -814 -816 -136 0
1000000 148 -332 0
1000000 332 -802 -820 -811 -136 0
1000000 162 -333 0
1000000 333 -819 -818 -825 -136 0
1000000 192 -334 0
1000000 334 -821 -136 0
1000000 146 -335 0
1000000 335 -817 -824 -137 0
1000000 147 -336 0
1000000 336 -826 -823 -137 0
1000000 172 -337 0
1000000 337 -822 -830 -828 -137 0
1000000 139 -338 0
1000000 338 -810 -833 -138 0
1000000 141 -339 0
1000000 339 -829 -834 -836 -138 0
1000000 141 -340 0
1000000 340 -831 -837 -139 0
1000000 142 -341 0
1000000 341 -827 -832 -139 0
1000000 142 -342 0
1000000 342 -842 -841 -140 0
1000000 143 -343 0
1000000 343 -846 -839 -840 -140 0
1000000 115 -344 0
1000000 344 -847 -849 -850 -15 0
1000000 16 -345 0
1000000 345 -838 -848 -15 0
1000000 23 -346 0
1000000 346 -843 -15 0
1000000 143 -347 0
1000000 347 -851 -856 -835 -141 0
1000000 147 -348 0
1000000 348 -852 -854 -141 0
1000000 144 -349 0
1000000 349 -853 -855 -844 -142 0
1000000 148 -350 0
1000000 350 -858 -862 -861 -142 0
1000000 156 -351 0
1000000 351 -863 -860 -142 0
1000000 173 -352 0
1000000 352 -866 -857 -867 -142 0
1000000 152 -353 0
1000000 353 -865 -869 -143 0
1000000 154 -354 0
1000000 354 -859 -143 0
1000000 145 -355 0
1000000 355 -872 -873 -868 -144 0
1000000 146 -356 0
1000000 356 -845 -144 0
1000000 159 -357 0
1000000 357 -870 -874 -144 0
1000000 147 -358 0
1000000 358 -875 -864 -145 0
1000000 152 -359 0
1000000 359 -877 -879 -145 0
1000000 147 -360 0
1000000 360 -883 -876 -878 -146 0
1000000 154 -361 0
1000000 361 -886 -880 -884 -146 0
1000000 187 -362 0
1000000 362 -881 -146 0
1000000 158 -363 0
1000000 363 -891 -890 -889 -147 0
1000000 166 -364 0
1000000 364 -882 -147 0
1000000 154 -365 0
1000000 365 -885 -893 -888 -148 0
1000000 155 -366 0
1000000 366 -892 -894 -898 -148 0
1000000 155 -367 0
1000000 367 -896 -871 -149 0
1000000 163 -368 0
1000000 368 -887 -901 -149 0
1000000 196 -369 0
1000000 369 -895 -902 -897 -149 0
1000000 153 -370 0
1000000 370 -904 -900 -908 -150 0
1000000 156 -371 0
1000000 371 -909 -912 -910 -150 0
1000000 22 -372 0
1000000 372 -905 -16 0
1000000 23 -373 0
1000000 373 -906 -16 0
1000000 27 -374 0
1000000 374 -907 -16 0
1000000 160 -375 0
1000000 375 -903 -151 0
1000000 163 -376 0
1000000 376 -899 -151 0
1000000 156 -377 0
1000000 377 -914 -152 0
1000000 162 -378 0
1000000 378 -917 -911 -915 -152 0
1000000 180 -379 0
1000000 379 -918 -152 0
1000000 154 -380 0
1000000 380 -919 -153 0
1000000 163 -381 0
1000000 381 -913 -153 0
1000000 155 -382 0
1000000 382 -927 -926 -916 -154 0
1000000 156 -383 0
1000000 383 -922 -928 -929 -154 0
1000000 170 -384 0
1000000 384 -930 -925 -154 0
1000000 159 -385 0
1000000 385 -923 -155 0
1000000 160 -386 0
1000000 386 -921 -155 0
1000000 163 -387 0
1000000 387 -937 -924 -936 -156 0
1000000 166 -388 0
1000000 388 -931 -156 0
1000000 161 -389 0
1000000 389 -933 -932 -934 -157 0
1000000 165 -390 0
1000000 390 -938 -157 0
1000000 161 -391 0
1000000 391 -939 -935 -943 -158 0
1000000 162 -392 0
1000000 392 -942 -945 -158 0
1000000 191 -393 0
1000000 393 -941 -158 0
1000000 193 -394 0
1000000 394 -920 -158 0
1000000 165 -395 0
1000000 395 -940 -948 -159 0
1000000 166 -396 0
1000000 396 -946 -159 0
1000000 175 -397 0
1000000 397 -949 -950 -160 0
1000000 178 -398 0
1000000 398 -954 -952 -160 0
1000000 23 -399 0
1000000 399 -944 -955 -17 0
1000000 26 -400 0
1000000 400 -951 -960 -958 -17 0
1000000 165 -401 0
1000000 401 -953 -957 -161 0
1000000 166 -402 0
1000000 402 -959 -161 0
1000000 168 -403 0
1000000 403 -947 -964 -162 0
1000000 170 -404 0
1000000 404 -962 -162 0
1000000 172 -405 0
1000000 405 -963 -967 -961 -163 0
1000000 177 -406 0
1000000 406 -956 -965 -163 0
1000000 198 -407 0
1000000 407 -966 -971 -163 0
1000000 169 -408 0
1000000 408 -968 -164 0
1000000 178 -409 0
1000000 409 -977 -969 -970 -164 0
1000000 168 -410 0
1000000 410 -972 -974 -976 -165 0
1000000 170 -411 0
1000000 411 -981 -975 -165 0
1000000 188 -412 0
1000000 412 -973 -984 -985 -165 0
1000000 168 -413 0
1000000 413 -982 -980 -987 -166 0
1000000 173 -414 0
1000000 414 -986 -978 -990 -166 0
1000000 170 -415 0
1000000 415 -979 -983 -993 -167 0
1000000 178 -416 0
1000000 416 -991 -989 -167 0
1000000 170 -417 0
1000000 417 -997 -996 -998 -168 0
1000000 171 -418 0
1000000 418 -992 -168 0
1000000 172 -419 0
1000000 419 -1001 -1004 -1003 -169 0
1000000 176 -420 0
1000000 420 -1002 -1005 -988 -169 0
1000000 175 -421 0
1000000 421 -1009 -1000 -994 -170 0
1000000 183 -422 0
1000000 422 -999 -1007 -1011 -170 0
1000000 24 -423 0
1000000 423 -781 -1010 -780 -18 0
1000000 26 -424 0
1000000 424 -783 -1006 -778 -18 0
1000000 27 -425 0
1000000 425 -779 -782 -18 0
1000000 172 -426 0
1000000 426 -995 -171 0
1000000 175 -427 0
1000000 427 -790 -785 -787 -171 0
1000000 183 -428 0
1000000 428 -792 -1008 -789 -171 0
1000000 174 -429 0
1000000 429 -1012 -172 0
1000000 176 -430 0
1000000 430 -797 -791 -795 -172 0
1000000 182 -431 0
1000000 431 -784 -173 0
1000000 185 -432 0
1000000 432 -798 -793 -173 0
1000000 177 -433 0
1000000 433 -788 -796 -802 -174 0
1000000 178 -434 0
1000000 434 -799 -174 0
1000000 177 -435 0
1000000 435 -786 -175 0
1000000 185 -436 0
1000000 436 -801 -805 -175 0
1000000 185 -437 0
1000000 437 -804 -803 -176 0
1000000 187 -438 0
1000000 438 -794 -176 0
1000000 190 -439 0
1000000 439 -800 -177 0
1000000 183 -440 0
1000000 440 -809 -807 -178 0
1000000 185 -441 0
1000000 441 -813 -806 -178 0
1000000 188 -442 0
1000000 442 -814 -808 -815 -179 0
1000000 194 -443 0
1000000 443 -816 -812 -179 0
1000000 182 -444 0
1000000 444 -818 -817 -180 0
1000000 185 -445 0
1000000 445 -821 -811 -180 0
1000000 109 -446 0
1000000 446 -819 -19 0
1000000 169 -447 0
1000000 447 -822 -824 -19 0
1000000 25 -448 0
1000000 448 -830 -827 -825 -19 0
1000000 29 -449 0
1000000 449 -810 -826 -19 0
1000000 183 -450 0
1000000 450 -823 -831 -181 0
1000000 188 -451 0
1000000 451 -832 -820 -836 -181 0
1000000 183 -452 0
1000000 452 -828 -182 0
1000000 190 -453 0
1000000 453 -835 -837 -182 0
1000000 191 -454 0
1000000 454 -829 -183 0
1000000 193 -455 0
1000000 455 -843 -833 -834 -183 0
1000000 192 -456 0
1000000 456 -840 -841 -184 0
1000000 186 -457 0
1000000 457 -838 -839 -185 0
1000000 188 -458 0
1000000 458 -849 -842 -847 -185 0
1000000 187 -459 0
1000000 459 -850 -844 -186 0
1000000 189 -460 0
1000000 460 -851 -853 -186 0
1000000 193 -461 0
1000000 461 -852 -848 -186 0
1000000 193 -462 0
1000000 462 -846 -187 0
1000000 194 -463 0
1000000 463 -854 -187 0
1000000 197 -464 0
1000000 464 -845 -861 -859 -187 0
1000000 190 -465 0
1000000 465 -855 -188 0
1000000 193 -466 0
1000000 466 -860 -858 -188 0
1000000 193 -467 0
1000000 467 -864 -866 -862 -189 0
1000000 194 -468 0
1000000 468 -863 -189 0
1000000 191 -469 0
1000000 469 -865 -867 -190 0
1000000 21 -470 0
1000000 470 -871 -873 -870 -20 0
1000000 32 -471 0
1000000 471 -857 -874 -876 -20 0
1000000 33 -472 0
1000000 472 -869 -872 -20 0
1000000 40 -473 0
1000000 473 -856 -877 -20 0
1000000 193 -474 0
1000000 474 -881 -884 -878 -191 0
1000000 196 -475 0
1000000 475 -880 -879 -191 0
1000000 193 -476 0
1000000 476 -889 -868 -875 -192 0
1000000 198 -477 0
1000000 477 -885 -193 0
1000000 197 -478 0
1000000 478 -887 -882 -196 0
1000000 190 -479 0
1000000 479 -888 -890 -895 -3 0
1000000 4 -480 0
1000000 480 -891 -894 -3 0
1000000 5 -481 0
1000000 481 -893 -897 -892 -3 0
1000000 7 -482 0
1000000 482 -900 -903 -899 -3 0
1000000 123 -483 0
1000000 483 -886 -21 0
1000000 177 -484 0
1000000 484 -898 -907 -902 -21 0
1000000 24 -485 0
1000000 485 -901 -21 0
1000000 27 -486 0
1000000 486 -883 -21 0
1000000 27 -487 0
1000000 487 -896 -22 0
1000000 28 -488 0
1000000 488 -905 -904 -22 0
1000000 36 -489 0
1000000 489 -911 -906 -22 0
1000000 114 -490 0
1000000 490 -913 -908 -23 0
1000000 24 -491 0
1000000 491 -910 -23 0
1000000 33 -492 0
1000000 492 -912 -917 -23 0
1000000 61 -493 0
1000000 493 -915 -909 -23 0
1000000 26 -494 0
1000000 494 -918 -914 -24 0
1000000 27 -495 0
1000000 495 -923 -922 -924 -24 0
1000000 34 -496 0
1000000 496 -928 -921 -920 -24 0
1000000 54 -497 0
1000000 497 -916 -927 -930 -24 0
1000000 29 -498 0
1000000 498 -929 -931 -25 0
1000000 33 -499 0
1000000 499 -932 -925 -934 -25 0
1000000 101 -500 0
1000000 500 -933 -26 0
1000000 27 -501 0
1000000 501 -938 -919 -935 -26 0
1000000 28 -502 0
1000000 502 -926 -26 0
1000000 29 -503 0
1000000 503 -944 -942 -936 -27 0
1000000 45 -504 0
1000000 504 -947 -948 -940 -27 0
1000000 47 -505 0
1000000 505 -941 -27 0
1000000 52 -506 0
1000000 506 -943 -27 0
1000000 186 -507 0
1000000 507 -937 -939 -953 -28 0
1000000 43 -508 0
1000000 508 -950 -946 -28 0
1000000 44 -509 0
1000000 509 -952 -945 -28 0
1000000 51 -510 0
1000000 510 -949 -956 -28 0
1000000 91 -511 0
1000000 511 -958 -957 -28 0
1000000 31 -512 0
1000000 512 -951 -954 -29 0
1000000 35 -513 0
1000000 513 -962 -961 -29 0
1000000 38 -514 0
1000000 514 -960 -29 0
1000000 40 -515 0
1000000 515 -966 -959 -969 -29 0
1000000 62 -516 0
1000000 516 -963 -29 0
1000000 87 -517 0
1000000 517 -964 -967 -29 0
1000000 32 -518 0
1000000 518 -968 -30 0
1000000 36 -519 0
1000000 519 -955 -972 -30 0
1000000 48 -520 0
1000000 520 -975 -973 -970 -30 0
1000000 22 -521 0
1000000 521 -971 -4 0
1000000 5 -522 0
1000000 522 -977 -978 -4 0
1000000 42 -523 0
1000000 523 -965 -980 -4 0
1000000 7 -524 0
1000000 524 -986 -979 -982 -4 0
1000000 77 -525 0
1000000 525 -976 -4 0
1000000 33 -526 0
1000000 526 -989 -988 -983 -31 0
1000000 37 -527 0
1000000 527 -981 -31 0
1000000 40 -528 0
1000000 528 -991 -985 -31 0
1000000 150 -529 0
1000000 529 -990 -993 -32 0
1000000 33 -530 0
1000000 530 -974 -32 0
1000000 39 -531 0
1000000 531 -992 -32 0
1000000 56 -532 0
1000000 532 -998 -994 -995 -32 0
1000000 63 -533 0
1000000 533 -997 -984 -32 0
1000000 106 -534 0
1000000 534 -996 -1001 -33 0
1000000 35 -535 0
1000000 535 -999 -1003 -1000 -33 0
1000000 38 -536 0
1000000 536 -1007 -1004 -1006 -33 0
1000000 152 -537 0
1000000 537 -987 -34 0
1000000 38 -538 0
1000000 538 -1005 -34 0
1000000 40 -539 0
1000000 539 -1008 -34 0
1000000 43 -540 0
1000000 540 -1011 -1012 -35 0
1000000 46 -541 0
1000000 541 -780 -783 -1002 -35 0
1000000 136 -542 0
1000000 542 -786 -1010 -784 -36 0
1000000 38 -543 0
1000000 543 -782 -778 -36 0
1000000 39 -544 0
1000000 544 -788 -791 -779 -36 0
1000000 47 -545 0
1000000 545 -790 -785 -36 0
1000000 57 -546 0
1000000 546 -789 -1009 -36 0
1000000 86 -547 0
1000000 547 -781 -796 -795 -36 0
1000000 174 -548 0
1000000 548 -792 -801 -800 -37 0
1000000 46 -549 0
1000000 549 -787 -37 0
1000000 52 -550 0
1000000 550 -799 -802 -37 0
1000000 105 -551 0
1000000 551 -793 -38 0
1000000 44 -552 0
1000000 552 -797 -803 -794 -38 0
1000000 49 -553 0
1000000 553 -804 -805 -38 0
1000000 50 -554 0
1000000 554 -813 -808 -810 -38 0
1000000 60 -555 0
1000000 555 -807 -38 0
1000000 116 -556 0
1000000 556 -812 -814 -806 -39 0
1000000 40 -557 0
1000000 557 -809 -811 -39 0
1000000 41 -558 0
1000000 558 -815 -822 -816 -39 0
1000000 54 -559 0
1000000 559 -818 -817 -40 0
1000000 60 -560 0
1000000 560 -820 -40 0
1000000 74 -561 0
1000000 561 -798 -40 0
1000000 96 -562 0
1000000 562 -821 -40 0
1000000 12 -563 0
1000000 563 -819 -5 0
1000000 134 -564 0
1000000 564 -828 -826 -825 -5 0
1000000 6 -565 0
1000000 565 -827 -830 -5 0
1000000 9 -566 0
1000000 566 -833 -831 -5 0
1000000 195 -567 0
1000000 567 -838 -836 -837 -41 0
1000000 43 -568 0
1000000 568 -824 -41 0
1000000 44 -569 0
1000000 569 -829 -41 0
1000000 47 -570 0
1000000 570 -842 -840 -843 -42 0
1000000 53 -571 0
1000000 571 -834 -844 -845 -42 0
1000000 78 -572 0
1000000 572 -841 -846 -42 0
1000000 94 -573 0
1000000 573 -835 -839 -42 0
1000000 45 -574 0
1000000 574 -848 -847 -43 0
1000000 49 -575 0
1000000 575 -849 -850 -852 -43 0
1000000 48 -576 0
1000000 576 -823 -44 0
1000000 50 -577 0
1000000 577 -853 -44 0
1000000 56 -578 0
1000000 578 -854 -857 -44 0
1000000 51 -579 0
1000000 579 -862 -856 -859 -45 0
1000000 52 -580 0
1000000 580 -855 -45 0
1000000 103 -581 0
1000000 581 -851 -46 0
1000000 50 -582 0
1000000 582 -860 -46 0
1000000 51 -583 0
1000000 583 -832 -46 0
1000000 53 -584 0
1000000 584 -858 -863 -865 -47 0
1000000 57 -585 0
1000000 585 -866 -47 0
1000000 185 -586 0
1000000 586 -864 -48 0
1000000 56 -587 0
1000000 587 -867 -48 0
1000000 57 -588 0
1000000 588 -871 -875 -870 -48 0
1000000 54 -589 0
1000000 589 -868 -861 -872 -49 0
1000000 55 -590 0
1000000 590 -878 -879 -874 -49 0
1000000 53 -591 0
1000000 591 -881 -876 -50 0
1000000 56 -592 0
1000000 592 -883 -882 -50 0
1000000 58 -593 0
1000000 593 -869 -50 0
1000000 13 -594 0
1000000 594 -880 -6 0
1000000 15 -595 0
1000000 595 -877 -886 -6 0
1000000 30 -596 0
1000000 596 -887 -888 -892 -6 0
1000000 68 -597 0
1000000 597 -885 -6 0
1000000 10 -598 0
1000000 598 -884 -891 -6 0
1000000 53 -599 0
1000000 599 -873 -894 -51 0
1000000 57 -600 0
1000000 600 -890 -896 -51 0
1000000 53 -601 0
1000000 601 -895 -52 0
1000000 54 -602 0
1000000 602 -899 -901 -902 -52 0
1000000 55 -603 0
1000000 603 -889 -893 -53 0
1000000 57 -604 0
1000000 604 -900 -53 0
1000000 84 -605 0
1000000 605 -898 -53 0
1000000 125 -606 0
1000000 606 -907 -903 -54 0
1000000 56 -607 0
1000000 607 -904 -905 -54 0
1000000 59 -608 0
1000000 608 -909 -910 -54 0
1000000 79 -609 0
1000000 609 -906 -908 -912 -54 0
1000000 112 -610 0
1000000 610 -917 -916 -915 -55 0
1000000 57 -611 0
1000000 611 -911 -55 0
1000000 74 -612 0
1000000 612 -914 -920 -55 0
1000000 154 -613 0
1000000 613 -913 -56 0
1000000 67 -614 0
1000000 614 -923 -926 -922 -56 0
1000000 70 -615 0
1000000 615 -919 -56 0
1000000 73 -616 0
1000000 616 -928 -930 -921 -56 0
1000000 61 -617 0
1000000 617 -927 -925 -57 0
1000000 65 -618 0
1000000 618 -924 -57 0
1000000 67 -619 0
1000000 619 -897 -57 0
1000000 100 -620 0
1000000 620 -933 -932 -57 0
1000000 59 -621 0
1000000 621 -931 -58 0
1000000 60 -622 0
1000000 622 -934 -58 0
1000000 61 -623 0
1000000 623 -938 -941 -940 -59 0
1000000 64 -624 0
1000000 624 -929 -59 0
1000000 76 -625 0
1000000 625 -918 -59 0
1000000 117 -626 0
1000000 626 -937 -935 -946 -60 0
1000000 61 -627 0
1000000 627 -942 -936 -60 0
1000000 67 -628 0
1000000 628 -943 -60 0
1000000 95 -629 0
1000000 629 -939 -60 0
1000000 15 -630 0
1000000 630 -950 -951 -953 -7 0
1000000 16 -631 0
1000000 631 -954 -945 -955 -7 0
1000000 43 -632 0
1000000 632 -949 -956 -958 -7 0
1000000 45 -633 0
1000000 633 -948 -7 0
1000000 8 -634 0
1000000 634 -957 -959 -961 -7 0
1000000 9 -635 0
1000000 635 -944 -947 -7 0
1000000 93 -636 0
1000000 636 -952 -7 0
1000000 66 -637 0
1000000 637 -962 -967 -965 -61 0
1000000 69 -638 0
1000000 638 -966 -972 -963 -61 0
1000000 70 -639 0
1000000 639 -968 -61 0
1000000 88 -640 0
1000000 640 -969 -960 -964 -61 0
1000000 107 -641 0
1000000 641 -970 -62 0
1000000 182 -642 0
1000000 642 -974 -62 0
1000000 67 -643 0
1000000 643 -971 -62 0
1000000 69 -644 0
1000000 644 -973 -977 -980 -62 0
1000000 90 -645 0
1000000 645 -982 -976 -62 0
1000000 68 -646 0
1000000 646 -975 -63 0
1000000 69 -647 0
1000000 647 -979 -981 -63 0
1000000 80 -648 0
1000000 648 -984 -64 0
1000000 87 -649 0
1000000 649 -989 -991 -985 -64 0
1000000 67 -650 0
1000000 650 -986 -990 -65 0
1000000 74 -651 0
1000000 651 -987 -65 0
1000000 70 -652 0
1000000 652 -994 -978 -997 -66 0
1000000 72 -653 0
1000000 653 -995 -992 -66 0
1000000 73 -654 0
1000000 654 -983 -1002 -1001 -66 0
1000000 156 -655 0
1000000 655 -999 -993 -67 0
1000000 81 -656 0
1000000 656 -988 -67 0
1000000 82 -657 0
1000000 657 -1000 -67 0
1000000 73 -658 0
1000000 658 -1009 -1007 -996 -68 0
1000000 75 -659 0
1000000 659 -1003 -1004 -1012 -68 0
1000000 76 -660 0
1000000 660 -1008 -1010 -68 0
1000000 80 -661 0
1000000 661 -1005 -778 -68 0
1000000 75 -662 0
1000000 662 -781 -1011 -69 0
1000000 77 -663 0
1000000 663 -998 -69 0
1000000 79 -664 0
1000000 664 -780 -785 -783 -69 0
1000000 97 -665 0
1000000 665 -1006 -69 0
1000000 71 -666 0
1000000 666 -784 -70 0
1000000 77 -667 0
1000000 667 -792 -787 -786 -70 0
1000000 80 -668 0
1000000 668 -779 -70 0
1000000 92 -669 0
1000000 669 -790 -791 -795 -70 0
1000000 11 -670 0
1000000 670 -794 -798 -799 -8 0
1000000 13 -671 0
1000000 671 -796 -789 -8 0
1000000 16 -672 0
1000000 672 -793 -801 -8 0
1000000 55 -673 0
1000000 673 -806 -803 -805 -8 0
1000000 64 -674 0
1000000 674 -782 -8 0
1000000 102 -675 0
1000000 675 -802 -788 -804 -71 0
1000000 110 -676 0
1000000 676 -800 -71 0
1000000 163 -677 0
1000000 677 -807 -71 0
1000000 176 -678 0
1000000 678 -797 -71 0
1000000 76 -679 0
1000000 679 -812 -810 -71 0
1000000 77 -680 0
1000000 680 -809 -71 0
1000000 128 -681 0
1000000 681 -808 -817 -811 -72 0
1000000 135 -682 0
1000000 682 -813 -816 -72 0
1000000 79 -683 0
1000000 683 -819 -818 -72 0
1000000 80 -684 0
1000000 684 -815 -826 -824 -72 0
1000000 85 -685 0
1000000 685 -814 -72 0
1000000 129 -686 0
1000000 686 -820 -73 0
1000000 80 -687 0
1000000 687 -828 -821 -73 0
1000000 87 -688 0
1000000 688 -822 -73 0
1000000 75 -689 0
1000000 689 -827 -823 -74 0
1000000 92 -690 0
1000000 690 -832 -831 -74 0
1000000 167 -691 0
1000000 691 -830 -835 -829 -75 0
1000000 80 -692 0
1000000 692 -825 -837 -75 0
1000000 81 -693 0
1000000 693 -836 -75 0
1000000 82 -694 0
1000000 694 -839 -834 -833 -75 0
1000000 83 -695 0
1000000 695 -846 -842 -841 -75 0
1000000 78 -696 0
1000000 696 -838 -76 0
1000000 85 -697 0
1000000 697 -840 -845 -76 0
1000000 89 -698 0
1000000 698 -850 -849 -76 0
1000000 88 -699 0
1000000 699 -844 -77 0
1000000 91 -700 0
1000000 700 -847 -77 0
1000000 99 -701 0
1000000 701 -852 -853 -77 0
1000000 81 -702 0
1000000 702 -859 -855 -857 -78 0
1000000 82 -703 0
1000000 703 -843 -851 -78 0
1000000 82 -704 0
1000000 704 -858 -856 -79 0
1000000 84 -705 0
1000000 705 -848 -79 0
1000000 82 -706 0
1000000 706 -863 -862 -80 0
1000000 83 -707 0
1000000 707 -860 -80 0
1000000 11 -708 0
1000000 708 -854 -9 0
1000000 12 -709 0
1000000 709 -865 -868 -9 0
1000000 13 -710 0
1000000 710 -872 -867 -864 -9 0
1000000 14 -711 0
1000000 711 -871 -874 -866 -9 0
1000000 164 -712 0
1000000 712 -875 -869 -879 -9 0
1000000 19 -713 0
1000000 713 -876 -870 -9 0
1000000 25 -714 0
1000000 714 -873 -9 0
1000000 10 -715 0
1000000 715 -880 -885 -878 -9 0
1000000 82 -716 0
1000000 716 -887 -882 -884 -81 0
1000000 89 -717 0
1000000 717 -877 -81 0
1000000 111 -718 0
1000000 718 -881 -889 -892 -82 0
1000000 140 -719 0
1000000 719 -861 -82 0
1000000 141 -720 0
1000000 720 -893 -888 -82 0
1000000 85 -721 0
1000000 721 -894 -883 -82 0
1000000 87 -722 0
1000000 722 -897 -895 -82 0
1000000 165 -723 0
1000000 723 -900 -886 -890 -83 0
1000000 85 -724 0
1000000 724 -898 -83 0
1000000 86 -725 0
1000000 725 -906 -899 -902 -83 0
1000000 148 -726 0
1000000 726 -896 -908 -903 -84 0
1000000 86 -727 0
1000000 727 -891 -84 0
1000000 98 -728 0
1000000 728 -911 -913 -912 -84 0
1000000 122 -729 0
1000000 729 -904 -85 0
1000000 143 -730 0
1000000 730 -917 -914 -907 -85 0
1000000 160 -731 0
1000000 731 -909 -85 0
1000000 89 -732 0
1000000 732 -915 -916 -85 0
1000000 90 -733 0
1000000 733 -901 -910 -922 -85 0
1000000 114 -734 0
1000000 734 -924 -921 -925 -86 0
1000000 121 -735 0
1000000 735 -923 -919 -918 -86 0
1000000 97 -736 0
1000000 736 -929 -932 -905 -86 0
1000000 98 -737 0
1000000 737 -930 -927 -86 0
1000000 124 -738 0
1000000 738 -928 -87 0
1000000 89 -739 0
1000000 739 -920 -87 0
1000000 91 -740 0
1000000 740 -933 -926 -87 0
1000000 89 -741 0
1000000 741 -934 -935 -88 0
1000000 96 -742 0
1000000 742 -940 -936 -88 0
1000000 96 -743 0
1000000 743 -931 -944 -942 -89 0
1000000 100 -744 0
1000000 744 -945 -939 -89 0
1000000 175 -745 0
1000000 745 -950 -946 -941 -90 0
1000000 93 -746 0
1000000 746 -938 -943 -952 -90 0
1000000 97 -747 0
1000000 747 -951 -953 -949 -90 0
1000000 13 -748 0
1000000 748 -954 -955 -10 0
1000000 127 -749 0
1000000 749 -948 -10 0
1000000 16 -750 0
1000000 750 -947 -10 0
1000000 24 -751 0
1000000 751 -956 -959 -937 -10 0
1000000 92 -752 0
1000000 752 -958 -966 -964 -91 0
1000000 93 -753 0
1000000 753 -961 -91 0
1000000 104 -754 0
1000000 754 -962 -92 0
1000000 96 -755 0
1000000 755 -970 -971 -957 -92 0
1000000 97 -756 0
1000000 756 -960 -92 0
1000000 126 -757 0
1000000 757 -967 -93 0
1000000 94 -758 0
1000000 758 -969 -973 -963 -93 0
1000000 98 -759 0
1000000 759 -965 -93 0
1000000 107 -760 0
1000000 760 -972 -94 0
1000000 97 -761 0
1000000 761 -968 -974 -94 0
1000000 119 -762 0
1000000 762 -983 -976 -979 -95 0
1000000 97 -763 0
1000000 763 -978 -95 0
1000000 100 -764 0
1000000 764 -975 -977 -95 0
1000000 105 -765 0
1000000 765 -984 -986 -96 0
1000000 111 -766 0
1000000 766 -982 -96 0
1000000 106 -767 0
1000000 767 -989 -987 -97 0
1000000 118 -768 0
1000000 768 -994 -992 -980 -97 0
1000000 103 -769 0
1000000 769 -985 -98 0
1000000 133 -770 0
1000000 770 -995 -981 -98 0
1000000 100 -771 0
1000000 771 -988 -98 0
1000000 102 -772 0
1000000 772 -993 -99 0
1000000 103 -773 0
1000000 773 -990 -99 0
1000000 139 -774 0
1000000 774 -996 -99 0
1000000 105 -775 0
1000000 775 -997 -100 0
1000000 108 -776 0
1000000 776 -991 -100 0
1000000 110 -777 0
1000000 777 -998 -1000 -100 0
1000000 1 0
1000000 -2 199 0
1000000 -3 202 0
1000000 -4 205 480 0
1000000 -5 481 522 206 213 0
1000000 -6 565 0
1000000 -7 482 215 524 0
1000000 -8 634 0
1000000 -9 566 635 217 0
1000000 -10 208 715 598 0
1000000 -11 708 670 0
1000000 -12 709 563 0
1000000 -13 748 710 594 671 0
1000000 -14 250 711 218 0
1000000 -15 251 630 595 0
1000000 -16 219 631 345 750 672 0
1000000 -17 283 252 0
1000000 -18 285 0
1000000 -19 713 0
1000000 -20 286 0
1000000 -21 203 318 470 0
1000000 -22 521 287 372 0
1000000 -23 204 373 346 399 0
1000000 -24 491 751 485 423 0
1000000 -25 448 220 714 0
1000000 -26 424 494 400 211 0
1000000 -27 374 501 487 425 495 486 0
1000000 -28 488 502 0
1000000 -29 498 449 503 0
1000000 -30 319 596 0
1000000 -31 253 512 0
1000000 -32 518 471 0
1000000 -33 530 526 492 472 499 0
1000000 -34 496 0
1000000 -35 535 513 0
1000000 -36 288 519 489 0
1000000 -37 212 527 0
1000000 -38 536 514 543 538 0
1000000 -39 544 531 221 0
1000000 -40 539 473 557 515 528 0
1000000 -41 558 207 0
1000000 -42 523 0
1000000 -43 568 632 508 540 0
1000000 -44 552 509 569 0
1000000 -45 504 574 633 0
1000000 -46 549 254 541 0
1000000 -47 545 570 505 0
1000000 -48 520 576 0
1000000 -49 553 214 575 0
1000000 -50 554 577 582 0
1000000 -51 583 510 579 0
1000000 -52 580 506 550 0
1000000 -53 601 289 591 584 599 571 0
1000000 -54 497 559 589 602 0
1000000 -55 590 673 603 0
1000000 -56 587 532 578 607 592 0
1000000 -57 546 588 604 611 585 600 0
1000000 -58 593 0
1000000 -59 255 608 621 0
1000000 -60 555 622 560 0
1000000 -61 623 617 627 493 0
1000000 -62 516 0
1000000 -63 533 0
1000000 -64 624 674 0
1000000 -65 618 0
1000000 -66 637 216 0
1000000 -67 643 614 650 628 619 0
1000000 -68 646 597 0
1000000 -69 644 647 638 0
1000000 -70 615 639 652 0
1000000 -71 666 0
1000000 -72 290 653 0
1000000 -73 616 658 654 0
1000000 -74 612 651 561 0
1000000 -75 662 689 659 0
1000000 -76 625 679 660 0
1000000 -77 680 667 663 525 0
1000000 -78 696 572 0
1000000 -79 683 664 609 0
1000000 -80 692 668 648 687 661 684 0
1000000 -81 693 702 656 256 0
1000000 -82 694 716 703 706 704 657 0
1000000 -83 707 695 0
1000000 -84 605 705 0
1000000 -85 721 724 685 697 0
1000000 -86 725 547 727 0
1000000 -87 649 517 722 688 0
1000000 -88 699 640 0
1000000 -89 717 732 739 741 698 0
1000000 -90 733 645 0
1000000 -91 700 511 740 0
1000000 -92 690 752 669 0
1000000 -93 753 746 636 0
1000000 -94 573 758 0
1000000 -95 629 0
1000000 -96 755 742 743 562 0
1000000 -97 756 665 736 763 761 747 0
1000000 -98 759 728 737 0
1000000 -99 701 0
1000000 -100 764 620 744 771 0
1000000 -101 500 0
1000000 -102 675 772 0
1000000 -103 773 769 581 227 0
1000000 -104 754 222 0
1000000 -105 228 775 765 551 229 0
1000000 -106 767 534 230 0
1000000 -107 641 236 760 0
1000000 -108 776 239 242 0
1000000 -109 243 223 240 446 0
1000000 -110 676 777 233 0
1000000 -111 244 718 766 0
1000000 -112 610 0
1000000 -113 224 259 257 0
1000000 -114 258 490 734 0
1000000 -115 344 0
1000000 -116 266 556 0
1000000 -117 626 271 237 246 0
1000000 -118 247 262 272 245 768 0
1000000 -119 762 263 0
1000000 -120 209 248 268 274 267 276 0
1000000 -121 277 735 281 0
1000000 -122 269 275 729 0
1000000 -123 279 234 282 483 293 0
1000000 -124 280 738 0
1000000 -125 249 291 606 0
1000000 -126 295 757 0
1000000 -127 292 749 300 260 0
1000000 -128 681 296 0
1000000 -129 686 0
1000000 -130 303 264 0
1000000 -131 301 270 0
1000000 -132 297 294 315 308 312 0
1000000 -133 306 770 304 316 309 313 0
1000000 -134 265 564 325 0
1000000 -135 326 682 0
1000000 -136 307 542 0
1000000 -137 231 0
1000000 -138 235 0
1000000 -139 338 329 774 0
1000000 -140 330 310 719 0
1000000 -141 340 339 720 0
1000000 -142 341 342 323 327 232 0
1000000 -143 343 730 347 0
1000000 -144 324 328 311 349 0
1000000 -145 320 355 278 0
1000000 -146 238 356 331 335 0
1000000 -147 348 358 360 336 321 0
1000000 -148 726 332 350 0
1000000 -149 298 0
1000000 -150 529 0
1000000 -151 210 0
1000000 -152 353 359 537 0
1000000 -153 370 225 322 0
1000000 -154 380 354 365 361 613 0
1000000 -155 367 366 241 382 0
1000000 -156 655 371 383 377 351 0
1000000 -157 317 0
1000000 -158 226 363 0
1000000 -159 385 357 0
1000000 -160 386 731 375 0
1000000 -161 284 391 389 0
1000000 -162 378 333 392 0
1000000 -163 381 376 387 368 677 0
1000000 -164 712 0
1000000 -165 395 390 401 723 0
1000000 -166 364 388 396 402 200 0
1000000 -167 691 0
1000000 -168 410 403 273 413 0
1000000 -169 408 447 0
1000000 -170 404 417 415 384 411 0
1000000 -171 418 302 0
1000000 -172 426 337 405 419 0
1000000 -173 352 414 0
1000000 -174 429 548 0
1000000 -175 397 745 421 427 0
1000000 -176 430 420 678 0
1000000 -177 435 406 484 433 0
1000000 -178 416 305 398 409 434 0
1000000 -179 314 0
1000000 -180 379 0
1000000 -181 201 0
1000000 -182 642 431 444 0
1000000 -183 428 452 450 440 422 0
1000000 -184 261 0
1000000 -185 437 445 441 436 432 586 0
1000000 -186 507 457 0
1000000 -187 362 438 459 0
1000000 -188 442 458 451 412 0
1000000 -189 460 0
1000000 -190 465 453 479 439 0
1000000 -191 393 454 469 0
1000000 -192 334 456 0
1000000 -193 461 394 474 467 466 476 455 462 0
1000000 -194 468 463 443 0
1000000 -195 567 0
1000000 -196 369 475 0
1000000 -197 478 299 464 0
1000000 -198 407 477 0
1000000 778 1041 0
1000000 779 1086 0
1000000 780 1047 0
1000000 781 1066 0
1000000 782 1089 0
1000000 783 1043 0
1000000 784 1067 0
1000000 785 1053 0
1000000 786 1091 0
1000000 787 1041 0
1000000 788 1022 0
1000000 789 1055 0
1000000 790 1059 0
1000000 791 1044 0
1000000 792 1036 0
1000000 793 1045 0
1000000 794 1014 0
1000000 795 1058 0
1000000 796 1083 0
1000000 797 1056 0
1000000 798 1056 0
1000000 799 1044 0
1000000 800 1088 0
1000000 801 1039 0
1000000 802 1032 0
1000000 803 1039 0
1000000 804 1045 0
1000000 805 1060 0
1000000 806 1071 0
1000000 807 1064 0
1000000 808 1014 0
1000000 809 1072 0
1000000 810 1077 0
1000000 811 1084 0
1000000 812 1031 0
1000000 813 1070 0
1000000 814 1067 0
1000000 815 1051 0
1000000 816 1059 0
1000000 817 1019 0
1000000 818 1091 0
1000000 819 1014 0
1000000 820 1065 0
1000000 821 1034 0
1000000 822 1076 0
1000000 823 1034 0
1000000 824 1088 0
1000000 825 1036 0
1000000 826 1028 0
1000000 827 1017 0
1000000 828 1061 0
1000000 829 1065 0
1000000 830 1017 0
1000000 831 1080 0
1000000 832 1051 0
1000000 833 1083 0
1000000 834 1073 0
1000000 835 1044 0
1000000 836 1029 0
1000000 837 1054 0
1000000 838 1018 0
1000000 839 1058 0
1000000 840 1017 0
1000000 841 1079 0
1000000 842 1074 0
1000000 843 1070 0
1000000 844 1063 0
1000000 845 1079 0
1000000 846 1079 0
1000000 847 1081 0
1000000 848 1056 0
1000000 849 1059 0
1000000 850 1031 0
1000000 851 1084 0
1000000 852 1039 0
1000000 853 1018 0
1000000 854 1048 0
1000000 855 1051 0
1000000 856 1035 0
1000000 857 1047 0
1000000 858 1036 0
1000000 859 1061 0
1000000 860 1073 0
1000000 861 1060 0
1000000 862 1018 0
1000000 863 1071 0
1000000 864 1038 0
1000000 865 1043 0
1000000 866 1053 0
1000000 867 1083 0
1000000 868 1050 0
1000000 869 1031 0
1000000 870 1075 0
1000000 871 1061 0
1000000 872 1068 0
1000000 873 1026 0
1000000 874 1025 0
1000000 875 1070 0
1000000 876 1028 0
1000000 877 1086 0
1000000 878 1016 0
1000000 879 1084 0
1000000 880 1016 0
1000000 881 1082 0
1000000 882 1032 0
1000000 883 1034 0
1000000 884 1091 0
1000000 885 1062 0
1000000 886 1077 0
1000000 887 1037 0
1000000 888 1016 0
1000000 889 1086 0
1000000 890 1060 0
1000000 891 1087 0
1000000 892 1030 0
1000000 893 1090 0
1000000 894 1030 0
1000000 895 1074 0
1000000 896 1025 0
1000000 897 1080 0
1000000 898 1037 0
1000000 899 1043 0
1000000 900 1023 0
1000000 901 1054 0
1000000 902 1080 0
1000000 903 1076 0
1000000 904 1033 0
1000000 905 1033 0
1000000 906 1077 0
1000000 907 1047 0
1000000 908 1085 0
1000000 909 1028 0
1000000 910 1085 0
1000000 911 1013 0
1000000 912 1035 0
1000000 913 1037 0
1000000 914 1030 0
1000000 915 1020 0
1000000 916 1058 0
1000000 917 1035 0
1000000 918 1053 0
1000000 919 1082 0
1000000 920 1072 0
1000000 921 1026 0
1000000 922 1026 0
1000000 923 1025 0
1000000 924 1071 0
1000000 925 1076 0
1000000 926 1055 0
1000000 927 1049 0
1000000 928 1073 0
1000000 929 1042 0
1000000 930 1081 0
1000000 931 1064 0
1000000 932 1019 0
1000000 933 1023 0
1000000 934 1023 0
1000000 935 1055 0
1000000 936 1069 0
1000000 937 1057 0
1000000 938 1041 0
1000000 939 1038 0
1000000 940 1054 0
1000000 941 1064 0
1000000 942 1027 0
1000000 943 1090 0
1000000 944 1065 0
1000000 945 1046 0
1000000 946 1069 0
1000000 947 1021 0
1000000 948 1032 0
1000000 949 1088 0
1000000 950 1029 0
1000000 951 1040 0
1000000 952 1067 0
1000000 953 1045 0
1000000 954 1042 0
1000000 955 1024 0
1000000 956 1075 0
1000000 957 1013 0
1000000 958 1081 0
1000000 959 1052 0
1000000 960 1063 0
1000000 961 1049 0
1000000 962 1089 0
1000000 963 1074 0
1000000 964 1013 0
1000000 965 1020 0
1000000 966 1066 0
1000000 967 1075 0
1000000 968 1090 0
1000000 969 1033 0
1000000 970 1015 0
1000000 971 1068 0
1000000 972 1029 0
1000000 973 1015 0
1000000 974 1087 0
1000000 975 1042 0
1000000 976 1019 0
1000000 977 1089 0
1000000 978 1040 0
1000000 979 1066 0
1000000 980 1038 0
1000000 981 1072 0
1000000 982 1027 0
1000000 983 1078 0
1000000 984 1015 0
1000000 985 1069 0
1000000 986 1082 0
1000000 987 1020 0
1000000 988 1063 0
1000000 989 1021 0
1000000 990 1087 0
1000000 991 1021 0
1000000 992 1052 0
1000000 993 1027 0
1000000 994 1052 0
1000000 995 1048 0
1000000 996 1049 0
1000000 997 1068 0
1000000 998 1050 0
1000000 999 1046 0
1000000 1000 1048 0
1000000 1001 1062 0
1000000 1002 1085 0
1000000 1003 1040 0
1000000 1004 1078 0
1000000 1005 1046 0
1000000 1006 1050 0
1000000 1007 1078 0
1000000 1008 1062 0
1000000 1009 1024 0
1000000 1010 1057 0
1000000 1011 1024 0
1000000 1012 1057 0
1000000 -778 -1041 0
1000000 -779 -1086 0
1000000 -780 -1047 0
1000000 -781 -1066 0
1000000 -782 -1089 0
1000000 -783 -1043 0
1000000 -784 -1067 0
1000000 -785 -1053 0
1000000 -786 -1091 0
1000000 -787 -1041 0
1000000 -788 -1022 0
1000000 -789 -1055 0
1000000 -790 -1059 0
1000000 -791 -1044 0
1000000 -792 -1036 0
1000000 -793 -1045 0
1000000 -794 -1014 0
1000000 -795 -1058 0
1000000 -796 -1083 0
1000000 -797 -1056 0
1000000 -798 -1056 0
1000000 -799 -1044 0
1000000 -800 -1088 0
1000000 -801 -1039 0
1000000 -802 -1032 0
1000000 -803 -1039 0
1000000 -804 -1045 0
1000000 -805 -1060 0
1000000 -806 -1071 0
1000000 -807 -1064 0
1000000 -808 -1014 0
1000000 -809 -1072 0
1000000 -810 -1077 0
1000000 -811 -1084 0
1000000 -812 -1031 0
1000000 -813 -1070 0
1000000 -814 -1067 0
1000000 -815 -1051 0
1000000 -816 -1059 0
1000000 -817 -1019 0
1000000 -818 -1091 0
1000000 -819 -1014 0
1000000 -820 -1065 0
1000000 -821 -1034 0
1000000 -822 -1076 0
1000000 -823 -1034 0
1000000 -824 -1088 0
1000000 -825 -1036 0
1000000 -826 -1028 0
1000000 -827 -1017 0
1000000 -828 -1061 0
1000000 -829 -1065 0
1000000 -830 -1017 0
1000000 -831 -1080 0
1000000 -832 -1051 0
1000000 -833 -1083 0
1000000 -834 -1073 0
1000000 -835 -1044 0
1000000 -836 -1029 0
1000000 -837 -1054 0
1000000 -838 -1018 0
1000000 -839 -1058 0
1000000 -840 -1017 0
1000000 -841 -1079 0
1000000 -842 -1074 0
1000000 -843 -1070 0
1000000 -844 -1063 0
1000000 -845 -1079 0
1000000 -846 -1079 0
1000000 -847 -1081 0
1000000 -848 -1056 0
1000000 -849 -1059 0
1000000 -850 -1031 0
1000000 -851 -1084 0
1000000 -852 -1039 0
1000000 -853 -1018 0
1000000 -854 -1048 0
1000000 -855 -1051 0
1000000 -856 -1035 0
1000000 -857 -1047 0
1000000 -858 -1036 0
1000000 -859 -1061 0
1000000 -860 -1073 0
1000000 -861 -1060 0
1000000 -862 -1018 0
1000000 -863 -1071 0
1000000 -864 -1038 0
1000000 -865 -1043 0
1000000 -866 -1053 0
1000000 -867 -1083 0
1000000 -868 -1050 0
1000000 -869 -1031 0
1000000 -870 -1075 0
1000000 -871 -1061 0
1000000 -872 -1068 0
1000000 -873 -1026 0
1000000 -874 -1025 0
1000000 -875 -1070 0
1000000 -876 -1028 0
1000000 -877 -1086 0
1000000 -878 -1016 0
1000000 -879 -1084 0
1000000 -880 -1016 0
1000000 -881 -1082 0
1000000 -882 -1032 0
1000000 -883 -1034 0
1000000 -884 -1091 0
1000000 -885 -1062 0
1000000 -886 -1077 0
1000000 -887 -1037 0
1000000 -888 -1016 0
1000000 -889 -1086 0
1000000 -890 -1060 0
1000000 -891 -1087 0
1000000 -892 -1030 0
1000000 -893 -1090 0
1000000 -894 -1030 0
1000000 -895 -1074 0
1000000 -896 -1025 0
1000000 -897 -1080 0
1000000 -898 -1037 0
1000000 -899 -1043 0
1000000 -900 -1023 0
1000000 -901 -1054 0
1000000 -902 -1080 0
1000000 -903 -1076 0
1000000 -904 -1033 0
1000000 -905 -1033 0
1000000 -906 -1077 0
1000000 -907 -1047 0
1000000 -908 -1085 0
1000000 -909 -1028 0
1000000 -910 -1085 0
1000000 -911 -1013 0
1000000 -912 -1035 0
1000000 -913 -1037 0
1000000 -914 -1030 0
1000000 -915 -1020 0
1000000 -916 -1058 0
1000000 -917 -1035 0
1000000 -918 -1053 0
1000000 -919 -1082 0
1000000 -920 -1072 0
1000000 -921 -1026 0
1000000 -922 -1026 0
1000000 -923 -1025 0
1000000 -924 -1071 0
1000000 -925 -1076 0
1000000 -926 -1055 0
1000000 -927 -1049 0
1000000 -928 -1073 0
1000000 -929 -1042 0
1000000 -930 -1081 0
1000000 -931 -1064 0
1000000 -932 -1019 0
1000000 -933 -1023 0
1000000 -934 -1023 0
1000000 -935 -1055 0
1000000 -936 -1069 0
1000000 -937 -1057 0
1000000 -938 -1041 0
1000000 -939 -1038 0
1000000 -940 -1054 0
1000000 -941 -1064 0
1000000 -942 -1027 0
1000000 -943 -1090 0
1000000 -944 -1065 0
1000000 -945 -1046 0
1000000 -946 -1069 0
1000000 -947 -1021 0
1000000 -948 -1032 0
1000000 -949 -1088 0
1000000 -950 -1029 0
1000000 -951 -1040 0
1000000 -952 -1067 0
1000000 -953 -1045 0
1000000 -954 -1042 0
1000000 -955 -1024 0
1000000 -956 -1075 0
1000000 -957 -1013 0
1000000 -958 -1081 0
1000000 -959 -1052 0
1000000 -960 -1063 0
1000000 -961 -1049 0
1000000 -962 -1089 0
1000000 -963 -1074 0
1000000 -964 -1013 0
1000000 -965 -1020 0
1000000 -966 -1066 0
1000000 -967 -1075 0
1000000 -968 -1090 0
1000000 -969 -1033 0
1000000 -970 -1015 0
1000000 -971 -1068 0
1000000 -972 -1029 0
1000000 -973 -1015 0
1000000 -974 -1087 0
1000000 -975 -1042 0
1000000 -976 -1019 0
1000000 -977 -1089 0
1000000 -978 -1040 0
1000000 -979 -1066 0
1000000 -980 -1038 0
1000000 -981 -1072 0
1000000 -982 -1027 0
1000000 -983 -1078 0
1000000 -984 -1015 0
1000000 -985 -1069 0
1000000 -986 -1082 0
1000000 -987 -1020 0
1000000 -988 -1063 0
1000000 -989 -1021 0
1000000 -990 -1087 0
1000000 -991 -1021 0
1000000 -992 -1052 0
1000000 -993 -1027 0
1000000 -994 -1052 0
1000000 -995 -1048 0
1000000 -996 -1049 0
1000000 -997 -1068 0
1000000 -998 -1050 0
1000000 -999 -1046 0
1000000 -1000 -1048 0
1000000 -1001 -1062 0
1000000 -1002 -1085 0
1000000 -1003 -1040 0
1000000 -1004 -1078 0
1000000 -1005 -1046 0
1000000 -1006 -1050 0
1000000 -1007 -1078 0
1000000 -1008 -1062 0
1000000 -1009 -1024 0
1000000 -1010 -1057 0
1000000 -1011 -1024 0
1000000 -1012 -1057 0
13600 -1013 0
10900 -1014 0
12000 -1015 0
10900 -1016 0
13600 -1017 0
13900 -1018 0
13900 -1019 0
11500 -1020 0
13600 -1021 0
10200 -1022 0
13900 -1023 0
12100 -1024 0
12300 -1025 0
10900 -1026 0
12300 -1027 0
13600 -1028 0
12000 -1029 0
10700 -1030 0
12000 -1031 0
12100 -1032 0
12300 -1033 0
12300 -1034 0
13600 -1035 0
10200 -1036 0
13900 -1037 0
13900 -1038 0
11500 -1039 0
10900 -1040 0
10700 -1041 0
12300 -1042 0
12100 -1043 0
10200 -1044 0
12100 -1045 0
12000 -1046 0
12300 -1047 0
13000 -1048 0
13600 -1049 0
11500 -1050 0
12300 -1051 0
12300 -1052 0
12300 -1053 0
13900 -1054 0
12300 -1055 0
12300 -1056 0
13600 -1057 0
12300 -1058 0
10900 -1059 0
13900 -1060 0
10900 -1061 0
10900 -1062 0
13600 -1063 0
12300 -1064 0
10900 -1065 0
10200 -1066 0
12100 -1067 0
11500 -1068 0
10700 -1069 0
10700 -1070 0
10700 -1071 0
11500 -1072 0
14800 -1073 0
13900 -1074 0
10200 -1075 0
10900 -1076 0
10700 -1077 0
11500 -1078 0
13300 -1079 0
10900 -1080 0
13600 -1081 0
13900 -1082 0
10700 -1083 0
12300 -1084 0
13900 -1085 0
10700 -1086 0
10200 -1087 0
12300 -1088 0
10900 -1089 0
10700 -1090 0
12300 -1091 0
2100 778 0
2900 779 0
2100 780 0
2100 781 0
1900 782 0
3700 783 0
2900 784 0
3700 785 0
2000 786 0
2000 787 0
2100 788 0
2900 789 0
1700 790 0
3700 791 0
2100 792 0
3700 793 0
3700 794 0
3700 795 0
2000 796 0
2100 797 0
2100 798 0
1800 799 0
1900 800 0
1700 801 0
3700 802 0
2500 803 0
3200 804 0
1900 805 0
2900 806 0
2100 807 0
3200 808 0
1900 809 0
2500 810 0
1800 811 0
1700 812 0
3700 813 0
3200 814 0
2000 815 0
3700 816 0
3200 817 0
2900 818 0
1700 819 0
1900 820 0
1700 821 0
2100 822 0
1900 823 0
1700 824 0
1900 825 0
1800 826 0
1900 827 0
1900 828 0
1700 829 0
2500 830 0
2500 831 0
2500 832 0
3200 833 0
1700 834 0
3200 835 0
1700 836 0
1700 837 0
1700 838 0
1600 839 0
1500 840 0
1700 841 0
1900 842 0
2900 843 0
2900 844 0
2900 845 0
1700 846 0
2500 847 0
1800 848 0
3200 849 0
1700 850 0
2100 851 0
1800 852 0
1700 853 0
1500 854 0
3200 855 0
2100 856 0
1800 857 0
1500 858 0
2900 859 0
2300 860 0
1600 861 0
1600 862 0
2300 863 0
1900 864 0
1800 865 0
3200 866 0
1800 867 0
2500 868 0
1900 869 0
2000 870 0
2000 871 0
1800 872 0
2100 873 0
1900 874 0
1500 875 0
1600 876 0
1700 877 0
3700 878 0
2300 879 0
2100 880 0
1700 881 0
2100 882 0
1900 883 0
3700 884 0
3700 885 0
1800 886 0
2300 887 0
1800 888 0
2900 889 0
1900 890 0
2000 891 0
2000 892 0
2900 893 0
2000 894 0
2500 895 0
3200 896 0
2100 897 0
3200 898 0
2500 899 0
1900 900 0
2500 901 0
2500 902 0
1800 903 0
2900 904 0
2500 905 0
2900 906 0
1700 907 0
1700 908 0
1900 909 0
1700 910 0
1800 911 0
1800 912 0
2500 913 0
1900 914 0
3200 915 0
2300 916 0
1800 917 0
1800 918 0
1700 919 0
2900 920 0
1900 921 0
3200 922 0
1800 923 0
1900 924 0
2500 925 0
2300 926 0
1900 927 0
1700 928 0
3200 929 0
1800 930 0
3700 931 0
1700 932 0
1600 933 0
2500 934 0
1900 935 0
3200 936 0
3200 937 0
1900 938 0
2900 939 0
2500 940 0
3200 941 0
1900 942 0
3200 943 0
2000 944 0
1900 945 0
2000 946 0
3200 947 0
3200 948 0
3200 949 0
1800 950 0
2500 951 0
1800 952 0
1500 953 0
2500 954 0
2900 955 0
1700 956 0
1600 957 0
1900 958 0
2000 959 0
2500 960 0
2300 961 0
3200 962 0
1700 963 0
1900 964 0
3200 965 0
1700 966 0
1700 967 0
2300 968 0
1500 969 0
1700 970 0
3200 971 0
3200 972 0
2500 973 0
1900 974 0
1700 975 0
1800 976 0
3700 977 0
3700 978 0
1900 979 0
1700 980 0
3200 981 0
1700 982 0
1800 983 0
3200 984 0
1900 985 0
1700 986 0
2500 987 0
2500 988 0
1700 989 0
1700 990 0
1600 991 0
1500 992 0
1600 993 0
2500 994 0
1600 995 0
1500 996 0
1500 997 0
1800 998 0
2500 999 0
1500 1000 0
2300 1001 0
1700 1002 0
1700 1003 0
2300 1004 0
1500 1005 0
3200 1006 0
1900 1007 0
1800 1008 0
2900 1009 0
2500 1010 0
2500 1011 0
1900 1012 0
8500 -199 0
4270 -202 0
29890 205 -480 0
4270 -205 480 0
31171 -205 -480 0
4032 481 522 206 -213 0
8512 481 522 -206 213 0
11012 481 522 -206 -213 0
20160 481 -522 206 213 0
20563 481 -522 206 -213 0
21011 481 -522 -206 213 0
21261 481 -522 -206 -213 0
17920 -481 522 206 213 0
18726 -481 522 206 -213 0
19622 -481 522 -206 213 0
20122 -481 522 -206 -213 0
21952 -481 -522 206 213 0
22033 -481 -522 206 -213 0
22122 -481 -522 -206 213 0
22172 -481 -522 -206 -213 0
15180 -565 0
24035 482 215 -524 0
8855 482 -215 524 0
24478 482 -215 -524 0
18975 -482 215 524 0
24984 -482 215 -524 0
21189 -482 -215 524 0
25094 -482 -215 -524 0
67680 -634 0
28990 566 635 -217 0
5352 566 -635 217 0
30863 566 -635 -217 0
28990 -566 635 217 0
39137 -566 635 -217 0
30863 -566 -635 217 0
39792 -566 -635 -217 0
19680 208 715 -598 0
43050 208 -715 598 0
48954 208 -715 -598 0
39975 -208 715 598 0
46863 -208 715 -598 0
55042 -208 -715 598 0
57109 -208 -715 -598 0
15015 708 -670 0
15015 -708 670 0
21772 -708 -670 0
13900 709 -563 0
24325 -709 563 0
33360 -709 -563 0
9614 748 710 594 -671 0
506 748 710 -594 671 0
9928 748 710 -594 -671 0
22770 748 -710 594 671 0
23731 748 -710 594 -671 0
22821 748 -710 -594 671 0
23763 748 -710 -594 -671 0
8096 -748 710 594 671 0
14634 -748 710 594 -671 0
8440 -748 710 -594 671 0
14847 -748 710 -594 -671 0
23580 -748 -710 594 671 0
24233 -748 -710 594 -671 0
23614 -748 -710 -594 671 0
24255 -748 -710 -594 -671 0
2484 250 711 -218 0
11385 250 -711 218 0
12503 250 -711 -218 0
15525 -250 711 218 0
16146 -250 711 -218 0
18371 -250 -711 218 0
18651 -250 -711 -218 0
3105 251 630 -595 0
4140 251 -630 595 0
6624 251 -630 -595 0
9315 -251 630 595 0
11023 -251 630 -595 0
11592 -251 -630 595 0
12958 -251 -630 -595 0
40970 219 631 345 750 -672 0
45790 219 631 345 -750 672 0
47838 219 631 345 -750 -672 0
7230 219 631 -345 750 672 0
42055 219 631 -345 750 -672 0
46151 219 631 -345 -750 672 0
47893 219 631 -345 -750 -672 0
12050 219 -631 345 750 672 0
42777 219 -631 345 750 -672 0
46392 219 -631 345 -750 672 0
47929 219 -631 345 -750 -672 0
17473 219 -631 -345 750 672 0
43591 219 -631 -345 750 -672 0
46664 219 -631 -345 -750 672 0
47970 219 -631 -345 -750 -672 0
33740 -219 631 345 750 672 0
46031 -219 631 345 750 -672 0
47477 -219 631 345 -750 672 0
48092 -219 631 345 -750 -672 0
35909 -219 631 -345 750 672 0
46356 -219 631 -345 750 -672 0
47585 -219 631 -345 -750 672 0
48108 -219 631 -345 -750 -672 0
37355 -219 -631 345 750 672 0
46573 -219 -631 345 750 -672 0
47658 -219 -631 345 -750 672 0
48119 -219 -631 345 -750 -672 0
38982 -219 -631 -345 750 672 0
46817 -219 -631 -345 750 -672 0
47739 -219 -631 -345 -750 672 0
48131 -219 -631 -345 -750 -672 0
49495 283 -252 0
1042 -283 252 0
49547 -283 -252 0
52640 -285 0
33740 -713 0
4140 -286 0
340 203 318 -470 0
5440 203 -318 470 0
5671 203 -318 -470 0
15300 -203 318 470 0
15334 -203 318 -470 0
15844 -203 -318 470 0
15867 -203 -318 -470 0
2410 521 287 -372 0
12050 521 -287 372 0
13858 521 -287 -372 0
14460 -521 287 372 0
16147 -521 287 -372 0
22895 -521 -287 372 0
24160 -521 -287 -372 0
2550 204 373 346 -399 0
2040 204 373 -346 399 0
4284 204 373 -346 -399 0
12750 204 -373 346 399 0
13388 204 -373 346 -399 0
13260 204 -373 -346 399 0
13821 204 -373 -346 -399 0
12750 -204 373 346 399 0
13388 -204 373 346 -399 0
13260 -204 373 -346 399 0
13821 -204 373 -346 -399 0
15938 -204 -373 346 399 0
16097 -204 -373 346 -399 0
16065 -204 -373 -346 399 0
16205 -204 -373 -346 -399 0
506 491 751 485 -423 0
3036 491 751 -485 423 0
3481 491 751 -485 -423 0
10120 491 -751 485 423 0
10424 491 -751 485 -423 0
11942 491 -751 -485 423 0
12209 491 -751 -485 -423 0
21505 -491 751 485 423 0
21581 -491 751 485 -423 0
21960 -491 751 -485 423 0
22027 -491 751 -485 -423 0
23023 -491 -751 485 423 0
23069 -491 -751 485 -423 0
23296 -491 -751 -485 423 0
23336 -491 -751 -485 -423 0
4140 448 220 -714 0
7866 448 -220 714 0
10433 448 -220 -714 0
10350 -448 220 714 0
12420 -448 220 -714 0
14283 -448 -220 714 0
15566 -448 -220 -714 0
28920 424 494 400 -211 0
33740 424 494 -400 211 0
42416 424 494 -400 -211 0
21690 424 -494 400 211 0
37596 424 -494 400 -211 0
40247 424 -494 -400 211 0
45019 424 -494 -400 -211 0
36150 -424 494 400 211 0
43380 -424 494 400 -211 0
44585 -424 494 -400 211 0
46754 -424 494 -400 -211 0
41573 -424 -494 400 211 0
45549 -424 -494 400 -211 0
46212 -424 -494 -400 211 0
47405 -424 -494 -400 -211 0
10560 374 501 487 425 495 -486 0
960 374 501 487 425 -495 486 0
10992 374 501 487 425 -495 -486 0
3456 374 501 487 -425 495 486 0
12115 374 501 487 -425 495 -486 0
4243 374 501 487 -425 -495 486 0
12469 374 501 487 -425 -495 -486 0
6720 374 501 -487 425 495 486 0
13584 374 501 -487 425 495 -486 0
7344 374 501 -487 425 -495 486 0
13865 374 501 -487 425 -495 -486 0
8966 374 501 -487 -425 495 486 0
14595 374 501 -487 -425 495 -486 0
9478 374 501 -487 -425 -495 486 0
14825 374 501 -487 -425 -495 -486 0
12480 374 -501 487 425 495 486 0
16176 374 -501 487 425 495 -486 0
12816 374 -501 487 425 -495 486 0
16327 374 -501 487 425 -495 -486 0
13690 374 -501 487 -425 495 486 0
16720 374 -501 487 -425 495 -486 0
13965 374 -501 487 -425 -495 486 0
16844 374 -501 487 -425 -495 -486 0
14832 374 -501 -487 425 495 486 0
17234 374 -501 -487 425 495 -486 0
15050 374 -501 -487 425 -495 486 0
17333 374 -501 -487 425 -495 -486 0
15618 374 -501 -487 -425 495 486 0
17588 374 -501 -487 -425 495 -486 0
15797 374 -501 -487 -425 -495 486 0
17669 374 -501 -487 -425 -495 -486 0
2304 -374 501 487 425 495 486 0
11597 -374 501 487 425 495 -486 0
3149 -374 501 487 425 -495 486 0
11977 -374 501 487 425 -495 -486 0
5345 -374 501 487 -425 495 486 0
12965 -374 501 487 -425 495 -486 0
6038 -374 501 487 -425 -495 486 0
13277 -374 501 487 -425 -495 -486 0
8218 -374 501 -487 425 495 486 0
14258 -374 501 -487 425 495 -486 0
8767 -374 501 -487 425 -495 486 0
14505 -374 501 -487 425 -495 -486 0
10194 -374 501 -487 -425 495 486 0
15147 -374 501 -487 -425 495 -486 0
10645 -374 501 -487 -425 -495 486 0
15350 -374 501 -487 -425 -495 -486 0
13286 -374 -501 487 425 495 486 0
16539 -374 -501 487 425 495 -486 0
13582 -374 -501 487 425 -495 486 0
16672 -374 -501 487 425 -495 -486 0
14351 -374 -501 487 -425 495 486 0
17018 -374 -501 487 -425 495 -486 0
14593 -374 -501 487 -425 -495 486 0
17127 -374 -501 487 -425 -495 -486 0
15356 -374 -501 -487 425 495 486 0
17470 -374 -501 -487 425 495 -486 0
15548 -374 -501 -487 425 -495 486 0
17557 -374 -501 -487 425 -495 -486 0
16048 -374 -501 -487 -425 495 486 0
17782 -374 -501 -487 -425 495 -486 0
16206 -374 -501 -487 -425 -495 486 0
17853 -374 -501 -487 -425 -495 -486 0
33740 488 -502 0
2410 -488 502 0
34463 -488 -502 0
5210 498 449 -503 0
1042 498 -449 503 0
6148 498 -449 -503 0
13025 -498 449 503 0
16932 -498 449 -503 0
13806 -498 -449 503 0
17636 -498 -449 -503 0
24570 319 -596 0
9555 -319 596 0
25526 -319 -596 0
13455 253 -512 0
414 -253 512 0
13600 -253 -512 0
9855 518 -471 0
2628 -518 471 0
11300 -518 -471 0
8676 530 526 492 472 -499 0
36150 530 526 492 -472 499 0
38319 530 526 492 -472 -499 0
9640 530 526 -492 472 499 0
16581 530 526 -492 472 -499 0
38560 530 526 -492 -472 499 0
40295 530 526 -492 -472 -499 0
964 530 -526 492 472 499 0
9466 530 -526 492 472 -499 0
36391 530 -526 492 -472 499 0
38517 530 -526 492 -472 -499 0
10411 530 -526 -492 472 499 0
17213 530 -526 -492 472 -499 0
38753 530 -526 -492 -472 499 0
40453 530 -526 -492 -472 -499 0
45790 -530 526 492 472 499 0
46224 -530 526 492 472 -499 0
47598 -530 526 492 -472 499 0
47706 -530 526 492 -472 -499 0
46272 -530 526 -492 472 499 0
46619 -530 526 -492 472 -499 0
47718 -530 526 -492 -472 499 0
47805 -530 526 -492 -472 -499 0
45838 -530 -526 492 472 499 0
46263 -530 -526 492 472 -499 0
47610 -530 -526 492 -472 499 0
47716 -530 -526 492 -472 -499 0
46311 -530 -526 -492 472 499 0
46651 -530 -526 -492 472 -499 0
47728 -530 -526 -492 -472 499 0
47813 -530 -526 -492 -472 -499 0
5784 -496 0
31260 535 -513 0
28655 -535 513 0
42722 -535 -513 0
18800 288 519 -489 0
60160 288 -519 489 0
63920 288 -519 -489 0
28576 -288 519 489 0
40232 -288 519 -489 0
65875 -288 -519 489 0
68206 -288 -519 -489 0
1920 212 -527 0
9600 -212 527 0
10560 -212 -527 0
19798 536 514 543 -538 0
36470 536 514 -543 538 0
42409 536 514 -543 -538 0
26050 536 -514 543 538 0
35949 536 -514 543 -538 0
44285 536 -514 -543 538 0
47255 536 -514 -543 -538 0
33865 -536 514 543 538 0
40794 -536 514 543 -538 0
46630 -536 514 -543 538 0
48708 -536 514 -543 -538 0
42982 -536 -514 543 538 0
46447 -536 -514 543 -538 0
49365 -536 -514 -543 538 0
50404 -536 -514 -543 -538 0
7008 544 531 -221 0
6570 544 -531 221 0
11476 544 -531 -221 0
16425 -544 531 221 0
18177 -544 531 -221 0
18067 -544 -531 221 0
19294 -544 -531 -221 0
23880 539 473 557 515 -528 0
14328 539 473 557 -515 528 0
33910 539 473 557 -515 -528 0
27860 539 473 -557 515 528 0
43382 539 473 -557 515 -528 0
37173 539 473 -557 -515 528 0
49901 539 473 -557 -515 -528 0
67660 539 -473 557 515 528 0
71242 539 -473 557 515 -528 0
69809 539 -473 557 -515 528 0
72746 539 -473 557 -515 -528 0
71839 539 -473 -557 515 528 0
74167 539 -473 -557 515 -528 0
73236 539 -473 -557 -515 528 0
75145 539 -473 -557 -515 -528 0
1592 -539 473 557 515 528 0
24994 -539 473 557 515 -528 0
15633 -539 473 557 -515 528 0
34823 -539 473 557 -515 -528 0
28895 -539 473 -557 515 528 0
44106 -539 473 -557 515 -528 0
38022 -539 473 -557 -515 528 0
50495 -539 473 -557 -515 -528 0
67899 -539 -473 557 515 528 0
71409 -539 -473 557 515 -528 0
70005 -539 -473 557 -515 528 0
72884 -539 -473 557 -515 -528 0
71994 -539 -473 -557 515 528 0
74276 -539 -473 -557 515 -528 0
73363 -539 -473 -557 -515 528 0
75234 -539 -473 -557 -515 -528 0
27580 558 -207 0
21670 -558 207 0
34081 -558 -207 0
31275 -523 0
43380 568 632 508 -540 0
8676 568 632 -508 540 0
44248 568 632 -508 -540 0
5784 568 -632 508 540 0
43958 568 -632 508 -540 0
13419 568 -632 -508 540 0
44722 568 -632 -508 -540 0
12050 -568 632 508 540 0
44585 -568 632 508 -540 0
18557 -568 632 -508 540 0
45236 -568 632 -508 -540 0
16388 -568 -632 508 540 0
45019 -568 -632 508 -540 0
22114 -568 -632 -508 540 0
45591 -568 -632 -508 -540 0
12510 552 509 -569 0
45175 552 -509 569 0
49554 552 -509 -569 0
31275 -552 509 569 0
38155 -552 509 -569 0
56121 -552 -509 569 0
58529 -552 -509 -569 0
26050 504 574 -633 0
23445 504 -574 633 0
37772 504 -574 -633 0
26050 -504 574 633 0
39075 -504 574 -633 0
37772 -504 -574 633 0
44936 -504 -574 -633 0
17745 549 254 -541 0
6825 549 -254 541 0
20134 549 -254 -541 0
9555 -549 254 541 0
21089 -549 254 -541 0
13991 -549 -254 541 0
22642 -549 -254 -541 0
48880 545 570 -505 0
33840 545 -570 505 0
60724 545 -570 -505 0
52640 -545 570 505 0
67304 -545 570 -505 0
62792 -545 -570 505 0
70857 -545 -570 -505 0
19110 520 -576 0
17745 -520 576 0
24434 -520 -576 0
2304 553 214 -575 0
12480 553 -214 575 0
13286 553 -214 -575 0
12480 -553 214 575 0
13286 -553 214 -575 0
16848 -553 -214 575 0
17130 -553 -214 -575 0
4820 554 577 -582 0
31330 554 -577 582 0
33017 554 -577 -582 0
9640 -554 577 582 0
13496 -554 577 -582 0
34704 -554 -577 582 0
36054 -554 -577 -582 0
17520 583 510 -579 0
4380 583 -510 579 0
18396 583 -510 -579 0
1095 -583 510 579 0
17739 -583 510 -579 0
5256 -583 -510 579 0
18571 -583 -510 -579 0
46890 580 506 -550 0
1042 580 -506 550 0
46994 580 -506 -550 0
15630 -580 506 550 0
48453 -580 506 -550 0
16359 -580 -506 550 0
48526 -580 -506 -550 0
24570 601 289 591 584 599 -571 0
8190 601 289 591 584 -599 571 0
25389 601 289 591 584 -599 -571 0
6825 601 289 591 -584 599 571 0
25253 601 289 591 -584 599 -571 0
12968 601 289 591 -584 -599 571 0
25867 601 289 591 -584 -599 -571 0
17745 601 289 -591 584 599 571 0
26344 601 289 -591 584 599 -571 0
20612 601 289 -591 584 -599 571 0
26631 601 289 -591 584 -599 -571 0
20134 601 289 -591 -584 599 571 0
26583 601 289 -591 -584 599 -571 0
22284 601 289 -591 -584 -599 571 0
26798 601 289 -591 -584 -599 -571 0
17745 601 -289 591 584 599 571 0
26344 601 -289 591 584 599 -571 0
20612 601 -289 591 584 -599 571 0
26631 601 -289 591 584 -599 -571 0
20134 601 -289 591 -584 599 571 0
26583 601 -289 591 -584 599 -571 0
22284 601 -289 591 -584 -599 571 0
26798 601 -289 591 -584 -599 -571 0
23956 601 -289 -591 584 599 571 0
26966 601 -289 -591 584 599 -571 0
24959 601 -289 -591 584 -599 571 0
27066 601 -289 -591 584 -599 -571 0
24792 601 -289 -591 -584 599 571 0
27049 601 -289 -591 -584 599 -571 0
25544 601 -289 -591 -584 -599 571 0
27124 601 -289 -591 -584 -599 -571 0
10374 -601 289 591 584 599 571 0
25607 -601 289 591 584 599 -571 0
15452 -601 289 591 584 -599 571 0
26115 -601 289 591 584 -599 -571 0
14606 -601 289 591 -584 599 571 0
26031 -601 289 591 -584 599 -571 0
18414 -601 289 591 -584 -599 571 0
26411 -601 289 591 -584 -599 -571 0
21376 -601 289 -591 584 599 571 0
26708 -601 289 -591 584 599 -571 0
23153 -601 289 -591 584 -599 571 0
26885 -601 289 -591 584 -599 -571 0
22857 -601 289 -591 -584 599 571 0
26856 -601 289 -591 -584 599 -571 0
24190 -601 289 -591 -584 -599 571 0
26989 -601 289 -591 -584 -599 -571 0
21376 -601 -289 591 584 599 571 0
26708 -601 -289 591 584 599 -571 0
23153 -601 -289 591 584 -599 571 0
26885 -601 -289 591 584 -599 -571 0
22857 -601 -289 591 -584 599 571 0
26856 -601 -289 591 -584 599 -571 0
24190 -601 -289 591 -584 -599 571 0
26989 -601 -289 591 -584 -599 -571 0
25227 -601 -289 -591 584 599 571 0
27093 -601 -289 -591 584 599 -571 0
25849 -601 -289 -591 584 -599 571 0
27155 -601 -289 -591 584 -599 -571 0
25745 -601 -289 -591 -584 599 571 0
27144 -601 -289 -591 -584 599 -571 0
26211 -601 -289 -591 -584 -599 571 0
27191 -601 -289 -591 -584 -599 -571 0
16870 497 559 589 -602 0
2410 497 559 -589 602 0
18437 497 559 -589 -602 0
36150 497 -559 589 602 0
40368 497 -559 589 -602 0
36752 497 -559 -589 602 0
40759 497 -559 -589 -602 0
5784 -497 559 589 602 0
20630 -497 559 589 -602 0
7905 -497 559 -589 602 0
22008 -497 559 -589 -602 0
37596 -497 -559 589 602 0
41307 -497 -559 589 -602 0
38126 -497 -559 -589 602 0
41652 -497 -559 -589 -602 0
9378 590 673 -603 0
9378 590 -673 603 0
17068 590 -673 -603 0
9378 -590 673 603 0
17068 -590 673 -603 0
17068 -590 -673 603 0
23374 -590 -673 -603 0
13025 587 532 578 607 -592 0
1042 587 532 578 -607 592 0
13806 587 532 578 -607 -592 0
13025 587 532 -578 607 592 0
22794 587 532 -578 607 -592 0
13806 587 532 -578 -607 592 0
23380 587 532 -578 -607 -592 0
2605 587 -532 578 607 592 0
14979 587 -532 578 607 -592 0
3595 587 -532 578 -607 592 0
15721 587 -532 578 -607 -592 0
14979 587 -532 -578 607 592 0
24259 587 -532 -578 607 -592 0
15721 587 -532 -578 -607 592 0
24816 587 -532 -578 -607 -592 0
26050 -587 532 578 607 592 0
32562 -587 532 578 607 -592 0
26571 -587 532 578 -607 592 0
32953 -587 532 578 -607 -592 0
32562 -587 532 -578 607 592 0
37447 -587 532 -578 607 -592 0
32953 -587 532 -578 -607 592 0
37740 -587 532 -578 -607 -592 0
27353 -587 -532 578 607 592 0
33539 -587 -532 578 607 -592 0
27847 -587 -532 578 -607 592 0
33911 -587 -532 578 -607 -592 0
33539 -587 -532 -578 607 592 0
38180 -587 -532 -578 607 -592 0
33911 -587 -532 -578 -607 592 0
38458 -587 -532 -578 -607 -592 0
22080 546 588 604 611 585 -600 0
13800 546 588 604 611 -585 600 0
30360 546 588 604 611 -585 -600 0
1104 546 588 604 -611 585 600 0
22742 546 588 604 -611 585 -600 0
14628 546 588 604 -611 -585 600 0
30857 546 588 604 -611 -585 -600 0
46920 546 588 -604 611 585 600 0
50232 546 588 -604 611 585 -600 0
48990 546 588 -604 611 -585 600 0
51474 546 588 -604 611 -585 -600 0
47086 546 588 -604 -611 585 600 0
50331 546 588 -604 -611 585 -600 0
49114 546 588 -604 -611 -585 600 0
51549 546 588 -604 -611 -585 -600 0
30360 546 -588 604 611 585 600 0
40296 546 -588 604 611 585 -600 0
36570 546 -588 604 611 -585 600 0
44022 546 -588 604 611 -585 -600 0
30857 546 -588 604 -611 585 600 0
40594 546 -588 604 -611 585 -600 0
36943 546 -588 604 -611 -585 600 0
44246 546 -588 604 -611 -585 -600 0
51474 546 -588 -604 611 585 600 0
52964 546 -588 -604 611 585 -600 0
52405 546 -588 -604 611 -585 600 0
53523 546 -588 -604 611 -585 -600 0
51549 546 -588 -604 -611 585 600 0
53009 546 -588 -604 -611 585 -600 0
52461 546 -588 -604 -611 -585 600 0
53557 546 -588 -604 -611 -585 -600 0
52440 -546 588 604 611 585 600 0
53544 -546 588 604 611 585 -600 0
53130 -546 588 604 611 -585 600 0
53958 -546 588 604 611 -585 -600 0
52495 -546 588 604 -611 585 600 0
53577 -546 588 604 -611 585 -600 0
53171 -546 588 604 -611 -585 600 0
53983 -546 588 604 -611 -585 -600 0
54786 -546 588 -604 611 585 600 0
54952 -546 588 -604 611 585 -600 0
54889 -546 588 -604 611 -585 600 0
55014 -546 588 -604 611 -585 -600 0
54794 -546 588 -604 -611 585 600 0
54957 -546 588 -604 -611 585 -600 0
54896 -546 588 -604 -611 -585 600 0
55017 -546 588 -604 -611 -585 -600 0
53958 -546 -588 604 611 585 600 0
54455 -546 -588 604 611 585 -600 0
54269 -546 -588 604 611 -585 600 0
54641 -546 -588 604 611 -585 -600 0
53983 -546 -588 604 -611 585 600 0
54470 -546 -588 604 -611 585 -600 0
54287 -546 -588 604 -611 -585 600 0
54652 -546 -588 604 -611 -585 -600 0
55014 -546 -588 -604 611 585 600 0
55088 -546 -588 -604 611 585 -600 0
55060 -546 -588 -604 611 -585 600 0
55116 -546 -588 -604 611 -585 -600 0
55017 -546 -588 -604 -611 585 600 0
55090 -546 -588 -604 -611 585 -600 0
55063 -546 -588 -604 -611 -585 600 0
55118 -546 -588 -604 -611 -585 -600 0
16320 -593 0
10420 255 608 -621 0
26050 255 -608 621 0
31260 255 -608 -621 0
39075 -255 608 621 0
41680 -255 608 -621 0
45588 -255 -608 621 0
46890 -255 -608 -621 0
6570 555 622 -560 0
1095 555 -622 560 0
7337 555 -622 -560 0
6570 -555 622 560 0
11169 -555 622 -560 0
7337 -555 -622 560 0
11706 -555 -622 -560 0
5760 623 617 627 -493 0
13440 623 617 -627 493 0
15168 623 617 -627 -493 0
9600 623 -617 627 493 0
12480 623 -617 627 -493 0
16320 623 -617 -627 493 0
17184 623 -617 -627 -493 0
2880 -623 617 627 493 0
7776 -623 617 627 -493 0
14304 -623 617 -627 493 0
15773 -623 617 -627 -493 0
11040 -623 -617 627 493 0
13488 -623 -617 627 -493 0
16752 -623 -617 -627 493 0
17486 -623 -617 -627 -493 0
19900 -516 0
49920 -533 0
5100 624 -674 0
2550 -624 674 0
7395 -624 -674 0
7328 -618 0
506 637 -216 0
506 -637 216 0
1002 -637 -216 0
26010 643 614 650 628 -619 0
8670 643 614 650 -628 619 0
26877 643 614 650 -628 -619 0
10982 643 614 -650 628 619 0
27108 643 614 -650 628 -619 0
16357 643 614 -650 -628 619 0
27646 643 614 -650 -628 -619 0
5780 643 -614 650 628 619 0
26588 643 -614 650 628 -619 0
12716 643 -614 650 -628 619 0
27282 643 -614 650 -628 -619 0
14566 643 -614 -650 628 619 0
27467 643 -614 -650 628 -619 0
18866 643 -614 -650 -628 619 0
27897 643 -614 -650 -628 -619 0
8670 -643 614 650 628 619 0
26877 -643 614 650 628 -619 0
14739 -643 614 650 -628 619 0
27484 -643 614 650 -628 -619 0
16357 -643 614 -650 628 619 0
27646 -643 614 -650 628 -619 0
20120 -643 614 -650 -628 619 0
28022 -643 614 -650 -628 -619 0
12716 -643 -614 650 628 619 0
27282 -643 -614 650 628 -619 0
17571 -643 -614 650 -628 619 0
27767 -643 -614 650 -628 -619 0
18866 -643 -614 -650 628 619 0
27897 -643 -614 -650 628 -619 0
21876 -643 -614 -650 -628 619 0
28198 -643 -614 -650 -628 -619 0
17745 646 -597 0
4914 -646 597 0
19465 -646 -597 0
23445 644 647 -638 0
49495 644 -647 638 0
50667 644 -647 -638 0
39075 -644 647 638 0
44936 -644 647 -638 0
51449 -644 -647 638 0
51742 -644 -647 -638 0
46890 615 639 -652 0
2605 615 -639 652 0
47150 615 -639 -652 0
46890 -615 639 652 0
51579 -615 639 -652 0
47150 -615 -639 652 0
51605 -615 -639 -652 0
9855 -666 0
26510 290 -653 0
40970 -290 653 0
44946 -290 -653 0
36470 616 658 -654 0
39075 616 -658 654 0
48193 616 -658 -654 0
36470 -616 658 654 0
47411 -616 658 -654 0
48193 -616 -658 654 0
50928 -616 -658 -654 0
16425 612 651 -561 0
12045 612 -651 561 0
19436 612 -651 -561 0
17520 -612 651 561 0
20805 -612 651 -561 0
19929 -612 -651 561 0
21407 -612 -651 -561 0
59700 662 689 -659 0
75620 662 -689 659 0
78605 662 -689 -659 0
23880 -662 689 659 0
65670 -662 689 -659 0
76814 -662 -689 659 0
78903 -662 -689 -659 0
8280 625 679 -660 0
11040 625 -679 660 0
17664 625 -679 -660 0
11040 -625 679 660 0
17664 -625 679 -660 0
19872 -625 -679 660 0
25171 -625 -679 -660 0
8096 680 667 663 -525 0
16445 680 667 -663 525 0
19279 680 667 -663 -525 0
9614 680 -667 663 525 0
14634 680 -667 663 -525 0
19810 680 -667 -663 525 0
21567 680 -667 -663 -525 0
8096 -680 667 663 525 0
13601 -680 667 663 -525 0
19279 -680 667 -663 525 0
21205 -680 667 -663 -525 0
14634 -680 -667 663 525 0
18047 -680 -667 663 -525 0
21567 -680 -667 -663 525 0
22761 -680 -667 -663 -525 0
8736 696 -572 0
10374 -696 572 0
15790 -696 -572 0
8322 683 664 -609 0
8322 683 -664 609 0
13482 683 -664 -609 0
4380 -683 664 609 0
11038 -683 664 -609 0
11038 -683 -664 609 0
15165 -683 -664 -609 0
3980 692 668 648 687 661 -684 0
47760 692 668 648 687 -661 684 0
49352 692 668 648 687 -661 -684 0
15920 692 668 648 -687 661 684 0
19104 692 668 648 -687 661 -684 0
54128 692 668 648 -687 -661 684 0
55402 692 668 648 -687 -661 -684 0
43780 692 668 -648 687 661 684 0
45571 692 668 -648 687 661 -684 0
65272 692 668 -648 687 -661 684 0
65988 692 668 -648 687 -661 -684 0
50944 692 668 -648 -687 661 684 0
52377 692 668 -648 -687 661 -684 0
68138 692 668 -648 -687 -661 684 0
68711 692 668 -648 -687 -661 -684 0
43780 692 -668 648 687 661 684 0
45571 692 -668 648 687 661 -684 0
65272 692 -668 648 687 -661 684 0
65988 692 -668 648 687 -661 -684 0
50944 692 -668 648 -687 661 684 0
52377 692 -668 648 -687 661 -684 0
68138 692 -668 648 -687 -661 684 0
68711 692 -668 648 -687 -661 -684 0
63481 692 -668 -648 687 661 684 0
64287 692 -668 -648 687 661 -684 0
73152 692 -668 -648 687 -661 684 0
73475 692 -668 -648 687 -661 -684 0
66705 692 -668 -648 -687 661 684 0
67350 692 -668 -648 -687 661 -684 0
74442 692 -668 -648 -687 -661 684 0
74700 692 -668 -648 -687 -661 -684 0
23880 -692 668 648 687 661 684 0
26666 -692 668 648 687 661 -684 0
57312 -692 668 648 687 -661 684 0
58426 -692 668 648 687 -661 -684 0
35024 -692 668 648 -687 661 684 0
37253 -692 668 648 -687 661 -684 0
61770 -692 668 648 -687 -661 684 0
62661 -692 668 648 -687 -661 -684 0
54526 -692 668 -648 687 661 684 0
55780 -692 668 -648 687 661 -684 0
69570 -692 668 -648 687 -661 684 0
70072 -692 668 -648 687 -661 -684 0
59541 -692 668 -648 -687 661 684 0
60544 -692 668 -648 -687 661 -684 0
71576 -692 668 -648 -687 -661 684 0
71978 -692 668 -648 -687 -661 -684 0
54526 -692 -668 648 687 661 684 0
55780 -692 -668 648 687 661 -684 0
69570 -692 -668 648 687 -661 684 0
70072 -692 -668 648 687 -661 -684 0
59541 -692 -668 648 -687 661 684 0
60544 -692 -668 648 -687 661 -684 0
71576 -692 -668 648 -687 -661 684 0
71978 -692 -668 648 -687 -661 -684 0
68317 -692 -668 -648 687 661 684 0
68881 -692 -668 -648 687 661 -684 0
75087 -692 -668 -648 687 -661 684 0
75312 -692 -668 -648 687 -661 -684 0
70573 -692 -668 -648 -687 661 684 0
71025 -692 -668 -648 -687 661 -684 0
75989 -692 -668 -648 -687 -661 684 0
76170 -692 -668 -648 -687 -661 -684 0
1035 693 702 656 -256 0
16560 693 702 -656 256 0
16767 693 702 -656 -256 0
17595 693 -702 656 256 0
17750 693 -702 656 -256 0
20079 693 -702 -656 256 0
20110 693 -702 -656 -256 0
2070 -693 702 656 256 0
3002 -693 702 656 -256 0
16974 -693 702 -656 256 0
17160 -693 702 -656 -256 0
17906 -693 -702 656 256 0
18045 -693 -702 656 -256 0
20141 -693 -702 -656 256 0
20169 -693 -702 -656 -256 0
63680 694 716 703 706 704 -657 0
75620 694 716 703 706 -704 657 0
78804 694 716 703 706 -704 -657 0
43780 694 716 703 -706 704 657 0
72436 694 716 703 -706 704 -657 0
77809 694 716 703 -706 -704 657 0
79242 694 716 703 -706 -704 -657 0
30248 694 716 -703 706 704 657 0
69730 694 716 -703 706 704 -657 0
77132 694 716 -703 706 -704 657 0
79106 694 716 -703 706 -704 -657 0
57392 694 716 -703 -706 704 657 0
75158 694 716 -703 -706 704 -657 0
78490 694 716 -703 -706 -704 657 0
79378 694 716 -703 -706 -704 -657 0
27860 694 -716 703 706 704 657 0
69252 694 -716 703 706 704 -657 0
77013 694 -716 703 706 -704 657 0
79083 694 -716 703 706 -704 -657 0
56317 694 -716 703 -706 704 657 0
74943 694 -716 703 -706 704 -657 0
78436 694 -716 703 -706 -704 657 0
79367 694 -716 703 -706 -704 -657 0
47521 694 -716 -703 706 704 657 0
73184 694 -716 -703 706 704 -657 0
77996 694 -716 -703 706 -704 657 0
79279 694 -716 -703 706 -704 -657 0
65165 694 -716 -703 -706 704 657 0
76713 694 -716 -703 -706 704 -657 0
78878 694 -716 -703 -706 -704 657 0
79456 694 -716 -703 -706 -704 -657 0
47760 -694 716 703 706 704 657 0
73232 -694 716 703 706 704 -657 0
78008 -694 716 703 706 -704 657 0
79282 -694 716 703 706 -704 -657 0
65272 -694 716 703 -706 704 657 0
76734 -694 716 703 -706 704 -657 0
78884 -694 716 703 -706 -704 657 0
79457 -694 716 703 -706 -704 -657 0
59859 -694 716 -703 706 704 657 0
75652 -694 716 -703 706 704 -657 0
78613 -694 716 -703 706 -704 657 0
79403 -694 716 -703 706 -704 -657 0
70717 -694 716 -703 -706 704 657 0
77823 -694 716 -703 -706 704 -657 0
79156 -694 716 -703 -706 -704 657 0
79511 -694 716 -703 -706 -704 -657 0
58904 -694 -716 703 706 704 657 0
75461 -694 -716 703 706 704 -657 0
78565 -694 -716 703 706 -704 657 0
79393 -694 -716 703 706 -704 -657 0
70287 -694 -716 703 -706 704 657 0
77737 -694 -716 703 -706 704 -657 0
79134 -694 -716 703 -706 -704 657 0
79507 -694 -716 703 -706 -704 -657 0
66768 -694 -716 -703 706 704 657 0
77034 -694 -716 -703 706 704 -657 0
78958 -694 -716 -703 706 -704 657 0
79472 -694 -716 -703 706 -704 -657 0
73826 -694 -716 -703 -706 704 657 0
78445 -694 -716 -703 -706 704 -657 0
79311 -694 -716 -703 -706 -704 657 0
79542 -694 -716 -703 -706 -704 -657 0
20610 707 -695 0
1145 -707 695 0
20725 -707 -695 0
22080 605 -705 0
49680 -605 705 0
51888 -605 -705 0
26010 721 724 685 -697 0
18785 721 724 -685 697 0
27888 721 724 -685 -697 0
13005 721 -724 685 697 0
27311 721 -724 685 -697 0
23337 721 -724 -685 697 0
28344 721 -724 -685 -697 0
26010 -721 724 685 697 0
28611 -721 724 685 -697 0
27888 -721 724 -685 697 0
28799 -721 724 -685 -697 0
27311 -721 -724 685 697 0
28741 -721 -724 685 -697 0
28344 -721 -724 -685 697 0
28844 -721 -724 -685 -697 0
24840 725 547 -727 0
9936 725 -547 727 0
30305 725 -547 -727 0
41400 -725 547 727 0
47610 -725 547 -727 0
43884 -725 -547 727 0
48976 -725 -547 -727 0
12045 649 517 722 -688 0
3942 649 517 -722 688 0
13819 649 517 -722 -688 0
9855 649 -517 722 688 0
16480 649 -517 722 -688 0
12023 649 -517 -722 688 0
17455 649 -517 -722 -688 0
18615 -649 517 722 688 0
20422 -649 517 722 -688 0
19206 -649 517 -722 688 0
20688 -649 517 -722 -688 0
20093 -649 -517 722 688 0
21087 -649 -517 722 -688 0
20418 -649 -517 -722 688 0
21233 -649 -517 -722 -688 0
9555 699 -640 0
6825 -699 640 0
13991 -699 -640 0
10115 717 732 739 741 -698 0
26010 717 732 739 -741 698 0
27022 717 732 739 -741 -698 0
9248 717 732 -739 741 698 0
16126 717 732 -739 741 -698 0
26935 717 732 -739 -741 698 0
27623 717 732 -739 -741 -698 0
10982 717 -732 739 741 698 0
17253 717 -732 739 741 -698 0
27108 717 -732 739 -741 698 0
27735 717 -732 739 -741 -698 0
16716 717 -732 -739 741 698 0
20980 717 -732 -739 741 -698 0
27682 717 -732 -739 -741 698 0
28108 717 -732 -739 -741 -698 0
3468 -717 732 739 741 698 0
12369 -717 732 739 741 -698 0
26357 -717 732 739 -741 698 0
27247 -717 732 739 -741 -698 0
11606 -717 732 -739 741 698 0
17659 -717 732 -739 741 -698 0
27171 -717 732 -739 -741 698 0
27776 -717 732 -739 -741 -698 0
13132 -717 -732 739 741 698 0
18651 -717 -732 739 741 -698 0
27323 -717 -732 739 -741 698 0
27875 -717 -732 739 -741 -698 0
18178 -717 -732 -739 741 698 0
21931 -717 -732 -739 741 -698 0
27828 -717 -732 -739 -741 698 0
28203 -717 -732 -739 -741 -698 0
45760 733 -645 0
4160 -733 645 0
47632 -733 -645 0
2484 700 511 -740 0
9315 700 -511 740 0
10681 700 -511 -740 0
8280 -700 511 740 0
9770 -700 511 -740 0
13869 -700 -511 740 0
14689 -700 -511 -740 0
14328 690 752 -669 0
23880 690 -752 669 0
33910 690 -752 -669 0
59700 -690 752 669 0
63282 -690 752 -669 0
65670 -690 -752 669 0
68177 -690 -752 -669 0
39075 753 746 -636 0
49495 753 -746 636 0
51449 753 -746 -636 0
1042 -753 746 636 0
39336 -753 746 -636 0
49547 -753 -746 636 0
51462 -753 -746 -636 0
7815 573 -758 0
23445 -573 758 0
27743 -573 -758 0
4530 -629 0
19710 755 742 743 -562 0
1095 755 742 -743 562 0
19819 755 742 -743 -562 0
12045 755 -742 743 562 0
20915 755 -742 743 -562 0
12538 755 -742 -743 562 0
20964 755 -742 -743 -562 0
1095 -755 742 743 562 0
19819 -755 742 743 -562 0
2135 -755 742 -743 562 0
19924 -755 742 -743 -562 0
12538 -755 -742 743 562 0
20964 -755 -742 743 -562 0
13006 -755 -742 -743 562 0
21011 -755 -742 -743 -562 0
17664 756 665 736 763 761 -747 0
41400 756 665 736 763 -761 747 0
45816 756 665 736 763 -761 -747 0
16560 756 665 736 -763 761 747 0
28925 756 665 736 -763 761 -747 0
45540 756 665 736 -763 -761 747 0
48631 756 665 736 -763 -761 -747 0
35880 756 665 -736 763 761 747 0
42062 756 665 -736 763 761 -747 0
50370 756 665 -736 763 -761 747 0
51916 756 665 -736 763 -761 -747 0
41676 756 665 -736 -763 761 747 0
46004 756 665 -736 -763 761 -747 0
51819 756 665 -736 -763 -761 747 0
52901 756 665 -736 -763 -761 -747 0
22080 756 -665 736 763 761 747 0
32678 756 -665 736 763 761 -747 0
46920 756 -665 736 763 -761 747 0
49570 756 -665 736 763 -761 -747 0
32016 756 -665 736 -763 761 747 0
39435 756 -665 736 -763 761 -747 0
49404 756 -665 736 -763 -761 747 0
51259 756 -665 736 -763 -761 -747 0
43608 756 -665 -736 763 761 747 0
47317 756 -665 -736 763 761 -747 0
52302 756 -665 -736 763 -761 747 0
53229 756 -665 -736 763 -761 -747 0
47086 756 -665 -736 -763 761 747 0
49682 756 -665 -736 -763 761 -747 0
53171 756 -665 -736 -763 -761 747 0
53821 756 -665 -736 -763 -761 -747 0
27600 -756 665 736 763 761 747 0
36432 -756 665 736 763 761 -747 0
48300 -756 665 736 763 -761 747 0
50508 -756 665 736 763 -761 -747 0
35880 -756 665 736 -763 761 747 0
42062 -756 665 736 -763 761 -747 0
50370 -756 665 736 -763 -761 747 0
51916 -756 665 736 -763 -761 -747 0
45540 -756 665 -736 763 761 747 0
48631 -756 665 -736 763 761 -747 0
52785 -756 665 -736 763 -761 747 0
53558 -756 665 -736 763 -761 -747 0
48438 -756 665 -736 -763 761 747 0
50602 -756 665 -736 -763 761 -747 0
53510 -756 665 -736 -763 -761 747 0
54050 -756 665 -736 -763 -761 -747 0
38640 -756 -665 736 763 761 747 0
43939 -756 -665 736 763 761 -747 0
51060 -756 -665 736 763 -761 747 0
52385 -756 -665 736 763 -761 -747 0
43608 -756 -665 736 -763 761 747 0
47317 -756 -665 736 -763 761 -747 0
52302 -756 -665 736 -763 -761 747 0
53229 -756 -665 736 -763 -761 -747 0
49404 -756 -665 -736 763 761 747 0
51259 -756 -665 -736 763 761 -747 0
53751 -756 -665 -736 763 -761 747 0
54215 -756 -665 -736 763 -761 -747 0
51143 -756 -665 -736 -763 761 747 0
52441 -756 -665 -736 -763 761 -747 0
54186 -756 -665 -736 -763 -761 747 0
54510 -756 -665 -736 -763 -761 -747 0
39800 759 728 -737 0
11940 759 -728 737 0
45770 759 -728 -737 0
9552 -759 728 737 0
44576 -759 728 -737 0
20059 -759 -728 737 0
49830 -759 -728 -737 0
414 -701 0
43275 764 620 744 -771 0
49045 764 620 -744 771 0
55536 764 620 -744 -771 0
31735 764 -620 744 771 0
51209 764 -620 744 -771 0
53805 764 -620 -744 771 0
56726 764 -620 -744 -771 0
28850 -764 620 744 771 0
50488 -764 620 744 -771 0
53373 -764 620 -744 771 0
56618 -764 620 -744 -771 0
44718 -764 -620 744 771 0
54454 -764 -620 744 -771 0
55753 -764 -620 -744 771 0
57213 -764 -620 -744 -771 0
28655 -500 0
4335 675 -772 0
9248 -675 772 0
12196 -675 -772 0
12750 773 769 581 -227 0
5100 773 769 -581 227 0
16575 773 769 -581 -227 0
16320 773 -769 581 227 0
24990 773 -769 581 -227 0
19788 773 -769 -581 227 0
27591 773 -769 -581 -227 0
25500 -773 769 581 227 0
31875 -773 769 581 -227 0
28050 -773 769 -581 227 0
33788 -773 769 -581 -227 0
33660 -773 -769 581 227 0
37995 -773 -769 581 -227 0
35394 -773 -769 -581 227 0
39295 -773 -769 -581 -227 0
10200 754 -222 0
1020 -754 222 0
11016 -754 -222 0
30248 228 775 765 551 -229 0
3980 228 775 765 -551 229 0
32716 228 775 765 -551 -229 0
7960 228 775 -765 551 229 0
35183 228 775 -765 551 -229 0
11542 228 775 -765 -551 229 0
37404 228 775 -765 -551 -229 0
75620 228 -775 765 551 229 0
77132 228 -775 765 551 -229 0
75819 228 -775 765 -551 229 0
77256 228 -775 765 -551 -229 0
76018 228 -775 -765 551 229 0
77379 228 -775 -765 551 -229 0
76197 228 -775 -765 -551 229 0
77490 228 -775 -765 -551 -229 0
47760 -228 775 765 551 229 0
59859 -228 775 765 551 -229 0
49352 -228 775 765 -551 229 0
60846 -228 775 765 -551 -229 0
50944 -228 775 -765 551 229 0
61833 -228 775 -765 551 -229 0
52377 -228 775 -765 -551 229 0
62722 -228 775 -765 -551 -229 0
78008 -228 -775 765 551 229 0
78613 -228 -775 765 551 -229 0
78088 -228 -775 765 -551 229 0
78662 -228 -775 765 -551 -229 0
78167 -228 -775 -765 551 229 0
78712 -228 -775 -765 551 -229 0
78239 -228 -775 -765 -551 229 0
78756 -228 -775 -765 -551 -229 0
964 767 534 -230 0
21690 767 -534 230 0
22220 767 -534 -230 0
964 -767 534 230 0
1909 -767 534 -230 0
22220 -767 -534 230 0
22740 -767 -534 -230 0
1445 641 236 -760 0
23120 641 -236 760 0
23409 641 -236 -760 0
1445 -641 236 760 0
2818 -641 236 -760 0
23409 -641 -236 760 0
23684 -641 -236 -760 0
1104 776 239 -242 0
22080 776 -239 242 0
22742 776 -239 -242 0
33120 -776 239 242 0
33562 -776 239 -242 0
41952 -776 -239 242 0
42217 -776 -239 -242 0
45900 243 223 240 -446 0
15300 243 223 -240 446 0
47430 243 223 -240 -446 0
20400 243 -223 240 446 0
47940 243 -223 240 -446 0
29580 243 -223 -240 446 0
48858 243 -223 -240 -446 0
30600 -243 223 240 446 0
48960 -243 223 240 -446 0
36720 -243 223 -240 446 0
49572 -243 223 -240 -446 0
38760 -243 -223 240 446 0
49776 -243 -223 240 -446 0
42432 -243 -223 -240 446 0
50143 -243 -223 -240 -446 0
4122 676 777 -233 0
11450 676 -777 233 0
13511 676 -777 -233 0
458 -676 777 233 0
4498 -676 777 -233 0
11679 -676 -777 233 0
13699 -676 -777 -233 0
23985 244 718 -766 0
7995 244 -718 766 0
28382 244 -718 -766 0
34645 -244 718 766 0
43040 -244 718 -766 0
37443 -244 -718 766 0
44579 -244 -718 -766 0
438 -610 0
28050 224 259 -257 0
12750 224 -259 257 0
33788 224 -259 -257 0
25500 -224 259 257 0
39525 -224 259 -257 0
31875 -224 -259 257 0
42394 -224 -259 -257 0
15180 258 490 -734 0
1265 258 -490 734 0
15686 258 -490 -734 0
9614 -258 490 734 0
19026 -258 490 -734 0
10398 -258 -490 734 0
19339 -258 -490 -734 0
5780 -344 0
28655 266 -556 0
46890 -266 556 0
49756 -266 -556 0
9855 626 271 237 -246 0
438 626 271 -237 246 0
10096 626 271 -237 -246 0
15330 626 -271 237 246 0
18286 626 -271 237 -246 0
15461 626 -271 -237 246 0
18359 626 -271 -237 -246 0
8322 -626 271 237 246 0
14432 -626 271 237 -246 0
8594 -626 271 -237 246 0
14581 -626 271 -237 -246 0
17827 -626 -271 237 246 0
19660 -626 -271 237 -246 0
17908 -626 -271 -237 246 0
19704 -626 -271 -237 -246 0
33150 247 262 272 245 -768 0
12750 247 262 272 -245 768 0
37612 247 262 272 -245 -768 0
9180 247 262 -272 245 768 0
36363 247 262 -272 245 -768 0
19635 247 262 -272 -245 768 0
40022 247 262 -272 -245 -768 0
33150 247 -262 272 245 768 0
44753 247 -262 272 245 -768 0
37612 247 -262 272 -245 768 0
46314 247 -262 272 -245 -768 0
36363 247 -262 -272 245 768 0
45877 247 -262 -272 245 -768 0
40022 247 -262 -272 -245 768 0
47158 247 -262 -272 -245 -768 0
20400 -247 262 272 245 768 0
40290 -247 262 272 245 -768 0
28050 -247 262 272 -245 768 0
42968 -247 262 272 -245 -768 0
25908 -247 262 -272 245 768 0
42218 -247 262 -272 245 -768 0
32181 -247 262 -272 -245 768 0
44413 -247 262 -272 -245 -768 0
40290 -247 -262 272 245 768 0
47251 -247 -262 272 245 -768 0
42968 -247 -262 272 -245 768 0
48189 -247 -262 272 -245 -768 0
42218 -247 -262 -272 245 768 0
47926 -247 -262 -272 245 -768 0
44413 -247 -262 -272 -245 768 0
48695 -247 -262 -272 -245 -768 0
20254 762 -263 0
6396 -762 263 0
24220 -762 -263 0
13915 209 248 268 274 267 -276 0
17710 209 248 268 274 -267 276 0
21884 209 248 268 274 -267 -276 0
24035 209 248 268 -274 267 276 0
24731 209 248 268 -274 267 -276 0
24920 209 248 268 -274 -267 276 0
25129 209 248 268 -274 -267 -276 0
506 209 248 -268 274 267 276 0
14143 209 248 -268 274 267 -276 0
17862 209 248 -268 274 -267 276 0
21953 209 248 -268 274 -267 -276 0
24060 209 248 -268 -274 267 276 0
24742 209 248 -268 -274 267 -276 0
24928 209 248 -268 -274 -267 276 0
25133 209 248 -268 -274 -267 -276 0
5060 209 -248 268 274 267 276 0
16192 209 -248 268 274 267 -276 0
19228 209 -248 268 274 -267 276 0
22568 209 -248 268 274 -267 -276 0
24288 209 -248 268 -274 267 276 0
24845 209 -248 268 -274 267 -276 0
24996 209 -248 268 -274 -267 276 0
25163 209 -248 268 -274 -267 -276 0
5465 209 -248 -268 274 267 276 0
16374 209 -248 -268 274 267 -276 0
19349 209 -248 -268 274 -267 276 0
22622 209 -248 -268 274 -267 -276 0
24308 209 -248 -268 -274 267 276 0
24854 209 -248 -268 -274 267 -276 0
25002 209 -248 -268 -274 -267 276 0
25166 209 -248 -268 -274 -267 -276 0
6325 -209 248 268 274 267 276 0
16761 -209 248 268 274 267 -276 0
19607 -209 248 268 274 -267 276 0
22738 -209 248 268 274 -267 -276 0
24351 -209 248 268 -274 267 276 0
24873 -209 248 268 -274 267 -276 0
25015 -209 248 268 -274 -267 276 0
25172 -209 248 268 -274 -267 -276 0
6705 -209 248 -268 274 267 276 0
16932 -209 248 -268 274 267 -276 0
19721 -209 248 -268 274 -267 276 0
22790 -209 248 -268 274 -267 -276 0
24370 -209 248 -268 -274 267 276 0
24882 -209 248 -268 -274 267 -276 0
25021 -209 248 -268 -274 -267 276 0
25174 -209 248 -268 -274 -267 -276 0
10120 -209 -248 268 274 267 276 0
18469 -209 -248 268 274 267 -276 0
20746 -209 -248 268 274 -267 276 0
23251 -209 -248 268 274 -267 -276 0
24541 -209 -248 268 -274 267 276 0
24958 -209 -248 268 -274 267 -276 0
25072 -209 -248 268 -274 -267 276 0
25198 -209 -248 268 -274 -267 -276 0
10424 -209 -248 -268 274 267 276 0
18606 -209 -248 -268 274 267 -276 0
20837 -209 -248 -268 274 -267 276 0
23292 -209 -248 -268 274 -267 -276 0
24556 -209 -248 -268 -274 267 276 0
24965 -209 -248 -268 -274 267 -276 0
25077 -209 -248 -268 -274 -267 276 0
25200 -209 -248 -268 -274 -267 -276 0
20840 277 735 -281 0
41680 277 -735 281 0
45848 277 -735 -281 0
28655 -277 735 281 0
38033 -277 735 -281 0
47411 -277 -735 281 0
49287 -277 -735 -281 0
1066 269 275 -729 0
37310 269 -275 729 0
37630 269 -275 -729 0
13325 -269 275 729 0
14125 -269 275 -729 0
41307 -269 -275 729 0
41547 -269 -275 -729 0
17375 279 234 282 483 -293 0
34750 279 234 282 -483 293 0
43438 279 234 282 -483 -293 0
66025 279 234 -282 483 293 0
66894 279 234 -282 483 -293 0
67762 279 234 -282 -483 293 0
68197 279 234 -282 -483 -293 0
20850 279 -234 282 483 293 0
33013 279 -234 282 483 -293 0
45175 279 -234 282 -483 293 0
51256 279 -234 282 -483 -293 0
67067 279 -234 -282 483 293 0
67676 279 -234 -282 483 -293 0
68284 279 -234 -282 -483 293 0
68588 279 -234 -282 -483 -293 0
10425 -279 234 282 483 293 0
25194 -279 234 282 483 -293 0
39962 -279 234 282 -483 293 0
47347 -279 234 282 -483 -293 0
66546 -279 234 -282 483 293 0
67285 -279 234 -282 483 -293 0
68023 -279 234 -282 -483 293 0
68392 -279 234 -282 -483 -293 0
28148 -279 -234 282 483 293 0
38486 -279 -234 282 483 -293 0
48824 -279 -234 282 -483 293 0
53993 -279 -234 282 -483 -293 0
67432 -279 -234 -282 483 293 0
67949 -279 -234 -282 483 -293 0
68466 -279 -234 -282 -483 293 0
68725 -279 -234 -282 -483 -293 0
31735 280 -738 0
23080 -280 738 0
42121 -280 -738 0
51740 249 291 -606 0
55720 249 -291 606 0
71242 249 -291 -606 0
3980 -249 291 606 0
53133 -249 291 -606 0
56914 -249 -291 606 0
71660 -249 -291 -606 0
15630 295 -757 0
16672 -295 757 0
27300 -295 -757 0
7590 292 749 300 -260 0
8096 292 749 -300 260 0
13257 292 749 -300 -260 0
2530 292 -749 300 260 0
9361 292 -749 300 -260 0
9816 292 -749 -300 260 0
14461 292 -749 -300 -260 0
10120 -292 749 300 260 0
14674 -292 749 300 -260 0
14978 -292 749 -300 260 0
18074 -292 749 -300 -260 0
11638 -292 -749 300 260 0
15737 -292 -749 300 -260 0
16010 -292 -749 -300 260 0
18797 -292 -749 -300 -260 0
16672 681 -296 0
26050 -681 296 0
34386 -681 -296 0
9855 -686 0
16610 303 -264 0
25670 -303 264 0
28162 -303 -264 0
40390 301 -270 0
40390 -301 270 0
52507 -301 -270 0
1042 297 294 315 308 -312 0
49495 297 294 315 -308 312 0
49547 297 294 315 -308 -312 0
36470 297 294 -315 308 312 0
36783 297 294 -315 308 -312 0
51318 297 294 -315 -308 312 0
51334 297 294 -315 -308 -312 0
41680 297 -294 315 308 312 0
41888 297 -294 315 308 -312 0
51579 297 -294 315 -308 312 0
51589 297 -294 315 -308 -312 0
48974 297 -294 -315 308 312 0
49037 297 -294 -315 308 -312 0
51944 297 -294 -315 -308 312 0
51947 297 -294 -315 -308 -312 0
6252 -297 294 315 308 312 0
7169 -297 294 315 308 -312 0
49808 -297 294 315 -308 312 0
49853 -297 294 315 -308 -312 0
38346 -297 294 -315 308 312 0
38621 -297 294 -315 308 -312 0
51412 -297 294 -315 -308 312 0
51426 -297 294 -315 -308 -312 0
42930 -297 -294 315 308 312 0
43114 -297 -294 315 308 -312 0
51642 -297 -294 315 -308 312 0
51651 -297 -294 315 -308 -312 0
49349 -297 -294 -315 308 312 0
49404 -297 -294 -315 308 -312 0
51962 -297 -294 -315 -308 312 0
51965 -297 -294 -315 -308 -312 0
4820 306 770 304 316 309 -313 0
21690 306 770 304 316 -309 313 0
24341 306 770 304 316 -309 -313 0
2410 306 770 304 -316 309 313 0
6989 306 770 304 -316 309 -313 0
23016 306 770 304 -316 -309 313 0
25534 306 770 304 -316 -309 -313 0
964 306 770 -304 316 309 313 0
5688 306 770 -304 316 309 -313 0
22220 306 770 -304 316 -309 313 0
24818 306 770 -304 316 -309 -313 0
3326 306 770 -304 -316 309 313 0
7813 306 770 -304 -316 309 -313 0
23519 306 770 -304 -316 -309 313 0
25987 306 770 -304 -316 -309 -313 0
38560 306 -770 304 316 309 313 0
39524 306 -770 304 316 309 -313 0
42898 306 -770 304 316 -309 313 0
43428 306 -770 304 316 -309 -313 0
39042 306 -770 304 -316 309 313 0
39958 306 -770 304 -316 309 -313 0
43163 306 -770 304 -316 -309 313 0
43667 306 -770 304 -316 -309 -313 0
38753 306 -770 -304 316 309 313 0
39698 306 -770 -304 316 309 -313 0
43004 306 -770 -304 316 -309 313 0
43524 306 -770 -304 316 -309 -313 0
39225 306 -770 -304 -316 309 313 0
40123 306 -770 -304 -316 309 -313 0
43264 306 -770 -304 -316 -309 313 0
43757 306 -770 -304 -316 -309 -313 0
2410 -306 770 304 316 309 313 0
6989 -306 770 304 316 309 -313 0
23016 -306 770 304 316 -309 313 0
25534 -306 770 304 316 -309 -313 0
4700 -306 770 304 -316 309 313 0
9050 -306 770 304 -316 309 -313 0
24275 -306 770 304 -316 -309 313 0
26667 -306 770 304 -316 -309 -313 0
3326 -306 770 -304 316 309 313 0
7813 -306 770 -304 316 309 -313 0
23519 -306 770 -304 316 -309 313 0
25987 -306 770 -304 316 -309 -313 0
5570 -306 770 -304 -316 309 313 0
9833 -306 770 -304 -316 309 -313 0
24753 -306 770 -304 -316 -309 313 0
27098 -306 770 -304 -316 -309 -313 0
39042 -306 -770 304 316 309 313 0
39958 -306 -770 304 316 309 -313 0
43163 -306 -770 304 316 -309 313 0
43667 -306 -770 304 316 -309 -313 0
39500 -306 -770 304 -316 309 313 0
40370 -306 -770 304 -316 309 -313 0
43415 -306 -770 304 -316 -309 313 0
43893 -306 -770 304 -316 -309 -313 0
39225 -306 -770 -304 316 309 313 0
40123 -306 -770 -304 316 309 -313 0
43264 -306 -770 -304 316 -309 313 0
43757 -306 -770 -304 316 -309 -313 0
39674 -306 -770 -304 -316 309 313 0
40527 -306 -770 -304 -316 309 -313 0
43511 -306 -770 -304 -316 -309 313 0
43980 -306 -770 -304 -316 -309 -313 0
11520 265 564 -325 0
5760 265 -564 325 0
13824 265 -564 -325 0
9600 -265 564 325 0
15360 -265 564 -325 0
12480 -265 -564 325 0
16512 -265 -564 -325 0
13005 326 -682 0
27455 -326 682 0
28105 -326 -682 0
578 307 -542 0
27455 -307 542 0
27484 -307 -542 0
43275 -231 0
11476 -235 0
35820 338 329 -774 0
31840 338 -329 774 0
53332 338 -329 -774 0
7960 -338 329 774 0
40198 -338 329 -774 0
36616 -338 -329 774 0
55959 -338 -329 -774 0
5100 330 310 -719 0
5100 330 -310 719 0
9690 330 -310 -719 0
9180 -330 310 719 0
13362 -330 310 -719 0
13362 -330 -310 719 0
17126 -330 -310 -719 0
14976 340 339 -720 0
33280 340 -339 720 0
42266 340 -339 -720 0
49920 -340 339 720 0
55910 -340 339 -720 0
63232 -340 -339 720 0
66826 -340 -339 -720 0
13650 341 342 323 327 -232 0
2730 341 342 323 -327 232 0
15015 341 342 323 -327 -232 0
12285 341 342 -323 327 232 0
19792 341 342 -323 327 -232 0
13786 341 342 -323 -327 232 0
20543 341 342 -323 -327 -232 0
20475 341 -342 323 327 232 0
23888 341 -342 323 327 -232 0
21158 341 -342 323 -327 232 0
24229 341 -342 323 -327 -232 0
23546 341 -342 -323 327 232 0
25423 341 -342 -323 327 -232 0
23922 341 -342 -323 -327 232 0
25611 341 -342 -323 -327 -232 0
20475 -341 342 323 327 232 0
23888 -341 342 323 327 -232 0
21158 -341 342 323 -327 232 0
24229 -341 342 323 -327 -232 0
23546 -341 342 -323 327 232 0
25423 -341 342 -323 327 -232 0
23922 -341 342 -323 -327 232 0
25611 -341 342 -323 -327 -232 0
25594 -341 -342 323 327 232 0
26447 -341 -342 323 327 -232 0
25764 -341 -342 323 -327 232 0
26532 -341 -342 323 -327 -232 0
26362 -341 -342 -323 327 232 0
26831 -341 -342 -323 327 -232 0
26455 -341 -342 -323 -327 232 0
26878 -341 -342 -323 -327 -232 0
10660 343 730 -347 0
9594 343 -730 347 0
18335 343 -730 -347 0
37310 -343 730 347 0
40508 -343 730 -347 0
40188 -343 -730 347 0
42811 -343 -730 -347 0
4820 324 328 311 -349 0
14460 324 328 -311 349 0
17834 324 328 -311 -349 0
21690 324 -328 311 349 0
24341 324 -328 311 -349 0
29643 324 -328 -311 349 0
31499 324 -328 -311 -349 0
5784 -324 328 311 349 0
10026 -324 328 311 -349 0
18509 -324 328 -311 349 0
21478 -324 328 -311 -349 0
24871 -324 -328 311 349 0
27204 -324 -328 311 -349 0
31870 -324 -328 -311 349 0
33503 -324 -328 -311 -349 0
59700 320 355 -278 0
14328 320 -355 278 0
63282 320 -355 -278 0
7960 -320 355 278 0
61690 -320 355 -278 0
20855 -320 -355 278 0
64914 -320 -355 -278 0
5100 238 356 331 -335 0
16320 238 356 -331 335 0
19788 238 356 -331 -335 0
20400 238 -356 331 335 0
23460 238 -356 331 -335 0
30192 238 -356 -331 335 0
32273 238 -356 -331 -335 0
17850 -238 356 331 335 0
21165 -238 356 331 -335 0
28458 -238 356 -331 335 0
30712 -238 356 -331 -335 0
31110 -238 -356 331 335 0
33099 -238 -356 331 -335 0
37475 -238 -356 -331 335 0
38827 -238 -356 -331 -335 0
13590 348 358 360 336 -321 0
28690 348 358 360 -336 321 0
29369 348 358 360 -336 -321 0
25670 348 358 -360 336 321 0
27708 348 358 -360 336 -321 0
29973 348 358 -360 -336 321 0
30075 348 358 -360 -336 -321 0
9060 348 -358 360 336 321 0
18573 348 -358 360 336 -321 0
29143 348 -358 360 -336 321 0
29619 348 -358 360 -336 -321 0
27029 348 -358 -360 336 321 0
28456 348 -358 -360 336 -321 0
30041 348 -358 -360 -336 321 0
30113 348 -358 -360 -336 -321 0
1510 -348 358 360 336 321 0
14421 -348 358 360 336 -321 0
28765 -348 358 360 -336 321 0
29411 -348 358 360 -336 -321 0
25896 -348 358 -360 336 321 0
27833 -348 358 -360 336 -321 0
29985 -348 358 -360 -336 321 0
30082 -348 358 -360 -336 -321 0
10117 -348 -358 360 336 321 0
19154 -348 -358 360 336 -321 0
29196 -348 -358 360 -336 321 0
29648 -348 -358 360 -336 -321 0
27188 -348 -358 -360 336 321 0
28543 -348 -358 -360 336 -321 0
30049 -348 -358 -360 -336 321 0
30117 -348 -358 -360 -336 -321 0
15895 726 332 -350 0
15895 726 -332 350 0
23048 726 -332 -350 0
20230 -726 332 350 0
24998 -726 332 -350 0
24998 -726 -332 350 0
27144 -726 -332 -350 0
38560 -298 0
62400 -529 0
11385 -210 0
45900 353 359 -537 0
28050 353 -359 537 0
48705 353 -359 -537 0
17850 -353 359 537 0
47685 -353 359 -537 0
36082 -353 -359 537 0
49508 -353 -359 -537 0
23880 370 225 -322 0
15920 370 -225 322 0
35024 370 -225 -322 0
31840 -370 225 322 0
46168 -370 225 -322 0
41392 -370 -225 322 0
52854 -370 -225 -322 0
25500 380 354 365 361 -613 0
12750 380 354 365 -361 613 0
31875 380 354 365 -361 -613 0
38250 380 354 -365 361 613 0
44625 380 354 -365 361 -613 0
41438 380 354 -365 -361 613 0
46219 380 354 -365 -361 -613 0
17850 380 -354 365 361 613 0
34425 380 -354 365 361 -613 0
26138 380 -354 365 -361 613 0
38569 380 -354 365 -361 -613 0
42712 380 -354 -365 361 613 0
46856 380 -354 -365 361 -613 0
44784 380 -354 -365 -361 613 0
47892 380 -354 -365 -361 -613 0
22950 -380 354 365 361 613 0
36975 -380 354 365 361 -613 0
29962 -380 354 365 -361 613 0
40481 -380 354 365 -361 -613 0
43988 -380 354 -365 361 613 0
47494 -380 354 -365 361 -613 0
45741 -380 354 -365 -361 613 0
48370 -380 354 -365 -361 -613 0
32767 -380 -354 365 361 613 0
41884 -380 -354 365 361 -613 0
37326 -380 -354 365 -361 613 0
44163 -380 -354 365 -361 -613 0
46442 -380 -354 -365 361 613 0
48721 -380 -354 -365 361 -613 0
47581 -380 -354 -365 -361 613 0
49291 -380 -354 -365 -361 -613 0
6624 367 366 241 -382 0
2760 367 366 -241 382 0
9053 367 366 -241 -382 0
17664 367 -366 241 382 0
22168 367 -366 241 -382 0
19541 367 -366 -241 382 0
23820 367 -366 -241 -382 0
24840 -367 366 241 382 0
28483 -367 366 241 -382 0
26358 -367 366 -241 382 0
29819 -367 366 -241 -382 0
34555 -367 -366 241 382 0
37033 -367 -366 241 -382 0
35587 -367 -366 -241 382 0
37941 -367 -366 -241 -382 0
8670 655 371 383 377 -351 0
11560 655 371 383 -377 351 0
16762 655 371 383 -377 -351 0
5780 655 371 -383 377 351 0
12716 655 371 -383 377 -351 0
15028 655 371 -383 -377 351 0
19190 655 371 -383 -377 -351 0
15895 655 -371 383 377 351 0
19797 655 -371 383 377 -351 0
21097 655 -371 383 -377 351 0
23438 655 -371 383 -377 -351 0
18496 655 -371 -383 377 351 0
21617 655 -371 -383 377 -351 0
22658 655 -371 -383 -377 351 0
24530 655 -371 -383 -377 -351 0
8670 -655 371 383 377 351 0
14739 -655 371 383 377 -351 0
16762 -655 371 383 -377 351 0
20403 -655 371 383 -377 -351 0
12716 -655 371 -383 377 351 0
17571 -655 371 -383 377 -351 0
19190 -655 371 -383 -377 351 0
22103 -655 371 -383 -377 -351 0
19797 -655 -371 383 377 351 0
22528 -655 -371 383 377 -351 0
23438 -655 -371 383 -377 351 0
25077 -655 -371 383 -377 -351 0
21617 -655 -371 -383 377 351 0
23802 -655 -371 -383 377 -351 0
24530 -655 -371 -383 -377 351 0
25841 -655 -371 -383 -377 -351 0
40800 -317 0
6120 226 -363 0
7650 -226 363 0
12852 -226 -363 0
8760 385 -357 0
17520 -385 357 0
19272 -385 -357 0
24064 386 731 -375 0
18800 386 -731 375 0
36848 386 -731 -375 0
24064 -386 731 375 0
40428 -386 731 -375 0
36848 -386 -731 375 0
49121 -386 -731 -375 0
9640 284 391 -389 0
5784 284 -391 389 0
14267 284 -391 -389 0
12050 -284 391 389 0
19280 -284 391 -389 0
16388 -284 -391 389 0
22750 -284 -391 -389 0
50635 378 333 -392 0
5330 378 -333 392 0
50901 378 -333 -392 0
5330 -378 333 392 0
50901 -378 333 -392 0
10127 -378 -333 392 0
51141 -378 -333 -392 0
23445 381 376 387 368 -677 0
16672 381 376 387 -368 677 0
32615 381 376 387 -368 -677 0
23445 381 376 -387 368 677 0
36340 381 376 -387 368 -677 0
32615 381 376 -387 -368 677 0
41383 381 376 -387 -368 -677 0
36470 381 -376 387 368 677 0
43503 381 -376 387 368 -677 0
41472 381 -376 387 -368 677 0
46254 381 -376 387 -368 -677 0
43503 381 -376 -387 368 677 0
47372 381 -376 -387 368 -677 0
46254 381 -376 -387 -368 677 0
48885 381 -376 -387 -368 -677 0
5210 -381 376 387 368 677 0
26310 -381 376 387 368 -677 0
20215 -381 376 387 -368 677 0
34563 -381 376 387 -368 -677 0
26310 -381 376 -387 368 677 0
37916 -381 376 -387 368 -677 0
34563 -381 376 -387 -368 677 0
42455 -381 376 -387 -368 -677 0
38033 -381 -376 387 368 677 0
44363 -381 -376 387 368 -677 0
42534 -381 -376 387 -368 677 0
46839 -381 -376 387 -368 -677 0
44363 -381 -376 -387 368 677 0
47845 -381 -376 -387 368 -677 0
46839 -381 -376 -387 -368 677 0
49206 -381 -376 -387 -368 -677 0
15424 -712 0
39800 395 390 401 -723 0
14328 395 390 -401 723 0
46964 395 390 -401 -723 0
25472 395 -390 401 723 0
52536 395 -390 401 -723 0
35215 395 -390 -401 723 0
57408 395 -390 -401 -723 0
55720 -395 390 401 723 0
67660 -395 390 401 -723 0
60018 -395 390 -401 723 0
69809 -395 390 -401 -723 0
63362 -395 -390 401 723 0
71481 -395 -390 401 -723 0
66285 -395 -390 -401 723 0
72942 -395 -390 -401 -723 0
5100 364 388 396 402 -200 0
850 364 388 396 -402 200 0
5695 364 388 396 -402 -200 0
13600 364 388 -396 402 200 0
14620 364 388 -396 402 -200 0
13770 364 388 -396 -402 200 0
14739 364 388 -396 -402 -200 0
15300 364 -388 396 402 200 0
15810 364 -388 396 402 -200 0
15385 364 -388 396 -402 200 0
15869 364 -388 396 -402 -200 0
16660 364 -388 -396 402 200 0
16762 364 -388 -396 402 -200 0
16677 364 -388 -396 -402 200 0
16774 364 -388 -396 -402 -200 0
5950 -364 388 396 402 200 0
9265 -364 388 396 402 -200 0
6503 -364 388 396 -402 200 0
9652 -364 388 396 -402 -200 0
14790 -364 388 -396 402 200 0
15453 -364 388 -396 402 -200 0
14900 -364 388 -396 -402 200 0
15530 -364 388 -396 -402 -200 0
15895 -364 -388 396 402 200 0
16227 -364 -388 396 402 -200 0
15950 -364 -388 396 -402 200 0
16265 -364 -388 396 -402 -200 0
16779 -364 -388 -396 402 200 0
16845 -364 -388 -396 402 -200 0
16790 -364 -388 -396 -402 200 0
16853 -364 -388 -396 -402 -200 0
9594 -691 0
17375 410 403 273 -413 0
17375 410 403 -273 413 0
30406 410 403 -273 -413 0
24325 410 -403 273 413 0
35619 410 -403 273 -413 0
35619 410 -403 -273 413 0
44089 410 -403 -273 -413 0
20850 -410 403 273 413 0
33013 -410 403 273 -413 0
33013 -410 403 -273 413 0
42134 -410 403 -273 -413 0
37878 -410 -403 273 413 0
45783 -410 -403 273 -413 0
45783 -410 -403 -273 413 0
51712 -410 -403 -273 -413 0
15300 408 -447 0
5100 -408 447 0
18870 -408 -447 0
37600 404 417 415 384 -411 0
56400 404 417 415 -384 411 0
65800 404 417 415 -384 -411 0
37600 404 417 -415 384 411 0
56400 404 417 -415 384 -411 0
65800 404 417 -415 -384 411 0
70500 404 417 -415 -384 -411 0
11280 404 -417 415 384 411 0
43240 404 -417 415 384 -411 0
59220 404 -417 415 -384 411 0
67210 404 -417 415 -384 -411 0
43240 404 -417 -415 384 411 0
59220 404 -417 -415 384 -411 0
67210 404 -417 -415 -384 411 0
71205 404 -417 -415 -384 -411 0
22560 -404 417 415 384 411 0
48880 -404 417 415 384 -411 0
62040 -404 417 415 -384 411 0
68620 -404 417 415 -384 -411 0
48880 -404 417 -415 384 411 0
62040 -404 417 -415 384 -411 0
68620 -404 417 -415 -384 411 0
71910 -404 417 -415 -384 -411 0
30456 -404 -417 415 384 411 0
52828 -404 -417 415 384 -411 0
64014 -404 -417 415 -384 411 0
69607 -404 -417 415 -384 -411 0
52828 -404 -417 -415 384 411 0
64014 -404 -417 -415 384 -411 0
69607 -404 -417 -415 -384 411 0
72403 -404 -417 -415 -384 -411 0
964 418 -302 0
28920 -418 302 0
29306 -418 -302 0
27600 426 337 405 -419 0
44160 426 337 -405 419 0
49680 426 337 -405 -419 0
20976 426 -337 405 419 0
38088 426 -337 405 -419 0
48355 426 -337 -405 419 0
51778 426 -337 -405 -419 0
1104 -426 337 405 419 0
28152 -426 337 405 -419 0
44381 -426 337 -405 419 0
49790 -426 337 -405 -419 0
21660 -426 -337 405 419 0
38430 -426 -337 405 -419 0
48492 -426 -337 -405 419 0
51846 -426 -337 -405 -419 0
24035 352 -414 0
13915 -352 414 0
24731 -352 -414 0
7245 429 -548 0
2070 -429 548 0
8590 -429 -548 0
7650 397 745 421 -427 0
19380 397 745 -421 427 0
24123 397 745 -421 -427 0
22950 397 -745 421 427 0
27157 397 -745 421 -427 0
33609 397 -745 -421 427 0
36218 397 -745 -421 -427 0
22950 -397 745 421 427 0
27157 -397 745 421 -427 0
33609 -397 745 -421 427 0
36218 -397 745 -421 -427 0
35573 -397 -745 421 427 0
37887 -397 -745 421 -427 0
41435 -397 -745 -421 427 0
42870 -397 -745 -421 -427 0
31980 430 420 -678 0
50635 430 -420 678 0
52234 430 -420 -678 0
47970 -430 420 678 0
51168 -430 420 -678 0
53034 -430 -420 678 0
53193 -430 -420 -678 0
19280 435 406 484 -433 0
2410 435 406 -484 433 0
20726 435 406 -484 -433 0
19280 435 -406 484 433 0
30848 435 -406 484 -433 0
20726 435 -406 -484 433 0
31716 435 -406 -484 -433 0
8676 -435 406 484 433 0
24486 -435 406 484 -433 0
10652 -435 406 -484 433 0
25671 -435 406 -484 -433 0
24486 -435 -406 484 433 0
33971 -435 -406 484 -433 0
25671 -435 -406 -484 433 0
34683 -435 -406 -484 -433 0
19900 416 305 398 409 -434 0
30248 416 305 398 -409 434 0
42586 416 305 398 -409 -434 0
19900 416 305 -398 409 434 0
34825 416 305 -398 409 -434 0
42586 416 305 -398 -409 434 0
51839 416 305 -398 -409 -434 0
9552 416 -305 398 409 434 0
27064 416 -305 398 409 -434 0
36170 416 -305 398 -409 434 0
47028 416 -305 398 -409 -434 0
27064 416 -305 -398 409 434 0
40198 416 -305 -398 409 -434 0
47028 416 -305 -398 -409 434 0
55171 416 -305 -398 -409 -434 0
30248 -416 305 398 409 434 0
42586 -416 305 398 409 -434 0
49002 -416 305 398 -409 434 0
56651 -416 305 398 -409 -434 0
42586 -416 305 -398 409 434 0
51839 -416 305 -398 409 -434 0
56651 -416 305 -398 -409 434 0
62388 -416 305 -398 -409 -434 0
36170 -416 -305 398 409 434 0
47028 -416 -305 398 409 -434 0
52674 -416 -305 398 -409 434 0
59405 -416 -305 398 -409 -434 0
47028 -416 -305 -398 409 434 0
55171 -416 -305 -398 409 -434 0
59405 -416 -305 -398 -409 434 0
64454 -416 -305 -398 -409 -434 0
43275 -314 0
31735 -379 0
23640 -201 0
63920 642 431 -444 0
67680 642 -431 444 0
74072 642 -431 -444 0
63920 -642 431 444 0
73508 -642 431 -444 0
74072 -642 -431 444 0
75031 -642 -431 -444 0
14400 428 452 450 440 -422 0
960 428 452 450 -440 422 0
14640 428 452 450 -440 -422 0
4800 428 452 -450 440 422 0
15600 428 452 -450 440 -422 0
5520 428 452 -450 -440 422 0
15780 428 452 -450 -440 -422 0
15360 428 -452 450 440 422 0
18240 428 -452 450 440 -422 0
15552 428 -452 450 -440 422 0
18288 428 -452 450 -440 -422 0
16320 428 -452 -450 440 422 0
18480 428 -452 -450 440 -422 0
16464 428 -452 -450 -440 422 0
18516 428 -452 -450 -440 -422 0
7296 -428 452 450 440 422 0
16224 -428 452 450 440 -422 0
7891 -428 452 450 -440 422 0
16373 -428 452 450 -440 -422 0
10272 -428 452 -450 440 422 0
16968 -428 452 -450 440 -422 0
10718 -428 452 -450 -440 422 0
17080 -428 452 -450 -440 -422 0
16819 -428 -452 450 440 422 0
18605 -428 -452 450 440 -422 0
16938 -428 -452 450 -440 422 0
18635 -428 -452 450 -440 -422 0
17414 -428 -452 -450 440 422 0
18754 -428 -452 -450 440 -422 0
17504 -428 -452 -450 -440 422 0
18776 -428 -452 -450 -440 -422 0
1664 -261 0
23205 437 445 441 436 432 -586 0
25935 437 445 441 436 -432 586 0
27095 437 445 441 436 -432 -586 0
5460 437 445 441 -436 432 586 0
24024 437 445 441 -436 432 -586 0
26208 437 445 441 -436 -432 586 0
27136 437 445 441 -436 -432 -586 0
5460 437 445 -441 436 432 586 0
24024 437 445 -441 436 432 -586 0
26208 437 445 -441 436 -432 586 0
27136 437 445 -441 436 -432 -586 0
9828 437 445 -441 -436 432 586 0
24679 437 445 -441 -436 432 -586 0
26426 437 445 -441 -436 -432 586 0
27169 437 445 -441 -436 -432 -586 0
17745 437 -445 441 436 432 586 0
25867 437 -445 441 436 432 -586 0
26822 437 -445 441 436 -432 586 0
27228 437 -445 441 436 -432 -586 0
19656 437 -445 441 -436 432 586 0
26153 437 -445 441 -436 432 -586 0
26918 437 -445 441 -436 -432 586 0
27243 437 -445 441 -436 -432 -586 0
19656 437 -445 -441 436 432 586 0
26153 437 -445 -441 436 432 -586 0
26918 437 -445 -441 436 -432 586 0
27243 437 -445 -441 436 -432 -586 0
21185 437 -445 -441 -436 432 586 0
26383 437 -445 -441 -436 432 -586 0
26994 437 -445 -441 -436 -432 586 0
27254 437 -445 -441 -436 -432 -586 0
10374 -437 445 441 436 432 586 0
24761 -437 445 441 436 432 -586 0
26454 -437 445 441 436 -432 586 0
27173 -437 445 441 436 -432 -586 0
13759 -437 445 441 -436 432 586 0
25269 -437 445 441 -436 432 -586 0
26623 -437 445 441 -436 -432 586 0
27198 -437 445 441 -436 -432 -586 0
13759 -437 445 -441 436 432 586 0
25269 -437 445 -441 436 432 -586 0
26623 -437 445 -441 436 -432 586 0
27198 -437 445 -441 436 -432 -586 0
16467 -437 445 -441 -436 432 586 0
25675 -437 445 -441 -436 432 -586 0
26758 -437 445 -441 -436 -432 586 0
27219 -437 445 -441 -436 -432 -586 0
21376 -437 -445 441 436 432 586 0
26411 -437 -445 441 436 432 -586 0
27004 -437 -445 441 436 -432 586 0
27256 -437 -445 441 436 -432 -586 0
22561 -437 -445 441 -436 432 586 0
26589 -437 -445 441 -436 432 -586 0
27063 -437 -445 441 -436 -432 586 0
27264 -437 -445 441 -436 -432 -586 0
22561 -437 -445 -441 436 432 586 0
26589 -437 -445 -441 436 432 -586 0
27063 -437 -445 -441 436 -432 586 0
27264 -437 -445 -441 436 -432 -586 0
23509 -437 -445 -441 -436 432 586 0
26731 -437 -445 -441 -436 432 -586 0
27110 -437 -445 -441 -436 -432 586 0
27272 -437 -445 -441 -436 -432 -586 0
8670 507 -457 0
1445 -507 457 0
9682 -507 -457 0
34645 362 438 -459 0
7995 362 -438 459 0
37443 362 -438 -459 0
42640 -362 438 459 0
49569 -362 438 -459 0
44239 -362 -438 459 0
50129 -362 -438 -459 0
4820 442 458 451 -412 0
15424 442 458 -451 412 0
18702 442 458 -451 -412 0
5784 442 -458 451 412 0
10026 442 -458 451 -412 0
19357 442 -458 -451 412 0
22241 442 -458 -451 -412 0
33740 -442 458 451 412 0
35186 -442 458 451 -412 0
38367 -442 458 -451 412 0
39350 -442 458 -451 -412 0
35475 -442 -458 451 412 0
36748 -442 -458 451 -412 0
39547 -442 -458 -451 412 0
40412 -442 -458 -451 -412 0
5330 -460 0
17375 465 453 479 -439 0
38225 465 453 -479 439 0
46044 465 453 -479 -439 0
31275 465 -453 479 439 0
40831 465 -453 479 -439 0
52299 465 -453 -479 439 0
56599 465 -453 -479 -439 0
62550 -465 453 479 439 0
64288 -465 453 479 -439 0
66373 -465 453 -479 439 0
67154 -465 453 -479 -439 0
65678 -465 -453 479 439 0
66633 -465 -453 479 -439 0
67780 -465 -453 -479 439 0
68210 -465 -453 -479 -439 0
1035 393 454 -469 0
14490 393 -454 469 0
14800 393 -454 -469 0
15525 -393 454 469 0
15784 -393 454 -469 0
19148 -393 -454 469 0
19225 -393 -454 -469 0
11476 334 -456 0
11476 -334 456 0
18591 -334 -456 0
17595 461 394 474 467 466 476 455 -462 0
1035 461 394 474 467 466 476 -455 462 0
17750 461 394 474 467 466 476 -455 -462 0
4140 461 394 474 467 466 -476 455 462 0
18216 461 394 474 467 466 -476 455 -462 0
4968 461 394 474 467 466 -476 -455 462 0
18340 461 394 474 467 466 -476 -455 -462 0
15525 461 394 474 467 -466 476 455 462 0
19924 461 394 474 467 -466 476 455 -462 0
15784 461 394 474 467 -466 476 -455 462 0
19963 461 394 474 467 -466 476 -455 -462 0
16560 461 394 474 467 -466 -476 455 462 0
20079 461 394 474 467 -466 -476 455 -462 0
16767 461 394 474 467 -466 -476 -455 462 0
20110 461 394 474 467 -466 -476 -455 -462 0
13455 461 394 474 -467 466 476 455 462 0
19613 461 394 474 -467 466 476 455 -462 0
13817 461 394 474 -467 466 476 -455 462 0
19668 461 394 474 -467 466 476 -455 -462 0
14904 461 394 474 -467 466 -476 455 462 0
19831 461 394 474 -467 466 -476 455 -462 0
15194 461 394 474 -467 466 -476 -455 462 0
19874 461 394 474 -467 466 -476 -455 -462 0
18889 461 394 474 -467 -466 476 455 462 0
20428 461 394 474 -467 -466 476 455 -462 0
18979 461 394 474 -467 -466 476 -455 462 0
20442 461 394 474 -467 -466 476 -455 -462 0
19251 461 394 474 -467 -466 -476 455 462 0
20483 461 394 474 -467 -466 -476 455 -462 0
19323 461 394 474 -467 -466 -476 -455 462 0
20494 461 394 474 -467 -466 -476 -455 -462 0
11385 461 394 -474 467 466 476 455 462 0
19303 461 394 -474 467 466 476 455 -462 0
11851 461 394 -474 467 466 476 -455 462 0
19373 461 394 -474 467 466 476 -455 -462 0
13248 461 394 -474 467 466 -476 455 462 0
19582 461 394 -474 467 466 -476 455 -462 0
13621 461 394 -474 467 466 -476 -455 462 0
19638 461 394 -474 467 466 -476 -455 -462 0
18371 461 394 -474 467 -466 476 455 462 0
20351 461 394 -474 467 -466 476 455 -462 0
18488 461 394 -474 467 -466 476 -455 462 0
20368 461 394 -474 467 -466 476 -455 -462 0
18837 461 394 -474 467 -466 -476 455 462 0
20421 461 394 -474 467 -466 -476 455 -462 0
18930 461 394 -474 467 -466 -476 -455 462 0
20435 461 394 -474 467 -466 -476 -455 -462 0
17440 461 394 -474 -467 466 476 455 462 0
20211 461 394 -474 -467 466 476 455 -462 0
17603 461 394 -474 -467 466 476 -455 462 0
20235 461 394 -474 -467 466 476 -455 -462 0
18092 461 394 -474 -467 466 -476 455 462 0
20309 461 394 -474 -467 466 -476 455 -462 0
18222 461 394 -474 -467 466 -476 -455 462 0
20328 461 394 -474 -467 466 -476 -455 -462 0
19885 461 394 -474 -467 -466 476 455 462 0
20578 461 394 -474 -467 -466 476 455 -462 0
19926 461 394 -474 -467 -466 476 -455 462 0
20584 461 394 -474 -467 -466 476 -455 -462 0
20048 461 394 -474 -467 -466 -476 455 462 0
20602 461 394 -474 -467 -466 -476 455 -462 0
20081 461 394 -474 -467 -466 -476 -455 462 0
20607 461 394 -474 -467 -466 -476 -455 -462 0
6624 461 -394 474 467 466 476 455 462 0
18589 461 -394 474 467 466 476 455 -462 0
7328 461 -394 474 467 466 476 -455 462 0
18694 461 -394 474 467 466 476 -455 -462 0
9439 461 -394 474 467 466 -476 455 462 0
19011 461 -394 474 467 466 -476 455 -462 0
10002 461 -394 474 467 466 -476 -455 462 0
19095 461 -394 474 467 466 -476 -455 -462 0
17181 461 -394 474 467 -466 476 455 462 0
20172 461 -394 474 467 -466 476 455 -462 0
17357 461 -394 474 467 -466 476 -455 462 0
20199 461 -394 474 467 -466 476 -455 -462 0
17885 461 -394 474 467 -466 -476 455 462 0
20278 461 -394 474 467 -466 -476 455 -462 0
18026 461 -394 474 467 -466 -476 -455 462 0
20299 461 -394 474 467 -466 -476 -455 -462 0
15773 461 -394 474 -467 466 476 455 462 0
19961 461 -394 474 -467 466 476 455 -462 0
16020 461 -394 474 -467 466 476 -455 462 0
19998 461 -394 474 -467 466 476 -455 -462 0
16759 461 -394 474 -467 466 -476 455 462 0
20109 461 -394 474 -467 466 -476 455 -462 0
16956 461 -394 474 -467 466 -476 -455 462 0
20138 461 -394 474 -467 466 -476 -455 -462 0
19468 461 -394 474 -467 -466 476 455 462 0
20515 461 -394 474 -467 -466 476 455 -462 0
19530 461 -394 474 -467 -466 476 -455 462 0
20524 461 -394 474 -467 -466 476 -455 -462 0
19715 461 -394 474 -467 -466 -476 455 462 0
20552 461 -394 474 -467 -466 -476 455 -462 0
19764 461 -394 474 -467 -466 -476 -455 462 0
20560 461 -394 474 -467 -466 -476 -455 -462 0
14366 461 -394 -474 467 466 476 455 462 0
19750 461 -394 -474 467 466 476 455 -462 0
14683 461 -394 -474 467 466 476 -455 462 0
19797 461 -394 -474 467 466 476 -455 -462 0
15633 461 -394 -474 467 466 -476 455 462 0
19940 461 -394 -474 467 466 -476 455 -462 0
15886 461 -394 -474 467 466 -476 -455 462 0
19978 461 -394 -474 467 466 -476 -455 -462 0
19116 461 -394 -474 467 -466 476 455 462 0
20462 461 -394 -474 467 -466 476 455 -462 0
19196 461 -394 -474 467 -466 476 -455 462 0
20474 461 -394 -474 467 -466 476 -455 -462 0
19433 461 -394 -474 467 -466 -476 455 462 0
20510 461 -394 -474 467 -466 -476 455 -462 0
19497 461 -394 -474 467 -466 -476 -455 462 0
20519 461 -394 -474 467 -466 -476 -455 -462 0
18483 461 -394 -474 -467 466 476 455 462 0
20367 461 -394 -474 -467 466 476 455 -462 0
18594 461 -394 -474 -467 466 476 -455 462 0
20384 461 -394 -474 -467 466 476 -455 -462 0
18926 461 -394 -474 -467 466 -476 455 462 0
20434 461 -394 -474 -467 466 -476 455 -462 0
19015 461 -394 -474 -467 466 -476 -455 462 0
20447 461 -394 -474 -467 466 -476 -455 -462 0
20146 461 -394 -474 -467 -466 476 455 462 0
20617 461 -394 -474 -467 -466 476 455 -462 0
20173 461 -394 -474 -467 -466 476 -455 462 0
20621 461 -394 -474 -467 -466 476 -455 -462 0
20257 461 -394 -474 -467 -466 -476 455 462 0
20633 461 -394 -474 -467 -466 -476 455 -462 0
20279 461 -394 -474 -467 -466 -476 -455 462 0
20637 461 -394 -474 -467 -466 -476 -455 -462 0
15525 -461 394 474 467 466 476 455 462 0
19924 -461 394 474 467 466 476 455 -462 0
15784 -461 394 474 467 466 476 -455 462 0
19963 -461 394 474 467 466 476 -455 -462 0
16560 -461 394 474 467 466 -476 455 462 0
20079 -461 394 474 467 466 -476 455 -462 0
16767 -461 394 474 467 466 -476 -455 462 0
20110 -461 394 474 467 466 -476 -455 -462 0
19406 -461 394 474 467 -466 476 455 462 0
20506 -461 394 474 467 -466 476 455 -462 0
19471 -461 394 474 467 -466 476 -455 462 0
20516 -461 394 474 467 -466 476 -455 -462 0
19665 -461 394 474 467 -466 -476 455 462 0
20545 -461 394 474 467 -466 -476 455 -462 0
19717 -461 394 474 467 -466 -476 -455 462 0
20553 -461 394 474 467 -466 -476 -455 -462 0
18889 -461 394 474 -467 466 476 455 462 0
20428 -461 394 474 -467 466 476 455 -462 0
18979 -461 394 474 -467 466 476 -455 462 0
20442 -461 394 474 -467 466 476 -455 -462 0
19251 -461 394 474 -467 466 -476 455 462 0
20483 -461 394 474 -467 466 -476 455 -462 0
19323 -461 394 474 -467 466 -476 -455 462 0
20494 -461 394 474 -467 466 -476 -455 -462 0
20247 -461 394 474 -467 -466 476 455 462 0
20632 -461 394 474 -467 -466 476 455 -462 0
20270 -461 394 474 -467 -466 476 -455 462 0
20635 -461 394 474 -467 -466 476 -455 -462 0
20338 -461 394 474 -467 -466 -476 455 462 0
20646 -461 394 474 -467 -466 -476 455 -462 0
20356 -461 394 474 -467 -466 -476 -455 462 0
20648 -461 394 474 -467 -466 -476 -455 -462 0
18371 -461 394 -474 467 466 476 455 462 0
20351 -461 394 -474 467 466 476 455 -462 0
18488 -461 394 -474 467 466 476 -455 462 0
20368 -461 394 -474 467 466 476 -455 -462 0
18837 -461 394 -474 467 466 -476 455 462 0
20421 -461 394 -474 467 466 -476 455 -462 0
18930 -461 394 -474 467 466 -476 -455 462 0
20435 -461 394 -474 467 466 -476 -455 -462 0
20118 -461 394 -474 467 -466 476 455 462 0
20613 -461 394 -474 467 -466 476 455 -462 0
20147 -461 394 -474 467 -466 476 -455 462 0
20617 -461 394 -474 467 -466 476 -455 -462 0
20234 -461 394 -474 467 -466 -476 455 462 0
20630 -461 394 -474 467 -466 -476 455 -462 0
20258 -461 394 -474 467 -466 -476 -455 462 0
20634 -461 394 -474 467 -466 -476 -455 -462 0
19885 -461 394 -474 -467 466 476 455 462 0
20578 -461 394 -474 -467 466 476 455 -462 0
19926 -461 394 -474 -467 466 476 -455 462 0
20584 -461 394 -474 -467 466 476 -455 -462 0
20048 -461 394 -474 -467 466 -476 455 462 0
20602 -461 394 -474 -467 466 -476 455 -462 0
20081 -461 394 -474 -467 466 -476 -455 462 0
20607 -461 394 -474 -467 466 -476 -455 -462 0
20496 -461 394 -474 -467 -466 476 455 462 0
20669 -461 394 -474 -467 -466 476 455 -462 0
20506 -461 394 -474 -467 -466 476 -455 462 0
20671 -461 394 -474 -467 -466 476 -455 -462 0
20537 -461 394 -474 -467 -466 -476 455 462 0
20676 -461 394 -474 -467 -466 -476 455 -462 0
20545 -461 394 -474 -467 -466 -476 -455 462 0
20677 -461 394 -474 -467 -466 -476 -455 -462 0
17181 -461 -394 474 467 466 476 455 462 0
20172 -461 -394 474 467 466 476 455 -462 0
17357 -461 -394 474 467 466 476 -455 462 0
20199 -461 -394 474 467 466 476 -455 -462 0
17885 -461 -394 474 467 466 -476 455 462 0
20278 -461 -394 474 467 466 -476 455 -462 0
18026 -461 -394 474 467 466 -476 -455 462 0
20299 -461 -394 474 467 466 -476 -455 -462 0
19820 -461 -394 474 467 -466 476 455 462 0
20568 -461 -394 474 467 -466 476 455 -462 0
19864 -461 -394 474 467 -466 476 -455 462 0
20575 -461 -394 474 467 -466 476 -455 -462 0
19996 -461 -394 474 467 -466 -476 455 462 0
20594 -461 -394 474 467 -466 -476 455 -462 0
20031 -461 -394 474 467 -466 -476 -455 462 0
20600 -461 -394 474 467 -466 -476 -455 -462 0
19468 -461 -394 474 -467 466 476 455 462 0
20515 -461 -394 474 -467 466 476 455 -462 0
19530 -461 -394 474 -467 466 476 -455 462 0
20524 -461 -394 474 -467 466 476 -455 -462 0
19715 -461 -394 474 -467 466 -476 455 462 0
20552 -461 -394 474 -467 466 -476 455 -462 0
19764 -461 -394 474 -467 466 -476 -455 462 0
20560 -461 -394 474 -467 466 -476 -455 -462 0
20392 -461 -394 474 -467 -466 476 455 462 0
20654 -461 -394 474 -467 -466 476 455 -462 0
20407 -461 -394 474 -467 -466 476 -455 462 0
20656 -461 -394 474 -467 -466 476 -455 -462 0
20454 -461 -394 474 -467 -466 -476 455 462 0
20663 -461 -394 474 -467 -466 -476 455 -462 0
20466 -461 -394 474 -467 -466 -476 -455 462 0
20665 -461 -394 474 -467 -466 -476 -455 -462 0
19116 -461 -394 -474 467 466 476 455 462 0
20462 -461 -394 -474 467 466 476 455 -462 0
19196 -461 -394 -474 467 466 476 -455 462 0
20474 -461 -394 -474 467 466 476 -455 -462 0
19433 -461 -394 -474 467 466 -476 455 462 0
20510 -461 -394 -474 467 466 -476 455 -462 0
19497 -461 -394 -474 467 466 -476 -455 462 0
20519 -461 -394 -474 467 466 -476 -455 -462 0
20304 -461 -394 -474 467 -466 476 455 462 0
20641 -461 -394 -474 467 -466 476 455 -462 0
20324 -461 -394 -474 467 -466 476 -455 462 0
20644 -461 -394 -474 467 -466 476 -455 -462 0
20383 -461 -394 -474 467 -466 -476 455 462 0
20652 -461 -394 -474 467 -466 -476 455 -462 0
20399 -461 -394 -474 467 -466 -476 -455 462 0
20655 -461 -394 -474 467 -466 -476 -455 -462 0
20146 -461 -394 -474 -467 466 476 455 462 0
20617 -461 -394 -474 -467 466 476 455 -462 0
20173 -461 -394 -474 -467 466 476 -455 462 0
20621 -461 -394 -474 -467 466 476 -455 -462 0
20257 -461 -394 -474 -467 466 -476 455 462 0
20633 -461 -394 -474 -467 466 -476 455 -462 0
20279 -461 -394 -474 -467 466 -476 -455 462 0
20637 -461 -394 -474 -467 466 -476 -455 -462 0
20561 -461 -394 -474 -467 -466 476 455 462 0
20679 -461 -394 -474 -467 -466 476 455 -462 0
20568 -461 -394 -474 -467 -466 476 -455 462 0
20680 -461 -394 -474 -467 -466 476 -455 -462 0
20589 -461 -394 -474 -467 -466 -476 455 462 0
20683 -461 -394 -474 -467 -466 -476 455 -462 0
20595 -461 -394 -474 -467 -466 -476 -455 462 0
20684 -461 -394 -474 -467 -466 -476 -455 -462 0
17940 468 463 -443 0
26910 468 -463 443 0
36777 468 -463 -443 0
23920 -468 463 443 0
34684 -468 463 -443 0
40066 -468 -463 443 0
45986 -468 -463 -443 0
37910 -567 0
22950 369 -475 0
1020 -369 475 0
23511 -369 -475 0
28920 478 299 -464 0
31330 478 -299 464 0
41452 478 -299 -464 0
964 -478 299 464 0
29306 -478 299 -464 0
31667 -478 -299 464 0
41587 -478 -299 -464 0
15920 407 -477 0
30248 -407 477 0
40118 -407 -477 0
