p wcnf 61 202 1000000
1000000 1 0
1000000 2 -15 0
1000000 15 -46 -50 -45 -1 0
1000000 14 -16 0
1000000 16 -43 -1 0
1000000 4 -17 0
1000000 17 -54 -53 -51 -1 0
1000000 7 -18 0
1000000 18 -49 -48 -1 0
1000000 8 -19 0
1000000 19 -43 -47 -1 0
1000000 9 -20 0
1000000 20 -44 -46 -52 -1 0
1000000 13 -21 0
1000000 21 -47 -55 -2 0
1000000 3 -22 0
1000000 22 -53 -45 -56 -2 0
1000000 5 -23 0
1000000 23 -50 -44 -55 -2 0
1000000 6 -24 0
1000000 24 -48 -2 0
1000000 7 -25 0
1000000 25 -52 -2 0
1000000 11 -26 0
1000000 26 -49 -43 -3 0
1000000 13 -27 0
1000000 27 -56 -4 0
1000000 6 -28 0
1000000 28 -48 -45 -49 -4 0
1000000 7 -29 0
1000000 29 -55 -54 -52 -4 0
1000000 9 -30 0
1000000 30 -51 -50 -4 0
1000000 10 -31 0
1000000 31 -46 -4 0
1000000 12 -32 0
1000000 32 -51 -5 0
1000000 7 -33 0
1000000 33 -53 -54 -5 0
1000000 9 -34 0
1000000 34 -45 -47 -5 0
1000000 8 -35 0
1000000 35 -56 -48 -6 0
1000000 9 -36 0
1000000 36 -49 -51 -52 -6 0
1000000 11 -37 0
1000000 37 -44 -7 0
1000000 10 -38 0
1000000 38 -55 -44 -53 -7 0
1000000 11 -39 0
1000000 39 -47 -46 -8 0
1000000 10 -40 0
1000000 40 -44 -48 -47 -8 0
1000000 13 -41 0
1000000 41 -54 -9 0
1000000 10 -42 0
1000000 42 -43 -56 -9 0
1000000 1 0
1000000 -2 15 0
1000000 -3 22 0
1000000 -4 17 0
1000000 -5 23 0
1000000 -6 28 24 0
1000000 -7 25 18 29 33 0
1000000 -8 35 19 0
1000000 -9 20 34 30 36 0
1000000 -10 40 31 38 42 0
1000000 -11 26 39 37 0
1000000 -12 32 0
1000000 -13 41 27 21 0
1000000 -14 16 0
1000000 43 58 0
1000000 44 61 0
1000000 45 61 0
1000000 46 59 0
1000000 47 61 0
1000000 48 60 0
1000000 49 60 0
1000000 50 60 0
1000000 51 58 0
1000000 52 58 0
1000000 53 57 0
1000000 54 59 0
1000000 55 57 0
1000000 56 59 0
1000000 -43 -58 0
1000000 -44 -61 0
1000000 -45 -61 0
1000000 -46 -59 0
1000000 -47 -61 0
1000000 -48 -60 0
1000000 -49 -60 0
1000000 -50 -60 0
1000000 -51 -58 0
1000000 -52 -58 0
1000000 -53 -57 0
1000000 -54 -59 0
1000000 -55 -57 0
1000000 -56 -59 0
7400 -57 0
7400 -58 0
9700 -59 0
7400 -60 0
8700 -61 0
1700 43 0
1400 44 0
2600 45 0
900 46 0
1000 47 0
900 48 0
900 49 0
1000 50 0
1000 51 0
2600 52 0
1700 53 0
900 54 0
1700 55 0
2600 56 0
47810 -15 0
39400 -22 0
1350 -17 0
59100 -23 0
2485 28 -24 0
34790 -28 24 0
35535 -28 -24 0
11970 25 18 29 -33 0
25935 25 18 -29 33 0
30125 25 18 -29 -33 0
15162 25 -18 29 33 0
22583 25 -18 29 -33 0
31242 25 -18 -29 33 0
33839 25 -18 -29 -33 0
33915 -25 18 29 33 0
35711 -25 18 29 -33 0
37805 -25 18 -29 33 0
38434 -25 18 -29 -33 0
36189 -25 -18 29 33 0
37303 -25 -18 29 -33 0
38601 -25 -18 -29 33 0
38991 -25 -18 -29 -33 0
6650 35 -19 0
1596 -35 19 0
7448 -35 -19 0
4655 20 34 30 -36 0
5985 20 34 -30 36 0
8545 20 34 -30 -36 0
3990 20 -34 30 36 0
7248 20 -34 30 -36 0
8180 20 -34 -30 36 0
9972 20 -34 -30 -36 0
2660 -20 34 30 36 0
6384 -20 34 30 -36 0
7448 -20 34 -30 36 0
9496 -20 34 -30 -36 0
5852 -20 -34 30 36 0
8459 -20 -34 30 -36 0
9204 -20 -34 -30 36 0
10637 -20 -34 -30 -36 0
55790 40 31 38 -42 0
14346 40 31 -38 42 0
60094 40 31 -38 -42 0
11955 40 -31 38 42 0
59376 40 -31 38 -42 0
24149 40 -31 -38 42 0
63035 40 -31 -38 -42 0
59775 -40 31 38 42 0
73723 -40 31 38 -42 0
63361 -40 31 -38 42 0
74798 -40 31 -38 -42 0
62764 -40 -31 38 42 0
74619 -40 -31 38 -42 0
65812 -40 -31 -38 42 0
75534 -40 -31 -38 -42 0
1550 26 39 -37 0
1860 26 -39 37 0
3224 26 -39 -37 0
1860 -26 39 37 0
3224 -26 39 -37 0
3497 -26 -39 37 0
4697 -26 -39 -37 0
10260 -32 0
39610 41 27 -21 0
25630 41 -27 21 0
43455 41 -27 -21 0
20970 -41 27 21 0
42756 -41 27 -21 0
35066 -41 -27 21 0
44870 -41 -27 -21 0
1995 -16 0
