p wcnf 60 223 1000000
1000000 1 0
1000000 2 -14 0
1000000 14 -48 -47 -46 -1 0
1000000 12 -15 0
1000000 15 -43 -1 0
1000000 6 -16 0
1000000 16 -45 -51 -1 0
1000000 9 -17 0
1000000 17 -42 -1 0
1000000 12 -18 0
1000000 18 -50 -2 0
1000000 3 -19 0
1000000 19 -53 -43 -55 -2 0
1000000 4 -20 0
1000000 20 -44 -2 0
1000000 12 -21 0
1000000 21 -46 -52 -44 -11 0
1000000 13 -22 0
1000000 22 -49 -45 -47 -3 0
1000000 5 -23 0
1000000 23 -49 -51 -3 0
1000000 6 -24 0
1000000 24 -52 -42 -53 -3 0
1000000 8 -25 0
1000000 25 -48 -50 -3 0
1000000 10 -26 0
1000000 26 -45 -44 -3 0
1000000 11 -27 0
1000000 27 -42 -4 0
1000000 7 -28 0
1000000 28 -47 -55 -51 -4 0
1000000 10 -29 0
1000000 29 -48 -54 -4 0
1000000 12 -30 0
1000000 30 -43 -5 0
1000000 13 -31 0
1000000 31 -52 -50 -5 0
1000000 11 -32 0
1000000 32 -43 -44 -49 -6 0
1000000 13 -33 0
1000000 33 -42 -45 -49 -6 0
1000000 8 -34 0
1000000 34 -50 -53 -52 -6 0
1000000 8 -35 0
1000000 35 -51 -46 -43 -7 0
1000000 9 -36 0
1000000 36 -54 -7 0
1000000 11 -37 0
1000000 37 -54 -8 0
1000000 9 -38 0
1000000 38 -46 -8 0
1000000 12 -39 0
1000000 39 -44 -47 -53 -9 0
1000000 13 -40 0
1000000 40 -54 -49 -55 -9 0
1000000 13 -41 0
1000000 41 -42 -10 0
1000000 1 0
1000000 -2 14 0
1000000 -3 19 0
1000000 -4 20 0
1000000 -5 23 0
1000000 -6 16 24 0
1000000 -7 28 0
1000000 -8 34 25 35 0
1000000 -9 17 38 36 0
1000000 -10 26 29 0
1000000 -11 37 27 32 0
1000000 -12 18 39 15 30 21 0
1000000 -13 41 22 40 33 31 0
1000000 42 59 0
1000000 43 57 0
1000000 44 58 0
1000000 45 58 0
1000000 46 58 0
1000000 47 57 0
1000000 48 60 0
1000000 49 59 0
1000000 50 57 0
1000000 51 60 0
1000000 52 56 0
1000000 53 56 0
1000000 54 56 0
1000000 55 59 0
1000000 -42 -59 0
1000000 -43 -57 0
1000000 -44 -58 0
1000000 -45 -58 0
1000000 -46 -58 0
1000000 -47 -57 0
1000000 -48 -60 0
1000000 -49 -59 0
1000000 -50 -57 0
1000000 -51 -60 0
1000000 -52 -56 0
1000000 -53 -56 0
1000000 -54 -56 0
1000000 -55 -59 0
7000 -56 0
8300 -57 0
8300 -58 0
12200 -59 0
7000 -60 0
2000 42 0
1300 43 0
2000 44 0
2000 45 0
3100 46 0
2100 47 0
2800 48 0
2500 49 0
2000 50 0
1300 51 0
1300 52 0
2100 53 0
3100 54 0
2300 55 0
2590 -14 0
57475 -19 0
19360 -20 0
16650 -23 0
49210 16 -24 0
28490 -16 24 0
50635 -16 -24 0
34430 -28 0
20512 34 25 -35 0
20512 34 -25 35 0
34460 34 -25 -35 0
11538 -34 25 35 0
28358 -34 25 -35 0
28358 -34 -25 35 0
39795 -34 -25 -35 0
5180 17 38 -36 0
49210 17 -38 36 0
49469 17 -38 -36 0
41440 -17 38 36 0
42476 -17 38 -36 0
51282 -17 -38 36 0
51334 -17 -38 -36 0
42360 26 -29 0
10590 -26 29 0
46596 -26 -29 0
19230 37 27 -32 0
16025 37 -27 32 0
30448 37 -27 -32 0
12820 -37 27 32 0
28204 -37 27 -32 0
25640 -37 -27 32 0
37178 -37 -27 -32 0
6066 18 39 15 30 -21 0
5055 18 39 15 -30 21 0
10211 18 39 15 -30 -21 0
30330 18 39 -15 30 21 0
30937 18 39 -15 30 -21 0
30836 18 39 -15 -30 21 0
31351 18 39 -15 -30 -21 0
26960 18 -39 15 30 21 0
28173 18 -39 15 30 -21 0
27971 18 -39 15 -30 21 0
29002 18 -39 15 -30 -21 0
33026 18 -39 -15 30 21 0
33147 18 -39 -15 30 -21 0
33127 18 -39 -15 -30 21 0
33230 18 -39 -15 -30 -21 0
15165 -18 39 15 30 21 0
18501 -18 39 15 30 -21 0
17945 -18 39 15 -30 21 0
20781 -18 39 15 -30 -21 0
31847 -18 39 -15 30 21 0
32180 -18 39 -15 30 -21 0
32125 -18 39 -15 -30 21 0
32408 -18 39 -15 -30 -21 0
29993 -18 -39 15 30 21 0
30660 -18 -39 15 30 -21 0
30549 -18 -39 15 -30 21 0
31116 -18 -39 15 -30 -21 0
33329 -18 -39 -15 30 21 0
33396 -18 -39 -15 30 -21 0
33385 -18 -39 -15 -30 21 0
33442 -18 -39 -15 -30 -21 0
21665 41 22 40 33 -31 0
6190 41 22 40 -33 31 0
25688 41 22 40 -33 -31 0
11142 41 22 -40 33 31 0
28907 41 22 -40 33 -31 0
16218 41 22 -40 -33 31 0
32207 41 22 -40 -33 -31 0
3095 41 -22 40 33 31 0
23677 41 -22 40 33 -31 0
8976 41 -22 40 -33 31 0
27499 41 -22 40 -33 -31 0
13680 41 -22 -40 33 31 0
30557 41 -22 -40 33 -31 0
18502 41 -22 -40 -33 31 0
33691 41 -22 -40 -33 -31 0
24760 -41 22 40 33 31 0
37759 -41 22 40 33 -31 0
28474 -41 22 40 -33 31 0
40173 -41 22 40 -33 -31 0
31445 -41 22 -40 33 31 0
42104 -41 22 -40 33 -31 0
34491 -41 22 -40 -33 31 0
44084 -41 22 -40 -33 -31 0
26617 -41 -22 40 33 31 0
38966 -41 -22 40 33 -31 0
30145 -41 -22 40 -33 31 0
41259 -41 -22 40 -33 -31 0
32968 -41 -22 -40 33 31 0
43094 -41 -22 -40 33 -31 0
35861 -41 -22 -40 -33 31 0
44975 -41 -22 -40 -33 -31 0
