p wcnf 64 207 1000000
1000000 1 0
1000000 2 -16 0
1000000 16 -46 -1 0
1000000 3 -17 0
1000000 17 -48 -1 0
1000000 4 -18 0
1000000 18 -47 -52 -1 0
1000000 6 -19 0
1000000 19 -54 -53 -1 0
1000000 8 -20 0
1000000 20 -50 -1 0
1000000 3 -21 0
1000000 21 -51 -47 -56 -2 0
1000000 4 -22 0
1000000 22 -57 -2 0
1000000 7 -23 0
1000000 23 -46 -49 -2 0
1000000 10 -24 0
1000000 24 -55 -2 0
1000000 14 -25 0
1000000 25 -51 -58 -11 0
1000000 15 -26 0
1000000 26 -49 -53 -11 0
1000000 13 -27 0
1000000 27 -50 -58 -56 -12 0
1000000 15 -28 0
1000000 28 -54 -57 -13 0
1000000 5 -29 0
1000000 29 -48 -3 0
1000000 6 -30 0
1000000 30 -46 -47 -55 -3 0
1000000 10 -31 0
1000000 31 -59 -51 -53 -3 0
1000000 11 -32 0
1000000 32 -52 -50 -4 0
1000000 6 -33 0
1000000 33 -56 -52 -57 -4 0
1000000 7 -34 0
1000000 34 -49 -4 0
1000000 12 -35 0
1000000 35 -48 -46 -5 0
1000000 6 -36 0
1000000 36 -55 -5 0
1000000 15 -37 0
1000000 37 -52 -58 -49 -6 0
1000000 10 -38 0
1000000 38 -54 -6 0
1000000 8 -39 0
1000000 39 -47 -48 -54 -7 0
1000000 9 -40 0
1000000 40 -57 -58 -59 -7 0
1000000 9 -41 0
1000000 41 -56 -55 -46 -8 0
1000000 12 -42 0
1000000 42 -50 -51 -9 0
1000000 10 -43 0
1000000 43 -53 -9 0
1000000 11 -44 0
1000000 44 -59 -10 0
1000000 15 -45 0
1000000 45 -47 -10 0
1000000 1 0
1000000 -2 16 0
1000000 -3 21 17 0
1000000 -4 18 22 0
1000000 -5 29 0
1000000 -6 33 19 30 36 0
1000000 -7 23 34 0
1000000 -8 39 20 0
1000000 -9 41 40 0
1000000 -10 24 38 31 43 0
1000000 -11 44 32 0
1000000 -12 42 35 0
1000000 -13 27 0
1000000 -14 25 0
1000000 -15 26 28 45 37 0
1000000 46 60 0
1000000 47 62 0
1000000 48 61 0
1000000 49 63 0
1000000 50 60 0
1000000 51 64 0
1000000 52 63 0
1000000 53 62 0
1000000 54 64 0
1000000 55 64 0
1000000 56 63 0
1000000 57 62 0
1000000 58 60 0
1000000 59 61 0
1000000 -46 -60 0
1000000 -47 -62 0
1000000 -48 -61 0
1000000 -49 -63 0
1000000 -50 -60 0
1000000 -51 -64 0
1000000 -52 -63 0
1000000 -53 -62 0
1000000 -54 -64 0
1000000 -55 -64 0
1000000 -56 -63 0
1000000 -57 -62 0
1000000 -58 -60 0
1000000 -59 -61 0
12600 -60 0
8500 -61 0
12600 -62 0
12500 -63 0
12600 -64 0
2500 46 0
1100 47 0
2800 48 0
2400 49 0
1400 50 0
1500 51 0
2500 52 0
1100 53 0
1100 54 0
2800 55 0
2800 56 0
1100 57 0
1200 58 0
2400 59 0
7840 -16 0
35815 21 -17 0
22040 -21 17 0
43529 -21 -17 0
50660 18 -22 0
10728 -18 22 0
52269 -18 -22 0
12680 -29 0
3050 33 19 30 -36 0
7930 33 19 -30 36 0
8998 33 19 -30 -36 0
7930 33 -19 30 36 0
8998 33 -19 30 -36 0
10706 33 -19 -30 36 0
11079 33 -19 -30 -36 0
7320 -33 19 30 36 0
8540 -33 19 30 -36 0
10492 -33 19 -30 36 0
10919 -33 19 -30 -36 0
10492 -33 -19 30 36 0
10919 -33 -19 30 -36 0
11602 -33 -19 -30 36 0
11752 -33 -19 -30 -36 0
11280 23 -34 0
7755 -23 34 0
12831 -23 -34 0
30305 39 -20 0
41325 -39 20 0
48901 -39 -20 0
21166 41 -40 0
25065 -41 40 0
36706 -41 -40 0
12330 24 38 31 -43 0
41100 24 38 -31 43 0
46032 24 38 -31 -43 0
47950 24 -38 31 43 0
51649 24 -38 31 -43 0
60280 24 -38 -31 43 0
61760 24 -38 -31 -43 0
23975 -24 38 31 43 0
31989 -24 38 31 -43 0
50690 -24 38 -31 43 0
53896 -24 38 -31 -43 0
55142 -24 -38 31 43 0
57547 -24 -38 31 -43 0
63157 -24 -38 -31 43 0
64119 -24 -38 -31 -43 0
21920 44 -32 0
41100 -44 32 0
49868 -44 -32 0
11550 42 -35 0
4620 -42 35 0
12705 -42 -35 0
5248 -27 0
39520 -25 0
54800 26 28 45 -37 0
21920 26 28 -45 37 0
59184 26 28 -45 -37 0
58225 26 -28 45 37 0
66445 26 -28 45 -37 0
61513 26 -28 -45 37 0
67103 26 -28 -45 -37 0
41100 -26 28 45 37 0
63020 -26 28 45 -37 0
49868 -26 28 -45 37 0
64774 -26 28 -45 -37 0
64390 -26 -28 45 37 0
67678 -26 -28 45 -37 0
65705 -26 -28 -45 37 0
67941 -26 -28 -45 -37 0
