p wcnf 68 258 1000000
1000000 1 0
1000000 2 -16 0
1000000 16 -47 -1 0
1000000 3 -17 0
1000000 17 -48 -56 -52 -1 0
1000000 6 -18 0
1000000 18 -57 -54 -53 -1 0
1000000 8 -19 0
1000000 19 -51 -59 -58 -1 0
1000000 10 -20 0
1000000 20 -49 -55 -51 -1 0
1000000 5 -21 0
1000000 21 -61 -50 -60 -2 0
1000000 6 -22 0
1000000 22 -47 -62 -49 -2 0
1000000 15 -23 0
1000000 23 -52 -11 0
1000000 14 -24 0
1000000 24 -48 -55 -12 0
1000000 15 -25 0
1000000 25 -54 -12 0
1000000 15 -26 0
1000000 26 -59 -50 -57 -13 0
1000000 15 -27 0
1000000 27 -58 -60 -3 0
1000000 4 -28 0
1000000 28 -50 -56 -51 -3 0
1000000 7 -29 0
1000000 29 -61 -3 0
1000000 8 -30 0
1000000 30 -52 -48 -3 0
1000000 12 -31 0
1000000 31 -62 -4 0
1000000 13 -32 0
1000000 32 -56 -54 -4 0
1000000 5 -33 0
1000000 33 -49 -4 0
1000000 9 -34 0
1000000 34 -55 -59 -4 0
1000000 10 -35 0
1000000 35 -60 -58 -4 0
1000000 11 -36 0
1000000 36 -62 -50 -49 -5 0
1000000 10 -37 0
1000000 37 -61 -51 -47 -5 0
1000000 12 -38 0
1000000 38 -48 -53 -6 0
1000000 13 -39 0
1000000 39 -59 -58 -55 -6 0
1000000 12 -40 0
1000000 40 -57 -7 0
1000000 8 -41 0
1000000 41 -56 -47 -7 0
1000000 12 -42 0
1000000 42 -54 -61 -8 0
1000000 9 -43 0
1000000 43 -52 -57 -8 0
1000000 11 -44 0
1000000 44 -53 -9 0
1000000 12 -45 0
1000000 45 -60 -47 -9 0
1000000 12 -46 0
1000000 46 -52 -50 -53 -10 0
1000000 1 0
1000000 -2 16 0
1000000 -3 17 0
1000000 -4 28 0
1000000 -5 21 33 0
1000000 -6 18 22 0
1000000 -7 29 0
1000000 -8 19 30 41 0
1000000 -9 43 34 0
1000000 -10 35 37 20 0
1000000 -11 36 44 0
1000000 -12 38 31 45 46 42 40 0
1000000 -13 39 32 0
1000000 -14 24 0
1000000 -15 23 26 27 25 0
1000000 47 67 0
1000000 48 64 0
1000000 49 67 0
1000000 50 68 0
1000000 51 63 0
1000000 52 68 0
1000000 53 64 0
1000000 54 64 0
1000000 55 63 0
1000000 56 66 0
1000000 57 63 0
1000000 58 68 0
1000000 59 66 0
1000000 60 65 0
1000000 61 66 0
1000000 62 67 0
1000000 -47 -67 0
1000000 -48 -64 0
1000000 -49 -67 0
1000000 -50 -68 0
1000000 -51 -63 0
1000000 -52 -68 0
1000000 -53 -64 0
1000000 -54 -64 0
1000000 -55 -63 0
1000000 -56 -66 0
1000000 -57 -63 0
1000000 -58 -68 0
1000000 -59 -66 0
1000000 -60 -65 0
1000000 -61 -66 0
1000000 -62 -67 0
10200 -63 0
9200 -64 0
9800 -65 0
9000 -66 0
9800 -67 0
9000 -68 0
1100 47 0
1700 48 0
1100 49 0
2400 50 0
1700 51 0
1700 52 0
3500 53 0
3500 54 0
1100 55 0
2900 56 0
1700 57 0
3500 58 0
2900 59 0
2900 60 0
2200 61 0
3500 62 0
41610 -16 0
6528 -17 0
7170 -28 0
8640 21 -33 0
5760 -21 33 0
12672 -21 -33 0
8925 18 -22 0
56525 -18 22 0
56971 -18 -22 0
23294 -29 0
8610 19 30 -41 0
22140 19 -30 41 0
23001 19 -30 -41 0
22140 -19 30 41 0
23001 -19 30 -41 0
24354 -19 -30 41 0
24440 -19 -30 -41 0
43435 43 -34 0
12775 -43 34 0
45351 -43 -34 0
39375 35 37 -20 0
31500 35 -37 20 0
47250 35 -37 -20 0
21000 -35 37 20 0
44625 -35 37 -20 0
39900 -35 -37 20 0
49350 -35 -37 -20 0
43875 36 -44 0
20250 -36 44 0
50962 -36 -44 0
3470 38 31 45 46 42 -40 0
45110 38 31 45 46 -42 40 0
46325 38 31 45 46 -42 -40 0
24290 38 31 45 -46 42 40 0
26546 38 31 45 -46 42 -40 0
53612 38 31 45 -46 -42 40 0
54401 38 31 45 -46 -42 -40 0
17350 38 31 -45 46 42 40 0
19953 38 31 -45 46 42 -40 0
51183 38 31 -45 46 -42 40 0
52093 38 31 -45 46 -42 -40 0
35567 38 31 -45 -46 42 40 0
37259 38 31 -45 -46 42 -40 0
57559 38 31 -45 -46 -42 40 0
58151 38 31 -45 -46 -42 -40 0
31230 38 -31 45 46 42 40 0
33139 38 -31 45 46 42 -40 0
56040 38 -31 45 46 -42 40 0
56708 38 -31 45 46 -42 -40 0
44589 38 -31 45 -46 42 40 0
45830 38 -31 45 -46 42 -40 0
60716 38 -31 45 -46 -42 40 0
61151 38 -31 45 -46 -42 -40 0
40772 38 -31 -45 46 42 40 0
42204 38 -31 -45 46 42 -40 0
59380 38 -31 -45 46 -42 40 0
59881 38 -31 -45 46 -42 -40 0
50792 38 -31 -45 -46 42 40 0
51723 38 -31 -45 -46 42 -40 0
62887 38 -31 -45 -46 -42 40 0
63213 38 -31 -45 -46 -42 -40 0
41640 -38 31 45 46 42 40 0
43028 -38 31 45 46 42 -40 0
59684 -38 31 45 46 -42 40 0
60170 -38 31 45 46 -42 -40 0
51356 -38 31 45 -46 42 40 0
52258 -38 31 45 -46 42 -40 0
63085 -38 31 45 -46 -42 40 0
63400 -38 31 45 -46 -42 -40 0
48580 -38 31 -45 46 42 40 0
49621 -38 31 -45 46 42 -40 0
62113 -38 31 -45 46 -42 40 0
62477 -38 31 -45 46 -42 -40 0
55867 -38 31 -45 -46 42 40 0
56544 -38 31 -45 -46 42 -40 0
64663 -38 31 -45 -46 -42 40 0
64900 -38 31 -45 -46 -42 -40 0
54132 -38 -31 45 46 42 40 0
54895 -38 -31 45 46 42 -40 0
64056 -38 -31 45 46 -42 40 0
64323 -38 -31 45 46 -42 -40 0
59476 -38 -31 45 -46 42 40 0
59972 -38 -31 45 -46 42 -40 0
65927 -38 -31 45 -46 -42 40 0
66100 -38 -31 45 -46 -42 -40 0
57949 -38 -31 -45 46 42 40 0
58522 -38 -31 -45 46 42 -40 0
65392 -38 -31 -45 46 -42 40 0
65593 -38 -31 -45 46 -42 -40 0
61957 -38 -31 -45 -46 42 40 0
62329 -38 -31 -45 -46 42 -40 0
66795 -38 -31 -45 -46 -42 40 0
66925 -38 -31 -45 -46 -42 -40 0
18390 39 -32 0
23294 -39 32 0
34696 -39 -32 0
30375 -24 0
35770 23 26 27 -25 0
28105 23 26 -27 25 0
44201 23 26 -27 -25 0
17885 23 -26 27 25 0
41135 23 -26 27 -25 0
36153 23 -26 -27 25 0
46616 23 -26 -27 -25 0
20440 -23 26 27 25 0
41902 -23 26 27 -25 0
37303 -23 26 -27 25 0
46961 -23 26 -27 -25 0
31171 -23 -26 27 25 0
45121 -23 -26 27 -25 0
42132 -23 -26 -27 25 0
48410 -23 -26 -27 -25 0
