p wcnf 71 250 1000000
1000000 1 0
1000000 2 -18 0
1000000 18 -57 -55 -1 0
1000000 11 -19 0
1000000 19 -52 -1 0
1000000 16 -20 0
1000000 20 -63 -62 -54 -1 0
1000000 3 -21 0
1000000 21 -58 -1 0
1000000 6 -22 0
1000000 22 -64 -53 -1 0
1000000 3 -23 0
1000000 23 -59 -60 -2 0
1000000 6 -24 0
1000000 24 -53 -65 -2 0
1000000 8 -25 0
1000000 25 -66 -56 -2 0
1000000 14 -26 0
1000000 26 -61 -11 0
1000000 15 -27 0
1000000 27 -52 -11 0
1000000 17 -28 0
1000000 28 -59 -60 -61 -13 0
1000000 4 -29 0
1000000 29 -55 -3 0
1000000 6 -30 0
1000000 30 -58 -63 -3 0
1000000 7 -31 0
1000000 31 -57 -3 0
1000000 8 -32 0
1000000 32 -56 -64 -53 -3 0
1000000 10 -33 0
1000000 33 -66 -52 -3 0
1000000 14 -34 0
1000000 34 -54 -56 -4 0
1000000 5 -35 0
1000000 35 -62 -58 -4 0
1000000 6 -36 0
1000000 36 -60 -65 -57 -4 0
1000000 7 -37 0
1000000 37 -63 -55 -4 0
1000000 14 -38 0
1000000 38 -61 -64 -5 0
1000000 6 -39 0
1000000 39 -66 -56 -52 -5 0
1000000 8 -40 0
1000000 40 -59 -5 0
1000000 10 -41 0
1000000 41 -62 -6 0
1000000 13 -42 0
1000000 42 -53 -7 0
1000000 8 -43 0
1000000 43 -55 -65 -61 -7 0
1000000 9 -44 0
1000000 44 -58 -7 0
1000000 10 -45 0
1000000 45 -54 -7 0
1000000 11 -46 0
1000000 46 -54 -8 0
1000000 10 -47 0
1000000 47 -57 -52 -64 -8 0
1000000 12 -48 0
1000000 48 -62 -9 0
1000000 13 -49 0
1000000 49 -60 -63 -9 0
1000000 14 -50 0
1000000 50 -53 -54 -10 0
1000000 15 -51 0
1000000 51 -65 -10 0
1000000 1 0
1000000 -2 18 0
1000000 -3 21 23 0
1000000 -4 29 0
1000000 -5 35 0
1000000 -6 36 22 30 39 24 0
1000000 -7 37 31 0
1000000 -8 32 43 25 40 0
1000000 -9 44 0
1000000 -10 33 47 41 45 0
1000000 -11 19 46 0
1000000 -12 48 0
1000000 -13 42 49 0
1000000 -14 38 26 50 34 0
1000000 -15 51 27 0
1000000 -16 20 0
1000000 -17 28 0
1000000 52 69 0
1000000 53 68 0
1000000 54 71 0
1000000 55 67 0
1000000 56 70 0
1000000 57 67 0
1000000 58 69 0
1000000 59 70 0
1000000 60 68 0
1000000 61 68 0
1000000 62 70 0
1000000 63 69 0
1000000 64 71 0
1000000 65 67 0
1000000 66 71 0
1000000 -52 -69 0
1000000 -53 -68 0
1000000 -54 -71 0
1000000 -55 -67 0
1000000 -56 -70 0
1000000 -57 -67 0
1000000 -58 -69 0
1000000 -59 -70 0
1000000 -60 -68 0
1000000 -61 -68 0
1000000 -62 -70 0
1000000 -63 -69 0
1000000 -64 -71 0
1000000 -65 -67 0
1000000 -66 -71 0
8600 -67 0
13200 -68 0
12000 -69 0
13200 -70 0
12000 -71 0
2600 52 0
2600 53 0
2700 54 0
2700 55 0
2600 56 0
2800 57 0
2800 58 0
2600 59 0
2700 60 0
2900 61 0
900 62 0
3500 63 0
3500 64 0
900 65 0
900 66 0
16850 -18 0
56100 21 -23 0
23100 -21 23 0
59565 -21 -23 0
1940 -29 0
848 -35 0
12806 36 22 30 39 -24 0
10110 36 22 30 -39 24 0
19074 36 22 30 -39 -24 0
13480 36 22 -30 39 24 0
21164 36 22 -30 39 -24 0
19546 36 22 -30 -39 24 0
24925 36 22 -30 -39 -24 0
18535 36 -22 30 39 24 0
24298 36 -22 30 39 -24 0
23085 36 -22 30 -39 24 0
27118 36 -22 30 -39 -24 0
24601 36 -22 -30 39 24 0
28059 36 -22 -30 39 -24 0
27331 36 -22 -30 -39 24 0
29751 36 -22 -30 -39 -24 0
6066 -36 22 30 39 24 0
16567 -36 22 30 39 -24 0
14356 -36 22 30 -39 24 0
21707 -36 22 30 -39 -24 0
17120 -36 22 -30 39 24 0
23420 -36 22 -30 39 -24 0
22094 -36 22 -30 -39 24 0
26504 -36 22 -30 -39 -24 0
21265 -36 -22 30 39 24 0
25990 -36 -22 30 39 -24 0
24995 -36 -22 30 -39 24 0
28303 -36 -22 30 -39 -24 0
26239 -36 -22 -30 39 24 0
29074 -36 -22 -30 39 -24 0
28477 -36 -22 -30 -39 24 0
30462 -36 -22 -30 -39 -24 0
15180 37 -31 0
3795 -37 31 0
18216 -37 -31 0
14744 32 43 25 -40 0
34920 32 43 -25 40 0
36394 32 43 -25 -40 0
776 32 -43 25 40 0
15225 32 -43 25 -40 0
34998 32 -43 -25 40 0
36443 32 -43 -25 -40 0
4656 -32 43 25 40 0
17631 -32 43 25 -40 0
35386 -32 43 -25 40 0
36683 -32 43 -25 -40 0
5339 -32 -43 25 40 0
18054 -32 -43 25 -40 0
35454 -32 -43 -25 40 0
36725 -32 -43 -25 -40 0
20735 -44 0
2920 33 47 41 -45 0
16060 33 47 -41 45 0
17374 33 47 -41 -45 0
14600 33 -47 41 45 0
16060 33 -47 41 -45 0
22630 33 -47 -41 45 0
23287 33 -47 -41 -45 0
24820 -33 47 41 45 0
25258 -33 47 41 -45 0
27229 -33 47 -41 45 0
27426 -33 47 -41 -45 0
27010 -33 -47 41 45 0
27229 -33 -47 41 -45 0
28215 -33 -47 -41 45 0
28313 -33 -47 -41 -45 0
11795 19 -46 0
6740 -19 46 0
16176 -19 -46 0
8835 -48 0
45595 42 -49 0
74610 -42 49 0
79170 -42 -49 0
6072 38 26 50 -34 0
22770 38 26 -50 34 0
26110 38 26 -50 -34 0
43010 38 -26 50 34 0
43921 38 -26 50 -34 0
46425 38 -26 -50 34 0
46926 38 -26 -50 -34 0
37950 -38 26 50 34 0
39468 -38 26 50 -34 0
43643 -38 26 -50 34 0
44477 -38 26 -50 -34 0
48703 -38 -26 50 34 0
48930 -38 -26 50 -34 0
49556 -38 -26 -50 34 0
49682 -38 -26 -50 -34 0
584 51 -27 0
4380 -51 27 0
4876 -51 -27 0
16620 -20 0
53040 -28 0
