p wcnf 49 193 1000000
1000000 1 0
1000000 2 -13 0
1000000 13 -37 -1 0
1000000 3 -14 0
1000000 14 -36 -1 0
1000000 7 -15 0
1000000 15 -38 -1 0
1000000 8 -16 0
1000000 16 -40 -43 -1 0
1000000 9 -17 0
1000000 17 -42 -45 -39 -1 0
1000000 12 -18 0
1000000 18 -39 -44 -2 0
1000000 4 -19 0
1000000 19 -36 -2 0
1000000 8 -20 0
1000000 20 -37 -2 0
1000000 4 -21 0
1000000 21 -38 -44 -3 0
1000000 5 -22 0
1000000 22 -41 -3 0
1000000 6 -23 0
1000000 23 -43 -41 -3 0
1000000 9 -24 0
1000000 24 -40 -42 -38 -3 0
1000000 11 -25 0
1000000 25 -39 -45 -4 0
1000000 12 -26 0
1000000 26 -36 -40 -45 -4 0
1000000 6 -27 0
1000000 27 -41 -43 -4 0
1000000 11 -28 0
1000000 28 -36 -37 -5 0
1000000 12 -29 0
1000000 29 -44 -6 0
1000000 7 -30 0
1000000 30 -42 -6 0
1000000 8 -31 0
1000000 31 -38 -6 0
1000000 12 -32 0
1000000 32 -37 -7 0
1000000 10 -33 0
1000000 33 -43 -41 -7 0
1000000 12 -34 0
1000000 34 -44 -39 -8 0
1000000 12 -35 0
1000000 35 -42 -10 0
1000000 1 0
1000000 -2 13 0
1000000 -3 14 0
1000000 -4 19 21 0
1000000 -5 22 0
1000000 -6 23 27 0
1000000 -7 30 15 0
1000000 -8 16 20 31 0
1000000 -9 17 24 0
1000000 -10 33 0
1000000 -11 25 28 0
1000000 -12 35 34 18 26 29 32 0
1000000 36 48 0
1000000 37 48 0
1000000 38 48 0
1000000 39 47 0
1000000 40 46 0
1000000 41 49 0
1000000 42 46 0
1000000 43 47 0
1000000 44 47 0
1000000 45 49 0
1000000 -36 -48 0
1000000 -37 -48 0
1000000 -38 -48 0
1000000 -39 -47 0
1000000 -40 -46 0
1000000 -41 -49 0
1000000 -42 -46 0
1000000 -43 -47 0
1000000 -44 -47 0
1000000 -45 -49 0
12900 -46 0
13200 -47 0
12900 -48 0
13900 -49 0
2600 36 0
900 37 0
900 38 0
2600 39 0
2600 40 0
700 41 0
2000 42 0
2600 43 0
2100 44 0
2000 45 0
46410 -13 0
19380 -14 0
324 19 -21 0
15390 -19 21 0
15406 -19 -21 0
3984 -22 0
10755 23 -27 0
11950 -23 27 0
17328 -23 -27 0
12510 30 -15 0
6255 -30 15 0
13136 -30 -15 0
4080 16 20 -31 0
12240 16 -20 31 0
13872 16 -20 -31 0
8160 -16 20 31 0
10608 -16 20 -31 0
15504 -16 -20 31 0
16483 -16 -20 -31 0
17340 17 -24 0
19380 -17 24 0
20247 -17 -24 0
13770 -33 0
7020 25 -28 0
26676 -25 28 0
31028 -25 -28 0
20315 35 34 18 26 29 -32 0
10755 35 34 18 26 -29 32 0
21928 35 34 18 26 -29 -32 0
5975 35 34 18 -26 29 32 0
21211 35 34 18 -26 29 -32 0
14041 35 34 18 -26 -29 32 0
22421 35 34 18 -26 -29 -32 0
2390 35 34 -18 26 29 32 0
20673 35 34 -18 26 29 -32 0
12069 35 34 -18 26 -29 32 0
22125 35 34 -18 26 -29 -32 0
7767 35 34 -18 -26 29 32 0
21480 35 34 -18 -26 29 -32 0
15027 35 34 -18 -26 -29 32 0
22569 35 34 -18 -26 -29 -32 0
3585 35 -34 18 26 29 32 0
20853 35 -34 18 26 29 -32 0
12727 35 -34 18 26 -29 32 0
22224 35 -34 18 26 -29 -32 0
8664 35 -34 18 -26 29 32 0
21615 35 -34 18 -26 29 -32 0
15520 35 -34 18 -26 -29 32 0
22643 35 -34 18 -26 -29 -32 0
5616 35 -34 -18 26 29 32 0
21157 35 -34 -18 26 29 -32 0
13844 35 -34 -18 26 -29 32 0
22392 35 -34 -18 26 -29 -32 0
10187 35 -34 -18 -26 29 32 0
21843 35 -34 -18 -26 29 -32 0
16358 35 -34 -18 -26 -29 32 0
22769 35 -34 -18 -26 -29 -32 0
478 -35 34 18 26 29 32 0
20387 -35 34 18 26 29 -32 0
11018 -35 34 18 26 -29 32 0
21968 -35 34 18 26 -29 -32 0
6334 -35 34 18 -26 29 32 0
21265 -35 34 18 -26 29 -32 0
14238 -35 34 18 -26 -29 32 0
22451 -35 34 18 -26 -29 -32 0
2820 -35 34 -18 26 29 32 0
20738 -35 34 -18 26 29 -32 0
12306 -35 34 -18 26 -29 32 0
22161 -35 34 -18 26 -29 -32 0
8090 -35 34 -18 -26 29 32 0
21529 -35 34 -18 -26 29 -32 0
15205 -35 34 -18 -26 -29 32 0
22596 -35 34 -18 -26 -29 -32 0
3991 -35 -34 18 26 29 32 0
20914 -35 -34 18 26 29 -32 0
12950 -35 -34 18 26 -29 32 0
22258 -35 -34 18 26 -29 -32 0
8968 -35 -34 18 -26 29 32 0
21660 -35 -34 18 -26 29 -32 0
15688 -35 -34 18 -26 -29 32 0
22668 -35 -34 18 -26 -29 -32 0
5982 -35 -34 -18 26 29 32 0
21212 -35 -34 -18 26 29 -32 0
14045 -35 -34 -18 26 -29 32 0
22422 -35 -34 -18 26 -29 -32 0
10462 -35 -34 -18 -26 29 32 0
21884 -35 -34 -18 -26 29 -32 0
16509 -35 -34 -18 -26 -29 32 0
22791 -35 -34 -18 -26 -29 -32 0
