p wcnf 55 209 1000000
1000000 1 0
1000000 2 -13 0
1000000 13 -38 -1 0
1000000 3 -14 0
1000000 14 -41 -43 -1 0
1000000 4 -15 0
1000000 15 -48 -44 -47 -1 0
1000000 8 -16 0
1000000 16 -49 -45 -1 0
1000000 10 -17 0
1000000 17 -40 -46 -38 -1 0
1000000 11 -18 0
1000000 18 -43 -50 -39 -2 0
1000000 5 -19 0
1000000 19 -45 -39 -47 -2 0
1000000 7 -20 0
1000000 20 -41 -46 -2 0
1000000 8 -21 0
1000000 21 -48 -40 -44 -2 0
1000000 10 -22 0
1000000 22 -49 -42 -44 -2 0
1000000 12 -23 0
1000000 23 -39 -38 -11 0
1000000 6 -24 0
1000000 24 -40 -3 0
1000000 10 -25 0
1000000 25 -41 -3 0
1000000 6 -26 0
1000000 26 -45 -46 -4 0
1000000 8 -27 0
1000000 27 -50 -4 0
1000000 10 -28 0
1000000 28 -42 -50 -49 -4 0
1000000 8 -29 0
1000000 29 -39 -47 -5 0
1000000 7 -30 0
1000000 30 -48 -38 -6 0
1000000 8 -31 0
1000000 31 -40 -6 0
1000000 12 -32 0
1000000 32 -46 -42 -7 0
1000000 9 -33 0
1000000 33 -44 -47 -48 -7 0
1000000 12 -34 0
1000000 34 -43 -45 -8 0
1000000 10 -35 0
1000000 35 -50 -42 -8 0
1000000 11 -36 0
1000000 36 -41 -9 0
1000000 12 -37 0
1000000 37 -38 -45 -39 -10 0
1000000 1 0
1000000 -2 13 0
1000000 -3 14 0
1000000 -4 15 0
1000000 -5 19 0
1000000 -6 26 24 0
1000000 -7 30 20 0
1000000 -8 21 16 27 29 31 0
1000000 -9 33 0
1000000 -10 35 25 28 17 22 0
1000000 -11 36 18 0
1000000 -12 34 37 32 23 0
1000000 38 53 0
1000000 39 54 0
1000000 40 54 0
1000000 41 55 0
1000000 42 55 0
1000000 43 51 0
1000000 44 52 0
1000000 45 54 0
1000000 46 53 0
1000000 47 52 0
1000000 48 52 0
1000000 49 55 0
1000000 50 51 0
1000000 -38 -53 0
1000000 -39 -54 0
1000000 -40 -54 0
1000000 -41 -55 0
1000000 -42 -55 0
1000000 -43 -51 0
1000000 -44 -52 0
1000000 -45 -54 0
1000000 -46 -53 0
1000000 -47 -52 0
1000000 -48 -52 0
1000000 -49 -55 0
1000000 -50 -51 0
11100 -51 0
12000 -52 0
12000 -53 0
10100 -54 0
9900 -55 0
2700 38 0
1300 39 0
1500 40 0
1300 41 0
3400 42 0
1500 43 0
1300 44 0
3200 45 0
1300 46 0
3200 47 0
2700 48 0
3200 49 0
3200 50 0
940 -13 0
3980 -14 0
7700 -15 0
6960 -19 0
8120 26 -24 0
20880 -26 24 0
21692 -26 -24 0
8120 30 -20 0
6960 -30 20 0
12644 -30 -20 0
11392 21 16 27 29 -31 0
712 21 16 27 -29 31 0
11876 21 16 27 -29 -31 0
5340 21 16 -27 29 31 0
15023 21 16 -27 29 -31 0
5945 21 16 -27 -29 31 0
15435 21 16 -27 -29 -31 0
13528 21 -16 27 29 31 0
20591 21 -16 27 29 -31 0
13969 21 -16 27 -29 31 0
20891 21 -16 27 -29 -31 0
16839 21 -16 -27 29 31 0
22842 21 -16 -27 29 -31 0
17214 21 -16 -27 -29 31 0
23098 21 -16 -27 -29 -31 0
11392 -21 16 27 29 31 0
19139 -21 16 27 29 -31 0
11876 -21 16 27 -29 31 0
19468 -21 16 27 -29 -31 0
15023 -21 16 -27 29 31 0
21608 -21 16 -27 29 -31 0
15435 -21 16 -27 -29 31 0
21888 -21 16 -27 -29 -31 0
20591 -21 -16 27 29 31 0
25394 -21 -16 27 29 -31 0
20891 -21 -16 27 -29 31 0
25598 -21 -16 27 -29 -31 0
22842 -21 -16 -27 29 31 0
26925 -21 -16 -27 29 -31 0
23098 -21 -16 -27 -29 31 0
27098 -21 -16 -27 -29 -31 0
1415 -33 0
7960 35 25 28 17 -22 0
8955 35 25 28 -17 22 0
13333 35 25 28 -17 -22 0
7562 35 25 -28 17 22 0
12497 35 25 -28 17 -22 0
13114 35 25 -28 -17 22 0
15828 35 25 -28 -17 -22 0
4975 35 -25 28 17 22 0
10945 35 -25 28 17 -22 0
11691 35 -25 28 -17 22 0
14975 35 -25 28 -17 -22 0
10647 35 -25 -28 17 22 0
14348 35 -25 -28 17 -22 0
14811 35 -25 -28 -17 22 0
16846 35 -25 -28 -17 -22 0
9950 -35 25 28 17 22 0
13930 -35 25 28 17 -22 0
14428 -35 25 28 -17 22 0
16616 -35 25 28 -17 -22 0
13731 -35 25 -28 17 22 0
16199 -35 25 -28 17 -22 0
16507 -35 25 -28 -17 22 0
17864 -35 25 -28 -17 -22 0
12438 -35 -25 28 17 22 0
15422 -35 -25 28 17 -22 0
15796 -35 -25 28 -17 22 0
17437 -35 -25 28 -17 -22 0
15273 -35 -25 -28 17 22 0
17124 -35 -25 -28 17 -22 0
17355 -35 -25 -28 -17 22 0
18373 -35 -25 -28 -17 -22 0
33200 36 -18 0
14525 -36 18 0
36105 -36 -18 0
26975 34 37 32 -23 0
26975 34 37 -32 23 0
36416 34 37 -32 -23 0
830 34 -37 32 23 0
27266 34 -37 32 -23 0
27266 34 -37 -32 23 0
36518 34 -37 -32 -23 0
29050 -34 37 32 23 0
37143 -34 37 32 -23 0
37143 -34 37 -32 23 0
39975 -34 37 -32 -23 0
29299 -34 -37 32 23 0
37230 -34 -37 32 -23 0
37230 -34 -37 -32 23 0
40005 -34 -37 -32 -23 0
