p wcnf 52 156 1000000
1000000 1 0
1000000 2 -14 0
1000000 14 -37 -42 -1 0
1000000 4 -15 0
1000000 15 -38 -46 -43 -1 0
1000000 7 -16 0
1000000 16 -40 -1 0
1000000 9 -17 0
1000000 17 -39 -45 -41 -1 0
1000000 3 -18 0
1000000 18 -42 -41 -40 -2 0
1000000 6 -19 0
1000000 19 -38 -47 -2 0
1000000 7 -20 0
1000000 20 -37 -2 0
1000000 9 -21 0
1000000 21 -37 -39 -45 -2 0
1000000 13 -22 0
1000000 22 -48 -11 0
1000000 4 -23 0
1000000 23 -48 -41 -47 -3 0
1000000 5 -24 0
1000000 24 -38 -39 -3 0
1000000 8 -25 0
1000000 25 -44 -3 0
1000000 5 -26 0
1000000 26 -46 -4 0
1000000 8 -27 0
1000000 27 -42 -40 -47 -4 0
1000000 13 -28 0
1000000 28 -44 -45 -5 0
1000000 11 -29 0
1000000 29 -48 -44 -6 0
1000000 9 -30 0
1000000 30 -46 -39 -37 -6 0
1000000 9 -31 0
1000000 31 -43 -7 0
1000000 10 -32 0
1000000 32 -40 -7 0
1000000 11 -33 0
1000000 33 -46 -42 -41 -8 0
1000000 10 -34 0
1000000 34 -43 -45 -38 -8 0
1000000 12 -35 0
1000000 35 -38 -47 -44 -9 0
1000000 13 -36 0
1000000 36 -48 -43 -10 0
1000000 1 0
1000000 -2 14 0
1000000 -3 18 0
1000000 -4 23 15 0
1000000 -5 24 26 0
1000000 -6 19 0
1000000 -7 16 20 0
1000000 -8 27 25 0
1000000 -9 17 31 21 30 0
1000000 -10 32 34 0
1000000 -11 33 29 0
1000000 -12 35 0
1000000 -13 28 22 36 0
1000000 37 50 0
1000000 38 52 0
1000000 39 50 0
1000000 40 49 0
1000000 41 52 0
1000000 42 50 0
1000000 43 51 0
1000000 44 52 0
1000000 45 49 0
1000000 46 49 0
1000000 47 51 0
1000000 48 51 0
1000000 -37 -50 0
1000000 -38 -52 0
1000000 -39 -50 0
1000000 -40 -49 0
1000000 -41 -52 0
1000000 -42 -50 0
1000000 -43 -51 0
1000000 -44 -52 0
1000000 -45 -49 0
1000000 -46 -49 0
1000000 -47 -51 0
1000000 -48 -51 0
10900 -49 0
10900 -50 0
8000 -51 0
10900 -52 0
1600 37 0
1600 38 0
1300 39 0
1600 40 0
1300 41 0
1300 42 0
2200 43 0
1800 44 0
2200 45 0
1700 46 0
2200 47 0
1700 48 0
1384 -14 0
45990 -18 0
61740 23 -15 0
10290 -23 15 0
62769 -23 -15 0
60075 24 -26 0
72090 -24 26 0
78098 -24 -26 0
41440 -19 0
8305 16 -20 0
1812 -16 20 0
9120 -16 -20 0
9198 27 -25 0
9198 -27 25 0
16740 -27 -25 0
34600 17 31 21 -30 0
62280 17 31 -21 30 0
65740 17 31 -21 -30 0
27680 17 -31 21 30 0
48440 17 -31 21 -30 0
65048 17 -31 -21 30 0
67124 17 -31 -21 -30 0
27680 -17 31 21 30 0
48440 -17 31 21 -30 0
65048 -17 31 -21 30 0
67124 -17 31 -21 -30 0
44288 -17 -31 21 30 0
56744 -17 -31 21 -30 0
66709 -17 -31 -21 30 0
67954 -17 -31 -21 -30 0
14800 32 -34 0
44400 -32 34 0
48100 -32 -34 0
32600 33 -29 0
7824 -33 29 0
36512 -33 -29 0
10656 -35 0
2815 28 22 -36 0
22520 28 -22 36 0
24209 28 -22 -36 0
25335 -28 22 36 0
26883 -28 22 -36 0
37721 -28 -22 36 0
38650 -28 -22 -36 0
