p wcnf 68 237 1000000
1000000 1 0
1000000 2 -15 0
1000000 15 -47 -1 0
1000000 3 -16 0
1000000 16 -54 -55 -56 -1 0
1000000 7 -17 0
1000000 17 -48 -57 -53 -1 0
1000000 8 -18 0
1000000 18 -50 -51 -1 0
1000000 10 -19 0
1000000 19 -60 -47 -59 -1 0
1000000 11 -20 0
1000000 20 -58 -48 -2 0
1000000 12 -21 0
1000000 21 -52 -50 -55 -2 0
1000000 3 -22 0
1000000 22 -61 -52 -51 -2 0
1000000 4 -23 0
1000000 23 -54 -53 -59 -2 0
1000000 14 -24 0
1000000 24 -57 -49 -13 0
1000000 13 -25 0
1000000 25 -49 -62 -3 0
1000000 4 -26 0
1000000 26 -61 -47 -3 0
1000000 5 -27 0
1000000 27 -60 -3 0
1000000 6 -28 0
1000000 28 -52 -58 -62 -3 0
1000000 7 -29 0
1000000 29 -48 -49 -3 0
1000000 9 -30 0
1000000 30 -56 -51 -54 -3 0
1000000 14 -31 0
1000000 31 -53 -4 0
1000000 7 -32 0
1000000 32 -57 -60 -58 -4 0
1000000 12 -33 0
1000000 33 -56 -5 0
1000000 6 -34 0
1000000 34 -55 -5 0
1000000 7 -35 0
1000000 35 -47 -62 -48 -5 0
1000000 9 -36 0
1000000 36 -49 -59 -54 -5 0
1000000 7 -37 0
1000000 37 -51 -6 0
1000000 10 -38 0
1000000 38 -50 -6 0
1000000 11 -39 0
1000000 39 -52 -58 -57 -7 0
1000000 8 -40 0
1000000 40 -61 -7 0
1000000 10 -41 0
1000000 41 -50 -53 -7 0
1000000 12 -42 0
1000000 42 -62 -47 -60 -8 0
1000000 10 -43 0
1000000 43 -52 -48 -59 -8 0
1000000 14 -44 0
1000000 44 -61 -9 0
1000000 13 -45 0
1000000 45 -56 -10 0
1000000 14 -46 0
1000000 46 -50 -53 -10 0
1000000 1 0
1000000 -2 15 0
1000000 -3 16 22 0
1000000 -4 26 23 0
1000000 -5 27 0
1000000 -6 34 28 0
1000000 -7 32 17 37 29 35 0
1000000 -8 18 40 0
1000000 -9 30 36 0
1000000 -10 41 43 19 38 0
1000000 -11 20 39 0
1000000 -12 42 21 33 0
1000000 -13 45 25 0
1000000 -14 46 44 24 31 0
1000000 47 63 0
1000000 48 65 0
1000000 49 68 0
1000000 50 66 0
1000000 51 68 0
1000000 52 63 0
1000000 53 65 0
1000000 54 68 0
1000000 55 67 0
1000000 56 66 0
1000000 57 65 0
1000000 58 66 0
1000000 59 64 0
1000000 60 67 0
1000000 61 64 0
1000000 62 63 0
1000000 -47 -63 0
1000000 -48 -65 0
1000000 -49 -68 0
1000000 -50 -66 0
1000000 -51 -68 0
1000000 -52 -63 0
1000000 -53 -65 0
1000000 -54 -68 0
1000000 -55 -67 0
1000000 -56 -66 0
1000000 -57 -65 0
1000000 -58 -66 0
1000000 -59 -64 0
1000000 -60 -67 0
1000000 -61 -64 0
1000000 -62 -63 0
7800 -63 0
9000 -64 0
12900 -65 0
7800 -66 0
7800 -67 0
8400 -68 0
1900 47 0
2800 48 0
1900 49 0
1800 50 0
2800 51 0
2800 52 0
1400 53 0
1400 54 0
1800 55 0
1800 56 0
2200 57 0
2200 58 0
1800 59 0
2200 60 0
1900 61 0
2200 62 0
42750 -15 0
18340 16 -22 0
13100 -16 22 0
26855 -16 -22 0
3130 26 -23 0
20032 -26 23 0
22160 -26 -23 0
8070 -27 0
11268 34 -28 0
12520 -34 28 0
21534 -34 -28 0
44540 32 17 37 29 -35 0
1048 32 17 37 -29 35 0
44697 32 17 37 -29 -35 0
2620 32 17 -37 29 35 0
44933 32 17 -37 29 -35 0
3616 32 17 -37 -29 35 0
45082 32 17 -37 -29 -35 0
31440 32 -17 37 29 35 0
49256 32 -17 37 29 -35 0
31859 32 -17 37 -29 35 0
49319 32 -17 37 -29 -35 0
32488 32 -17 -37 29 35 0
49413 32 -17 -37 29 -35 0
32886 32 -17 -37 -29 35 0
49473 32 -17 -37 -29 -35 0
13100 -32 17 37 29 35 0
46505 -32 17 37 29 -35 0
13886 -32 17 37 -29 35 0
46623 -32 17 37 -29 -35 0
15065 -32 17 -37 29 35 0
46800 -32 17 -37 29 -35 0
15812 -32 17 -37 -29 35 0
46912 -32 17 -37 -29 -35 0
36680 -32 -17 37 29 35 0
50042 -32 -17 37 29 -35 0
36994 -32 -17 37 -29 35 0
50089 -32 -17 37 -29 -35 0
37466 -32 -17 -37 29 35 0
50160 -32 -17 -37 29 -35 0
37765 -32 -17 -37 -29 35 0
50205 -32 -17 -37 -29 -35 0
13100 18 -40 0
9432 -18 40 0
20174 -18 -40 0
50925 30 -36 0
50925 -30 36 0
63656 -30 -36 0
54720 41 43 19 -38 0
21280 41 43 -19 38 0
56848 41 43 -19 -38 0
9120 41 -43 19 38 0
55632 41 -43 19 -38 0
27208 41 -43 -19 38 0
57441 41 -43 -19 -38 0
45600 -41 43 19 38 0
59280 -41 43 19 -38 0
50920 -41 43 -19 38 0
59812 -41 43 -19 -38 0
47880 -41 -43 19 38 0
59508 -41 -43 19 -38 0
52402 -41 -43 -19 38 0
59960 -41 -43 -19 -38 0
17900 20 -39 0
68020 -20 39 0
68915 -20 -39 0
18780 42 21 -33 0
7512 42 -21 33 0
24038 42 -21 -33 0
20032 -42 21 33 0
32802 -42 21 -33 0
25140 -42 -21 33 0
36378 -42 -21 -33 0
22912 45 -25 0
7160 -45 25 0
27781 -45 -25 0
12520 46 44 24 -31 0
11268 46 44 -24 31 0
21534 46 44 -24 -31 0
9390 46 -44 24 31 0
20032 46 -44 24 -31 0
18968 46 -44 -24 31 0
27694 46 -44 -24 -31 0
34430 -46 44 24 31 0
40064 -46 44 24 -31 0
39501 -46 44 -24 31 0
44120 -46 44 -24 -31 0
38656 -46 -44 24 31 0
43444 -46 -44 24 -31 0
42966 -46 -44 -24 31 0
46892 -46 -44 -24 -31 0
