p wcnf 77 320 1000000
1000000 1 0
1000000 2 -17 0
1000000 17 -57 -1 0
1000000 14 -18 0
1000000 18 -59 -55 -1 0
1000000 3 -19 0
1000000 19 -60 -1 0
1000000 5 -20 0
1000000 20 -58 -65 -62 -1 0
1000000 8 -21 0
1000000 21 -56 -1 0
1000000 11 -22 0
1000000 22 -64 -2 0
1000000 3 -23 0
1000000 23 -63 -2 0
1000000 6 -24 0
1000000 24 -61 -2 0
1000000 10 -25 0
1000000 25 -66 -2 0
1000000 12 -26 0
1000000 26 -68 -11 0
1000000 16 -27 0
1000000 27 -56 -55 -11 0
1000000 13 -28 0
1000000 28 -67 -12 0
1000000 14 -29 0
1000000 29 -69 -12 0
1000000 16 -30 0
1000000 30 -60 -70 -71 -12 0
1000000 15 -31 0
1000000 31 -59 -65 -63 -14 0
1000000 11 -32 0
1000000 32 -62 -58 -57 -3 0
1000000 15 -33 0
1000000 33 -61 -66 -3 0
1000000 4 -34 0
1000000 34 -68 -69 -56 -3 0
1000000 8 -35 0
1000000 35 -64 -55 -60 -3 0
1000000 11 -36 0
1000000 36 -67 -4 0
1000000 9 -37 0
1000000 37 -71 -58 -4 0
1000000 14 -38 0
1000000 38 -63 -66 -62 -5 0
1000000 15 -39 0
1000000 39 -65 -64 -5 0
1000000 7 -40 0
1000000 40 -57 -61 -5 0
1000000 10 -41 0
1000000 41 -70 -67 -5 0
1000000 11 -42 0
1000000 42 -68 -70 -6 0
1000000 13 -43 0
1000000 43 -59 -71 -69 -6 0
1000000 11 -44 0
1000000 44 -59 -58 -7 0
1000000 12 -45 0
1000000 45 -55 -7 0
1000000 13 -46 0
1000000 46 -62 -56 -7 0
1000000 15 -47 0
1000000 47 -67 -61 -64 -7 0
1000000 11 -48 0
1000000 48 -65 -68 -8 0
1000000 12 -49 0
1000000 49 -60 -63 -8 0
1000000 9 -50 0
1000000 50 -55 -66 -71 -8 0
1000000 12 -51 0
1000000 51 -69 -59 -9 0
1000000 13 -52 0
1000000 52 -57 -9 0
1000000 15 -53 0
1000000 53 -56 -58 -10 0
1000000 16 -54 0
1000000 54 -60 -70 -65 -10 0
1000000 1 0
1000000 -2 17 0
1000000 -3 19 23 0
1000000 -4 34 0
1000000 -5 20 0
1000000 -6 24 0
1000000 -7 40 0
1000000 -8 35 21 0
1000000 -9 37 50 0
1000000 -10 25 41 0
1000000 -11 44 42 22 36 48 32 0
1000000 -12 26 49 45 51 0
1000000 -13 28 43 46 52 0
1000000 -14 29 38 18 0
1000000 -15 33 39 53 47 31 0
1000000 -16 54 27 30 0
1000000 55 74 0
1000000 56 73 0
1000000 57 73 0
1000000 58 74 0
1000000 59 74 0
1000000 60 77 0
1000000 61 77 0
1000000 62 75 0
1000000 63 73 0
1000000 64 75 0
1000000 65 76 0
1000000 66 77 0
1000000 67 72 0
1000000 68 76 0
1000000 69 76 0
1000000 70 72 0
1000000 71 72 0
1000000 -55 -74 0
1000000 -56 -73 0
1000000 -57 -73 0
1000000 -58 -74 0
1000000 -59 -74 0
1000000 -60 -77 0
1000000 -61 -77 0
1000000 -62 -75 0
1000000 -63 -73 0
1000000 -64 -75 0
1000000 -65 -76 0
1000000 -66 -77 0
1000000 -67 -72 0
1000000 -68 -76 0
1000000 -69 -76 0
1000000 -70 -72 0
1000000 -71 -72 0
12600 -72 0
10800 -73 0
12600 -74 0
7100 -75 0
13600 -76 0
12600 -77 0
3000 55 0
3200 56 0
3200 57 0
2100 58 0
1800 59 0
1800 60 0
1400 61 0
2200 62 0
2200 63 0
3200 64 0
3200 65 0
2100 66 0
2500 67 0
1400 68 0
2100 69 0
1700 70 0
2500 71 0
4150 -17 0
25150 19 -23 0
20120 -19 23 0
35210 -19 -23 0
3648 -34 0
415 -20 0
5760 -24 0
11670 -40 0
6225 35 -21 0
3154 -35 21 0
7013 -35 -21 0
2880 37 -50 0
7680 -37 50 0
8256 -37 -50 0
192 25 -41 0
480 -25 41 0
662 -25 -41 0
192 44 42 22 36 48 -32 0
8160 44 42 22 36 -48 32 0
8189 44 42 22 36 -48 -32 0
3648 44 42 22 -36 48 32 0
3767 44 42 22 -36 48 -32 0
8707 44 42 22 -36 -48 32 0
8725 44 42 22 -36 -48 -32 0
3360 44 42 -22 36 48 32 0
3485 44 42 -22 36 48 -32 0
8664 44 42 -22 36 -48 32 0
8683 44 42 -22 36 -48 -32 0
5731 44 42 -22 -36 48 32 0
5809 44 42 -22 -36 48 -32 0
9020 44 42 -22 -36 -48 32 0
9031 44 42 -22 -36 -48 -32 0
5280 44 -42 22 36 48 32 0
5366 44 -42 22 36 48 -32 0
8952 44 -42 22 36 -48 32 0
8965 44 -42 22 36 -48 -32 0
6922 44 -42 22 -36 48 32 0
6975 44 -42 22 -36 48 -32 0
9198 44 -42 22 -36 -48 32 0
9206 44 -42 22 -36 -48 -32 0
6792 44 -42 -22 36 48 32 0
6848 44 -42 -22 36 48 -32 0
9179 44 -42 -22 36 -48 32 0
9187 44 -42 -22 36 -48 -32 0
7859 44 -42 -22 -36 48 32 0
7894 44 -42 -22 -36 48 -32 0
9339 44 -42 -22 -36 -48 32 0
9344 44 -42 -22 -36 -48 -32 0
1728 -44 42 22 36 48 32 0
1885 -44 42 22 36 48 -32 0
8419 -44 42 22 36 -48 32 0
8443 -44 42 22 36 -48 -32 0
4719 -44 42 22 -36 48 32 0
4817 -44 42 22 -36 48 -32 0
8868 -44 42 22 -36 -48 32 0
8883 -44 42 22 -36 -48 -32 0
4483 -44 42 -22 36 48 32 0
4586 -44 42 -22 36 48 -32 0
8832 -44 42 -22 36 -48 32 0
8848 -44 42 -22 36 -48 -32 0
6428 -44 42 -22 -36 48 32 0
6491 -44 42 -22 -36 48 -32 0
9124 -44 42 -22 -36 -48 32 0
9134 -44 42 -22 -36 -48 -32 0
6058 -44 -42 22 36 48 32 0
6128 -44 -42 22 36 48 -32 0
9069 -44 -42 22 36 -48 32 0
9079 -44 -42 22 36 -48 -32 0
7404 -44 -42 22 -36 48 32 0
7448 -44 -42 22 -36 48 -32 0
9271 -44 -42 22 -36 -48 32 0
9277 -44 -42 22 -36 -48 -32 0
7297 -44 -42 -22 36 48 32 0
7343 -44 -42 -22 36 48 -32 0
9255 -44 -42 -22 36 -48 32 0
9262 -44 -42 -22 36 -48 -32 0
8172 -44 -42 -22 -36 48 32 0
8201 -44 -42 -22 -36 48 -32 0
9386 -44 -42 -22 -36 -48 32 0
9390 -44 -42 -22 -36 -48 -32 0
8640 26 49 45 -51 0
1440 26 49 -45 51 0
8784 26 49 -45 -51 0
4320 26 -49 45 51 0
9072 26 -49 45 -51 0
5112 26 -49 -45 51 0
9151 26 -49 -45 -51 0
8640 -26 49 45 51 0
9504 -26 49 45 -51 0
8784 -26 49 -45 51 0
9518 -26 49 -45 -51 0
9072 -26 -49 45 51 0
9547 -26 -49 45 -51 0
9151 -26 -49 -45 51 0
9555 -26 -49 -45 -51 0
7704 28 43 46 -52 0
2140 28 43 -46 52 0
9459 28 43 -46 -52 0
36380 28 -43 46 52 0
37536 28 -43 46 -52 0
36701 28 -43 -46 52 0
37799 28 -43 -46 -52 0
27820 -28 43 46 52 0
30516 -28 43 46 -52 0
28569 -28 43 -46 52 0
31131 -28 43 -46 -52 0
40553 -28 -43 46 52 0
40957 -28 -43 46 -52 0
40665 -28 -43 -46 52 0
41050 -28 -43 -46 -52 0
982 29 38 -18 0
36825 29 -38 18 0
37070 29 -38 -18 0
34370 -29 38 18 0
34665 -29 38 -18 0
45418 -29 -38 18 0
45491 -29 -38 -18 0
12448 33 39 53 47 -31 0
33065 33 39 53 -47 31 0
34932 33 39 53 -47 -31 0
778 33 39 -53 47 31 0
12977 33 39 -53 47 -31 0
33182 33 39 -53 -47 31 0
35012 33 39 -53 -47 -31 0
35010 33 -39 53 47 31 0
36255 33 -39 53 47 -31 0
38317 33 -39 53 -47 31 0
38503 33 -39 53 -47 -31 0
35088 33 -39 -53 47 31 0
36308 33 -39 -53 47 -31 0
38328 33 -39 -53 -47 31 0
38511 33 -39 -53 -47 -31 0
12448 -33 39 53 47 31 0
20913 -33 39 53 47 -31 0
34932 -33 39 53 -47 31 0
36202 -33 39 53 -47 -31 0
12977 -33 39 -53 47 31 0
21272 -33 39 -53 47 -31 0
35012 -33 39 -53 -47 31 0
36256 -33 39 -53 -47 -31 0
36255 -33 -39 53 47 31 0
37101 -33 -39 53 47 -31 0
38503 -33 -39 53 -47 31 0
38630 -33 -39 53 -47 -31 0
36308 -33 -39 -53 47 31 0
37137 -33 -39 -53 47 -31 0
38511 -33 -39 -53 -47 31 0
38636 -33 -39 -53 -47 -31 0
256 54 27 -30 0
6400 54 -27 30 0
6528 54 -27 -30 0
3840 -54 27 30 0
4019 -54 27 -30 0
8320 -54 -27 30 0
8410 -54 -27 -30 0
