p wcnf 77 309 1000000
1000000 1 0
1000000 2 -18 0
1000000 18 -62 -56 -57 -1 0
1000000 15 -19 0
1000000 19 -61 -60 -1 0
1000000 3 -20 0
1000000 20 -58 -63 -1 0
1000000 5 -21 0
1000000 21 -65 -67 -66 -1 0
1000000 10 -22 0
1000000 22 -55 -1 0
1000000 5 -23 0
1000000 23 -68 -64 -2 0
1000000 6 -24 0
1000000 24 -69 -2 0
1000000 10 -25 0
1000000 25 -60 -56 -71 -2 0
1000000 13 -26 0
1000000 26 -58 -61 -11 0
1000000 14 -27 0
1000000 27 -55 -11 0
1000000 16 -28 0
1000000 28 -59 -11 0
1000000 16 -29 0
1000000 29 -59 -12 0
1000000 17 -30 0
1000000 30 -57 -13 0
1000000 16 -31 0
1000000 31 -66 -63 -68 -14 0
1000000 17 -32 0
1000000 32 -70 -64 -14 0
1000000 12 -33 0
1000000 33 -65 -3 0
1000000 14 -34 0
1000000 34 -69 -70 -58 -3 0
1000000 4 -35 0
1000000 35 -60 -59 -56 -3 0
1000000 7 -36 0
1000000 36 -57 -61 -62 -3 0
1000000 9 -37 0
1000000 37 -67 -71 -62 -3 0
1000000 5 -38 0
1000000 38 -64 -4 0
1000000 6 -39 0
1000000 39 -63 -55 -67 -4 0
1000000 8 -40 0
1000000 40 -65 -71 -4 0
1000000 11 -41 0
1000000 41 -59 -69 -55 -5 0
1000000 14 -42 0
1000000 42 -60 -58 -68 -5 0
1000000 7 -43 0
1000000 43 -56 -5 0
1000000 10 -44 0
1000000 44 -66 -5 0
1000000 14 -45 0
1000000 45 -70 -66 -65 -6 0
1000000 15 -46 0
1000000 46 -63 -64 -69 -6 0
1000000 10 -47 0
1000000 47 -71 -62 -70 -6 0
1000000 14 -48 0
1000000 48 -68 -61 -7 0
1000000 8 -49 0
1000000 49 -56 -57 -7 0
1000000 9 -50 0
1000000 50 -59 -57 -7 0
1000000 10 -51 0
1000000 51 -55 -7 0
1000000 16 -52 0
1000000 52 -58 -9 0
1000000 14 -53 0
1000000 53 -67 -10 0
1000000 17 -54 0
1000000 54 -60 -10 0
1000000 1 0
1000000 -2 18 0
1000000 -3 20 0
1000000 -4 35 0
1000000 -5 21 23 38 0
1000000 -6 39 24 0
1000000 -7 43 36 0
1000000 -8 40 49 0
1000000 -9 50 37 0
1000000 -10 44 51 25 47 22 0
1000000 -11 41 0
1000000 -12 33 0
1000000 -13 26 0
1000000 -14 53 48 27 45 34 42 0
1000000 -15 19 46 0
1000000 -16 28 31 52 29 0
1000000 -17 54 30 32 0
1000000 55 74 0
1000000 56 77 0
1000000 57 77 0
1000000 58 72 0
1000000 59 75 0
1000000 60 72 0
1000000 61 76 0
1000000 62 72 0
1000000 63 76 0
1000000 64 75 0
1000000 65 73 0
1000000 66 74 0
1000000 67 77 0
1000000 68 73 0
1000000 69 74 0
1000000 70 75 0
1000000 71 73 0
1000000 -55 -74 0
1000000 -56 -77 0
1000000 -57 -77 0
1000000 -58 -72 0
1000000 -59 -75 0
1000000 -60 -72 0
1000000 -61 -76 0
1000000 -62 -72 0
1000000 -63 -76 0
1000000 -64 -75 0
1000000 -65 -73 0
1000000 -66 -74 0
1000000 -67 -77 0
1000000 -68 -73 0
1000000 -69 -74 0
1000000 -70 -75 0
1000000 -71 -73 0
10800 -72 0
9500 -73 0
9500 -74 0
9500 -75 0
9500 -76 0
7400 -77 0
3700 55 0
3700 56 0
2300 57 0
3700 58 0
2600 59 0
3200 60 0
3200 61 0
3200 62 0
3800 63 0
3700 64 0
3200 65 0
3200 66 0
2300 67 0
1600 68 0
3200 69 0
1600 70 0
3200 71 0
15930 -18 0
1125 -20 0
9744 -35 0
12175 21 23 -38 0
9740 21 -23 38 0
19480 21 -23 -38 0
31655 -21 23 38 0
35916 -21 23 -38 0
35064 -21 -23 38 0
38473 -21 -23 -38 0
23670 39 -24 0
5260 -39 24 0
24196 -39 -24 0
526 43 -36 0
4734 -43 36 0
5165 -43 -36 0
1690 40 -49 0
11830 -40 49 0
12337 -40 -49 0
4734 50 -37 0
9205 -50 37 0
12282 -50 -37 0
5310 44 51 25 47 -22 0
30090 44 51 25 -47 22 0
30887 44 51 25 -47 -22 0
6372 44 51 -25 47 22 0
10726 44 51 -25 47 -22 0
31046 44 51 -25 -47 22 0
31699 44 51 -25 -47 -22 0
31860 44 -51 25 47 22 0
32391 44 -51 25 47 -22 0
34869 44 -51 25 -47 22 0
34949 44 -51 25 -47 -22 0
32497 44 -51 -25 47 22 0
32933 44 -51 -25 47 -22 0
34965 44 -51 -25 -47 22 0
35030 44 -51 -25 -47 -22 0
708 -44 51 25 47 22 0
5912 -44 51 25 47 -22 0
30196 -44 51 25 -47 22 0
30977 -44 51 25 -47 -22 0
6953 -44 51 -25 47 22 0
11220 -44 51 -25 47 -22 0
31133 -44 51 -25 -47 22 0
31773 -44 51 -25 -47 -22 0
31931 -44 -51 25 47 22 0
32451 -44 -51 25 47 -22 0
34880 -44 -51 25 -47 22 0
34958 -44 -51 25 -47 -22 0
32555 -44 -51 -25 47 22 0
32982 -44 -51 -25 47 -22 0
34973 -44 -51 -25 -47 22 0
35037 -44 -51 -25 -47 -22 0
11380 -41 0
11550 -33 0
1252 -26 0
45520 53 48 27 45 34 -42 0
45520 53 48 27 45 -34 42 0
54624 53 48 27 45 -34 -42 0
21622 53 48 27 -45 34 42 0
49844 53 48 27 -45 34 -42 0
49844 53 48 27 -45 -34 42 0
55489 53 48 27 -45 -34 -42 0
11380 53 48 -27 45 34 42 0
47796 53 48 -27 45 34 -42 0
47796 53 48 -27 45 -34 42 0
55079 53 48 -27 45 -34 -42 0
28678 53 48 -27 -45 34 42 0
51256 53 48 -27 -45 34 -42 0
51256 53 48 -27 -45 -34 42 0
55771 53 48 -27 -45 -34 -42 0
22760 53 -48 27 45 34 42 0
50072 53 -48 27 45 34 -42 0
50072 53 -48 27 45 -34 42 0
55534 53 -48 27 45 -34 -42 0
35733 53 -48 27 -45 34 42 0
52667 53 -48 27 -45 34 -42 0
52667 53 -48 27 -45 -34 42 0
56053 53 -48 27 -45 -34 -42 0
29588 53 -48 -27 45 34 42 0
51438 53 -48 -27 45 34 -42 0
51438 53 -48 -27 45 -34 42 0
55808 53 -48 -27 45 -34 -42 0
39967 53 -48 -27 -45 34 42 0
53513 53 -48 -27 -45 34 -42 0
53513 53 -48 -27 -45 -34 42 0
56223 53 -48 -27 -45 -34 -42 0
28450 -53 48 27 45 34 42 0
51210 -53 48 27 45 34 -42 0
51210 -53 48 27 45 -34 42 0
55762 -53 48 27 45 -34 -42 0
39261 -53 48 27 -45 34 42 0
53372 -53 48 27 -45 34 -42 0
53372 -53 48 27 -45 -34 42 0
56194 -53 48 27 -45 -34 -42 0
34140 -53 48 -27 45 34 42 0
52348 -53 48 -27 45 34 -42 0
52348 -53 48 -27 45 -34 42 0
55990 -53 48 -27 45 -34 -42 0
42789 -53 48 -27 -45 34 42 0
54078 -53 48 -27 -45 34 -42 0
54078 -53 48 -27 -45 -34 42 0
56336 -53 48 -27 -45 -34 -42 0
39830 -53 -48 27 45 34 42 0
53486 -53 -48 27 45 34 -42 0
53486 -53 -48 27 45 -34 42 0
56217 -53 -48 27 45 -34 -42 0
46317 -53 -48 27 -45 34 42 0
54783 -53 -48 27 -45 34 -42 0
54783 -53 -48 27 -45 -34 42 0
56477 -53 -48 27 -45 -34 -42 0
43244 -53 -48 -27 45 34 42 0
54169 -53 -48 -27 45 34 -42 0
54169 -53 -48 -27 45 -34 42 0
56354 -53 -48 -27 45 -34 -42 0
48433 -53 -48 -27 -45 34 42 0
55207 -53 -48 -27 -45 34 -42 0
55207 -53 -48 -27 -45 -34 42 0
56561 -53 -48 -27 -45 -34 -42 0
14160 19 -46 0
24780 -19 46 0
29028 -19 -46 0
11600 28 31 52 -29 0
20300 28 31 -52 29 0
23780 28 31 -52 -29 0
15950 28 -31 52 29 0
21170 28 -31 52 -29 0
25085 28 -31 -52 29 0
26651 28 -31 -52 -29 0
26100 -28 31 52 29 0
27260 -28 31 52 -29 0
28130 -28 31 -52 29 0
28478 -28 31 -52 -29 0
27695 -28 -31 52 29 0
28217 -28 -31 52 -29 0
28609 -28 -31 -52 29 0
28765 -28 -31 -52 -29 0
10780 54 30 -32 0
3080 54 -30 32 0
11704 54 -30 -32 0
6160 -54 30 32 0
12628 -54 30 -32 0
8008 -54 -30 32 0
13182 -54 -30 -32 0
