p wcnf 64 207 1000000
1000000 1 0
1000000 2 -15 0
1000000 15 -46 -1 0
1000000 3 -16 0
1000000 16 -49 -45 -50 -1 0
1000000 5 -17 0
1000000 17 -48 -52 -51 -1 0
1000000 6 -18 0
1000000 18 -57 -56 -1 0
1000000 7 -19 0
1000000 19 -47 -1 0
1000000 12 -20 0
1000000 20 -55 -54 -2 0
1000000 4 -21 0
1000000 21 -45 -47 -2 0
1000000 9 -22 0
1000000 22 -46 -52 -53 -2 0
1000000 12 -23 0
1000000 23 -51 -49 -11 0
1000000 13 -24 0
1000000 24 -58 -11 0
1000000 4 -25 0
1000000 25 -59 -50 -56 -3 0
1000000 5 -26 0
1000000 26 -58 -54 -53 -3 0
1000000 10 -27 0
1000000 27 -48 -55 -47 -3 0
1000000 13 -28 0
1000000 28 -57 -4 0
1000000 6 -29 0
1000000 29 -59 -45 -48 -4 0
1000000 11 -30 0
1000000 30 -50 -49 -55 -5 0
1000000 14 -31 0
1000000 31 -46 -52 -5 0
1000000 6 -32 0
1000000 32 -58 -59 -46 -5 0
1000000 7 -33 0
1000000 33 -54 -56 -5 0
1000000 8 -34 0
1000000 34 -51 -6 0
1000000 9 -35 0
1000000 35 -57 -48 -6 0
1000000 10 -36 0
1000000 36 -47 -6 0
1000000 12 -37 0
1000000 37 -55 -51 -50 -7 0
1000000 13 -38 0
1000000 38 -49 -53 -7 0
1000000 8 -39 0
1000000 39 -56 -57 -7 0
1000000 14 -40 0
1000000 40 -59 -45 -8 0
1000000 9 -41 0
1000000 41 -49 -58 -45 -8 0
1000000 12 -42 0
1000000 42 -52 -9 0
1000000 14 -43 0
1000000 43 -48 -52 -47 -9 0
1000000 13 -44 0
1000000 44 -50 -46 -10 0
1000000 1 0
1000000 -2 15 0
1000000 -3 16 0
1000000 -4 21 25 0
1000000 -5 17 26 0
1000000 -6 32 18 29 0
1000000 -7 19 33 0
1000000 -8 34 39 0
1000000 -9 35 41 22 0
1000000 -10 27 36 0
1000000 -11 30 0
1000000 -12 37 42 23 20 0
1000000 -13 38 28 44 24 0
1000000 -14 40 43 31 0
1000000 45 60 0
1000000 46 63 0
1000000 47 60 0
1000000 48 62 0
1000000 49 61 0
1000000 50 60 0
1000000 51 61 0
1000000 52 63 0
1000000 53 61 0
1000000 54 62 0
1000000 55 64 0
1000000 56 62 0
1000000 57 64 0
1000000 58 64 0
1000000 59 63 0
1000000 -45 -60 0
1000000 -46 -63 0
1000000 -47 -60 0
1000000 -48 -62 0
1000000 -49 -61 0
1000000 -50 -60 0
1000000 -51 -61 0
1000000 -52 -63 0
1000000 -53 -61 0
1000000 -54 -62 0
1000000 -55 -64 0
1000000 -56 -62 0
1000000 -57 -64 0
1000000 -58 -64 0
1000000 -59 -63 0
12600 -60 0
10100 -61 0
11600 -62 0
13200 -63 0
13200 -64 0
2300 45 0
2500 46 0
2500 47 0
2500 48 0
2000 49 0
2800 50 0
2300 51 0
2300 52 0
2300 53 0
2500 54 0
1800 55 0
2500 56 0
2500 57 0
2800 58 0
2500 59 0
24750 -15 0
5950 -16 0
59360 21 -25 0
15264 -21 25 0
63939 -21 -25 0
4300 17 -26 0
5375 -17 26 0
8600 -17 -26 0
44550 32 18 -29 0
14850 32 -18 29 0
46035 32 -18 -29 0
47025 -32 18 29 0
49252 -32 18 -29 0
47768 -32 -18 29 0
49327 -32 -18 -29 0
12900 19 -33 0
3870 -19 33 0
14448 -19 -33 0
44400 34 -39 0
7104 -34 39 0
46176 -34 -39 0
17255 35 41 -22 0
6496 35 -41 22 0
18229 35 -41 -22 0
16240 -35 41 22 0
19691 -35 41 -22 0
17539 -35 -41 22 0
19886 -35 -41 -22 0
19285 27 -36 0
11165 -27 36 0
19843 -27 -36 0
4060 -30 0
1015 37 42 23 -20 0
19285 37 42 -23 20 0
19336 37 42 -23 -20 0
1015 37 -42 23 20 0
1979 37 -42 23 -20 0
19336 37 -42 -23 20 0
19384 37 -42 -23 -20 0
17255 -37 42 23 20 0
17407 -37 42 23 -20 0
20148 -37 42 -23 20 0
20155 -37 42 -23 -20 0
17407 -37 -42 23 20 0
17552 -37 -42 23 -20 0
20155 -37 -42 -23 20 0
20163 -37 -42 -23 -20 0
32560 38 28 44 -24 0
47360 38 28 -44 24 0
53872 38 28 -44 -24 0
1184 38 -28 44 24 0
33093 38 -28 44 -24 0
47597 38 -28 -44 24 0
53979 38 -28 -44 -24 0
56240 -38 28 44 24 0
57868 -38 28 44 -24 0
58608 -38 28 -44 24 0
58934 -38 28 -44 -24 0
56299 -38 -28 44 24 0
57895 -38 -28 44 -24 0
58620 -38 -28 -44 24 0
58939 -38 -28 -44 -24 0
16705 40 43 -31 0
3855 40 -43 31 0
18054 40 -43 -31 0
19275 -40 43 31 0
23451 -40 43 -31 0
20239 -40 -43 31 0
23789 -40 -43 -31 0
