p wcnf 81 275 1000000
1000000 1 0
1000000 2 -18 0
1000000 18 -59 -1 0
1000000 3 -19 0
1000000 19 -60 -65 -1 0
1000000 5 -20 0
1000000 20 -62 -1 0
1000000 6 -21 0
1000000 21 -64 -1 0
1000000 8 -22 0
1000000 22 -69 -63 -1 0
1000000 10 -23 0
1000000 23 -70 -71 -1 0
1000000 12 -24 0
1000000 24 -61 -2 0
1000000 14 -25 0
1000000 25 -67 -2 0
1000000 15 -26 0
1000000 26 -66 -2 0
1000000 5 -27 0
1000000 27 -62 -68 -61 -2 0
1000000 7 -28 0
1000000 28 -73 -2 0
1000000 9 -29 0
1000000 29 -66 -64 -74 -2 0
1000000 13 -30 0
1000000 30 -59 -11 0
1000000 16 -31 0
1000000 31 -63 -75 -72 -11 0
1000000 17 -32 0
1000000 32 -71 -60 -72 -11 0
1000000 16 -33 0
1000000 33 -67 -69 -12 0
1000000 14 -34 0
1000000 34 -70 -13 0
1000000 16 -35 0
1000000 35 -61 -65 -75 -13 0
1000000 17 -36 0
1000000 36 -74 -16 0
1000000 11 -37 0
1000000 37 -68 -59 -63 -3 0
1000000 12 -38 0
1000000 38 -62 -3 0
1000000 13 -39 0
1000000 39 -73 -64 -69 -3 0
1000000 4 -40 0
1000000 40 -60 -3 0
1000000 6 -41 0
1000000 41 -70 -67 -3 0
1000000 7 -42 0
1000000 42 -74 -68 -65 -3 0
1000000 9 -43 0
1000000 43 -71 -3 0
1000000 5 -44 0
1000000 44 -73 -4 0
1000000 6 -45 0
1000000 45 -59 -66 -4 0
1000000 8 -46 0
1000000 46 -63 -75 -4 0
1000000 6 -47 0
1000000 47 -68 -61 -62 -5 0
1000000 9 -48 0
1000000 48 -72 -5 0
1000000 15 -49 0
1000000 49 -64 -6 0
1000000 10 -50 0
1000000 50 -66 -6 0
1000000 8 -51 0
1000000 51 -67 -7 0
1000000 9 -52 0
1000000 52 -60 -7 0
1000000 12 -53 0
1000000 53 -70 -8 0
1000000 10 -54 0
1000000 54 -69 -8 0
1000000 11 -55 0
1000000 55 -71 -65 -73 -9 0
1000000 13 -56 0
1000000 56 -61 -74 -63 -9 0
1000000 11 -57 0
1000000 57 -59 -10 0
1000000 12 -58 0
1000000 58 -75 -60 -67 -10 0
1000000 1 0
1000000 -2 18 0
1000000 -3 19 0
1000000 -4 40 0
1000000 -5 27 44 20 0
1000000 -6 41 47 21 45 0
1000000 -7 28 42 0
1000000 -8 51 46 22 0
1000000 -9 43 52 29 48 0
1000000 -10 23 50 54 0
1000000 -11 57 55 37 0
1000000 -12 58 53 38 24 0
1000000 -13 39 56 30 0
1000000 -14 25 34 0
1000000 -15 49 26 0
1000000 -16 31 35 33 0
1000000 -17 32 36 0
1000000 59 77 0
1000000 60 81 0
1000000 61 76 0
1000000 62 78 0
1000000 63 76 0
1000000 64 78 0
1000000 65 78 0
1000000 66 80 0
1000000 67 80 0
1000000 68 80 0
1000000 69 77 0
1000000 70 77 0
1000000 71 76 0
1000000 72 81 0
1000000 73 79 0
1000000 74 79 0
1000000 75 81 0
1000000 -59 -77 0
1000000 -60 -81 0
1000000 -61 -76 0
1000000 -62 -78 0
1000000 -63 -76 0
1000000 -64 -78 0
1000000 -65 -78 0
1000000 -66 -80 0
1000000 -67 -80 0
1000000 -68 -80 0
1000000 -69 -77 0
1000000 -70 -77 0
1000000 -71 -76 0
1000000 -72 -81 0
1000000 -73 -79 0
1000000 -74 -79 0
1000000 -75 -81 0
8400 -76 0
8000 -77 0
8400 -78 0
8000 -79 0
7100 -80 0
8000 -81 0
800 59 0
2300 60 0
1800 61 0
1800 62 0
800 63 0
1400 64 0
1400 65 0
1800 66 0
1400 67 0
1800 68 0
2300 69 0
1800 70 0
2600 71 0
600 72 0
800 73 0
1400 74 0
1800 75 0
17935 -18 0
4200 -19 0
3625 -40 0
13715 27 44 -20 0
3165 27 -44 20 0
14823 27 -44 -20 0
12660 -27 44 20 0
18146 -27 44 -20 0
13926 -27 -44 20 0
18589 -27 -44 -20 0
62460 41 47 21 -45 0
38170 41 47 -21 45 0
66277 41 47 -21 -45 0
8328 41 -47 21 45 0
63293 41 -47 21 -45 0
41918 41 -47 -21 45 0
66652 41 -47 -21 -45 0
10410 -41 47 21 45 0
63501 -41 47 21 -45 0
42855 -41 47 -21 45 0
66745 -41 47 -21 -45 0
17489 -41 -47 21 45 0
64209 -41 -47 21 -45 0
46040 -41 -47 -21 45 0
67064 -41 -47 -21 -45 0
6930 28 -42 0
12474 -28 42 0
18157 -28 -42 0
47520 51 46 -22 0
14850 51 -46 22 0
50490 51 -46 -22 0
38610 -51 46 22 0
55242 -51 46 -22 0
43808 -51 -46 22 0
56282 -51 -46 -22 0
2470 43 52 29 -48 0
1235 43 52 -29 48 0
3582 43 52 -29 -48 0
22230 43 -52 29 48 0
22477 43 -52 29 -48 0
22353 43 -52 -29 48 0
22588 43 -52 -29 -48 0
494 -43 52 29 48 0
2915 -43 52 29 -48 0
1704 -43 52 -29 48 0
4004 -43 52 -29 -48 0
22279 -43 -52 29 48 0
22521 -43 -52 29 -48 0
22400 -43 -52 -29 48 0
22630 -43 -52 -29 -48 0
49760 23 50 -54 0
46650 23 -50 54 0
59090 23 -50 -54 0
9330 -23 50 54 0
51626 -23 50 -54 0
48982 -23 -50 54 0
59557 -23 -50 -54 0
7350 57 55 -37 0
6370 57 -55 37 0
8942 57 -55 -37 0
6370 -57 55 37 0
8942 -57 55 -37 0
8600 -57 -55 37 0
9500 -57 -55 -37 0
2450 58 53 38 -24 0
4900 58 53 -38 24 0
6125 58 53 -38 -24 0
4410 58 -53 38 24 0
5757 58 -53 38 -24 0
7105 58 -53 -38 24 0
7779 58 -53 -38 -24 0
1960 -58 53 38 24 0
3920 -58 53 38 -24 0
5880 -58 53 -38 24 0
6860 -58 53 -38 -24 0
5488 -58 -53 38 24 0
6566 -58 -53 38 -24 0
7644 -58 -53 -38 24 0
8183 -58 -53 -38 -24 0
16055 39 56 -30 0
13585 39 -56 30 0
20810 39 -56 -30 0
2470 -39 56 30 0
16920 -39 56 -30 0
14697 -39 -56 30 0
21199 -39 -56 -30 0
12350 25 -34 0
3705 -25 34 0
14202 -25 -34 0
4446 49 -26 0
13585 -49 26 0
15586 -49 -26 0
11985 31 35 -33 0
14382 31 -35 33 0
24210 31 -35 -33 0
31960 -31 35 33 0
39151 -31 35 -33 0
40589 -31 -35 33 0
46486 -31 -35 -33 0
2160 32 -36 0
540 -32 36 0
2592 -32 -36 0
