p wcnf 70 273 1000000
1000000 1 0
1000000 2 -17 0
1000000 17 -51 -1 0
1000000 12 -18 0
1000000 18 -54 -60 -53 -1 0
1000000 3 -19 0
1000000 19 -56 -1 0
1000000 4 -20 0
1000000 20 -52 -1 0
1000000 6 -21 0
1000000 21 -64 -59 -62 -1 0
1000000 12 -22 0
1000000 22 -52 -53 -57 -2 0
1000000 14 -23 0
1000000 23 -58 -2 0
1000000 12 -24 0
1000000 24 -55 -54 -58 -11 0
1000000 15 -25 0
1000000 25 -65 -51 -55 -11 0
1000000 13 -26 0
1000000 26 -63 -60 -12 0
1000000 16 -27 0
1000000 27 -56 -62 -15 0
1000000 12 -28 0
1000000 28 -61 -3 0
1000000 13 -29 0
1000000 29 -61 -57 -59 -3 0
1000000 5 -30 0
1000000 30 -51 -64 -3 0
1000000 8 -31 0
1000000 31 -63 -54 -3 0
1000000 10 -32 0
1000000 32 -57 -55 -3 0
1000000 12 -33 0
1000000 33 -65 -4 0
1000000 16 -34 0
1000000 34 -56 -4 0
1000000 15 -35 0
1000000 35 -59 -61 -5 0
1000000 6 -36 0
1000000 36 -53 -64 -51 -5 0
1000000 7 -37 0
1000000 37 -62 -52 -5 0
1000000 8 -38 0
1000000 38 -53 -52 -5 0
1000000 9 -39 0
1000000 39 -57 -56 -55 -5 0
1000000 11 -40 0
1000000 40 -63 -6 0
1000000 7 -41 0
1000000 41 -65 -6 0
1000000 8 -42 0
1000000 42 -54 -6 0
1000000 15 -43 0
1000000 43 -58 -60 -7 0
1000000 16 -44 0
1000000 44 -60 -7 0
1000000 13 -45 0
1000000 45 -58 -64 -8 0
1000000 16 -46 0
1000000 46 -62 -8 0
1000000 13 -47 0
1000000 47 -52 -55 -61 -9 0
1000000 16 -48 0
1000000 48 -59 -9 0
1000000 11 -49 0
1000000 49 -65 -10 0
1000000 13 -50 0
1000000 50 -56 -58 -59 -10 0
1000000 1 0
1000000 -2 17 0
1000000 -3 19 0
1000000 -4 20 0
1000000 -5 30 0
1000000 -6 36 21 0
1000000 -7 41 37 0
1000000 -8 31 42 38 0
1000000 -9 39 0
1000000 -10 32 0
1000000 -11 40 49 0
1000000 -12 28 22 18 33 24 0
1000000 -13 47 50 45 29 26 0
1000000 -14 23 0
1000000 -15 35 25 43 0
1000000 -16 44 27 34 48 46 0
1000000 51 68 0
1000000 52 68 0
1000000 53 70 0
1000000 54 69 0
1000000 55 68 0
1000000 56 66 0
1000000 57 70 0
1000000 58 67 0
1000000 59 69 0
1000000 60 67 0
1000000 61 70 0
1000000 62 67 0
1000000 63 69 0
1000000 64 66 0
1000000 65 66 0
1000000 -51 -68 0
1000000 -52 -68 0
1000000 -53 -70 0
1000000 -54 -69 0
1000000 -55 -68 0
1000000 -56 -66 0
1000000 -57 -70 0
1000000 -58 -67 0
1000000 -59 -69 0
1000000 -60 -67 0
1000000 -61 -70 0
1000000 -62 -67 0
1000000 -63 -69 0
1000000 -64 -66 0
1000000 -65 -66 0
10100 -66 0
13700 -67 0
8400 -68 0
9900 -69 0
9500 -70 0
1200 51 0
1200 52 0
2200 53 0
3400 54 0
2200 55 0
2200 56 0
800 57 0
2200 58 0
3200 59 0
2200 60 0
1200 61 0
1200 62 0
1000 63 0
3200 64 0
800 65 0
22368 -17 0
28710 -19 0
5832 -20 0
36855 -30 0
34510 36 -21 0
32045 -36 21 0
44124 -36 -21 0
11500 41 -37 0
10350 -41 37 0
19780 -41 -37 0
14840 31 42 -38 0
25970 31 -42 38 0
35616 31 -42 -38 0
40810 -31 42 38 0
47488 -31 42 -38 0
52497 -31 -42 38 0
56837 -31 -42 -38 0
4490 -39 0
29680 -32 0
31705 40 -49 0
27975 -40 49 0
35901 -40 -49 0
15776 28 22 18 33 -24 0
18734 28 22 18 -33 24 0
28515 28 22 18 -33 -24 0
29580 28 22 -18 33 24 0
35890 28 22 -18 33 -24 0
37074 28 22 -18 -33 24 0
40986 28 22 -18 -33 -24 0
22185 28 -22 18 33 24 0
30862 28 -22 18 33 -24 0
32489 28 -22 18 -33 24 0
37868 28 -22 18 -33 -24 0
38454 28 -22 -18 33 24 0
41925 28 -22 -18 33 -24 0
42575 28 -22 -18 -33 24 0
44727 28 -22 -18 -33 -24 0
7395 -28 22 18 33 24 0
20805 -28 22 18 33 -24 0
23319 -28 22 18 -33 24 0
31633 -28 22 18 -33 -24 0
32538 -28 22 -18 33 24 0
37902 -28 22 -18 33 -24 0
38908 -28 22 -18 -33 24 0
42233 -28 22 -18 -33 -24 0
26252 -28 -22 18 33 24 0
33628 -28 -22 18 33 -24 0
35010 -28 -22 18 -33 24 0
39583 -28 -22 18 -33 -24 0
40081 -28 -22 -18 33 24 0
43031 -28 -22 -18 33 -24 0
43584 -28 -22 -18 -33 24 0
45413 -28 -22 -18 -33 -24 0
17010 47 50 45 29 -26 0
6804 47 50 45 -29 26 0
21773 47 50 45 -29 -26 0
28350 47 50 -45 29 26 0
36855 47 50 -45 29 -26 0
31752 47 50 -45 -29 26 0
39236 47 50 -45 -29 -26 0
2835 47 -50 45 29 26 0
18995 47 -50 45 29 -26 0
9299 47 -50 45 -29 26 0
23519 47 -50 45 -29 -26 0
29768 47 -50 -45 29 26 0
37847 47 -50 -45 29 -26 0
32999 47 -50 -45 -29 26 0
40110 47 -50 -45 -29 -26 0
34020 -47 50 45 29 26 0
40824 -47 50 45 29 -26 0
36742 -47 50 45 -29 26 0
42729 -47 50 45 -29 -26 0
45360 -47 50 -45 29 26 0
48762 -47 50 -45 29 -26 0
46721 -47 50 -45 -29 26 0
49715 -47 50 -45 -29 -26 0
35154 -47 -50 45 29 26 0
41618 -47 -50 45 29 -26 0
37740 -47 -50 45 -29 26 0
43428 -47 -50 45 -29 -26 0
45927 -47 -50 -45 29 26 0
49159 -47 -50 -45 29 -26 0
47220 -47 -50 -45 -29 26 0
50064 -47 -50 -45 -29 -26 0
28196 -23 0
59375 35 25 -43 0
56250 35 -25 43 0
62188 35 -25 -43 0
1250 -35 25 43 0
59438 -35 25 -43 0
56375 -35 -25 43 0
62194 -35 -25 -43 0
51940 44 27 34 48 -46 0
13356 44 27 34 -48 46 0
55947 44 27 34 -48 -46 0
51940 44 27 -34 48 46 0
67522 44 27 -34 48 -46 0
55947 44 27 -34 -48 46 0
68724 44 27 -34 -48 -46 0
51940 44 -27 34 48 46 0
67522 44 -27 34 48 -46 0
55947 44 -27 34 -48 46 0
68724 44 -27 34 -48 -46 0
67522 44 -27 -34 48 46 0
72197 44 -27 -34 48 -46 0
68724 44 -27 -34 -48 46 0
72557 44 -27 -34 -48 -46 0
33390 -44 27 34 48 46 0
61957 -44 27 34 48 -46 0
40736 -44 27 34 -48 46 0
64161 -44 27 34 -48 -46 0
61957 -44 27 -34 48 46 0
70527 -44 27 -34 48 -46 0
64161 -44 27 -34 -48 46 0
71188 -44 27 -34 -48 -46 0
61957 -44 -27 34 48 46 0
70527 -44 -27 34 48 -46 0
64161 -44 -27 34 -48 46 0
71188 -44 -27 34 -48 -46 0
70527 -44 -27 -34 48 46 0
73098 -44 -27 -34 48 -46 0
71188 -44 -27 -34 -48 46 0
73296 -44 -27 -34 -48 -46 0
