p wcnf 74 234 1000000
1000000 1 0
1000000 2 -17 0
1000000 17 -59 -53 -54 -1 0
1000000 3 -18 0
1000000 18 -58 -52 -63 -1 0
1000000 6 -19 0
1000000 19 -64 -62 -65 -1 0
1000000 8 -20 0
1000000 20 -55 -66 -1 0
1000000 9 -21 0
1000000 21 -57 -68 -53 -1 0
1000000 14 -22 0
1000000 22 -60 -2 0
1000000 3 -23 0
1000000 23 -56 -61 -58 -2 0
1000000 4 -24 0
1000000 24 -54 -2 0
1000000 12 -25 0
1000000 25 -62 -52 -67 -11 0
1000000 14 -26 0
1000000 26 -60 -61 -11 0
1000000 15 -27 0
1000000 27 -64 -63 -11 0
1000000 15 -28 0
1000000 28 -56 -67 -59 -14 0
1000000 16 -29 0
1000000 29 -53 -57 -56 -15 0
1000000 13 -30 0
1000000 30 -66 -3 0
1000000 4 -31 0
1000000 31 -57 -65 -3 0
1000000 5 -32 0
1000000 32 -52 -59 -3 0
1000000 7 -33 0
1000000 33 -60 -55 -3 0
1000000 11 -34 0
1000000 34 -68 -4 0
1000000 12 -35 0
1000000 35 -54 -63 -4 0
1000000 5 -36 0
1000000 36 -61 -58 -4 0
1000000 6 -37 0
1000000 37 -55 -4 0
1000000 9 -38 0
1000000 38 -52 -53 -64 -4 0
1000000 14 -39 0
1000000 39 -66 -5 0
1000000 15 -40 0
1000000 40 -68 -65 -5 0
1000000 6 -41 0
1000000 41 -56 -62 -54 -5 0
1000000 10 -42 0
1000000 42 -58 -61 -57 -5 0
1000000 7 -43 0
1000000 43 -67 -62 -63 -6 0
1000000 9 -44 0
1000000 44 -59 -6 0
1000000 10 -45 0
1000000 45 -66 -65 -6 0
1000000 11 -46 0
1000000 46 -60 -7 0
1000000 16 -47 0
1000000 47 -67 -53 -64 -7 0
1000000 12 -48 0
1000000 48 -54 -60 -52 -8 0
1000000 16 -49 0
1000000 49 -68 -8 0
1000000 11 -50 0
1000000 50 -56 -59 -10 0
1000000 12 -51 0
1000000 51 -55 -61 -10 0
1000000 1 0
1000000 -2 17 0
1000000 -3 18 23 0
1000000 -4 24 31 0
1000000 -5 36 32 0
1000000 -6 19 41 37 0
1000000 -7 33 43 0
1000000 -8 20 0
1000000 -9 44 21 38 0
1000000 -10 42 45 0
1000000 -11 50 34 46 0
1000000 -12 48 25 35 51 0
1000000 -13 30 0
1000000 -14 26 22 39 0
1000000 -15 27 40 28 0
1000000 -16 49 29 47 0
1000000 52 70 0
1000000 53 69 0
1000000 54 71 0
1000000 55 73 0
1000000 56 74 0
1000000 57 71 0
1000000 58 74 0
1000000 59 74 0
1000000 60 70 0
1000000 61 70 0
1000000 62 72 0
1000000 63 73 0
1000000 64 72 0
1000000 65 72 0
1000000 66 69 0
1000000 67 73 0
1000000 68 71 0
1000000 -52 -70 0
1000000 -53 -69 0
1000000 -54 -71 0
1000000 -55 -73 0
1000000 -56 -74 0
1000000 -57 -71 0
1000000 -58 -74 0
1000000 -59 -74 0
1000000 -60 -70 0
1000000 -61 -70 0
1000000 -62 -72 0
1000000 -63 -73 0
1000000 -64 -72 0
1000000 -65 -72 0
1000000 -66 -69 0
1000000 -67 -73 0
1000000 -68 -71 0
13900 -69 0
13200 -70 0
12700 -71 0
13700 -72 0
13700 -73 0
12700 -74 0
800 52 0
800 53 0
1700 54 0
3300 55 0
800 56 0
3300 57 0
3300 58 0
3300 59 0
3000 60 0
3300 61 0
800 62 0
1700 63 0
3800 64 0
1700 65 0
2000 66 0
1600 67 0
3300 68 0
820 -17 0
2540 18 -23 0
12700 -18 23 0
14605 -18 -23 0
15328 24 -31 0
38320 -24 31 0
41386 -24 -31 0
5748 36 -32 0
38320 -36 32 0
39470 -36 -32 0
11060 19 41 -37 0
3950 19 -41 37 0
12245 19 -41 -37 0
7900 -19 41 37 0
13430 -19 41 -37 0
9875 -19 -41 37 0
14022 -19 -41 -37 0
35925 33 -43 0
8622 -33 43 0
38080 -33 -43 0
9378 -20 0
13430 44 21 -38 0
3160 44 -21 38 0
13904 44 -21 -38 0
4740 -44 21 38 0
14141 -44 21 -38 0
6952 -44 -21 38 0
14473 -44 -21 -38 0
21555 42 -45 0
7185 -42 45 0
25507 -42 -45 0
32650 50 34 -46 0
20896 50 -34 46 0
43098 50 -34 -46 0
11754 -50 34 46 0
38527 -50 34 -46 0
28889 -50 -34 46 0
47094 -50 -34 -46 0
18240 48 25 35 -51 0
15200 48 25 -35 51 0
28880 48 25 -35 -51 0
18240 48 -25 35 51 0
31008 48 -25 35 -51 0
28880 48 -25 -35 51 0
38456 48 -25 -35 -51 0
54720 -48 25 35 51 0
56544 -48 25 35 -51 0
56240 -48 25 -35 51 0
57608 -48 25 -35 -51 0
56544 -48 -25 35 51 0
57821 -48 -25 35 -51 0
57608 -48 -25 -35 51 0
58566 -48 -25 -35 -51 0
39710 -30 0
10450 26 22 -39 0
10450 26 -22 39 0
18288 26 -22 -39 0
8360 -26 22 39 0
16720 -26 22 -39 0
16720 -26 -22 39 0
22990 -26 -22 -39 0
16750 27 40 -28 0
53600 27 -40 28 0
56950 27 -40 -28 0
56950 -27 40 28 0
59462 -27 40 -28 0
64990 -27 -40 28 0
65493 -27 -40 -28 0
13376 49 29 -47 0
836 49 -29 47 0
13944 49 -29 -47 0
15884 -49 29 47 0
24177 -49 29 -47 0
16402 -49 -29 47 0
24530 -49 -29 -47 0
