p wcnf 71 233 1000000
1000000 1 0
1000000 2 -17 0
1000000 17 -51 -1 0
1000000 15 -18 0
1000000 18 -53 -1 0
1000000 3 -19 0
1000000 19 -60 -56 -50 -1 0
1000000 6 -20 0
1000000 20 -54 -62 -57 -1 0
1000000 7 -21 0
1000000 21 -58 -59 -1 0
1000000 13 -22 0
1000000 22 -65 -52 -2 0
1000000 4 -23 0
1000000 23 -61 -63 -2 0
1000000 14 -24 0
1000000 24 -55 -11 0
1000000 14 -25 0
1000000 25 -56 -64 -50 -12 0
1000000 16 -26 0
1000000 26 -57 -51 -60 -12 0
1000000 16 -27 0
1000000 27 -54 -15 0
1000000 12 -28 0
1000000 28 -62 -61 -64 -3 0
1000000 13 -29 0
1000000 29 -52 -59 -3 0
1000000 15 -30 0
1000000 30 -50 -58 -52 -3 0
1000000 5 -31 0
1000000 31 -53 -3 0
1000000 6 -32 0
1000000 32 -55 -57 -51 -3 0
1000000 9 -33 0
1000000 33 -63 -54 -3 0
1000000 11 -34 0
1000000 34 -60 -62 -58 -4 0
1000000 16 -35 0
1000000 35 -59 -64 -50 -4 0
1000000 5 -36 0
1000000 36 -53 -4 0
1000000 12 -37 0
1000000 37 -55 -5 0
1000000 15 -38 0
1000000 38 -56 -5 0
1000000 7 -39 0
1000000 39 -61 -53 -6 0
1000000 8 -40 0
1000000 40 -51 -6 0
1000000 10 -41 0
1000000 41 -65 -6 0
1000000 12 -42 0
1000000 42 -65 -7 0
1000000 13 -43 0
1000000 43 -57 -63 -7 0
1000000 9 -44 0
1000000 44 -55 -61 -58 -7 0
1000000 12 -45 0
1000000 45 -60 -56 -64 -8 0
1000000 9 -46 0
1000000 46 -50 -51 -53 -8 0
1000000 14 -47 0
1000000 47 -52 -65 -62 -9 0
1000000 15 -48 0
1000000 48 -52 -63 -59 -9 0
1000000 14 -49 0
1000000 49 -57 -56 -10 0
1000000 1 0
1000000 -2 17 0
1000000 -3 19 0
1000000 -4 23 0
1000000 -5 31 36 0
1000000 -6 32 20 0
1000000 -7 39 21 0
1000000 -8 40 0
1000000 -9 44 33 46 0
1000000 -10 41 0
1000000 -11 34 0
1000000 -12 28 37 42 45 0
1000000 -13 43 22 29 0
1000000 -14 24 47 25 49 0
1000000 -15 18 30 48 38 0
1000000 -16 27 35 26 0
1000000 50 68 0
1000000 51 66 0
1000000 52 71 0
1000000 53 69 0
1000000 54 69 0
1000000 55 67 0
1000000 56 71 0
1000000 57 71 0
1000000 58 66 0
1000000 59 68 0
1000000 60 70 0
1000000 61 66 0
1000000 62 69 0
1000000 63 68 0
1000000 64 70 0
1000000 65 67 0
1000000 -50 -68 0
1000000 -51 -66 0
1000000 -52 -71 0
1000000 -53 -69 0
1000000 -54 -69 0
1000000 -55 -67 0
1000000 -56 -71 0
1000000 -57 -71 0
1000000 -58 -66 0
1000000 -59 -68 0
1000000 -60 -70 0
1000000 -61 -66 0
1000000 -62 -69 0
1000000 -63 -68 0
1000000 -64 -70 0
1000000 -65 -67 0
13300 -66 0
8100 -67 0
13300 -68 0
13600 -69 0
13000 -70 0
12300 -71 0
3700 50 0
3700 51 0
3300 52 0
3300 53 0
2200 54 0
3700 55 0
3300 56 0
2400 57 0
2500 58 0
2400 59 0
2400 60 0
2500 61 0
3300 62 0
2200 63 0
1900 64 0
3000 65 0
9920 -17 0
3150 -19 0
29400 -23 0
3550 31 -36 0
12070 -31 36 0
12602 -31 -36 0
17360 32 -20 0
32240 -32 20 0
38316 -32 -20 0
22320 39 -21 0
32240 -39 21 0
40052 -39 -21 0
62910 -40 0
2890 44 33 -46 0
31790 44 -33 46 0
33091 44 -33 -46 0
20230 -44 33 46 0
22109 -44 33 -46 0
40894 -44 -33 46 0
41739 -44 -33 -46 0
7350 -41 0
50050 -34 0
31790 28 37 42 -45 0
17340 28 37 -42 45 0
39593 28 37 -42 -45 0
6936 28 -37 42 45 0
34911 28 -37 42 -45 0
22195 28 -37 -42 45 0
41778 28 -37 -42 -45 0
28900 -28 37 42 45 0
44795 -28 37 42 -45 0
37570 -28 37 -42 45 0
48697 -28 37 -42 -45 0
32368 -28 -37 42 45 0
46356 -28 -37 42 -45 0
39998 -28 -37 -42 45 0
49789 -28 -37 -42 -45 0
40425 43 22 -29 0
3675 43 -22 29 0
42079 43 -22 -29 0
36750 -43 22 29 0
56962 -43 22 -29 0
38588 -43 -22 29 0
57789 -43 -22 -29 0
61600 24 47 25 -49 0
11550 24 47 -25 49 0
63910 24 47 -25 -49 0
7700 24 -47 25 49 0
63140 24 -47 25 -49 0
18095 24 -47 -25 49 0
65219 24 -47 -25 -49 0
7700 -24 47 25 49 0
63140 -24 47 25 -49 0
18095 -24 47 -25 49 0
65219 -24 47 -25 -49 0
14630 -24 -47 25 49 0
64526 -24 -47 25 -49 0
23985 -24 -47 -25 49 0
66397 -24 -47 -25 -49 0
11165 18 30 48 -38 0
6496 18 30 -48 38 0
14088 18 30 -48 -38 0
1015 18 -30 48 38 0
11622 18 -30 48 -38 0
7186 18 -30 -48 38 0
14399 18 -30 -48 -38 0
1015 -18 30 48 38 0
11622 -18 30 48 -38 0
7186 -18 30 -48 38 0
14399 -18 30 -48 -38 0
1979 -18 -30 48 38 0
12056 -18 -30 48 -38 0
7842 -18 -30 -48 38 0
14694 -18 -30 -48 -38 0
22368 27 35 -26 0
27960 27 -35 26 0
41381 27 -35 -26 0
3495 -27 35 26 0
24745 -27 35 -26 0
30057 -27 -35 26 0
42807 -27 -35 -26 0
