p wcnf 56 175 1000000
1000000 1 0
1000000 2 -15 0
1000000 15 -41 -1 0
1000000 3 -16 0
1000000 16 -44 -1 0
1000000 4 -17 0
1000000 17 -42 -43 -1 0
1000000 5 -18 0
1000000 18 -46 -1 0
1000000 6 -19 0
1000000 19 -47 -48 -1 0
1000000 8 -20 0
1000000 20 -44 -51 -49 -1 0
1000000 13 -21 0
1000000 21 -41 -52 -2 0
1000000 4 -22 0
1000000 22 -45 -2 0
1000000 5 -23 0
1000000 23 -51 -43 -46 -2 0
1000000 12 -24 0
1000000 24 -45 -11 0
1000000 4 -25 0
1000000 25 -47 -50 -43 -3 0
1000000 5 -26 0
1000000 26 -42 -3 0
1000000 6 -27 0
1000000 27 -42 -44 -49 -3 0
1000000 14 -28 0
1000000 28 -48 -4 0
1000000 6 -29 0
1000000 29 -41 -4 0
1000000 14 -30 0
1000000 30 -46 -52 -5 0
1000000 6 -31 0
1000000 31 -45 -5 0
1000000 11 -32 0
1000000 32 -51 -43 -41 -6 0
1000000 7 -33 0
1000000 33 -47 -6 0
1000000 13 -34 0
1000000 34 -47 -52 -44 -7 0
1000000 9 -35 0
1000000 35 -41 -45 -52 -7 0
1000000 10 -36 0
1000000 36 -50 -42 -7 0
1000000 11 -37 0
1000000 37 -50 -8 0
1000000 14 -38 0
1000000 38 -50 -46 -8 0
1000000 10 -39 0
1000000 39 -42 -49 -8 0
1000000 10 -40 0
1000000 40 -43 -49 -9 0
1000000 1 0
1000000 -2 15 0
1000000 -3 16 0
1000000 -4 22 17 25 0
1000000 -5 18 23 26 0
1000000 -6 31 19 27 29 0
1000000 -7 33 0
1000000 -8 20 0
1000000 -9 35 0
1000000 -10 40 39 36 0
1000000 -11 37 32 0
1000000 -12 24 0
1000000 -13 34 21 0
1000000 -14 30 38 28 0
1000000 41 56 0
1000000 42 53 0
1000000 43 53 0
1000000 44 56 0
1000000 45 53 0
1000000 46 55 0
1000000 47 54 0
1000000 48 54 0
1000000 49 56 0
1000000 50 55 0
1000000 51 55 0
1000000 52 54 0
1000000 -41 -56 0
1000000 -42 -53 0
1000000 -43 -53 0
1000000 -44 -56 0
1000000 -45 -53 0
1000000 -46 -55 0
1000000 -47 -54 0
1000000 -48 -54 0
1000000 -49 -56 0
1000000 -50 -55 0
1000000 -51 -55 0
1000000 -52 -54 0
13000 -53 0
11100 -54 0
9900 -55 0
8000 -56 0
2600 41 0
1700 42 0
1300 43 0
3600 44 0
1700 45 0
2600 46 0
1300 47 0
2600 48 0
2600 49 0
1300 50 0
1300 51 0
1000 52 0
7920 -15 0
34860 -16 0
8715 22 17 -25 0
29050 22 -17 25 0
33407 22 -17 -25 0
18592 -22 17 25 0
24518 -22 17 -25 0
38346 -22 -17 25 0
41309 -22 -17 -25 0
8940 18 23 -26 0
2980 18 -23 26 0
11473 18 -23 -26 0
35760 -18 23 26 0
39336 -18 23 -26 0
36952 -18 -23 26 0
40349 -18 -23 -26 0
11880 31 19 27 -29 0
17820 31 19 -27 29 0
24354 31 19 -27 -29 0
7920 31 -19 27 29 0
17424 31 -19 27 -29 0
22176 31 -19 -27 29 0
27403 31 -19 -27 -29 0
21780 -31 19 27 29 0
27126 -31 19 27 -29 0
29799 -31 19 -27 29 0
32739 -31 19 -27 -29 0
25344 -31 -19 27 29 0
29621 -31 -19 27 -29 0
31759 -31 -19 -27 29 0
34111 -31 -19 -27 -29 0
8352 -33 0
51120 -20 0
69030 -35 0
6960 40 39 -36 0
59160 40 -39 36 0
60204 40 -39 -36 0
8352 -40 39 36 0
14477 -40 39 -36 0
60413 -40 -39 36 0
61332 -40 -39 -36 0
25954 37 -32 0
21856 -37 32 0
39505 -37 -32 0
27995 -24 0
41760 34 -21 0
59160 -34 21 0
65424 -34 -21 0
40980 30 38 -28 0
37565 30 -38 28 0
56006 30 -38 -28 0
8196 -30 38 28 0
44258 -30 38 -28 0
41253 -30 -38 28 0
57481 -30 -38 -28 0
