p wcnf 79 231 1000000
1000000 4 -11 0
1000000 11 -42 -37 -59 -61 0
1000000 8 -12 0
1000000 12 -39 -42 -40 -60 -41 0
1000000 9 -13 0
1000000 13 -39 -44 0
1000000 1 -14 0
1000000 14 -48 -41 -63 -50 0
1000000 2 -15 0
1000000 15 -36 -55 -60 0
1000000 9 -16 0
1000000 16 -46 -49 -37 -59 -51 0
1000000 4 -17 0
1000000 17 -57 -44 -61 0
1000000 6 -18 0
1000000 18 -59 -56 -43 -63 0
1000000 6 -19 0
1000000 19 -61 -53 0
1000000 1 -20 0
1000000 20 -44 -55 0
1000000 5 -21 0
1000000 21 -56 -43 -46 -6 0
1000000 3 -22 0
1000000 22 -46 -36 -60 -44 0
1000000 8 -23 0
1000000 23 -49 -40 0
1000000 3 -24 0
1000000 24 -50 -39 -37 -46 0
1000000 9 -25 0
1000000 25 -58 -41 -42 -47 -35 0
1000000 2 -26 0
1000000 26 -61 -64 -43 -38 0
1000000 10 -27 0
1000000 27 -55 -47 -52 -59 0
1000000 9 -28 0
1000000 28 -44 -53 -62 -57 -10 0
1000000 1 -29 0
1000000 29 -53 -35 -36 0
1000000 2 -30 0
1000000 30 -39 -61 -37 -59 -5 0
1000000 7 -31 0
1000000 31 -47 -37 -59 -51 -46 0
1000000 3 -32 0
1000000 32 -43 -46 -49 0
1000000 5 -33 0
1000000 33 -54 -39 -55 -53 -61 0
1000000 2 -34 0
1000000 34 -58 -60 -6 0
1000000 -1 29 14 20 0
1000000 -2 26 30 34 15 0
1000000 -3 32 24 22 0
1000000 -4 17 11 0
1000000 -5 21 33 0
1000000 -6 18 19 0
1000000 -7 31 0
1000000 -8 23 12 0
1000000 -9 16 25 28 13 0
1000000 -10 27 0
1000000 35 73 0
1000000 36 76 0
1000000 37 79 0
1000000 38 75 0
1000000 39 77 0
1000000 40 74 0
1000000 41 68 0
1000000 42 72 0
1000000 43 78 0
1000000 44 78 0
1000000 45 65 0
1000000 46 68 0
1000000 47 71 0
1000000 48 69 0
1000000 49 79 0
1000000 50 67 0
1000000 51 78 0
1000000 52 67 0
1000000 53 75 0
1000000 54 68 0
1000000 55 72 0
1000000 56 69 0
1000000 57 66 0
1000000 58 71 0
1000000 59 70 0
1000000 60 74 0
1000000 61 77 0
1000000 62 70 0
1000000 63 77 0
1000000 64 67 0
1000000 -35 -73 0
1000000 -36 -76 0
1000000 -37 -79 0
1000000 -38 -75 0
1000000 -39 -77 0
1000000 -40 -74 0
1000000 -41 -68 0
1000000 -42 -72 0
1000000 -43 -78 0
1000000 -44 -78 0
1000000 -45 -65 0
1000000 -46 -68 0
1000000 -47 -71 0
1000000 -48 -69 0
1000000 -49 -79 0
1000000 -50 -67 0
1000000 -51 -78 0
1000000 -52 -67 0
1000000 -53 -75 0
1000000 -54 -68 0
1000000 -55 -72 0
1000000 -56 -69 0
1000000 -57 -66 0
1000000 -58 -71 0
1000000 -59 -70 0
1000000 -60 -74 0
1000000 -61 -77 0
1000000 -62 -70 0
1000000 -63 -77 0
1000000 -64 -67 0
8600 -65 0
8600 -66 0
6900 -67 0
6900 -68 0
6900 -69 0
6600 -70 0
7800 -71 0
6900 -72 0
7800 -73 0
6900 -74 0
6600 -75 0
8100 -76 0
7800 -77 0
6600 -78 0
7800 -79 0
3200 35 0
3200 36 0
5000 37 0
5000 38 0
3200 39 0
4600 40 0
5000 41 0
2900 42 0
3200 43 0
5000 44 0
5000 45 0
3200 46 0
4700 47 0
2900 48 0
4700 49 0
2900 50 0
4600 51 0
3200 52 0
5000 53 0
5000 54 0
4700 55 0
4600 56 0
3200 57 0
4700 58 0
3200 59 0
3200 60 0
4700 61 0
4700 62 0
3200 63 0
2900 64 0
9215 29 14 -20 0
7760 29 -14 20 0
9603 29 -14 -20 0
7275 -29 14 20 0
9579 -29 14 -20 0
9215 -29 -14 20 0
9676 -29 -14 -20 0
6966 26 30 34 -15 0
32895 26 30 -34 15 0
33940 26 30 -34 -15 0
14706 26 -30 34 15 0
19025 26 -30 34 -15 0
35101 26 -30 -34 15 0
35749 26 -30 -34 -15 0
27090 -26 30 34 15 0
29180 -26 30 34 -15 0
36958 -26 30 -34 15 0
37272 -26 30 -34 -15 0
31502 -26 -30 34 15 0
32797 -26 -30 34 -15 0
37620 -26 -30 -34 15 0
37815 -26 -30 -34 -15 0
8470 32 24 -22 0
14630 32 -24 22 0
15053 32 -24 -22 0
7700 -32 24 22 0
11935 -32 24 -22 0
15015 -32 -24 22 0
15227 -32 -24 -22 0
592 17 -11 0
19240 -17 11 0
19447 -17 -11 0
5390 21 -33 0
1540 -21 33 0
6391 -21 -33 0
23220 18 -19 0
17415 -18 19 0
30186 -18 -19 0
4928 -31 0
3870 23 -12 0
13545 -23 12 0
16060 -23 -12 0
10375 16 25 28 -13 0
7470 16 25 -28 13 0
15978 16 25 -28 -13 0
14525 16 -25 28 13 0
21269 16 -25 28 -13 0
19380 16 -25 -28 13 0
24910 16 -25 -28 -13 0
830 -16 25 28 13 0
10998 -16 25 28 -13 0
8151 -16 25 -28 13 0
16488 -16 25 -28 -13 0
15064 -16 -25 28 13 0
21673 -16 -25 28 -13 0
19823 -16 -25 -28 13 0
25242 -16 -25 -28 -13 0
8880 -27 0
