p wcnf 79 245 1000000
1000000 2 -11 0
1000000 11 -57 -6 0
1000000 10 -12 0
1000000 12 -54 -57 -53 0
1000000 6 -13 0
1000000 13 -55 -61 -35 0
1000000 6 -14 0
1000000 14 -41 -62 -55 -61 0
1000000 3 -15 0
1000000 15 -55 -45 -41 -48 0
1000000 7 -16 0
1000000 16 -58 -48 -49 -37 0
1000000 7 -17 0
1000000 17 -43 -57 -49 -37 0
1000000 7 -18 0
1000000 18 -44 -46 -62 0
1000000 9 -19 0
1000000 19 -50 -45 -40 -63 -47 0
1000000 2 -20 0
1000000 20 -64 -61 -43 -51 -48 0
1000000 8 -21 0
1000000 21 -43 -58 -10 0
1000000 7 -22 0
1000000 22 -53 -60 -44 -51 -56 0
1000000 3 -23 0
1000000 23 -51 -49 0
1000000 9 -24 0
1000000 24 -36 -55 0
1000000 9 -25 0
1000000 25 -60 -10 0
1000000 8 -26 0
1000000 26 -44 -46 -41 -55 0
1000000 9 -27 0
1000000 27 -47 -58 -56 -10 0
1000000 9 -28 0
1000000 28 -41 -10 0
1000000 5 -29 0
1000000 29 -59 -38 -46 -54 0
1000000 8 -30 0
1000000 30 -58 -60 -10 0
1000000 1 -31 0
1000000 31 -61 -38 0
1000000 1 -32 0
1000000 32 -39 -52 -41 0
1000000 1 -33 0
1000000 33 -57 -44 -59 -43 0
1000000 4 -34 0
1000000 34 -51 -40 -55 -47 -57 0
1000000 -1 32 33 31 0
1000000 -2 20 11 0
1000000 -3 15 23 0
1000000 -4 34 0
1000000 -5 29 0
1000000 -6 13 14 0
1000000 -7 18 16 22 17 0
1000000 -8 26 30 21 0
1000000 -9 19 27 25 28 24 0
1000000 -10 12 0
1000000 35 68 0
1000000 36 67 0
1000000 37 73 0
1000000 38 73 0
1000000 39 72 0
1000000 40 69 0
1000000 41 77 0
1000000 42 65 0
1000000 43 78 0
1000000 44 65 0
1000000 45 78 0
1000000 46 75 0
1000000 47 71 0
1000000 48 66 0
1000000 49 74 0
1000000 50 77 0
1000000 51 76 0
1000000 52 66 0
1000000 53 74 0
1000000 54 70 0
1000000 55 78 0
1000000 56 65 0
1000000 57 76 0
1000000 58 71 0
1000000 59 69 0
1000000 60 77 0
1000000 61 71 0
1000000 62 73 0
1000000 63 79 0
1000000 64 74 0
1000000 -35 -68 0
1000000 -36 -67 0
1000000 -37 -73 0
1000000 -38 -73 0
1000000 -39 -72 0
1000000 -40 -69 0
1000000 -41 -77 0
1000000 -42 -65 0
1000000 -43 -78 0
1000000 -44 -65 0
1000000 -45 -78 0
1000000 -46 -75 0
1000000 -47 -71 0
1000000 -48 -66 0
1000000 -49 -74 0
1000000 -50 -77 0
1000000 -51 -76 0
1000000 -52 -66 0
1000000 -53 -74 0
1000000 -54 -70 0
1000000 -55 -78 0
1000000 -56 -65 0
1000000 -57 -76 0
1000000 -58 -71 0
1000000 -59 -69 0
1000000 -60 -77 0
1000000 -61 -71 0
1000000 -62 -73 0
1000000 -63 -79 0
1000000 -64 -74 0
6400 -65 0
9200 -66 0
9200 -67 0
8300 -68 0
8700 -69 0
8300 -70 0
8700 -71 0
6400 -72 0
8700 -73 0
6400 -74 0
9200 -75 0
6400 -76 0
7100 -77 0
6400 -78 0
9200 -79 0
1100 35 0
3200 36 0
2500 37 0
2500 38 0
3200 39 0
3900 40 0
3200 41 0
1100 42 0
3200 43 0
3900 44 0
3900 45 0
3900 46 0
3900 47 0
2500 48 0
1100 49 0
2500 50 0
3200 51 0
2500 52 0
3900 53 0
2500 54 0
3900 55 0
2500 56 0
1100 57 0
3800 58 0
1100 59 0
2500 60 0
3800 61 0
3800 62 0
2500 63 0
3200 64 0
5688 32 33 -31 0
11060 32 -33 31 0
14757 32 -33 -31 0
4740 -32 33 31 0
9575 -32 33 -31 0
14141 -32 -33 31 0
17284 -32 -33 -31 0
21360 20 -11 0
4005 -20 11 0
22161 -20 -11 0
12640 15 -23 0
4740 -15 23 0
15484 -15 -23 0
2268 -34 0
17138 -29 0
17010 13 -14 0
11340 -13 14 0
18144 -13 -14 0
14432 18 16 22 -17 0
22550 18 16 -22 17 0
29766 18 16 -22 -17 0
33825 18 -16 22 17 0
37433 18 -16 22 -17 0
39462 18 -16 -22 17 0
41267 18 -16 -22 -17 0
5412 -18 16 22 17 0
18112 -18 16 22 -17 0
25256 -18 16 -22 17 0
31606 -18 16 -22 -17 0
35178 -18 -16 22 17 0
38353 -18 -16 22 -17 0
40139 -18 -16 -22 17 0
41727 -18 -16 -22 -17 0
4510 26 30 -21 0
27060 26 -30 21 0
28864 26 -30 -21 0
20295 -26 30 21 0
22775 -26 30 -21 0
35178 -26 -30 21 0
36170 -26 -30 -21 0
3792 19 27 25 28 -24 0
3160 19 27 25 -28 24 0
6573 19 27 25 -28 -24 0
10112 19 27 -25 28 24 0
12691 19 27 -25 28 -24 0
12261 19 27 -25 -28 24 0
14582 19 27 -25 -28 -24 0
14220 19 -27 25 28 24 0
16306 19 -27 25 28 -24 0
15958 19 -27 25 -28 24 0
17835 19 -27 25 -28 -24 0
19782 19 -27 -25 28 24 0
21200 19 -27 -25 28 -24 0
20963 19 -27 -25 -28 24 0
22240 19 -27 -25 -28 -24 0
4740 -19 27 25 28 24 0
7963 -19 27 25 28 -24 0
7426 -19 27 25 -28 24 0
10327 -19 27 25 -28 -24 0
13335 -19 27 -25 28 24 0
15527 -19 27 -25 28 -24 0
15162 -19 27 -25 -28 24 0
17134 -19 27 -25 -28 -24 0
16827 -19 -27 25 28 24 0
18600 -19 -27 25 28 -24 0
18304 -19 -27 25 -28 24 0
19900 -19 -27 25 -28 -24 0
21554 -19 -27 -25 28 24 0
22760 -19 -27 -25 28 -24 0
22559 -19 -27 -25 -28 24 0
23644 -19 -27 -25 -28 -24 0
6435 -12 0
