p wcnf 79 231 1000000
1000000 5 -11 0
1000000 11 -48 -50 -64 -37 -43 0
1000000 9 -12 0
1000000 12 -49 -55 -63 -50 -56 0
1000000 1 -13 0
1000000 13 -42 -47 -58 -46 0
1000000 2 -14 0
1000000 14 -44 -35 0
1000000 6 -15 0
1000000 15 -42 -39 -36 0
1000000 10 -16 0
1000000 16 -54 -49 -36 -53 -35 0
1000000 2 -17 0
1000000 17 -50 -56 0
1000000 1 -18 0
1000000 18 -52 -41 -54 -60 0
1000000 3 -19 0
1000000 19 -59 -61 -55 0
1000000 3 -20 0
1000000 20 -52 -54 -57 -8 0
1000000 7 -21 0
1000000 21 -62 -57 0
1000000 5 -22 0
1000000 22 -39 -46 -36 -64 0
1000000 6 -23 0
1000000 23 -49 -52 -61 -50 0
1000000 8 -24 0
1000000 24 -58 -48 0
1000000 2 -25 0
1000000 25 -52 -39 -42 -40 -47 0
1000000 1 -26 0
1000000 26 -64 -44 0
1000000 7 -27 0
1000000 27 -36 -52 -59 -10 0
1000000 6 -28 0
1000000 28 -53 -57 0
1000000 8 -29 0
1000000 29 -45 -63 0
1000000 1 -30 0
1000000 30 -43 -58 -41 -54 -44 0
1000000 2 -31 0
1000000 31 -52 -56 0
1000000 4 -32 0
1000000 32 -47 -60 -49 -9 0
1000000 9 -33 0
1000000 33 -48 -64 0
1000000 7 -34 0
1000000 34 -62 -55 -47 -57 -42 0
1000000 -1 18 13 26 30 0
1000000 -2 31 17 25 14 0
1000000 -3 20 19 0
1000000 -4 32 0
1000000 -5 22 11 0
1000000 -6 15 28 23 0
1000000 -7 21 27 34 0
1000000 -8 24 29 0
1000000 -9 33 12 0
1000000 -10 16 0
1000000 35 68 0
1000000 36 77 0
1000000 37 73 0
1000000 38 71 0
1000000 39 76 0
1000000 40 70 0
1000000 41 79 0
1000000 42 65 0
1000000 43 74 0
1000000 44 69 0
1000000 45 67 0
1000000 46 70 0
1000000 47 78 0
1000000 48 79 0
1000000 49 73 0
1000000 50 72 0
1000000 51 70 0
1000000 52 75 0
1000000 53 72 0
1000000 54 68 0
1000000 55 73 0
1000000 56 76 0
1000000 57 79 0
1000000 58 66 0
1000000 59 71 0
1000000 60 74 0
1000000 61 75 0
1000000 62 66 0
1000000 63 72 0
1000000 64 75 0
1000000 -35 -68 0
1000000 -36 -77 0
1000000 -37 -73 0
1000000 -38 -71 0
1000000 -39 -76 0
1000000 -40 -70 0
1000000 -41 -79 0
1000000 -42 -65 0
1000000 -43 -74 0
1000000 -44 -69 0
1000000 -45 -67 0
1000000 -46 -70 0
1000000 -47 -78 0
1000000 -48 -79 0
1000000 -49 -73 0
1000000 -50 -72 0
1000000 -51 -70 0
1000000 -52 -75 0
1000000 -53 -72 0
1000000 -54 -68 0
1000000 -55 -73 0
1000000 -56 -76 0
1000000 -57 -79 0
1000000 -58 -66 0
1000000 -59 -71 0
1000000 -60 -74 0
1000000 -61 -75 0
1000000 -62 -66 0
1000000 -63 -72 0
1000000 -64 -75 0
6300 -65 0
9400 -66 0
9300 -67 0
9400 -68 0
7100 -69 0
6300 -70 0
6300 -71 0
6900 -72 0
9400 -73 0
7100 -74 0
9300 -75 0
7100 -76 0
9400 -77 0
6300 -78 0
6900 -79 0
3200 35 0
3600 36 0
3600 37 0
1400 38 0
3600 39 0
3600 40 0
3200 41 0
3600 42 0
3600 43 0
1400 44 0
1900 45 0
1400 46 0
3200 47 0
3600 48 0
1400 49 0
3200 50 0
1400 51 0
3600 52 0
3600 53 0
1800 54 0
1900 55 0
3200 56 0
1400 57 0
1400 58 0
3600 59 0
3600 60 0
1400 61 0
1800 62 0
3600 63 0
1900 64 0
19800 18 13 26 -30 0
23400 18 13 -26 30 0
30330 18 13 -26 -30 0
5400 18 -13 26 30 0
22230 18 -13 26 -30 0
25290 18 -13 -26 30 0
31181 18 -13 -26 -30 0
27000 -18 13 26 30 0
31950 -18 13 26 -30 0
32850 -18 13 -26 30 0
34583 -18 13 -26 -30 0
28350 -18 -13 26 30 0
32557 -18 -13 26 -30 0
33323 -18 -13 -26 30 0
34795 -18 -13 -26 -30 0
15505 31 17 25 -14 0
7974 31 17 -25 14 0
20688 31 17 -25 -14 0
16834 31 -17 25 14 0
26447 31 -17 25 -14 0
21778 31 -17 -25 14 0
29661 31 -17 -25 -14 0
15505 -31 17 25 14 0
25583 -31 17 25 -14 0
20688 -31 17 -25 14 0
28952 -31 17 -25 -14 0
26447 -31 -17 25 14 0
32696 -31 -17 25 -14 0
29661 -31 -17 -25 14 0
34784 -31 -17 -25 -14 0
5915 20 -19 0
1638 -20 19 0
6488 -20 -19 0
11830 -32 0
8190 22 -11 0
7735 -22 11 0
8964 -22 -11 0
2912 15 28 -23 0
3640 15 -28 23 0
5387 15 -28 -23 0
182 -15 28 23 0
3036 -15 28 -23 0
3749 -15 -28 23 0
5461 -15 -28 -23 0
13120 21 27 -34 0
22550 21 -27 34 0
28454 21 -27 -34 0
38950 -21 27 34 0
39606 -21 27 -34 0
40078 -21 -27 34 0
40373 -21 -27 -34 0
30600 24 -29 0
23400 -24 29 0
34110 -24 -29 0
4430 33 -12 0
26580 -33 12 0
28352 -33 -12 0
35440 -16 0
