p wcnf 79 225 1000000
1000000 4 -11 0
1000000 11 -51 -53 0
1000000 2 -12 0
1000000 12 -57 -55 -37 -58 -56 0
1000000 6 -13 0
1000000 13 -36 -60 -56 -8 0
1000000 10 -14 0
1000000 14 -48 -62 -60 -44 -51 0
1000000 6 -15 0
1000000 15 -60 -52 -9 0
1000000 9 -16 0
1000000 16 -40 -61 -59 -10 0
1000000 3 -17 0
1000000 17 -41 -55 -42 -47 -61 0
1000000 8 -18 0
1000000 18 -35 -51 -64 0
1000000 1 -19 0
1000000 19 -46 -48 -49 -55 0
1000000 7 -20 0
1000000 20 -39 -9 0
1000000 3 -21 0
1000000 21 -45 -49 -47 0
1000000 2 -22 0
1000000 22 -57 -4 0
1000000 2 -23 0
1000000 23 -51 -9 0
1000000 1 -24 0
1000000 24 -45 -51 0
1000000 4 -25 0
1000000 25 -45 -39 -64 0
1000000 7 -26 0
1000000 26 -52 -61 -36 -57 -53 0
1000000 7 -27 0
1000000 27 -61 -10 0
1000000 10 -28 0
1000000 28 -58 -49 -36 0
1000000 10 -29 0
1000000 29 -52 -61 -56 -41 -63 0
1000000 9 -30 0
1000000 30 -54 -36 -63 -57 -52 0
1000000 2 -31 0
1000000 31 -52 -43 -48 -41 -62 0
1000000 4 -32 0
1000000 32 -40 -47 -58 0
1000000 8 -33 0
1000000 33 -48 -57 -55 -64 0
1000000 5 -34 0
1000000 34 -58 -45 -40 -53 -37 0
1000000 -1 24 19 0
1000000 -2 31 12 22 23 0
1000000 -3 21 17 0
1000000 -4 25 32 11 0
1000000 -5 34 0
1000000 -6 13 15 0
1000000 -7 26 20 27 0
1000000 -8 18 33 0
1000000 -9 16 30 0
1000000 -10 14 29 28 0
1000000 35 68 0
1000000 36 67 0
1000000 37 65 0
1000000 38 74 0
1000000 39 77 0
1000000 40 69 0
1000000 41 71 0
1000000 42 71 0
1000000 43 69 0
1000000 44 68 0
1000000 45 65 0
1000000 46 70 0
1000000 47 76 0
1000000 48 74 0
1000000 49 79 0
1000000 50 74 0
1000000 51 78 0
1000000 52 70 0
1000000 53 79 0
1000000 54 70 0
1000000 55 66 0
1000000 56 72 0
1000000 57 77 0
1000000 58 78 0
1000000 59 77 0
1000000 60 75 0
1000000 61 75 0
1000000 62 72 0
1000000 63 73 0
1000000 64 76 0
1000000 -35 -68 0
1000000 -36 -67 0
1000000 -37 -65 0
1000000 -38 -74 0
1000000 -39 -77 0
1000000 -40 -69 0
1000000 -41 -71 0
1000000 -42 -71 0
1000000 -43 -69 0
1000000 -44 -68 0
1000000 -45 -65 0
1000000 -46 -70 0
1000000 -47 -76 0
1000000 -48 -74 0
1000000 -49 -79 0
1000000 -50 -74 0
1000000 -51 -78 0
1000000 -52 -70 0
1000000 -53 -79 0
1000000 -54 -70 0
1000000 -55 -66 0
1000000 -56 -72 0
1000000 -57 -77 0
1000000 -58 -78 0
1000000 -59 -77 0
1000000 -60 -75 0
1000000 -61 -75 0
1000000 -62 -72 0
1000000 -63 -73 0
1000000 -64 -76 0
6400 -65 0
9800 -66 0
7800 -67 0
9800 -68 0
5500 -69 0
9800 -70 0
6400 -71 0
9800 -72 0
7800 -73 0
9800 -74 0
5500 -75 0
8100 -76 0
6400 -77 0
5500 -78 0
9800 -79 0
1300 35 0
2900 36 0
2800 37 0
2800 38 0
3600 39 0
2800 40 0
2900 41 0
2500 42 0
2800 43 0
3600 44 0
2900 45 0
2900 46 0
3600 47 0
2900 48 0
2900 49 0
2900 50 0
1300 51 0
3600 52 0
2900 53 0
1300 54 0
2900 55 0
2900 56 0
1300 57 0
2900 58 0
3600 59 0
1300 60 0
2900 61 0
2900 62 0
2800 63 0
2800 64 0
23655 24 -19 0
4980 -24 19 0
23904 -24 -19 0
574 31 12 22 -23 0
574 31 12 -22 23 0
1137 31 12 -22 -23 0
2870 31 -12 22 23 0
3387 31 -12 22 -23 0
3387 31 -12 -22 23 0
3893 31 -12 -22 -23 0
14350 -31 12 22 23 0
14637 -31 12 22 -23 0
14637 -31 12 -22 23 0
14918 -31 12 -22 -23 0
15785 -31 -12 22 23 0
16043 -31 -12 22 -23 0
16043 -31 -12 -22 23 0
16296 -31 -12 -22 -23 0
14140 21 -17 0
2424 -21 17 0
14867 -21 -17 0
12160 25 32 -11 0
9880 25 -32 11 0
14136 25 -32 -11 0
8360 -25 32 11 0
13832 -25 32 -11 0
12806 -25 -32 11 0
14721 -25 -32 -11 0
3636 -34 0
4864 13 -15 0
14440 -13 15 0
14683 -13 -15 0
4482 26 20 -27 0
14940 26 -20 27 0
16733 26 -20 -27 0
13695 -26 20 27 0
15712 -26 20 -27 0
20418 -26 -20 27 0
21225 -26 -20 -27 0
10755 18 -33 0
2868 -18 33 0
12332 -18 -33 0
6840 16 -30 0
12920 -16 30 0
13946 -16 -30 0
21525 14 29 -28 0
21525 14 -29 28 0
26906 14 -29 -28 0
25830 -14 29 28 0
27982 -14 29 -28 0
27982 -14 -29 28 0
28521 -14 -29 -28 0
