p wcnf 79 251 1000000
1000000 7 -11 0
1000000 11 -62 -39 -44 -43 0
1000000 8 -12 0
1000000 12 -35 -59 0
1000000 7 -13 0
1000000 13 -55 -50 -58 -46 0
1000000 3 -14 0
1000000 14 -36 -60 -9 0
1000000 10 -15 0
1000000 15 -45 -48 0
1000000 6 -16 0
1000000 16 -58 -54 -49 0
1000000 5 -17 0
1000000 17 -43 -63 -53 -42 0
1000000 6 -18 0
1000000 18 -50 -43 -39 -42 0
1000000 10 -19 0
1000000 19 -59 -52 -46 0
1000000 5 -20 0
1000000 20 -44 -59 -40 -55 -53 0
1000000 2 -21 0
1000000 21 -64 -59 0
1000000 3 -22 0
1000000 22 -64 -37 -35 0
1000000 6 -23 0
1000000 23 -41 -62 -42 -64 -50 0
1000000 10 -24 0
1000000 24 -36 -47 -50 -43 -51 0
1000000 7 -25 0
1000000 25 -59 -63 -8 0
1000000 7 -26 0
1000000 26 -54 -60 0
1000000 10 -27 0
1000000 27 -40 -46 -54 -57 0
1000000 5 -28 0
1000000 28 -56 -62 -55 -64 -10 0
1000000 9 -29 0
1000000 29 -42 -36 0
1000000 5 -30 0
1000000 30 -55 -63 -37 -8 0
1000000 1 -31 0
1000000 31 -61 -44 -51 -45 0
1000000 4 -32 0
1000000 32 -40 -63 -48 0
1000000 5 -33 0
1000000 33 -57 -39 -62 0
1000000 9 -34 0
1000000 34 -48 -39 -63 -64 -44 0
1000000 -1 31 0
1000000 -2 21 0
1000000 -3 22 14 0
1000000 -4 32 0
1000000 -5 20 30 33 17 28 0
1000000 -6 18 16 23 0
1000000 -7 11 13 26 25 0
1000000 -8 12 0
1000000 -9 29 34 0
1000000 -10 27 15 19 24 0
1000000 35 77 0
1000000 36 77 0
1000000 37 79 0
1000000 38 67 0
1000000 39 68 0
1000000 40 67 0
1000000 41 73 0
1000000 42 76 0
1000000 43 78 0
1000000 44 70 0
1000000 45 68 0
1000000 46 76 0
1000000 47 65 0
1000000 48 68 0
1000000 49 65 0
1000000 50 72 0
1000000 51 70 0
1000000 52 69 0
1000000 53 73 0
1000000 54 65 0
1000000 55 66 0
1000000 56 74 0
1000000 57 72 0
1000000 58 75 0
1000000 59 73 0
1000000 60 78 0
1000000 61 66 0
1000000 62 71 0
1000000 63 71 0
1000000 64 78 0
1000000 -35 -77 0
1000000 -36 -77 0
1000000 -37 -79 0
1000000 -38 -67 0
1000000 -39 -68 0
1000000 -40 -67 0
1000000 -41 -73 0
1000000 -42 -76 0
1000000 -43 -78 0
1000000 -44 -70 0
1000000 -45 -68 0
1000000 -46 -76 0
1000000 -47 -65 0
1000000 -48 -68 0
1000000 -49 -65 0
1000000 -50 -72 0
1000000 -51 -70 0
1000000 -52 -69 0
1000000 -53 -73 0
1000000 -54 -65 0
1000000 -55 -66 0
1000000 -56 -74 0
1000000 -57 -72 0
1000000 -58 -75 0
1000000 -59 -73 0
1000000 -60 -78 0
1000000 -61 -66 0
1000000 -62 -71 0
1000000 -63 -71 0
1000000 -64 -78 0
7400 -65 0
8800 -66 0
6400 -67 0
8100 -68 0
8100 -69 0
8800 -70 0
6500 -71 0
6400 -72 0
8100 -73 0
7400 -74 0
7400 -75 0
6400 -76 0
6500 -77 0
6500 -78 0
8800 -79 0
1100 35 0
1100 36 0
4100 37 0
1800 38 0
1100 39 0
1800 40 0
5000 41 0
4100 42 0
1800 43 0
1800 44 0
1100 45 0
1700 46 0
1700 47 0
5000 48 0
1700 49 0
1700 50 0
5000 51 0
1800 52 0
1700 53 0
5000 54 0
5000 55 0
4100 56 0
1800 57 0
1800 58 0
1800 59 0
1700 60 0
1800 61 0
1700 62 0
1700 63 0
1700 64 0
6030 -31 0
20790 -21 0
30150 22 -14 0
1675 -22 14 0
30318 -22 -14 0
1812 -32 0
4455 20 30 33 17 -28 0
28215 20 30 33 -17 28 0
28438 20 30 33 -17 -28 0
11286 20 30 -33 17 28 0
14048 20 30 -33 17 -28 0
28779 20 30 -33 -17 28 0
28917 20 30 -33 -17 -28 0
3564 20 -30 33 17 28 0
7484 20 -30 33 17 -28 0
28393 20 -30 33 -17 28 0
28589 20 -30 33 -17 -28 0
13496 20 -30 -33 17 28 0
15926 20 -30 -33 17 -28 0
28890 20 -30 -33 -17 28 0
29011 20 -30 -33 -17 -28 0
10395 -20 30 33 17 28 0
13291 -20 30 33 17 -28 0
28735 -20 30 33 -17 28 0
28880 -20 30 33 -17 -28 0
17731 -20 30 -33 17 28 0
19526 -20 30 -33 17 -28 0
29102 -20 30 -33 -17 28 0
29191 -20 30 -33 -17 -28 0
12712 -20 -30 33 17 28 0
15260 -20 -30 33 17 -28 0
28851 -20 -30 33 -17 28 0
28978 -20 -30 33 -17 -28 0
19167 -20 -30 -33 17 28 0
20747 -20 -30 -33 17 -28 0
29173 -20 -30 -33 -17 28 0
29252 -20 -30 -33 -17 -28 0
1510 18 16 -23 0
4832 18 -16 23 0
5859 18 -16 -23 0
4832 -18 16 23 0
5859 -18 16 -23 0
8118 -18 -16 23 0
8816 -18 -16 -23 0
10525 11 13 26 -25 0
10525 11 13 -26 25 0
18419 11 13 -26 -25 0
16840 11 -13 26 25 0
23155 11 -13 26 -25 0
23155 11 -13 -26 25 0
27891 11 -13 -26 -25 0
39995 -11 13 26 25 0
40521 -11 13 26 -25 0
40521 -11 13 -26 25 0
40916 -11 13 -26 -25 0
40837 -11 -13 26 25 0
41153 -11 -13 26 -25 0
41153 -11 -13 -26 25 0
41390 -11 -13 -26 -25 0
9060 -12 0
3775 29 -34 0
13590 -29 34 0
13968 -29 -34 0
12680 27 15 19 -24 0
19020 27 15 -19 24 0
24092 27 15 -19 -24 0
23775 27 -15 19 24 0
26945 27 -15 19 -24 0
28530 27 -15 -19 24 0
29798 27 -15 -19 -24 0
28530 -27 15 19 24 0
29798 -27 15 19 -24 0
30432 -27 15 -19 24 0
30939 -27 15 -19 -24 0
30907 -27 -15 19 24 0
31225 -27 -15 19 -24 0
31383 -27 -15 -19 24 0
31510 -27 -15 -19 -24 0
