p wcnf 79 231 1000000
1000000 3 -11 0
1000000 11 -40 -57 -37 -43 0
1000000 4 -12 0
1000000 12 -59 -41 0
1000000 5 -13 0
1000000 13 -42 -60 -56 0
1000000 1 -14 0
1000000 14 -56 -4 0
1000000 10 -15 0
1000000 15 -57 -40 -52 -62 -46 0
1000000 6 -16 0
1000000 16 -56 -46 -54 -52 -59 0
1000000 4 -17 0
1000000 17 -47 -59 -52 -51 -56 0
1000000 3 -18 0
1000000 18 -61 -38 -62 -55 -47 0
1000000 8 -19 0
1000000 19 -46 -40 -64 -9 0
1000000 5 -20 0
1000000 20 -40 -63 -6 0
1000000 10 -21 0
1000000 21 -38 -46 -52 -59 0
1000000 7 -22 0
1000000 22 -62 -54 -57 -38 0
1000000 2 -23 0
1000000 23 -48 -36 -52 -61 0
1000000 7 -24 0
1000000 24 -36 -47 -45 -38 -48 0
1000000 8 -25 0
1000000 25 -58 -59 -48 -54 -37 0
1000000 9 -26 0
1000000 26 -44 -35 -46 -36 -10 0
1000000 1 -27 0
1000000 27 -63 -52 -45 0
1000000 5 -28 0
1000000 28 -51 -45 -62 -36 0
1000000 5 -29 0
1000000 29 -39 -10 0
1000000 2 -30 0
1000000 30 -53 -50 0
1000000 1 -31 0
1000000 31 -64 -48 0
1000000 2 -32 0
1000000 32 -36 -35 0
1000000 2 -33 0
1000000 33 -52 -56 -5 0
1000000 4 -34 0
1000000 34 -42 -7 0
1000000 -1 27 14 31 0
1000000 -2 33 30 32 23 0
1000000 -3 11 18 0
1000000 -4 17 12 34 0
1000000 -5 13 20 29 28 0
1000000 -6 16 0
1000000 -7 24 22 0
1000000 -8 19 25 0
1000000 -9 26 0
1000000 -10 15 21 0
1000000 35 71 0
1000000 36 70 0
1000000 37 69 0
1000000 38 78 0
1000000 39 70 0
1000000 40 77 0
1000000 41 65 0
1000000 42 73 0
1000000 43 69 0
1000000 44 66 0
1000000 45 76 0
1000000 46 74 0
1000000 47 70 0
1000000 48 75 0
1000000 49 79 0
1000000 50 67 0
1000000 51 71 0
1000000 52 72 0
1000000 53 72 0
1000000 54 76 0
1000000 55 73 0
1000000 56 68 0
1000000 57 67 0
1000000 58 65 0
1000000 59 71 0
1000000 60 77 0
1000000 61 76 0
1000000 62 69 0
1000000 63 78 0
1000000 64 73 0
1000000 -35 -71 0
1000000 -36 -70 0
1000000 -37 -69 0
1000000 -38 -78 0
1000000 -39 -70 0
1000000 -40 -77 0
1000000 -41 -65 0
1000000 -42 -73 0
1000000 -43 -69 0
1000000 -44 -66 0
1000000 -45 -76 0
1000000 -46 -74 0
1000000 -47 -70 0
1000000 -48 -75 0
1000000 -49 -79 0
1000000 -50 -67 0
1000000 -51 -71 0
1000000 -52 -72 0
1000000 -53 -72 0
1000000 -54 -76 0
1000000 -55 -73 0
1000000 -56 -68 0
1000000 -57 -67 0
1000000 -58 -65 0
1000000 -59 -71 0
1000000 -60 -77 0
1000000 -61 -76 0
1000000 -62 -69 0
1000000 -63 -78 0
1000000 -64 -73 0
8500 -65 0
5700 -66 0
6400 -67 0
5700 -68 0
5900 -69 0
5700 -70 0
5900 -71 0
9500 -72 0
8500 -73 0
9500 -74 0
8500 -75 0
8500 -76 0
8500 -77 0
9500 -78 0
5900 -79 0
3100 35 0
5000 36 0
5000 37 0
3100 38 0
5000 39 0
3100 40 0
2400 41 0
5000 42 0
5000 43 0
3500 44 0
3100 45 0
3500 46 0
2400 47 0
3500 48 0
1200 49 0
3500 50 0
3500 51 0
3500 52 0
5000 53 0
3500 54 0
3100 55 0
3100 56 0
1200 57 0
3100 58 0
2400 59 0
3500 60 0
3500 61 0
1200 62 0
1200 63 0
5000 64 0
29640 27 14 -31 0
2470 27 -14 31 0
30628 27 -14 -31 0
44460 -27 14 31 0
47424 -27 14 -31 0
44707 -27 -14 31 0
47523 -27 -14 -31 0
33750 33 30 32 -23 0
22500 33 30 -32 23 0
39375 33 30 -32 -23 0
8100 33 -30 32 23 0
35775 33 -30 32 -23 0
26550 33 -30 -32 23 0
40388 33 -30 -32 -23 0
8100 -33 30 32 23 0
35775 -33 30 32 -23 0
26550 -33 30 -32 23 0
40388 -33 30 -32 -23 0
14742 -33 -30 32 23 0
37435 -33 -30 32 -23 0
29871 -33 -30 -32 23 0
41218 -33 -30 -32 -23 0
17290 11 -18 0
5928 -11 18 0
21143 -11 -18 0
15120 17 12 -34 0
4725 17 -12 34 0
16065 17 -12 -34 0
6048 -17 12 34 0
16330 -17 12 -34 0
9261 -17 -12 34 0
16972 -17 -12 -34 0
7410 13 20 29 -28 0
9880 13 20 -29 28 0
15808 13 20 -29 -28 0
17290 13 -20 29 28 0
22106 13 -20 29 -28 0
23712 13 -20 -29 28 0
27565 13 -20 -29 -28 0
27170 -13 20 29 28 0
30505 -13 20 29 -28 0
31616 -13 20 -29 28 0
34284 -13 20 -29 -28 0
34950 -13 -20 29 28 0
37118 -13 -20 29 -28 0
37840 -13 -20 -29 28 0
39574 -13 -20 -29 -28 0
33750 -16 0
27000 24 -22 0
5400 -24 22 0
29160 -24 -22 0
33250 19 -25 0
5250 -19 25 0
33512 -19 -25 0
18960 -26 0
10395 15 -21 0
5670 -15 21 0
12947 -15 -21 0
