p wcnf 79 225 1000000
1000000 9 -11 0
1000000 11 -48 -54 -39 -57 -42 0
1000000 10 -12 0
1000000 12 -63 -52 -45 0
1000000 6 -13 0
1000000 13 -36 -60 -50 -38 0
1000000 7 -14 0
1000000 14 -54 -63 -60 -38 0
1000000 6 -15 0
1000000 15 -63 -35 -61 0
1000000 8 -16 0
1000000 16 -58 -36 -55 0
1000000 3 -17 0
1000000 17 -43 -57 -42 -47 -60 0
1000000 6 -18 0
1000000 18 -46 -62 -42 0
1000000 5 -19 0
1000000 19 -52 -40 0
1000000 7 -20 0
1000000 20 -50 -60 -41 -36 0
1000000 2 -21 0
1000000 21 -56 -39 -36 -60 0
1000000 10 -22 0
1000000 22 -48 -37 -35 -61 -38 0
1000000 6 -23 0
1000000 23 -53 -40 0
1000000 9 -24 0
1000000 24 -40 -60 -56 -10 0
1000000 5 -25 0
1000000 25 -52 -45 -48 -42 0
1000000 2 -26 0
1000000 26 -54 -45 -62 0
1000000 10 -27 0
1000000 27 -36 -55 -53 -54 0
1000000 4 -28 0
1000000 28 -59 -38 -55 0
1000000 1 -29 0
1000000 29 -56 -62 -49 0
1000000 4 -30 0
1000000 30 -43 -41 -38 -39 -47 0
1000000 8 -31 0
1000000 31 -40 -50 -9 0
1000000 8 -32 0
1000000 32 -64 -60 -53 -61 -51 0
1000000 1 -33 0
1000000 33 -64 -61 -45 -62 0
1000000 1 -34 0
1000000 34 -62 -57 -35 0
1000000 -1 29 34 33 0
1000000 -2 26 21 0
1000000 -3 17 0
1000000 -4 30 28 0
1000000 -5 19 25 0
1000000 -6 18 13 15 23 0
1000000 -7 20 14 0
1000000 -8 32 16 31 0
1000000 -9 11 24 0
1000000 -10 12 27 22 0
1000000 35 78 0
1000000 36 70 0
1000000 37 73 0
1000000 38 69 0
1000000 39 73 0
1000000 40 71 0
1000000 41 68 0
1000000 42 67 0
1000000 43 74 0
1000000 44 73 0
1000000 45 72 0
1000000 46 66 0
1000000 47 78 0
1000000 48 75 0
1000000 49 69 0
1000000 50 77 0
1000000 51 78 0
1000000 52 65 0
1000000 53 79 0
1000000 54 79 0
1000000 55 76 0
1000000 56 65 0
1000000 57 77 0
1000000 58 69 0
1000000 59 66 0
1000000 60 70 0
1000000 61 74 0
1000000 62 70 0
1000000 63 79 0
1000000 64 67 0
1000000 -35 -78 0
1000000 -36 -70 0
1000000 -37 -73 0
1000000 -38 -69 0
1000000 -39 -73 0
1000000 -40 -71 0
1000000 -41 -68 0
1000000 -42 -67 0
1000000 -43 -74 0
1000000 -44 -73 0
1000000 -45 -72 0
1000000 -46 -66 0
1000000 -47 -78 0
1000000 -48 -75 0
1000000 -49 -69 0
1000000 -50 -77 0
1000000 -51 -78 0
1000000 -52 -65 0
1000000 -53 -79 0
1000000 -54 -79 0
1000000 -55 -76 0
1000000 -56 -65 0
1000000 -57 -77 0
1000000 -58 -69 0
1000000 -59 -66 0
1000000 -60 -70 0
1000000 -61 -74 0
1000000 -62 -70 0
1000000 -63 -79 0
1000000 -64 -67 0
6600 -65 0
6100 -66 0
5000 -67 0
5000 -68 0
6100 -69 0
6600 -70 0
5000 -71 0
6600 -72 0
9000 -73 0
5000 -74 0
6100 -75 0
6600 -76 0
6100 -77 0
6600 -78 0
5000 -79 0
3200 35 0
2000 36 0
2000 37 0
3200 38 0
2900 39 0
3200 40 0
4200 41 0
2900 42 0
3200 43 0
2900 44 0
2000 45 0
4200 46 0
2000 47 0
3200 48 0
2000 49 0
2000 50 0
3900 51 0
3200 52 0
4200 53 0
4200 54 0
3900 55 0
3900 56 0
3900 57 0
2000 58 0
3900 59 0
2900 60 0
4200 61 0
3200 62 0
3200 63 0
2900 64 0
1656 29 34 -33 0
11040 29 -34 33 0
11371 29 -34 -33 0
276 -29 34 33 0
1899 -29 34 -33 0
11095 -29 -34 33 0
11420 -29 -34 -33 0
6192 26 -21 0
24080 -26 21 0
25938 -26 -21 0
15390 -17 0
1660 30 -28 0
1245 -30 28 0
2656 -30 -28 0
9660 19 -25 0
4140 -19 25 0
10902 -19 -25 0
32680 18 13 15 -23 0
15480 18 13 -15 23 0
33454 18 13 -15 -23 0
11008 18 -13 15 23 0
33230 18 -13 15 -23 0
21534 18 -13 -15 23 0
33757 18 -13 -15 -23 0
25800 -18 13 15 23 0
33970 -18 13 15 -23 0
29670 -18 13 -15 23 0
34163 -18 13 -15 -23 0
28552 -18 -13 15 23 0
34108 -18 -13 15 -23 0
31184 -18 -13 -15 23 0
34239 -18 -13 -15 -23 0
35025 20 -14 0
9340 -20 14 0
37360 -20 -14 0
4275 32 16 -31 0
4275 32 -16 31 0
7481 32 -16 -31 0
2565 -32 16 31 0
6199 -32 16 -31 0
6199 -32 -16 31 0
8924 -32 -16 -31 0
166 11 -24 0
166 -11 24 0
329 -11 -24 0
6225 12 27 -22 0
5810 12 -27 22 0
7678 12 -27 -22 0
2656 -12 27 22 0
6889 -12 27 -22 0
6607 -12 -27 22 0
7877 -12 -27 -22 0
