p wcnf 79 227 1000000
1000000 4 -11 0
1000000 11 -49 -38 -10 0
1000000 10 -12 0
1000000 12 -47 -58 0
1000000 4 -13 0
1000000 13 -53 -52 -61 -37 -43 0
1000000 8 -14 0
1000000 14 -39 -47 -50 -59 0
1000000 5 -15 0
1000000 15 -49 -52 -38 0
1000000 10 -16 0
1000000 16 -43 -46 -47 0
1000000 2 -17 0
1000000 17 -41 -62 0
1000000 1 -18 0
1000000 18 -52 -62 -39 -42 0
1000000 9 -19 0
1000000 19 -60 -51 -43 -46 -48 0
1000000 4 -20 0
1000000 20 -37 -51 -47 -57 0
1000000 3 -21 0
1000000 21 -36 -63 -44 0
1000000 2 -22 0
1000000 22 -46 -55 -57 -44 0
1000000 5 -23 0
1000000 23 -58 -56 -35 0
1000000 5 -24 0
1000000 24 -55 -59 -38 -51 0
1000000 8 -25 0
1000000 25 -50 -57 -63 -47 0
1000000 1 -26 0
1000000 26 -35 -54 -45 -49 -53 0
1000000 7 -27 0
1000000 27 -36 -64 -60 -58 0
1000000 6 -28 0
1000000 28 -43 -45 -41 -54 -63 0
1000000 2 -29 0
1000000 29 -48 -42 0
1000000 8 -30 0
1000000 30 -46 -54 -64 -10 0
1000000 4 -31 0
1000000 31 -52 -61 -50 -44 -54 0
1000000 6 -32 0
1000000 32 -40 -37 -38 0
1000000 10 -33 0
1000000 33 -39 -51 0
1000000 3 -34 0
1000000 34 -41 -60 -37 -35 0
1000000 -1 18 26 0
1000000 -2 17 29 22 0
1000000 -3 21 34 0
1000000 -4 31 20 11 13 0
1000000 -5 23 24 15 0
1000000 -6 32 28 0
1000000 -7 27 0
1000000 -8 30 25 14 0
1000000 -9 19 0
1000000 -10 12 16 33 0
1000000 35 67 0
1000000 36 65 0
1000000 37 76 0
1000000 38 75 0
1000000 39 68 0
1000000 40 72 0
1000000 41 71 0
1000000 42 69 0
1000000 43 73 0
1000000 44 76 0
1000000 45 70 0
1000000 46 67 0
1000000 47 74 0
1000000 48 77 0
1000000 49 77 0
1000000 50 77 0
1000000 51 68 0
1000000 52 78 0
1000000 53 70 0
1000000 54 69 0
1000000 55 66 0
1000000 56 70 0
1000000 57 78 0
1000000 58 65 0
1000000 59 72 0
1000000 60 66 0
1000000 61 72 0
1000000 62 75 0
1000000 63 74 0
1000000 64 79 0
1000000 -35 -67 0
1000000 -36 -65 0
1000000 -37 -76 0
1000000 -38 -75 0
1000000 -39 -68 0
1000000 -40 -72 0
1000000 -41 -71 0
1000000 -42 -69 0
1000000 -43 -73 0
1000000 -44 -76 0
1000000 -45 -70 0
1000000 -46 -67 0
1000000 -47 -74 0
1000000 -48 -77 0
1000000 -49 -77 0
1000000 -50 -77 0
1000000 -51 -68 0
1000000 -52 -78 0
1000000 -53 -70 0
1000000 -54 -69 0
1000000 -55 -66 0
1000000 -56 -70 0
1000000 -57 -78 0
1000000 -58 -65 0
1000000 -59 -72 0
1000000 -60 -66 0
1000000 -61 -72 0
1000000 -62 -75 0
1000000 -63 -74 0
1000000 -64 -79 0
7500 -65 0
5700 -66 0
7500 -67 0
10000 -68 0
5700 -69 0
6000 -70 0
7500 -71 0
8700 -72 0
10000 -73 0
8700 -74 0
10000 -75 0
5700 -76 0
6000 -77 0
10000 -78 0
8700 -79 0
2100 35 0
1700 36 0
3200 37 0
3200 38 0
2100 39 0
1700 40 0
2100 41 0
1700 42 0
3200 43 0
2100 44 0
1700 45 0
1900 46 0
2100 47 0
1700 48 0
1700 49 0
2100 50 0
1900 51 0
1700 52 0
1700 53 0
2100 54 0
1900 55 0
1500 56 0
2100 57 0
3200 58 0
2100 59 0
1500 60 0
3200 61 0
1500 62 0
1700 63 0
3200 64 0
4840 18 -26 0
33880 -18 26 0
35332 -18 -26 0
7260 17 29 -22 0
8712 17 -29 22 0
14665 17 -29 -22 0
9680 -17 29 22 0
15488 -17 29 -22 0
16650 -17 -29 22 0
21412 -17 -29 -22 0
27120 21 -34 0
13560 -21 34 0
29832 -21 -34 0
4840 31 20 11 -13 0
36300 31 20 -11 13 0
37510 31 20 -11 -13 0
33880 31 -20 11 13 0
35332 31 -20 11 -13 0
44770 31 -20 -11 13 0
45133 31 -20 -11 -13 0
43560 -31 20 11 13 0
44044 -31 20 11 -13 0
47190 -31 20 -11 13 0
47311 -31 20 -11 -13 0
46948 -31 -20 11 13 0
47093 -31 -20 11 -13 0
48037 -31 -20 -11 13 0
48073 -31 -20 -11 -13 0
9696 23 24 -15 0
15150 23 -24 15 0
19998 23 -24 -15 0
10605 -23 24 15 0
16907 -23 24 -15 0
20453 -23 -24 15 0
23604 -23 -24 -15 0
16800 32 -28 0
27300 -32 28 0
33180 -32 -28 0
18645 -27 0
3390 30 25 -14 0
32205 30 -25 14 0
32375 30 -25 -14 0
30510 -30 25 14 0
30849 -30 25 -14 0
33731 -30 -25 14 0
33747 -30 -25 -14 0
8400 -19 0
7260 12 16 -33 0
968 12 -16 33 0
8083 12 -16 -33 0
5808 -12 16 33 0
12197 -12 16 -33 0
6660 -12 -16 33 0
12921 -12 -16 -33 0
