p wcnf 79 231 1000000
1000000 4 -11 0
1000000 11 -46 -40 0
1000000 10 -12 0
1000000 12 -47 -35 -59 -56 0
1000000 8 -13 0
1000000 13 -57 -44 -53 0
1000000 9 -14 0
1000000 14 -48 -39 -57 -56 0
1000000 10 -15 0
1000000 15 -55 -44 -61 -51 -43 0
1000000 5 -16 0
1000000 16 -46 -37 -6 0
1000000 4 -17 0
1000000 17 -39 -40 -38 0
1000000 3 -18 0
1000000 18 -58 -43 -47 -6 0
1000000 3 -19 0
1000000 19 -37 -51 -53 -36 -40 0
1000000 5 -20 0
1000000 20 -38 -39 -55 0
1000000 1 -21 0
1000000 21 -56 -62 -40 -60 -53 0
1000000 7 -22 0
1000000 22 -57 -37 -44 -50 -58 0
1000000 8 -23 0
1000000 23 -58 -54 -42 -61 0
1000000 4 -24 0
1000000 24 -59 -54 -9 0
1000000 1 -25 0
1000000 25 -59 -43 -62 -36 -37 0
1000000 9 -26 0
1000000 26 -61 -44 -43 -36 0
1000000 4 -27 0
1000000 27 -46 -48 0
1000000 3 -28 0
1000000 28 -56 -43 -62 -55 -64 0
1000000 5 -29 0
1000000 29 -52 -44 -58 -38 -54 0
1000000 3 -30 0
1000000 30 -35 -43 -46 -37 0
1000000 7 -31 0
1000000 31 -61 -46 -45 -62 0
1000000 7 -32 0
1000000 32 -40 -47 -50 -56 0
1000000 6 -33 0
1000000 33 -47 -62 0
1000000 2 -34 0
1000000 34 -51 -50 0
1000000 -1 25 21 0
1000000 -2 34 0
1000000 -3 28 18 30 19 0
1000000 -4 17 27 11 24 0
1000000 -5 16 20 29 0
1000000 -6 33 0
1000000 -7 32 22 31 0
1000000 -8 23 13 0
1000000 -9 14 26 0
1000000 -10 12 15 0
1000000 35 68 0
1000000 36 74 0
1000000 37 68 0
1000000 38 72 0
1000000 39 76 0
1000000 40 67 0
1000000 41 70 0
1000000 42 66 0
1000000 43 78 0
1000000 44 78 0
1000000 45 73 0
1000000 46 67 0
1000000 47 70 0
1000000 48 71 0
1000000 49 79 0
1000000 50 78 0
1000000 51 76 0
1000000 52 77 0
1000000 53 65 0
1000000 54 71 0
1000000 55 77 0
1000000 56 69 0
1000000 57 66 0
1000000 58 77 0
1000000 59 68 0
1000000 60 75 0
1000000 61 75 0
1000000 62 79 0
1000000 63 76 0
1000000 64 72 0
1000000 -35 -68 0
1000000 -36 -74 0
1000000 -37 -68 0
1000000 -38 -72 0
1000000 -39 -76 0
1000000 -40 -67 0
1000000 -41 -70 0
1000000 -42 -66 0
1000000 -43 -78 0
1000000 -44 -78 0
1000000 -45 -73 0
1000000 -46 -67 0
1000000 -47 -70 0
1000000 -48 -71 0
1000000 -49 -79 0
1000000 -50 -78 0
1000000 -51 -76 0
1000000 -52 -77 0
1000000 -53 -65 0
1000000 -54 -71 0
1000000 -55 -77 0
1000000 -56 -69 0
1000000 -57 -66 0
1000000 -58 -77 0
1000000 -59 -68 0
1000000 -60 -75 0
1000000 -61 -75 0
1000000 -62 -79 0
1000000 -63 -76 0
1000000 -64 -72 0
7200 -65 0
7200 -66 0
8300 -67 0
7900 -68 0
5700 -69 0
5700 -70 0
8300 -71 0
7800 -72 0
7800 -73 0
8300 -74 0
5700 -75 0
7200 -76 0
8300 -77 0
8300 -78 0
7900 -79 0
2300 35 0
3000 36 0
1700 37 0
1700 38 0
3000 39 0
2100 40 0
2100 41 0
1700 42 0
2100 43 0
1700 44 0
1700 45 0
2900 46 0
3000 47 0
2900 48 0
2300 49 0
2900 50 0
2300 51 0
2900 52 0
2900 53 0
1700 54 0
2900 55 0
3000 56 0
1700 57 0
2300 58 0
1700 59 0
2300 60 0
2900 61 0
2100 62 0
1700 63 0
2900 64 0
28170 25 -21 0
12520 -25 21 0
29422 -25 -21 0
12520 -34 0
1296 28 18 30 -19 0
1944 28 18 -30 19 0
3007 28 18 -30 -19 0
9720 28 -18 30 19 0
9850 28 -18 30 -19 0
9914 28 -18 -30 19 0
10021 28 -18 -30 -19 0
1944 -28 18 30 19 0
3007 -28 18 30 -19 0
3538 -28 18 -30 19 0
4410 -28 18 -30 -19 0
9914 -28 -18 30 19 0
10021 -28 -18 30 -19 0
10074 -28 -18 -30 19 0
10161 -28 -18 -30 -19 0
9720 17 27 11 -24 0
10260 17 27 -11 24 0
10746 17 27 -11 -24 0
9720 17 -27 11 24 0
10692 17 -27 11 -24 0
10746 17 -27 -11 24 0
10795 17 -27 -11 -24 0
216 -17 27 11 24 0
9742 -17 27 11 -24 0
10271 -17 27 -11 24 0
10747 -17 27 -11 -24 0
9742 -17 -27 11 24 0
10694 -17 -27 11 -24 0
10747 -17 -27 -11 24 0
10795 -17 -27 -11 -24 0
27150 16 20 -29 0
14480 16 -20 29 0
30770 16 -20 -29 0
724 -16 20 29 0
27331 -16 20 -29 0
14914 -16 -20 29 0
30879 -16 -20 -29 0
5400 -33 0
14085 32 22 -31 0
21910 32 -22 31 0
26135 32 -22 -31 0
15650 -32 22 31 0
22692 -32 22 -31 0
26605 -32 -22 31 0
28718 -32 -22 -31 0
44460 23 -13 0
27170 -23 13 0
47177 -23 -13 0
5430 14 -26 0
12670 -14 26 0
16200 -14 -26 0
1810 12 -15 0
7240 -12 15 0
8688 -12 -15 0
