p wcnf 79 239 1000000
1000000 3 -11 0
1000000 11 -54 -55 -56 -43 -7 0
1000000 6 -12 0
1000000 12 -46 -49 -53 -63 -60 0
1000000 3 -13 0
1000000 13 -39 -55 -64 -43 0
1000000 1 -14 0
1000000 14 -63 -47 -35 0
1000000 3 -15 0
1000000 15 -40 -55 -43 -8 0
1000000 1 -16 0
1000000 16 -54 -42 -39 -52 0
1000000 10 -17 0
1000000 17 -36 -55 -48 -47 -38 0
1000000 8 -18 0
1000000 18 -59 -45 -64 0
1000000 6 -19 0
1000000 19 -35 -52 -58 -48 0
1000000 10 -20 0
1000000 20 -49 -36 0
1000000 4 -21 0
1000000 21 -43 -36 -55 -63 -44 0
1000000 8 -22 0
1000000 22 -63 -52 -50 -58 -10 0
1000000 9 -23 0
1000000 23 -41 -39 -47 0
1000000 7 -24 0
1000000 24 -63 -64 0
1000000 4 -25 0
1000000 25 -59 -39 -48 -37 -35 0
1000000 2 -26 0
1000000 26 -50 -38 -41 -62 -39 0
1000000 4 -27 0
1000000 27 -35 -58 0
1000000 2 -28 0
1000000 28 -37 -45 0
1000000 9 -29 0
1000000 29 -37 -62 -42 -39 -47 0
1000000 4 -30 0
1000000 30 -64 -61 0
1000000 1 -31 0
1000000 31 -55 -50 -56 0
1000000 8 -32 0
1000000 32 -36 -60 0
1000000 5 -33 0
1000000 33 -44 -35 -8 0
1000000 4 -34 0
1000000 34 -56 -62 -55 -63 -50 0
1000000 -1 14 16 31 0
1000000 -2 26 28 0
1000000 -3 15 11 13 0
1000000 -4 21 30 27 25 34 0
1000000 -5 33 0
1000000 -6 19 12 0
1000000 -7 24 0
1000000 -8 18 32 22 0
1000000 -9 29 23 0
1000000 -10 17 20 0
1000000 35 77 0
1000000 36 77 0
1000000 37 67 0
1000000 38 74 0
1000000 39 75 0
1000000 40 75 0
1000000 41 70 0
1000000 42 76 0
1000000 43 73 0
1000000 44 65 0
1000000 45 65 0
1000000 46 70 0
1000000 47 77 0
1000000 48 65 0
1000000 49 72 0
1000000 50 74 0
1000000 51 78 0
1000000 52 71 0
1000000 53 67 0
1000000 54 69 0
1000000 55 70 0
1000000 56 79 0
1000000 57 78 0
1000000 58 73 0
1000000 59 71 0
1000000 60 66 0
1000000 61 78 0
1000000 62 68 0
1000000 63 71 0
1000000 64 75 0
1000000 -35 -77 0
1000000 -36 -77 0
1000000 -37 -67 0
1000000 -38 -74 0
1000000 -39 -75 0
1000000 -40 -75 0
1000000 -41 -70 0
1000000 -42 -76 0
1000000 -43 -73 0
1000000 -44 -65 0
1000000 -45 -65 0
1000000 -46 -70 0
1000000 -47 -77 0
1000000 -48 -65 0
1000000 -49 -72 0
1000000 -50 -74 0
1000000 -51 -78 0
1000000 -52 -71 0
1000000 -53 -67 0
1000000 -54 -69 0
1000000 -55 -70 0
1000000 -56 -79 0
1000000 -57 -78 0
1000000 -58 -73 0
1000000 -59 -71 0
1000000 -60 -66 0
1000000 -61 -78 0
1000000 -62 -68 0
1000000 -63 -71 0
1000000 -64 -75 0
9400 -65 0
6400 -66 0
6400 -67 0
9400 -68 0
5700 -69 0
8800 -70 0
5800 -71 0
9400 -72 0
6400 -73 0
8800 -74 0
6400 -75 0
9400 -76 0
5700 -77 0
6400 -78 0
9400 -79 0
3900 35 0
3100 36 0
3100 37 0
4300 38 0
3900 39 0
3100 40 0
1800 41 0
1000 42 0
3900 43 0
3100 44 0
1800 45 0
3100 46 0
1800 47 0
1800 48 0
1800 49 0
3900 50 0
4300 51 0
3100 52 0
3100 53 0
3900 54 0
1800 55 0
1800 56 0
3100 57 0
3900 58 0
3900 59 0
1000 60 0
3100 61 0
3900 62 0
4300 63 0
3900 64 0
1764 14 16 -31 0
8085 14 -16 31 0
8879 14 -16 -31 0
8820 -14 16 31 0
9526 -14 16 -31 0
12054 -14 -16 31 0
12372 -14 -16 -31 0
17600 26 -28 0
7040 -26 28 0
19008 -26 -28 0
5880 15 11 -13 0
8085 15 -11 13 0
10731 15 -11 -13 0
5880 -15 11 13 0
9408 -15 11 -13 0
10731 -15 -11 13 0
12319 -15 -11 -13 0
2530 21 30 27 25 -34 0
11385 21 30 27 -25 34 0
12776 21 30 27 -25 -34 0
22770 21 30 -27 25 34 0
23023 21 30 -27 25 -34 0
23909 21 30 -27 -25 34 0
24048 21 30 -27 -25 -34 0
3795 21 -30 27 25 34 0
5945 21 -30 27 25 -34 0
13472 21 -30 27 -25 34 0
14655 21 -30 27 -25 -34 0
23150 21 -30 -27 25 34 0
23365 21 -30 -27 25 -34 0
24117 21 -30 -27 -25 34 0
24236 21 -30 -27 -25 -34 0
10120 -21 30 27 25 34 0
11638 -21 30 27 25 -34 0
16951 -21 30 27 -25 34 0
17786 -21 30 27 -25 -34 0
23782 -21 30 -27 25 34 0
23934 -21 30 -27 25 -34 0
24465 -21 30 -27 -25 34 0
24549 -21 30 -27 -25 -34 0
12397 -21 -30 27 25 34 0
13687 -21 -30 27 25 -34 0
18203 -21 -30 27 -25 34 0
18913 -21 -30 27 -25 -34 0
24010 -21 -30 -27 25 34 0
24139 -21 -30 -27 25 -34 0
24590 -21 -30 -27 -25 34 0
24661 -21 -30 -27 -25 -34 0
13200 -33 0
13230 19 -12 0
8085 -19 12 0
14039 -19 -12 0
2205 -24 0
506 18 32 -22 0
16445 18 -32 22 0
16622 18 -32 -22 0
2530 -18 32 22 0
2985 -18 32 -22 0
17331 -18 -32 22 0
17490 -18 -32 -22 0
5550 29 -23 0
740 -29 23 0
6179 -29 -23 0
5550 17 -20 0
22200 -17 20 0
24420 -17 -20 0
