p wcnf 79 231 1000000
1000000 2 -11 0
1000000 11 -46 -41 -60 -37 -58 0
1000000 1 -12 0
1000000 12 -49 -44 0
1000000 3 -13 0
1000000 13 -57 -49 -58 0
1000000 9 -14 0
1000000 14 -54 -45 -52 -43 0
1000000 6 -15 0
1000000 15 -60 -53 -8 0
1000000 5 -16 0
1000000 16 -57 -35 0
1000000 3 -17 0
1000000 17 -52 -46 -6 0
1000000 10 -18 0
1000000 18 -44 -46 -49 -53 0
1000000 8 -19 0
1000000 19 -57 -40 0
1000000 1 -20 0
1000000 20 -43 -51 -41 0
1000000 6 -21 0
1000000 21 -43 -41 -40 -37 -8 0
1000000 4 -22 0
1000000 22 -41 -57 -9 0
1000000 7 -23 0
1000000 23 -56 -55 -44 0
1000000 8 -24 0
1000000 24 -48 -9 0
1000000 2 -25 0
1000000 25 -48 -57 -42 -9 0
1000000 1 -26 0
1000000 26 -50 -56 0
1000000 3 -27 0
1000000 27 -36 -37 -52 -46 -6 0
1000000 2 -28 0
1000000 28 -53 -45 -58 -62 -46 0
1000000 3 -29 0
1000000 29 -41 -63 -47 0
1000000 7 -30 0
1000000 30 -45 -42 -63 -60 0
1000000 9 -31 0
1000000 31 -61 -58 0
1000000 6 -32 0
1000000 32 -43 -62 0
1000000 2 -33 0
1000000 33 -57 -36 0
1000000 5 -34 0
1000000 34 -38 -62 -49 0
1000000 -1 12 26 20 0
1000000 -2 33 25 28 11 0
1000000 -3 13 17 29 27 0
1000000 -4 22 0
1000000 -5 16 34 0
1000000 -6 32 21 15 0
1000000 -7 23 30 0
1000000 -8 24 19 0
1000000 -9 31 14 0
1000000 -10 18 0
1000000 35 73 0
1000000 36 71 0
1000000 37 75 0
1000000 38 71 0
1000000 39 66 0
1000000 40 67 0
1000000 41 73 0
1000000 42 70 0
1000000 43 75 0
1000000 44 69 0
1000000 45 73 0
1000000 46 65 0
1000000 47 66 0
1000000 48 68 0
1000000 49 68 0
1000000 50 69 0
1000000 51 65 0
1000000 52 65 0
1000000 53 74 0
1000000 54 78 0
1000000 55 77 0
1000000 56 78 0
1000000 57 72 0
1000000 58 67 0
1000000 59 67 0
1000000 60 76 0
1000000 61 79 0
1000000 62 70 0
1000000 63 77 0
1000000 64 66 0
1000000 -35 -73 0
1000000 -36 -71 0
1000000 -37 -75 0
1000000 -38 -71 0
1000000 -39 -66 0
1000000 -40 -67 0
1000000 -41 -73 0
1000000 -42 -70 0
1000000 -43 -75 0
1000000 -44 -69 0
1000000 -45 -73 0
1000000 -46 -65 0
1000000 -47 -66 0
1000000 -48 -68 0
1000000 -49 -68 0
1000000 -50 -69 0
1000000 -51 -65 0
1000000 -52 -65 0
1000000 -53 -74 0
1000000 -54 -78 0
1000000 -55 -77 0
1000000 -56 -78 0
1000000 -57 -72 0
1000000 -58 -67 0
1000000 -59 -67 0
1000000 -60 -76 0
1000000 -61 -79 0
1000000 -62 -70 0
1000000 -63 -77 0
1000000 -64 -66 0
5900 -65 0
5900 -66 0
5900 -67 0
9200 -68 0
8100 -69 0
5600 -70 0
8100 -71 0
8100 -72 0
8100 -73 0
5600 -74 0
8100 -75 0
5600 -76 0
6000 -77 0
5600 -78 0
8100 -79 0
4400 35 0
4400 36 0
2900 37 0
2900 38 0
4200 39 0
2200 40 0
3700 41 0
4200 42 0
2200 43 0
4400 44 0
4400 45 0
4200 46 0
2200 47 0
2200 48 0
4200 49 0
4400 50 0
3700 51 0
2200 52 0
2200 53 0
2200 54 0
3700 55 0
4200 56 0
2900 57 0
4200 58 0
2900 59 0
2200 60 0
3700 61 0
2900 62 0
3700 63 0
2900 64 0
16880 12 26 -20 0
6330 12 -26 20 0
18146 12 -26 -20 0
6330 -12 26 20 0
18146 -12 26 -20 0
10761 -12 -26 20 0
19032 -12 -26 -20 0
12420 33 25 28 -11 0
15732 33 25 -28 11 0
23432 33 25 -28 -11 0
31050 33 -25 28 11 0
34155 33 -25 28 -11 0
34983 33 -25 -28 11 0
36908 33 -25 -28 -11 0
28980 -33 25 28 11 0
32706 -33 25 28 -11 0
33700 -33 25 -28 11 0
36010 -33 25 -28 -11 0
38295 -33 -25 28 11 0
39226 -33 -25 28 -11 0
39475 -33 -25 -28 11 0
40052 -33 -25 -28 -11 0
828 13 17 29 -27 0
4968 13 17 -29 27 0
5697 13 17 -29 -27 0
33120 13 -17 29 27 0
33286 13 -17 29 -27 0
34114 13 -17 -29 27 0
34259 13 -17 -29 -27 0
33120 -13 17 29 27 0
33286 -13 17 29 -27 0
34114 -13 17 -29 27 0
34259 -13 17 -29 -27 0
39744 -13 -17 29 27 0
39777 -13 -17 29 -27 0
39943 -13 -17 -29 27 0
39972 -13 -17 -29 -27 0
3798 -22 0
18425 16 -34 0
10720 -16 34 0
23249 -16 -34 0
23450 32 21 -15 0
15075 32 -21 15 0
27972 32 -21 -15 0
10720 -32 21 15 0
26666 -32 21 -15 0
20971 -32 -21 15 0
29741 -32 -21 -15 0
6752 23 -30 0
4220 -23 30 0
9622 -23 -30 0
15732 24 -19 0
16560 -24 19 0
25999 -24 -19 0
234 31 -14 0
8190 -31 14 0
8260 -31 -14 0
4950 -18 0
