p wcnf 79 247 1000000
1000000 8 -11 0
1000000 11 -54 -60 -53 -37 -56 0
1000000 6 -12 0
1000000 12 -46 -56 0
1000000 2 -13 0
1000000 13 -53 -37 -43 -62 0
1000000 6 -14 0
1000000 14 -48 -55 -60 -7 0
1000000 9 -15 0
1000000 15 -57 -49 -44 -52 -59 0
1000000 5 -16 0
1000000 16 -48 -49 -47 -52 -61 0
1000000 3 -17 0
1000000 17 -36 -44 0
1000000 6 -18 0
1000000 18 -52 -41 0
1000000 5 -19 0
1000000 19 -59 -56 -57 -49 -47 0
1000000 6 -20 0
1000000 20 -50 -38 0
1000000 4 -21 0
1000000 21 -45 -53 -52 -59 0
1000000 7 -22 0
1000000 22 -45 -39 -49 -40 -37 0
1000000 8 -23 0
1000000 23 -51 -49 -40 0
1000000 10 -24 0
1000000 24 -57 -56 -58 -54 -62 0
1000000 8 -25 0
1000000 25 -59 -41 -46 -54 -35 0
1000000 2 -26 0
1000000 26 -52 -43 -45 -36 -3 0
1000000 3 -27 0
1000000 27 -39 -56 -38 0
1000000 3 -28 0
1000000 28 -51 -54 0
1000000 5 -29 0
1000000 29 -52 -44 -43 -45 -38 0
1000000 3 -30 0
1000000 30 -35 -36 -63 -64 -52 0
1000000 1 -31 0
1000000 31 -52 -51 -54 -45 -41 0
1000000 2 -32 0
1000000 32 -47 -8 0
1000000 1 -33 0
1000000 33 -48 -47 0
1000000 6 -34 0
1000000 34 -45 -35 -10 0
1000000 -1 33 31 0
1000000 -2 26 32 13 0
1000000 -3 28 30 17 27 0
1000000 -4 21 0
1000000 -5 16 19 29 0
1000000 -6 18 20 14 12 34 0
1000000 -7 22 0
1000000 -8 11 23 25 0
1000000 -9 15 0
1000000 -10 24 0
1000000 35 78 0
1000000 36 75 0
1000000 37 72 0
1000000 38 65 0
1000000 39 71 0
1000000 40 70 0
1000000 41 65 0
1000000 42 73 0
1000000 43 79 0
1000000 44 74 0
1000000 45 67 0
1000000 46 76 0
1000000 47 75 0
1000000 48 73 0
1000000 49 68 0
1000000 50 77 0
1000000 51 76 0
1000000 52 71 0
1000000 53 71 0
1000000 54 73 0
1000000 55 70 0
1000000 56 74 0
1000000 57 68 0
1000000 58 72 0
1000000 59 69 0
1000000 60 70 0
1000000 61 72 0
1000000 62 66 0
1000000 63 67 0
1000000 64 79 0
1000000 -35 -78 0
1000000 -36 -75 0
1000000 -37 -72 0
1000000 -38 -65 0
1000000 -39 -71 0
1000000 -40 -70 0
1000000 -41 -65 0
1000000 -42 -73 0
1000000 -43 -79 0
1000000 -44 -74 0
1000000 -45 -67 0
1000000 -46 -76 0
1000000 -47 -75 0
1000000 -48 -73 0
1000000 -49 -68 0
1000000 -50 -77 0
1000000 -51 -76 0
1000000 -52 -71 0
1000000 -53 -71 0
1000000 -54 -73 0
1000000 -55 -70 0
1000000 -56 -74 0
1000000 -57 -68 0
1000000 -58 -72 0
1000000 -59 -69 0
1000000 -60 -70 0
1000000 -61 -72 0
1000000 -62 -66 0
1000000 -63 -67 0
1000000 -64 -79 0
8100 -65 0
7300 -66 0
8100 -67 0
7800 -68 0
8100 -69 0
7700 -70 0
7300 -71 0
7700 -72 0
7300 -73 0
7300 -74 0
8100 -75 0
8100 -76 0
9700 -77 0
7700 -78 0
7700 -79 0
2600 35 0
1300 36 0
2200 37 0
2600 38 0
2200 39 0
1400 40 0
2200 41 0
1400 42 0
1300 43 0
1400 44 0
1300 45 0
2200 46 0
2600 47 0
1400 48 0
1400 49 0
1300 50 0
1300 51 0
2200 52 0
4000 53 0
2600 54 0
2200 55 0
2200 56 0
4000 57 0
4000 58 0
2200 59 0
1400 60 0
1400 61 0
2200 62 0
1300 63 0
2200 64 0
3770 33 -31 0
870 -33 31 0
4074 -33 -31 0
30060 26 32 -13 0
6680 26 -32 13 0
30728 26 -32 -13 0
5010 -26 32 13 0
30561 -26 32 -13 0
10688 -26 -32 13 0
31129 -26 -32 -13 0
8350 28 30 17 -27 0
10020 28 30 -17 27 0
15865 28 30 -17 -27 0
23380 28 -30 17 27 0
25885 28 -30 17 -27 0
26386 28 -30 -17 27 0
28139 28 -30 -17 -27 0
6680 -28 30 17 27 0
13360 -28 30 17 -27 0
14696 -28 30 -17 27 0
19372 -28 30 -17 -27 0
25384 -28 -30 17 27 0
27388 -28 -30 17 -27 0
27789 -28 -30 -17 27 0
29192 -28 -30 -17 -27 0
7375 -21 0
11690 16 19 -29 0
16700 16 -19 29 0
22545 16 -19 -29 0
25050 -16 19 29 0
27973 -16 19 -29 0
29225 -16 -19 29 0
30686 -16 -19 -29 0
2030 18 20 14 12 -34 0
2900 18 20 14 -12 34 0
3915 18 20 14 -12 -34 0
3770 18 20 -14 12 34 0
4480 18 20 -14 12 -34 0
4785 18 20 -14 -12 34 0
5140 18 20 -14 -12 -34 0
2610 18 -20 14 12 34 0
3727 18 -20 14 12 -34 0
4205 18 -20 14 -12 34 0
4763 18 -20 14 -12 -34 0
4684 18 -20 -14 12 34 0
5074 18 -20 -14 12 -34 0
5242 18 -20 -14 -12 34 0
5437 18 -20 -14 -12 -34 0
3190 -18 20 14 12 34 0
4104 -18 20 14 12 -34 0
4495 -18 20 14 -12 34 0
4952 -18 20 14 -12 -34 0
4887 -18 20 -14 12 34 0
5206 -18 20 -14 12 -34 0
5343 -18 20 -14 -12 34 0
5503 -18 20 -14 -12 -34 0
4364 -18 -20 14 12 34 0
4867 -18 -20 14 12 -34 0
5082 -18 -20 14 -12 34 0
5333 -18 -20 14 -12 -34 0
5298 -18 -20 -14 12 34 0
5473 -18 -20 -14 12 -34 0
5549 -18 -20 -14 -12 34 0
5637 -18 -20 -14 -12 -34 0
4425 -22 0
8260 11 23 -25 0
6195 11 -23 25 0
13216 11 -23 -25 0
15694 -11 23 25 0
20815 -11 23 -25 0
19535 -11 -23 25 0
23888 -11 -23 -25 0
1856 -15 0
16225 -24 0
