p wcnf 79 231 1000000
1000000 1 -11 0
1000000 11 -48 -55 -3 0
1000000 8 -12 0
1000000 12 -57 -53 -42 -50 0
1000000 8 -13 0
1000000 13 -39 -47 0
1000000 2 -14 0
1000000 14 -36 -63 -57 -51 0
1000000 9 -15 0
1000000 15 -60 -37 -61 -51 0
1000000 10 -16 0
1000000 16 -45 -58 -38 -47 -59 0
1000000 10 -17 0
1000000 17 -48 -57 -64 0
1000000 9 -18 0
1000000 18 -50 -38 -55 -48 -64 0
1000000 10 -19 0
1000000 19 -37 -59 -35 -49 -47 0
1000000 5 -20 0
1000000 20 -55 -57 0
1000000 2 -21 0
1000000 21 -56 -40 0
1000000 10 -22 0
1000000 22 -41 -62 -43 0
1000000 6 -23 0
1000000 23 -58 -56 -45 -46 -44 0
1000000 3 -24 0
1000000 24 -53 -64 -43 -48 0
1000000 2 -25 0
1000000 25 -38 -45 -39 -9 0
1000000 7 -26 0
1000000 26 -37 -59 -46 -47 0
1000000 1 -27 0
1000000 27 -38 -57 0
1000000 2 -28 0
1000000 28 -37 -53 -46 -54 0
1000000 7 -29 0
1000000 29 -59 -35 -58 -47 -60 0
1000000 6 -30 0
1000000 30 -56 -43 -8 0
1000000 8 -31 0
1000000 31 -63 -47 -54 -41 0
1000000 4 -32 0
1000000 32 -63 -64 -59 0
1000000 9 -33 0
1000000 33 -37 -52 -59 -45 -62 0
1000000 5 -34 0
1000000 34 -45 -41 -40 -42 -52 0
1000000 -1 27 11 0
1000000 -2 25 14 28 21 0
1000000 -3 24 0
1000000 -4 32 0
1000000 -5 20 34 0
1000000 -6 30 23 0
1000000 -7 26 29 0
1000000 -8 13 31 12 0
1000000 -9 33 15 18 0
1000000 -10 17 16 19 22 0
1000000 35 66 0
1000000 36 75 0
1000000 37 68 0
1000000 38 66 0
1000000 39 76 0
1000000 40 67 0
1000000 41 75 0
1000000 42 66 0
1000000 43 65 0
1000000 44 74 0
1000000 45 77 0
1000000 46 70 0
1000000 47 72 0
1000000 48 73 0
1000000 49 69 0
1000000 50 73 0
1000000 51 76 0
1000000 52 76 0
1000000 53 75 0
1000000 54 77 0
1000000 55 74 0
1000000 56 74 0
1000000 57 68 0
1000000 58 72 0
1000000 59 78 0
1000000 60 79 0
1000000 61 77 0
1000000 62 71 0
1000000 63 79 0
1000000 64 71 0
1000000 -35 -66 0
1000000 -36 -75 0
1000000 -37 -68 0
1000000 -38 -66 0
1000000 -39 -76 0
1000000 -40 -67 0
1000000 -41 -75 0
1000000 -42 -66 0
1000000 -43 -65 0
1000000 -44 -74 0
1000000 -45 -77 0
1000000 -46 -70 0
1000000 -47 -72 0
1000000 -48 -73 0
1000000 -49 -69 0
1000000 -50 -73 0
1000000 -51 -76 0
1000000 -52 -76 0
1000000 -53 -75 0
1000000 -54 -77 0
1000000 -55 -74 0
1000000 -56 -74 0
1000000 -57 -68 0
1000000 -58 -72 0
1000000 -59 -78 0
1000000 -60 -79 0
1000000 -61 -77 0
1000000 -62 -71 0
1000000 -63 -79 0
1000000 -64 -71 0
6900 -65 0
7800 -66 0
5600 -67 0
7800 -68 0
6900 -69 0
6000 -70 0
7800 -71 0
6000 -72 0
9500 -73 0
9500 -74 0
7800 -75 0
5600 -76 0
6000 -77 0
7800 -78 0
5600 -79 0
1400 35 0
3300 36 0
4700 37 0
2400 38 0
3900 39 0
1400 40 0
3900 41 0
2400 42 0
4700 43 0
1400 44 0
3300 45 0
1400 46 0
3900 47 0
1400 48 0
2400 49 0
1400 50 0
2400 51 0
2400 52 0
4700 53 0
4700 54 0
3300 55 0
3900 56 0
4700 57 0
4700 58 0
3300 59 0
3300 60 0
3300 61 0
3300 62 0
3900 63 0
2400 64 0
11925 27 -11 0
3180 -27 11 0
12720 -27 -11 0
4960 25 14 28 -21 0
27280 25 14 -28 21 0
29512 25 14 -28 -21 0
17360 25 -14 28 21 0
20584 25 -14 28 -21 0
35092 25 -14 -28 21 0
36543 25 -14 -28 -21 0
992 -25 14 28 21 0
5853 -25 14 28 -21 0
27726 -25 14 -28 21 0
29914 -25 14 -28 -21 0
18005 -25 -14 28 21 0
21164 -25 -14 28 -21 0
35382 -25 -14 -28 21 0
36804 -25 -14 -28 -21 0
11925 -24 0
19525 -32 0
9920 20 -34 0
19840 -20 34 0
25792 -20 -34 0
3110 30 -23 0
9952 -30 23 0
12067 -30 -23 0
22320 26 -29 0
992 -26 29 0
22866 -26 -29 0
1020 13 31 -12 0
7752 13 -31 12 0
8384 13 -31 -12 0
13260 -13 31 12 0
13617 -13 31 -12 0
15973 -13 -31 12 0
16195 -13 -31 -12 0
42160 33 15 -18 0
19840 33 -15 18 0
45136 33 -15 -18 0
37200 -33 15 18 0
47740 -33 15 -18 0
42160 -33 -15 18 0
48484 -33 -15 -18 0
17750 17 16 19 -22 0
13490 17 16 -19 22 0
24495 17 16 -19 -22 0
15975 17 -16 19 22 0
25738 17 -16 19 -22 0
23395 17 -16 -19 22 0
29447 17 -16 -19 -22 0
5325 -17 16 19 22 0
20412 -17 16 19 -22 0
16791 -17 16 -19 22 0
26146 -17 16 -19 -22 0
18904 -17 -16 19 22 0
27202 -17 -16 19 -22 0
25210 -17 -16 -19 22 0
30355 -17 -16 -19 -22 0
