p wcnf 79 243 1000000
1000000 1 -11 0
1000000 11 -48 -36 -64 0
1000000 2 -12 0
1000000 12 -60 -50 -59 -51 -7 0
1000000 5 -13 0
1000000 13 -52 -59 0
1000000 6 -14 0
1000000 14 -50 -9 0
1000000 4 -15 0
1000000 15 -53 -52 0
1000000 9 -16 0
1000000 16 -56 -54 -60 0
1000000 5 -17 0
1000000 17 -43 -56 -7 0
1000000 9 -18 0
1000000 18 -54 -57 -53 0
1000000 6 -19 0
1000000 19 -51 -42 -10 0
1000000 6 -20 0
1000000 20 -52 -43 -54 0
1000000 6 -21 0
1000000 21 -62 -57 -39 -37 -59 0
1000000 6 -22 0
1000000 22 -64 -60 0
1000000 5 -23 0
1000000 23 -59 -55 -37 0
1000000 1 -24 0
1000000 24 -61 -41 -62 -10 0
1000000 10 -25 0
1000000 25 -46 -40 0
1000000 7 -26 0
1000000 26 -64 -45 -60 0
1000000 3 -27 0
1000000 27 -49 -39 -47 -45 0
1000000 4 -28 0
1000000 28 -60 -59 -48 -63 0
1000000 8 -29 0
1000000 29 -54 -57 -49 0
1000000 3 -30 0
1000000 30 -43 -42 -51 0
1000000 8 -31 0
1000000 31 -39 -56 -46 -62 -9 0
1000000 4 -32 0
1000000 32 -36 -60 -35 -59 -42 0
1000000 7 -33 0
1000000 33 -46 -50 -62 0
1000000 5 -34 0
1000000 34 -51 -55 0
1000000 -1 11 24 0
1000000 -2 12 0
1000000 -3 30 27 0
1000000 -4 15 28 32 0
1000000 -5 23 13 17 34 0
1000000 -6 21 20 19 14 22 0
1000000 -7 26 33 0
1000000 -8 31 29 0
1000000 -9 16 18 0
1000000 -10 25 0
1000000 35 71 0
1000000 36 70 0
1000000 37 78 0
1000000 38 71 0
1000000 39 70 0
1000000 40 79 0
1000000 41 69 0
1000000 42 73 0
1000000 43 73 0
1000000 44 78 0
1000000 45 68 0
1000000 46 74 0
1000000 47 77 0
1000000 48 72 0
1000000 49 75 0
1000000 50 72 0
1000000 51 78 0
1000000 52 65 0
1000000 53 67 0
1000000 54 67 0
1000000 55 68 0
1000000 56 70 0
1000000 57 74 0
1000000 58 68 0
1000000 59 71 0
1000000 60 66 0
1000000 61 69 0
1000000 62 77 0
1000000 63 76 0
1000000 64 76 0
1000000 -35 -71 0
1000000 -36 -70 0
1000000 -37 -78 0
1000000 -38 -71 0
1000000 -39 -70 0
1000000 -40 -79 0
1000000 -41 -69 0
1000000 -42 -73 0
1000000 -43 -73 0
1000000 -44 -78 0
1000000 -45 -68 0
1000000 -46 -74 0
1000000 -47 -77 0
1000000 -48 -72 0
1000000 -49 -75 0
1000000 -50 -72 0
1000000 -51 -78 0
1000000 -52 -65 0
1000000 -53 -67 0
1000000 -54 -67 0
1000000 -55 -68 0
1000000 -56 -70 0
1000000 -57 -74 0
1000000 -58 -68 0
1000000 -59 -71 0
1000000 -60 -66 0
1000000 -61 -69 0
1000000 -62 -77 0
1000000 -63 -76 0
1000000 -64 -76 0
5800 -65 0
9700 -66 0
9300 -67 0
9500 -68 0
5800 -69 0
9500 -70 0
9700 -71 0
9300 -72 0
8800 -73 0
9500 -74 0
9300 -75 0
5800 -76 0
9500 -77 0
9700 -78 0
5800 -79 0
3200 35 0
2900 36 0
3300 37 0
2900 38 0
3300 39 0
4400 40 0
3200 41 0
3300 42 0
2900 43 0
3200 44 0
4900 45 0
3300 46 0
4900 47 0
3300 48 0
3200 49 0
3200 50 0
4900 51 0
4900 52 0
4900 53 0
4400 54 0
4400 55 0
2900 56 0
4900 57 0
4400 58 0
3200 59 0
3300 60 0
3200 61 0
3200 62 0
3300 63 0
4400 64 0
1770 11 -24 0
13452 -11 24 0
14549 -11 -24 0
31500 -12 0
2250 30 -27 0
6750 -30 27 0
8662 -30 -27 0
435 15 28 -32 0
3480 15 -28 32 0
3741 15 -28 -32 0
1566 -15 28 32 0
1923 -15 28 -32 0
4420 -15 -28 32 0
4634 -15 -28 -32 0
19470 23 13 17 -34 0
15930 23 13 -17 34 0
26638 23 13 -17 -34 0
19470 23 -13 17 34 0
28232 23 -13 17 -34 0
26638 23 -13 -17 34 0
31457 23 -13 -17 -34 0
1770 -23 13 17 34 0
20266 -23 13 17 -34 0
16904 -23 13 -17 34 0
27077 -23 13 -17 -34 0
20266 -23 -13 17 34 0
28590 -23 -13 17 -34 0
27077 -23 -13 -17 34 0
31654 -23 -13 -17 -34 0
7080 21 20 19 14 -22 0
31860 21 20 19 -14 22 0
32568 21 20 19 -14 -22 0
12390 21 20 -19 14 22 0
16992 21 20 -19 14 -22 0
33099 21 20 -19 -14 22 0
33559 21 20 -19 -14 -22 0
5310 21 -20 19 14 22 0
11328 21 -20 19 14 -22 0
32391 21 -20 19 -14 22 0
32993 21 -20 19 -14 -22 0
15841 21 -20 -19 14 22 0
19753 21 -20 -19 14 -22 0
33444 21 -20 -19 -14 22 0
33835 21 -20 -19 -14 -22 0
17700 -21 20 19 14 22 0
21240 -21 20 19 14 -22 0
33630 -21 20 19 -14 22 0
33984 -21 20 19 -14 -22 0
23895 -21 20 -19 14 22 0
26196 -21 20 -19 14 -22 0
34250 -21 20 -19 -14 22 0
34480 -21 20 -19 -14 -22 0
20355 -21 -20 19 14 22 0
23364 -21 -20 19 14 -22 0
33895 -21 -20 19 -14 22 0
34196 -21 -20 19 -14 -22 0
25621 -21 -20 -19 14 22 0
27577 -21 -20 -19 14 -22 0
34422 -21 -20 -19 -14 22 0
34618 -21 -20 -19 -14 -22 0
21400 26 -33 0
19260 -26 33 0
31030 -26 -33 0
3540 31 -29 0
11328 -31 29 0
13735 -31 -29 0
31500 16 -18 0
14400 -16 18 0
35820 -16 -18 0
14980 -25 0
