p wcnf 79 227 1000000
1000000 4 -11 0
1000000 11 -41 -62 -40 -64 -7 0
1000000 2 -12 0
1000000 12 -54 -49 -45 0
1000000 4 -13 0
1000000 13 -41 -7 0
1000000 7 -14 0
1000000 14 -49 -37 -59 0
1000000 3 -15 0
1000000 15 -39 -59 0
1000000 10 -16 0
1000000 16 -56 -39 -60 -52 -61 0
1000000 2 -17 0
1000000 17 -45 -64 0
1000000 7 -18 0
1000000 18 -46 -49 0
1000000 8 -19 0
1000000 19 -35 -40 0
1000000 8 -20 0
1000000 20 -43 -63 0
1000000 6 -21 0
1000000 21 -45 -36 -52 -61 0
1000000 4 -22 0
1000000 22 -37 -35 -38 0
1000000 6 -23 0
1000000 23 -48 -64 -37 -50 0
1000000 7 -24 0
1000000 24 -37 -51 0
1000000 1 -25 0
1000000 25 -64 -3 0
1000000 5 -26 0
1000000 26 -37 -44 -55 -57 0
1000000 2 -27 0
1000000 27 -42 -35 -51 -56 -46 0
1000000 1 -28 0
1000000 28 -51 -38 -46 -36 -8 0
1000000 6 -29 0
1000000 29 -52 -47 0
1000000 5 -30 0
1000000 30 -43 -41 -62 0
1000000 2 -31 0
1000000 31 -39 -40 -45 0
1000000 9 -32 0
1000000 32 -55 -57 -10 0
1000000 10 -33 0
1000000 33 -49 -60 -35 0
1000000 5 -34 0
1000000 34 -56 -52 -10 0
1000000 -1 25 28 0
1000000 -2 31 17 12 27 0
1000000 -3 15 0
1000000 -4 22 11 13 0
1000000 -5 26 30 34 0
1000000 -6 21 29 23 0
1000000 -7 18 24 14 0
1000000 -8 20 19 0
1000000 -9 32 0
1000000 -10 16 33 0
1000000 35 67 0
1000000 36 67 0
1000000 37 77 0
1000000 38 74 0
1000000 39 75 0
1000000 40 65 0
1000000 41 68 0
1000000 42 72 0
1000000 43 70 0
1000000 44 73 0
1000000 45 67 0
1000000 46 71 0
1000000 47 74 0
1000000 48 65 0
1000000 49 79 0
1000000 50 78 0
1000000 51 73 0
1000000 52 69 0
1000000 53 75 0
1000000 54 77 0
1000000 55 79 0
1000000 56 66 0
1000000 57 75 0
1000000 58 73 0
1000000 59 76 0
1000000 60 77 0
1000000 61 78 0
1000000 62 69 0
1000000 63 79 0
1000000 64 68 0
1000000 -35 -67 0
1000000 -36 -67 0
1000000 -37 -77 0
1000000 -38 -74 0
1000000 -39 -75 0
1000000 -40 -65 0
1000000 -41 -68 0
1000000 -42 -72 0
1000000 -43 -70 0
1000000 -44 -73 0
1000000 -45 -67 0
1000000 -46 -71 0
1000000 -47 -74 0
1000000 -48 -65 0
1000000 -49 -79 0
1000000 -50 -78 0
1000000 -51 -73 0
1000000 -52 -69 0
1000000 -53 -75 0
1000000 -54 -77 0
1000000 -55 -79 0
1000000 -56 -66 0
1000000 -57 -75 0
1000000 -58 -73 0
1000000 -59 -76 0
1000000 -60 -77 0
1000000 -61 -78 0
1000000 -62 -69 0
1000000 -63 -79 0
1000000 -64 -68 0
7000 -65 0
5500 -66 0
7000 -67 0
7000 -68 0
6400 -69 0
9300 -70 0
5500 -71 0
8500 -72 0
8500 -73 0
5500 -74 0
8500 -75 0
8500 -76 0
8500 -77 0
7000 -78 0
8500 -79 0
4400 35 0
1500 36 0
1500 37 0
4400 38 0
4400 39 0
4000 40 0
1500 41 0
4400 42 0
4400 43 0
3100 44 0
2500 45 0
3100 46 0
4400 47 0
4000 48 0
2500 49 0
3100 50 0
2500 51 0
4400 52 0
1500 53 0
1500 54 0
4400 55 0
4000 56 0
4000 57 0
4400 58 0
2500 59 0
4000 60 0
3100 61 0
1500 62 0
4000 63 0
3100 64 0
5856 25 -28 0
9760 -25 28 0
14445 -25 -28 0
21280 31 17 12 -27 0
9120 31 17 -12 27 0
24016 31 17 -12 -27 0
15200 31 -17 12 27 0
25840 31 -17 12 -27 0
19760 31 -17 -12 27 0
27208 31 -17 -12 -27 0
22800 -31 17 12 27 0
28120 -31 17 12 -27 0
25080 -31 17 -12 27 0
28804 -31 17 -12 -27 0
26600 -31 -17 12 27 0
29260 -31 -17 12 -27 0
27740 -31 -17 -12 27 0
29602 -31 -17 -12 -27 0
2232 -15 0
13680 22 11 -13 0
10640 22 -11 13 0
19532 22 -11 -13 0
4560 -22 11 13 0
16188 -22 11 -13 0
13604 -22 -11 13 0
21162 -22 -11 -13 0
14880 26 30 -34 0
15810 26 -30 34 0
18042 26 -30 -34 0
12090 -26 30 34 0
17298 -26 30 -34 0
17624 -26 -30 34 0
18405 -26 -30 -34 0
11280 21 29 -23 0
16920 21 -29 23 0
23124 21 -29 -23 0
18800 -21 29 23 0
24440 -21 29 -23 0
27260 -21 -29 23 0
30362 -21 -29 -23 0
27360 18 24 -14 0
22800 18 -24 14 0
29640 18 -24 -14 0
9120 -18 24 14 0
28272 -18 24 -14 0
25080 -18 -24 14 0
29868 -18 -24 -14 0
27360 20 -19 0
21280 -20 19 0
29488 -20 -19 0
16740 -32 0
2832 16 -33 0
4720 -16 33 0
6986 -16 -33 0
