p wcnf 79 237 1000000
1000000 9 -11 0
1000000 11 -54 -39 -61 0
1000000 2 -12 0
1000000 12 -46 -36 -64 -47 -60 0
1000000 5 -13 0
1000000 13 -49 -60 -50 -48 -6 0
1000000 10 -14 0
1000000 14 -41 -57 -35 0
1000000 10 -15 0
1000000 15 -64 -47 -53 -51 -56 0
1000000 2 -16 0
1000000 16 -41 -63 -64 -51 0
1000000 8 -17 0
1000000 17 -41 -48 -57 -50 -38 0
1000000 3 -18 0
1000000 18 -50 -36 -54 -7 0
1000000 4 -19 0
1000000 19 -58 -45 0
1000000 6 -20 0
1000000 20 -50 -57 0
1000000 2 -21 0
1000000 21 -43 -39 -37 0
1000000 2 -22 0
1000000 22 -37 -44 -52 -50 0
1000000 7 -23 0
1000000 23 -59 -51 -40 0
1000000 3 -24 0
1000000 24 -64 -59 -45 0
1000000 7 -25 0
1000000 25 -38 -55 -47 0
1000000 6 -26 0
1000000 26 -38 -51 -49 0
1000000 5 -27 0
1000000 27 -42 -40 -59 -38 0
1000000 10 -28 0
1000000 28 -51 -62 -46 -63 0
1000000 6 -29 0
1000000 29 -62 -48 -63 0
1000000 10 -30 0
1000000 30 -46 -63 -52 0
1000000 3 -31 0
1000000 31 -49 -47 -60 -44 0
1000000 1 -32 0
1000000 32 -40 -64 -47 -48 -3 0
1000000 1 -33 0
1000000 33 -58 -62 0
1000000 6 -34 0
1000000 34 -56 -48 -62 -55 0
1000000 -1 32 33 0
1000000 -2 16 12 22 21 0
1000000 -3 18 31 24 0
1000000 -4 19 0
1000000 -5 13 27 0
1000000 -6 26 20 29 34 0
1000000 -7 23 25 0
1000000 -8 17 0
1000000 -9 11 0
1000000 -10 14 15 28 30 0
1000000 35 70 0
1000000 36 77 0
1000000 37 74 0
1000000 38 66 0
1000000 39 71 0
1000000 40 67 0
1000000 41 68 0
1000000 42 77 0
1000000 43 69 0
1000000 44 66 0
1000000 45 78 0
1000000 46 65 0
1000000 47 78 0
1000000 48 72 0
1000000 49 70 0
1000000 50 74 0
1000000 51 76 0
1000000 52 73 0
1000000 53 65 0
1000000 54 74 0
1000000 55 69 0
1000000 56 66 0
1000000 57 68 0
1000000 58 75 0
1000000 59 72 0
1000000 60 79 0
1000000 61 73 0
1000000 62 77 0
1000000 63 69 0
1000000 64 78 0
1000000 -35 -70 0
1000000 -36 -77 0
1000000 -37 -74 0
1000000 -38 -66 0
1000000 -39 -71 0
1000000 -40 -67 0
1000000 -41 -68 0
1000000 -42 -77 0
1000000 -43 -69 0
1000000 -44 -66 0
1000000 -45 -78 0
1000000 -46 -65 0
1000000 -47 -78 0
1000000 -48 -72 0
1000000 -49 -70 0
1000000 -50 -74 0
1000000 -51 -76 0
1000000 -52 -73 0
1000000 -53 -65 0
1000000 -54 -74 0
1000000 -55 -69 0
1000000 -56 -66 0
1000000 -57 -68 0
1000000 -58 -75 0
1000000 -59 -72 0
1000000 -60 -79 0
1000000 -61 -73 0
1000000 -62 -77 0
1000000 -63 -69 0
1000000 -64 -78 0
6600 -65 0
6600 -66 0
6600 -67 0
6800 -68 0
6300 -69 0
5000 -70 0
6300 -71 0
6800 -72 0
9200 -73 0
6800 -74 0
5000 -75 0
6800 -76 0
6800 -77 0
6300 -78 0
6600 -79 0
3100 35 0
1200 36 0
4400 37 0
3100 38 0
1500 39 0
1200 40 0
1200 41 0
4400 42 0
1200 43 0
1200 44 0
4400 45 0
1500 46 0
4900 47 0
3100 48 0
1500 49 0
3100 50 0
4400 51 0
3100 52 0
4900 53 0
4900 54 0
3100 55 0
4900 56 0
4900 57 0
4900 58 0
3100 59 0
3100 60 0
4400 61 0
3100 62 0
1200 63 0
3100 64 0
8600 32 -33 0
9675 -32 33 0
14405 -32 -33 0
12705 16 12 22 -21 0
20790 16 12 -22 21 0
22061 16 12 -22 -21 0
13860 16 -12 22 21 0
18942 16 -12 22 -21 0
22176 16 -12 -22 21 0
22684 16 -12 -22 -21 0
4158 -16 12 22 21 0
14576 -16 12 22 -21 0
21206 -16 12 -22 21 0
22248 -16 12 -22 -21 0
15523 -16 -12 22 21 0
19690 -16 -12 22 -21 0
22342 -16 -12 -22 21 0
22759 -16 -12 -22 -21 0
9240 18 31 -24 0
9240 18 -31 24 0
14784 18 -31 -24 0
2772 -18 31 24 0
10903 -18 31 -24 0
10903 -18 -31 24 0
15782 -18 -31 -24 0
8600 -19 0
28795 13 -27 0
17720 -13 27 0
34997 -13 -27 0
19240 26 20 29 -34 0
1480 26 20 -29 34 0
19758 26 20 -29 -34 0
16280 26 -20 29 34 0
24938 26 -20 29 -34 0
16946 26 -20 -29 34 0
25171 26 -20 -29 -34 0
19240 -26 20 29 34 0
25974 -26 20 29 -34 0
19758 -26 20 -29 34 0
26155 -26 20 -29 -34 0
24938 -26 -20 29 34 0
27968 -26 -20 29 -34 0
25171 -26 -20 -29 34 0
28050 -26 -20 -29 -34 0
17325 23 -25 0
6930 -23 25 0
19057 -23 -25 0
8880 -17 0
2960 -11 0
21140 14 15 28 -30 0
28690 14 15 -28 30 0
29747 14 15 -28 -30 0
7550 14 -15 28 30 0
23405 14 -15 28 -30 0
29067 14 -15 -28 30 0
29860 14 -15 -28 -30 0
16610 -14 15 28 30 0
26123 -14 15 28 -30 0
29520 -14 15 -28 30 0
29996 -14 15 -28 -30 0
20008 -14 -15 28 30 0
27142 -14 -15 28 -30 0
29690 -14 -15 -28 30 0
30047 -14 -15 -28 -30 0
