p wcnf 79 245 1000000
1000000 5 -11 0
1000000 11 -51 -45 -55 -50 -9 0
1000000 7 -12 0
1000000 12 -49 -53 -61 -56 0
1000000 9 -13 0
1000000 13 -35 -41 -10 0
1000000 2 -14 0
1000000 14 -58 -5 0
1000000 5 -15 0
1000000 15 -61 -59 0
1000000 6 -16 0
1000000 16 -56 -59 0
1000000 6 -17 0
1000000 17 -63 -57 -7 0
1000000 6 -18 0
1000000 18 -52 -43 -45 0
1000000 3 -19 0
1000000 19 -60 -35 -62 -40 0
1000000 6 -20 0
1000000 20 -42 -61 -51 -41 -47 0
1000000 8 -21 0
1000000 21 -54 -42 -40 0
1000000 4 -22 0
1000000 22 -46 -57 -64 -60 -61 0
1000000 1 -23 0
1000000 23 -45 -57 -40 0
1000000 10 -24 0
1000000 24 -53 -52 -44 -62 -39 0
1000000 3 -25 0
1000000 25 -50 -46 0
1000000 3 -26 0
1000000 26 -42 -58 -38 -46 -10 0
1000000 6 -27 0
1000000 27 -50 -62 0
1000000 10 -28 0
1000000 28 -60 -46 -36 -55 -63 0
1000000 8 -29 0
1000000 29 -44 -39 0
1000000 5 -30 0
1000000 30 -58 -53 0
1000000 1 -31 0
1000000 31 -39 -57 -61 -44 -41 0
1000000 7 -32 0
1000000 32 -55 -53 0
1000000 3 -33 0
1000000 33 -61 -45 0
1000000 7 -34 0
1000000 34 -45 -36 -63 -50 0
1000000 -1 23 31 0
1000000 -2 14 0
1000000 -3 26 19 33 25 0
1000000 -4 22 0
1000000 -5 30 15 11 0
1000000 -6 18 16 20 17 27 0
1000000 -7 32 12 34 0
1000000 -8 21 29 0
1000000 -9 13 0
1000000 -10 28 24 0
1000000 35 76 0
1000000 36 79 0
1000000 37 68 0
1000000 38 78 0
1000000 39 71 0
1000000 40 75 0
1000000 41 73 0
1000000 42 76 0
1000000 43 72 0
1000000 44 65 0
1000000 45 78 0
1000000 46 76 0
1000000 47 70 0
1000000 48 71 0
1000000 49 66 0
1000000 50 66 0
1000000 51 67 0
1000000 52 77 0
1000000 53 69 0
1000000 54 67 0
1000000 55 74 0
1000000 56 65 0
1000000 57 78 0
1000000 58 79 0
1000000 59 79 0
1000000 60 67 0
1000000 61 68 0
1000000 62 77 0
1000000 63 66 0
1000000 64 71 0
1000000 -35 -76 0
1000000 -36 -79 0
1000000 -37 -68 0
1000000 -38 -78 0
1000000 -39 -71 0
1000000 -40 -75 0
1000000 -41 -73 0
1000000 -42 -76 0
1000000 -43 -72 0
1000000 -44 -65 0
1000000 -45 -78 0
1000000 -46 -76 0
1000000 -47 -70 0
1000000 -48 -71 0
1000000 -49 -66 0
1000000 -50 -66 0
1000000 -51 -67 0
1000000 -52 -77 0
1000000 -53 -69 0
1000000 -54 -67 0
1000000 -55 -74 0
1000000 -56 -65 0
1000000 -57 -78 0
1000000 -58 -79 0
1000000 -59 -79 0
1000000 -60 -67 0
1000000 -61 -68 0
1000000 -62 -77 0
1000000 -63 -66 0
1000000 -64 -71 0
7200 -65 0
5400 -66 0
5400 -67 0
7200 -68 0
7100 -69 0
7200 -70 0
7900 -71 0
5400 -72 0
5400 -73 0
7500 -74 0
7100 -75 0
7900 -76 0
7900 -77 0
7500 -78 0
7900 -79 0
4100 35 0
2800 36 0
3000 37 0
3200 38 0
1100 39 0
3200 40 0
1100 41 0
3000 42 0
4100 43 0
1100 44 0
4100 45 0
4100 46 0
2800 47 0
2800 48 0
3000 49 0
4100 50 0
4100 51 0
3000 52 0
1100 53 0
4100 54 0
4100 55 0
3000 56 0
1100 57 0
2800 58 0
1100 59 0
2800 60 0
3200 61 0
4100 62 0
4100 63 0
3000 64 0
7150 23 -31 0
9295 -23 31 0
11797 -23 -31 0
13635 -14 0
3030 26 19 33 -25 0
27270 26 19 -33 25 0
27573 26 19 -33 -25 0
19695 26 -19 33 25 0
20756 26 -19 33 -25 0
29239 26 -19 -33 25 0
29346 26 -19 -33 -25 0
9696 -26 19 33 25 0
11756 -26 19 33 -25 0
28240 -26 19 -33 25 0
28446 -26 19 -33 -25 0
23089 -26 -19 33 25 0
23810 -26 -19 33 -25 0
29579 -26 -19 -33 25 0
29651 -26 -19 -33 -25 0
670 -22 0
10725 30 15 -11 0
3575 30 -15 11 0
11619 30 -15 -11 0
1716 -30 15 11 0
11154 -30 15 -11 0
4862 -30 -15 11 0
11941 -30 -15 -11 0
320 18 16 20 17 -27 0
2880 18 16 20 -17 27 0
3142 18 16 20 -17 -27 0
6080 18 16 -20 17 27 0
6278 18 16 -20 17 -27 0
7866 18 16 -20 -17 27 0
8028 18 16 -20 -17 -27 0
2400 18 -16 20 17 27 0
2672 18 -16 20 17 -27 0
4848 18 -16 20 -17 27 0
5071 18 -16 20 -17 -27 0
7568 18 -16 -20 17 27 0
7737 18 -16 -20 17 -27 0
9086 18 -16 -20 -17 27 0
9224 18 -16 -20 -17 -27 0
800 -18 16 20 17 27 0
1104 -18 16 20 17 -27 0
3536 -18 16 20 -17 27 0
3785 -18 16 20 -17 -27 0
6576 -18 16 -20 17 27 0
6764 -18 16 -20 17 -27 0
8272 -18 16 -20 -17 27 0
8427 -18 16 -20 -17 -27 0
3080 -18 -16 20 17 27 0
3338 -18 -16 20 17 -27 0
5406 -18 -16 20 -17 27 0
5617 -18 -16 20 -17 -27 0
7990 -18 -16 -20 17 27 0
8150 -18 -16 -20 17 -27 0
9431 -18 -16 -20 -17 27 0
9563 -18 -16 -20 -17 -27 0
3350 32 12 -34 0
10050 32 -12 34 0
12395 32 -12 -34 0
12730 -32 12 34 0
14807 -32 12 -34 0
18961 -32 -12 34 0
20415 -32 -12 -34 0
6030 21 -29 0
18425 -21 29 0
21138 -21 -29 0
15075 -13 0
5720 28 -24 0
6435 -28 24 0
9581 -28 -24 0
