p wcnf 79 243 1000000
1000000 10 -11 0
1000000 11 -59 -43 0
1000000 6 -12 0
1000000 12 -40 -44 -61 -41 -8 0
1000000 10 -13 0
1000000 13 -40 -55 -61 -56 0
1000000 10 -14 0
1000000 14 -52 -44 0
1000000 2 -15 0
1000000 15 -60 -53 0
1000000 4 -16 0
1000000 16 -56 -38 -39 -51 -9 0
1000000 7 -17 0
1000000 17 -53 -51 -56 0
1000000 4 -18 0
1000000 18 -59 -61 -50 -41 -49 0
1000000 9 -19 0
1000000 19 -36 -10 0
1000000 2 -20 0
1000000 20 -52 -36 -55 0
1000000 10 -21 0
1000000 21 -36 -35 -61 -59 0
1000000 7 -22 0
1000000 22 -39 -46 -63 -61 -50 0
1000000 7 -23 0
1000000 23 -59 -48 -39 -55 0
1000000 1 -24 0
1000000 24 -63 -56 -43 0
1000000 6 -25 0
1000000 25 -61 -58 -49 0
1000000 3 -26 0
1000000 26 -59 -40 -10 0
1000000 5 -27 0
1000000 27 -42 -64 -51 -62 -46 0
1000000 7 -28 0
1000000 28 -51 -56 -42 0
1000000 6 -29 0
1000000 29 -50 -35 -48 -42 -55 0
1000000 1 -30 0
1000000 30 -58 -40 0
1000000 8 -31 0
1000000 31 -52 -37 -45 0
1000000 5 -32 0
1000000 32 -36 -40 -47 -53 0
1000000 7 -33 0
1000000 33 -39 -61 -59 -51 -56 0
1000000 3 -34 0
1000000 34 -58 -49 -37 -44 0
1000000 -1 24 30 0
1000000 -2 20 15 0
1000000 -3 26 34 0
1000000 -4 16 18 0
1000000 -5 27 32 0
1000000 -6 29 12 25 0
1000000 -7 28 23 33 22 17 0
1000000 -8 31 0
1000000 -9 19 0
1000000 -10 14 11 13 21 0
1000000 35 74 0
1000000 36 69 0
1000000 37 65 0
1000000 38 68 0
1000000 39 75 0
1000000 40 70 0
1000000 41 74 0
1000000 42 77 0
1000000 43 79 0
1000000 44 78 0
1000000 45 75 0
1000000 46 77 0
1000000 47 79 0
1000000 48 72 0
1000000 49 78 0
1000000 50 67 0
1000000 51 79 0
1000000 52 68 0
1000000 53 68 0
1000000 54 75 0
1000000 55 73 0
1000000 56 66 0
1000000 57 76 0
1000000 58 72 0
1000000 59 70 0
1000000 60 67 0
1000000 61 74 0
1000000 62 66 0
1000000 63 70 0
1000000 64 71 0
1000000 -35 -74 0
1000000 -36 -69 0
1000000 -37 -65 0
1000000 -38 -68 0
1000000 -39 -75 0
1000000 -40 -70 0
1000000 -41 -74 0
1000000 -42 -77 0
1000000 -43 -79 0
1000000 -44 -78 0
1000000 -45 -75 0
1000000 -46 -77 0
1000000 -47 -79 0
1000000 -48 -72 0
1000000 -49 -78 0
1000000 -50 -67 0
1000000 -51 -79 0
1000000 -52 -68 0
1000000 -53 -68 0
1000000 -54 -75 0
1000000 -55 -73 0
1000000 -56 -66 0
1000000 -57 -76 0
1000000 -58 -72 0
1000000 -59 -70 0
1000000 -60 -67 0
1000000 -61 -74 0
1000000 -62 -66 0
1000000 -63 -70 0
1000000 -64 -71 0
9000 -65 0
5900 -66 0
7900 -67 0
7900 -68 0
5200 -69 0
9600 -70 0
9000 -71 0
9000 -72 0
5900 -73 0
7900 -74 0
9600 -75 0
9600 -76 0
5900 -77 0
9000 -78 0
5900 -79 0
2700 35 0
4500 36 0
2700 37 0
4200 38 0
4500 39 0
4200 40 0
4500 41 0
1300 42 0
4500 43 0
4500 44 0
1300 45 0
4500 46 0
1200 47 0
1300 48 0
4500 49 0
1200 50 0
4200 51 0
1200 52 0
1300 53 0
1200 54 0
4200 55 0
1300 56 0
1200 57 0
1300 58 0
4500 59 0
4500 60 0
1200 61 0
1200 62 0
1200 63 0
4500 64 0
19350 24 -30 0
7525 -24 30 0
20103 -24 -30 0
15050 20 -15 0
7525 -20 15 0
17307 -20 -15 0
7830 26 -34 0
18270 -26 34 0
20619 -26 -34 0
16950 16 -18 0
6780 -16 18 0
18645 -16 -18 0
4620 27 -32 0
3780 -27 32 0
6321 -27 -32 0
3180 29 12 -25 0
2120 29 -12 25 0
4664 29 -12 -25 0
5830 -29 12 25 0
7261 -29 12 -25 0
6784 -29 -12 25 0
7929 -29 -12 -25 0
16965 28 23 33 22 -17 0
14355 28 23 33 -22 17 0
21989 28 23 33 -22 -17 0
10440 28 23 -33 22 17 0
20619 28 23 -33 22 -17 0
19053 28 23 -33 -22 17 0
23634 28 23 -33 -22 -17 0
6525 28 -23 33 22 17 0
19249 28 -23 33 22 -17 0
17291 28 -23 33 -22 17 0
23017 28 -23 33 -22 -17 0
14355 28 -23 -33 22 17 0
21989 28 -23 -33 22 -17 0
20815 28 -23 -33 -22 17 0
24250 28 -23 -33 -22 -17 0
19575 -28 23 33 22 17 0
23816 -28 23 33 22 -17 0
23164 -28 23 33 -22 17 0
25072 -28 23 33 -22 -17 0
22185 -28 23 -33 22 17 0
24730 -28 23 -33 22 -17 0
24338 -28 23 -33 -22 17 0
25483 -28 23 -33 -22 -17 0
21206 -28 -23 33 22 17 0
24387 -28 -23 33 22 -17 0
23898 -28 -23 33 -22 17 0
25329 -28 -23 33 -22 -17 0
23164 -28 -23 -33 22 17 0
25072 -28 -23 -33 22 -17 0
24779 -28 -23 -33 -22 17 0
25638 -28 -23 -33 -22 -17 0
9540 -31 0
13975 -19 0
1590 14 11 13 -21 0
8480 14 11 -13 21 0
8798 14 11 -13 -21 0
7950 14 -11 13 21 0
8347 14 -11 13 -21 0
10070 14 -11 -13 21 0
10150 14 -11 -13 -21 0
1060 -14 11 13 21 0
2491 -14 11 13 -21 0
8692 -14 11 -13 21 0
8978 -14 11 -13 -21 0
8215 -14 -11 13 21 0
8573 -14 -11 13 -21 0
10123 -14 -11 -13 21 0
10195 -14 -11 -13 -21 0
