p wcnf 79 233 1000000
1000000 4 -11 0
1000000 11 -40 -63 0
1000000 5 -12 0
1000000 12 -63 -61 0
1000000 7 -13 0
1000000 13 -49 -42 -48 0
1000000 2 -14 0
1000000 14 -48 -42 -61 -50 -43 0
1000000 1 -15 0
1000000 15 -60 -44 -53 -41 0
1000000 10 -16 0
1000000 16 -45 -41 -55 -37 -35 0
1000000 5 -17 0
1000000 17 -41 -47 0
1000000 4 -18 0
1000000 18 -55 -49 -53 -42 -60 0
1000000 3 -19 0
1000000 19 -50 -62 -54 -10 0
1000000 3 -20 0
1000000 20 -52 -64 -38 -63 -53 0
1000000 2 -21 0
1000000 21 -49 -50 0
1000000 2 -22 0
1000000 22 -41 -47 -52 0
1000000 5 -23 0
1000000 23 -56 -43 -53 -39 -52 0
1000000 4 -24 0
1000000 24 -36 -61 -59 -43 -48 0
1000000 9 -25 0
1000000 25 -51 -55 -44 0
1000000 3 -26 0
1000000 26 -56 -48 -55 -47 -53 0
1000000 4 -27 0
1000000 27 -64 -53 -56 -62 0
1000000 9 -28 0
1000000 28 -37 -53 -52 -54 -10 0
1000000 8 -29 0
1000000 29 -53 -52 -43 -63 -60 0
1000000 2 -30 0
1000000 30 -35 -39 -64 -53 0
1000000 10 -31 0
1000000 31 -47 -59 -48 0
1000000 10 -32 0
1000000 32 -55 -45 0
1000000 7 -33 0
1000000 33 -46 -57 -64 -52 -10 0
1000000 6 -34 0
1000000 34 -38 -48 -42 0
1000000 -1 15 0
1000000 -2 30 22 14 21 0
1000000 -3 26 20 19 0
1000000 -4 27 18 11 24 0
1000000 -5 23 12 17 0
1000000 -6 34 0
1000000 -7 13 33 0
1000000 -8 29 0
1000000 -9 25 28 0
1000000 -10 32 16 31 0
1000000 35 66 0
1000000 36 69 0
1000000 37 78 0
1000000 38 67 0
1000000 39 75 0
1000000 40 76 0
1000000 41 65 0
1000000 42 77 0
1000000 43 79 0
1000000 44 73 0
1000000 45 79 0
1000000 46 73 0
1000000 47 70 0
1000000 48 69 0
1000000 49 74 0
1000000 50 76 0
1000000 51 76 0
1000000 52 78 0
1000000 53 77 0
1000000 54 70 0
1000000 55 70 0
1000000 56 73 0
1000000 57 71 0
1000000 58 68 0
1000000 59 77 0
1000000 60 79 0
1000000 61 75 0
1000000 62 72 0
1000000 63 66 0
1000000 64 74 0
1000000 -35 -66 0
1000000 -36 -69 0
1000000 -37 -78 0
1000000 -38 -67 0
1000000 -39 -75 0
1000000 -40 -76 0
1000000 -41 -65 0
1000000 -42 -77 0
1000000 -43 -79 0
1000000 -44 -73 0
1000000 -45 -79 0
1000000 -46 -73 0
1000000 -47 -70 0
1000000 -48 -69 0
1000000 -49 -74 0
1000000 -50 -76 0
1000000 -51 -76 0
1000000 -52 -78 0
1000000 -53 -77 0
1000000 -54 -70 0
1000000 -55 -70 0
1000000 -56 -73 0
1000000 -57 -71 0
1000000 -58 -68 0
1000000 -59 -77 0
1000000 -60 -79 0
1000000 -61 -75 0
1000000 -62 -72 0
1000000 -63 -66 0
1000000 -64 -74 0
8600 -65 0
8600 -66 0
7900 -67 0
7600 -68 0
7700 -69 0
8600 -70 0
7900 -71 0
7600 -72 0
8600 -73 0
8600 -74 0
7900 -75 0
7800 -76 0
7700 -77 0
8600 -78 0
7900 -79 0
1400 35 0
3200 36 0
1400 37 0
1400 38 0
3200 39 0
3000 40 0
3200 41 0
4800 42 0
3000 43 0
3000 44 0
4800 45 0
3200 46 0
4500 47 0
4800 48 0
3000 49 0
4800 50 0
3200 51 0
3000 52 0
3000 53 0
3000 54 0
3200 55 0
4500 56 0
1400 57 0
4500 58 0
3200 59 0
4500 60 0
4500 61 0
3000 62 0
1400 63 0
1400 64 0
675 -15 0
3375 30 22 14 -21 0
5130 30 22 -14 21 0
7223 30 22 -14 -21 0
3375 30 -22 14 21 0
5906 30 -22 14 -21 0
7223 30 -22 -14 21 0
8792 30 -22 -14 -21 0
10800 -30 22 14 21 0
11475 -30 22 14 -21 0
11826 -30 22 -14 21 0
12245 -30 22 -14 -21 0
11475 -30 -22 14 21 0
11981 -30 -22 14 -21 0
12245 -30 -22 -14 21 0
12558 -30 -22 -14 -21 0
138 26 20 -19 0
1035 26 -20 19 0
1152 26 -20 -19 0
5520 -26 20 19 0
5548 -26 20 -19 0
5727 -26 -20 19 0
5750 -26 -20 -19 0
6900 27 18 11 -24 0
13800 27 18 -11 24 0
18630 27 18 -11 -24 0
9200 27 -18 11 24 0
14720 27 -18 11 -24 0
20240 27 -18 -11 24 0
24104 27 -18 -11 -24 0
4600 -27 18 11 24 0
10810 -27 18 11 -24 0
17020 -27 18 -11 24 0
21367 -27 18 -11 -24 0
12880 -27 -18 11 24 0
17848 -27 -18 11 -24 0
22816 -27 -18 -11 24 0
26294 -27 -18 -11 -24 0
1188 23 12 -17 0
9405 23 -12 17 0
9464 23 -12 -17 0
2970 -23 12 17 0
3802 -23 12 -17 0
9553 -23 -12 17 0
9595 -23 -12 -17 0
3105 -34 0
4140 13 -33 0
5175 -13 33 0
6210 -13 -33 0
4725 -29 0
36000 25 -28 0
22000 -25 28 0
38200 -25 -28 0
4050 32 16 -31 0
1350 32 -16 31 0
4995 32 -16 -31 0
8775 -32 16 31 0
10192 -32 16 -31 0
9248 -32 -16 31 0
10523 -32 -16 -31 0
