p wcnf 79 231 1000000
1000000 8 -11 0
1000000 11 -62 -47 -57 -60 -53 0
1000000 8 -12 0
1000000 12 -49 -35 -38 -43 0
1000000 2 -13 0
1000000 13 -42 -63 -56 -48 0
1000000 2 -14 0
1000000 14 -61 -64 -51 0
1000000 4 -15 0
1000000 15 -51 -56 0
1000000 7 -16 0
1000000 16 -52 -44 -35 0
1000000 1 -17 0
1000000 17 -41 -36 -57 -35 -50 0
1000000 8 -18 0
1000000 18 -38 -45 -55 -42 -47 0
1000000 9 -19 0
1000000 19 -60 -62 -36 0
1000000 5 -20 0
1000000 20 -59 -61 -51 0
1000000 3 -21 0
1000000 21 -45 -40 -60 -5 0
1000000 2 -22 0
1000000 22 -36 -55 -42 -60 0
1000000 7 -23 0
1000000 23 -56 -62 -38 -39 -47 0
1000000 10 -24 0
1000000 24 -40 -47 -42 -56 -38 0
1000000 6 -25 0
1000000 25 -57 -44 0
1000000 10 -26 0
1000000 26 -42 -51 -60 0
1000000 3 -27 0
1000000 27 -60 -57 0
1000000 2 -28 0
1000000 28 -37 -56 -57 -36 -64 0
1000000 4 -29 0
1000000 29 -45 -38 -55 -64 0
1000000 1 -30 0
1000000 30 -56 -55 0
1000000 3 -31 0
1000000 31 -61 -54 -45 -41 0
1000000 7 -32 0
1000000 32 -38 -9 0
1000000 5 -33 0
1000000 33 -54 -59 0
1000000 3 -34 0
1000000 34 -41 -55 -47 -35 -10 0
1000000 -1 30 17 0
1000000 -2 22 14 28 13 0
1000000 -3 31 21 27 34 0
1000000 -4 29 15 0
1000000 -5 20 33 0
1000000 -6 25 0
1000000 -7 23 32 16 0
1000000 -8 18 11 12 0
1000000 -9 19 0
1000000 -10 26 24 0
1000000 35 69 0
1000000 36 72 0
1000000 37 75 0
1000000 38 67 0
1000000 39 72 0
1000000 40 66 0
1000000 41 76 0
1000000 42 73 0
1000000 43 69 0
1000000 44 65 0
1000000 45 75 0
1000000 46 79 0
1000000 47 79 0
1000000 48 70 0
1000000 49 74 0
1000000 50 73 0
1000000 51 65 0
1000000 52 75 0
1000000 53 69 0
1000000 54 68 0
1000000 55 77 0
1000000 56 71 0
1000000 57 70 0
1000000 58 70 0
1000000 59 68 0
1000000 60 67 0
1000000 61 66 0
1000000 62 79 0
1000000 63 78 0
1000000 64 67 0
1000000 -35 -69 0
1000000 -36 -72 0
1000000 -37 -75 0
1000000 -38 -67 0
1000000 -39 -72 0
1000000 -40 -66 0
1000000 -41 -76 0
1000000 -42 -73 0
1000000 -43 -69 0
1000000 -44 -65 0
1000000 -45 -75 0
1000000 -46 -79 0
1000000 -47 -79 0
1000000 -48 -70 0
1000000 -49 -74 0
1000000 -50 -73 0
1000000 -51 -65 0
1000000 -52 -75 0
1000000 -53 -69 0
1000000 -54 -68 0
1000000 -55 -77 0
1000000 -56 -71 0
1000000 -57 -70 0
1000000 -58 -70 0
1000000 -59 -68 0
1000000 -60 -67 0
1000000 -61 -66 0
1000000 -62 -79 0
1000000 -63 -78 0
1000000 -64 -67 0
8800 -65 0
5600 -66 0
8600 -67 0
5600 -68 0
8800 -69 0
8600 -70 0
5600 -71 0
9500 -72 0
8600 -73 0
9500 -74 0
7200 -75 0
7200 -76 0
9500 -77 0
8800 -78 0
8800 -79 0
3400 35 0
2800 36 0
1100 37 0
3500 38 0
3400 39 0
1700 40 0
1700 41 0
2800 42 0
3400 43 0
3500 44 0
1700 45 0
3400 46 0
3500 47 0
2800 48 0
3400 49 0
1700 50 0
3400 51 0
3400 52 0
3400 53 0
2800 54 0
1100 55 0
1100 56 0
2800 57 0
1100 58 0
3500 59 0
3500 60 0
1100 61 0
3500 62 0
3500 63 0
2800 64 0
18000 30 -17 0
4320 -30 17 0
19080 -30 -17 0
1410 22 14 28 -13 0
188 22 14 -28 13 0
1570 22 14 -28 -13 0
940 22 -14 28 13 0
2209 22 -14 28 -13 0
1109 22 -14 -28 13 0
2353 22 -14 -28 -13 0
3760 -22 14 28 13 0
4606 -22 14 28 -13 0
3873 -22 14 -28 13 0
4702 -22 14 -28 -13 0
4324 -22 -14 28 13 0
5085 -22 -14 28 -13 0
4426 -22 -14 -28 13 0
5172 -22 -14 -28 -13 0
620 31 21 27 -34 0
10850 31 21 -27 34 0
11253 31 21 -27 -34 0
23250 31 -21 27 34 0
23405 31 -21 27 -34 0
25962 31 -21 -27 34 0
26063 31 -21 -27 -34 0
15500 -31 21 27 34 0
15810 -31 21 27 -34 0
20925 -31 21 -27 34 0
21126 -31 21 -27 -34 0
27125 -31 -21 27 34 0
27202 -31 -21 27 -34 0
28481 -31 -21 -27 34 0
28532 -31 -21 -27 -34 0
4320 29 -15 0
22800 -29 15 0
23016 -29 -15 0
188 20 -33 0
6110 -20 33 0
6176 -20 -33 0
18000 -25 0
940 23 32 -16 0
3008 23 -32 16 0
3647 23 -32 -16 0
1880 -23 32 16 0
2632 -23 32 -16 0
4286 -23 -32 16 0
4798 -23 -32 -16 0
2400 18 11 -12 0
19200 18 -11 12 0
19680 18 -11 -12 0
9120 -18 11 12 0
10608 -18 11 -12 0
21024 -18 -11 12 0
21322 -18 -11 -12 0
2532 -19 0
5580 26 -24 0
17050 -26 24 0
19561 -26 -24 0
