p wcnf 79 225 1000000
1000000 9 -11 0
1000000 11 -51 -44 0
1000000 10 -12 0
1000000 12 -39 -53 -60 -45 -41 0
1000000 6 -13 0
1000000 13 -57 -61 -59 0
1000000 4 -14 0
1000000 14 -62 -55 -42 -44 -38 0
1000000 3 -15 0
1000000 15 -57 -40 -47 -35 -38 0
1000000 7 -16 0
1000000 16 -41 -57 -64 0
1000000 4 -17 0
1000000 17 -36 -64 0
1000000 3 -18 0
1000000 18 -60 -5 0
1000000 4 -19 0
1000000 19 -46 -7 0
1000000 2 -20 0
1000000 20 -64 -58 -62 -8 0
1000000 10 -21 0
1000000 21 -45 -36 -64 -47 -61 0
1000000 6 -22 0
1000000 22 -62 -43 0
1000000 7 -23 0
1000000 23 -51 -55 -9 0
1000000 8 -24 0
1000000 24 -35 -41 -9 0
1000000 1 -25 0
1000000 25 -41 -62 -60 -37 -44 0
1000000 8 -26 0
1000000 26 -47 -10 0
1000000 9 -27 0
1000000 27 -37 -61 -38 0
1000000 10 -28 0
1000000 28 -44 -35 0
1000000 7 -29 0
1000000 29 -41 -9 0
1000000 5 -30 0
1000000 30 -45 -55 -61 -9 0
1000000 2 -31 0
1000000 31 -47 -64 -59 -3 0
1000000 1 -32 0
1000000 32 -44 -35 -9 0
1000000 1 -33 0
1000000 33 -42 -36 -61 -56 -45 0
1000000 1 -34 0
1000000 34 -48 -55 -61 0
1000000 -1 25 34 32 33 0
1000000 -2 31 20 0
1000000 -3 15 18 0
1000000 -4 19 17 14 0
1000000 -5 30 0
1000000 -6 13 22 0
1000000 -7 23 16 29 0
1000000 -8 24 26 0
1000000 -9 27 11 0
1000000 -10 12 28 21 0
1000000 35 72 0
1000000 36 79 0
1000000 37 75 0
1000000 38 67 0
1000000 39 68 0
1000000 40 77 0
1000000 41 70 0
1000000 42 65 0
1000000 43 67 0
1000000 44 72 0
1000000 45 69 0
1000000 46 65 0
1000000 47 76 0
1000000 48 73 0
1000000 49 70 0
1000000 50 74 0
1000000 51 78 0
1000000 52 79 0
1000000 53 65 0
1000000 54 71 0
1000000 55 76 0
1000000 56 66 0
1000000 57 67 0
1000000 58 75 0
1000000 59 68 0
1000000 60 71 0
1000000 61 78 0
1000000 62 75 0
1000000 63 74 0
1000000 64 66 0
1000000 -35 -72 0
1000000 -36 -79 0
1000000 -37 -75 0
1000000 -38 -67 0
1000000 -39 -68 0
1000000 -40 -77 0
1000000 -41 -70 0
1000000 -42 -65 0
1000000 -43 -67 0
1000000 -44 -72 0
1000000 -45 -69 0
1000000 -46 -65 0
1000000 -47 -76 0
1000000 -48 -73 0
1000000 -49 -70 0
1000000 -50 -74 0
1000000 -51 -78 0
1000000 -52 -79 0
1000000 -53 -65 0
1000000 -54 -71 0
1000000 -55 -76 0
1000000 -56 -66 0
1000000 -57 -67 0
1000000 -58 -75 0
1000000 -59 -68 0
1000000 -60 -71 0
1000000 -61 -78 0
1000000 -62 -75 0
1000000 -63 -74 0
1000000 -64 -66 0
9000 -65 0
9700 -66 0
6900 -67 0
8900 -68 0
8900 -69 0
8900 -70 0
6900 -71 0
5400 -72 0
8900 -73 0
9700 -74 0
5400 -75 0
9000 -76 0
6900 -77 0
8900 -78 0
5400 -79 0
1500 35 0
3400 36 0
2800 37 0
3400 38 0
2800 39 0
2200 40 0
2200 41 0
3400 42 0
1500 43 0
1400 44 0
3400 45 0
2200 46 0
1400 47 0
2800 48 0
3400 49 0
1400 50 0
2200 51 0
1500 52 0
2200 53 0
3400 54 0
1400 55 0
3400 56 0
3400 57 0
1400 58 0
1500 59 0
2200 60 0
3400 61 0
1500 62 0
1500 63 0
2200 64 0
23545 25 34 32 -33 0
18005 25 34 -32 33 0
26246 25 34 -32 -33 0
18005 25 -34 32 33 0
26246 25 -34 32 -33 0
24307 25 -34 -32 33 0
27191 25 -34 -32 -33 0
10526 -25 34 32 33 0
25124 -25 34 32 -33 0
21689 -25 34 -32 33 0
26798 -25 34 -32 -33 0
21689 -25 -34 32 33 0
26798 -25 -34 32 -33 0
25596 -25 -34 -32 33 0
27384 -25 -34 -32 -33 0
8000 31 -20 0
19000 -31 20 0
19400 -31 -20 0
13425 15 -18 0
358 -15 18 0
13515 -15 -18 0
3324 19 17 -14 0
4986 19 -17 14 0
7712 19 -17 -14 0
554 -19 17 14 0
3812 -19 17 -14 0
5440 -19 -17 14 0
8111 -19 -17 -14 0
11610 -30 0
1000 13 -22 0
7000 -13 22 0
7650 -13 -22 0
3870 23 16 -29 0
27090 23 -16 29 0
28251 23 -16 -29 0
14706 -23 16 29 0
17105 -23 16 -29 0
31502 -23 -16 29 0
32222 -23 -16 -29 0
895 24 -26 0
895 -24 26 0
1745 -24 -26 0
7000 27 -11 0
7600 -27 11 0
11940 -27 -11 0
13850 12 28 -21 0
12465 12 -28 21 0
20082 12 -28 -21 0
20775 -12 28 21 0
24238 -12 28 -21 0
23891 -12 -28 21 0
25796 -12 -28 -21 0
