p wcnf 79 257 1000000
1000000 9 -11 0
1000000 11 -51 -39 -63 -50 -58 0
1000000 4 -12 0
1000000 12 -54 -57 -55 0
1000000 8 -13 0
1000000 13 -55 -63 0
1000000 3 -14 0
1000000 14 -62 -55 -60 -6 0
1000000 1 -15 0
1000000 15 -54 -38 0
1000000 4 -16 0
1000000 16 -58 -40 -59 0
1000000 8 -17 0
1000000 17 -62 -36 -48 -63 -50 0
1000000 3 -18 0
1000000 18 -56 -45 -62 -48 0
1000000 3 -19 0
1000000 19 -59 -57 0
1000000 1 -20 0
1000000 20 -41 -36 -63 -47 0
1000000 3 -21 0
1000000 21 -48 -9 0
1000000 7 -22 0
1000000 22 -52 -50 0
1000000 9 -23 0
1000000 23 -56 -45 -60 0
1000000 10 -24 0
1000000 24 -38 -49 0
1000000 7 -25 0
1000000 25 -39 -53 -60 0
1000000 6 -26 0
1000000 26 -44 -58 -48 0
1000000 5 -27 0
1000000 27 -64 -35 -50 -58 0
1000000 3 -28 0
1000000 28 -60 -58 -8 0
1000000 7 -29 0
1000000 29 -42 -9 0
1000000 7 -30 0
1000000 30 -56 -46 -55 0
1000000 2 -31 0
1000000 31 -60 -50 -43 -62 0
1000000 8 -32 0
1000000 32 -55 -44 -51 -56 0
1000000 7 -33 0
1000000 33 -40 -63 -58 0
1000000 10 -34 0
1000000 34 -58 -52 -44 0
1000000 -1 15 20 0
1000000 -2 31 0
1000000 -3 28 18 19 21 14 0
1000000 -4 16 12 0
1000000 -5 27 0
1000000 -6 26 0
1000000 -7 30 33 22 29 25 0
1000000 -8 32 13 17 0
1000000 -9 11 23 0
1000000 -10 34 24 0
1000000 35 71 0
1000000 36 75 0
1000000 37 65 0
1000000 38 74 0
1000000 39 75 0
1000000 40 78 0
1000000 41 72 0
1000000 42 77 0
1000000 43 70 0
1000000 44 68 0
1000000 45 74 0
1000000 46 65 0
1000000 47 79 0
1000000 48 77 0
1000000 49 67 0
1000000 50 67 0
1000000 51 69 0
1000000 52 67 0
1000000 53 65 0
1000000 54 73 0
1000000 55 75 0
1000000 56 66 0
1000000 57 70 0
1000000 58 71 0
1000000 59 74 0
1000000 60 71 0
1000000 61 69 0
1000000 62 72 0
1000000 63 69 0
1000000 64 76 0
1000000 -35 -71 0
1000000 -36 -75 0
1000000 -37 -65 0
1000000 -38 -74 0
1000000 -39 -75 0
1000000 -40 -78 0
1000000 -41 -72 0
1000000 -42 -77 0
1000000 -43 -70 0
1000000 -44 -68 0
1000000 -45 -74 0
1000000 -46 -65 0
1000000 -47 -79 0
1000000 -48 -77 0
1000000 -49 -67 0
1000000 -50 -67 0
1000000 -51 -69 0
1000000 -52 -67 0
1000000 -53 -65 0
1000000 -54 -73 0
1000000 -55 -75 0
1000000 -56 -66 0
1000000 -57 -70 0
1000000 -58 -71 0
1000000 -59 -74 0
1000000 -60 -71 0
1000000 -61 -69 0
1000000 -62 -72 0
1000000 -63 -69 0
1000000 -64 -76 0
7200 -65 0
8600 -66 0
7100 -67 0
7200 -68 0
9100 -69 0
7900 -70 0
7100 -71 0
7900 -72 0
8600 -73 0
9100 -74 0
9100 -75 0
9100 -76 0
7200 -77 0
7900 -78 0
7200 -79 0
4300 35 0
2000 36 0
4300 37 0
1700 38 0
3600 39 0
2000 40 0
3600 41 0
1700 42 0
2000 43 0
1700 44 0
4500 45 0
2000 46 0
1700 47 0
4300 48 0
1700 49 0
4300 50 0
3600 51 0
4300 52 0
4300 53 0
1700 54 0
2000 55 0
2000 56 0
3600 57 0
4500 58 0
4300 59 0
1700 60 0
3600 61 0
2000 62 0
1700 63 0
3600 64 0
7740 15 -20 0
344 -15 20 0
7929 -15 -20 0
5092 -31 0
10650 28 18 19 21 -14 0
11360 28 18 19 -21 14 0
13490 28 18 19 -21 -14 0
5396 28 18 -19 21 14 0
11999 28 18 -19 21 -14 0
12439 28 18 -19 -21 14 0
13760 28 18 -19 -21 -14 0
4970 28 -18 19 21 14 0
11892 28 -18 19 21 -14 0
12354 28 -18 19 -21 14 0
13738 28 -18 19 -21 -14 0
8477 28 -18 -19 21 14 0
12769 28 -18 -19 21 -14 0
13055 28 -18 -19 -21 14 0
13914 28 -18 -19 -21 -14 0
3550 -28 18 19 21 14 0
11538 -28 18 19 21 -14 0
12070 -28 18 19 -21 14 0
13668 -28 18 19 -21 -14 0
7597 -28 18 -19 21 14 0
12549 -28 18 -19 21 -14 0
12879 -28 18 -19 -21 14 0
13870 -28 18 -19 -21 -14 0
7277 -28 -18 19 21 14 0
12469 -28 -18 19 21 -14 0
12816 -28 -18 19 -21 14 0
13854 -28 -18 19 -21 -14 0
9908 -28 -18 -19 21 14 0
13127 -28 -18 -19 21 -14 0
13342 -28 -18 -19 -21 14 0
13985 -28 -18 -19 -21 -14 0
1570 16 -12 0
785 -16 12 0
2277 -16 -12 0
4970 -27 0
9230 -26 0
5680 30 33 22 29 -25 0
12780 30 33 22 -29 25 0
13348 30 33 22 -29 -25 0
4260 30 33 -22 29 25 0
8236 30 33 -22 29 -25 0
13206 30 33 -22 -29 25 0
13604 30 33 -22 -29 -25 0
4260 30 -33 22 29 25 0
8236 30 -33 22 29 -25 0
13206 30 -33 22 -29 25 0
13604 30 -33 22 -29 -25 0
7242 30 -33 -22 29 25 0
10025 30 -33 -22 29 -25 0
13504 30 -33 -22 -29 25 0
13783 30 -33 -22 -29 -25 0
2130 -30 33 22 29 25 0
6958 -30 33 22 29 -25 0
12993 -30 33 22 -29 25 0
13476 -30 33 22 -29 -25 0
5751 -30 33 -22 29 25 0
9131 -30 33 -22 29 -25 0
13355 -30 33 -22 -29 25 0
13693 -30 33 -22 -29 -25 0
5751 -30 -33 22 29 25 0
9131 -30 -33 22 29 -25 0
13355 -30 -33 22 -29 25 0
13693 -30 -33 22 -29 -25 0
8286 -30 -33 -22 29 25 0
10651 -30 -33 -22 29 -25 0
13609 -30 -33 -22 -29 25 0
13845 -30 -33 -22 -29 -25 0
5080 32 13 -17 0
19050 32 -13 17 0
20320 32 -13 -17 0
508 -32 13 17 0
5486 -32 13 -17 0
19177 -32 -13 17 0
20422 -32 -13 -17 0
5495 11 -23 0
10990 -11 23 0
12638 -11 -23 0
4544 34 -24 0
4544 -34 24 0
7634 -34 -24 0
