p wcnf 79 259 1000000
1000000 10 -11 0
1000000 11 -54 -62 -49 -50 -44 0
1000000 10 -12 0
1000000 12 -48 -53 -37 -58 -51 0
1000000 10 -13 0
1000000 13 -55 -60 -59 -62 0
1000000 7 -14 0
1000000 14 -48 -41 0
1000000 3 -15 0
1000000 15 -39 -56 -48 0
1000000 8 -16 0
1000000 16 -39 -36 -64 -9 0
1000000 3 -17 0
1000000 17 -42 -50 0
1000000 8 -18 0
1000000 18 -37 -56 -62 -53 -9 0
1000000 9 -19 0
1000000 19 -52 -48 -63 0
1000000 3 -20 0
1000000 20 -50 -38 -49 -55 -4 0
1000000 9 -21 0
1000000 21 -41 -62 -63 -53 0
1000000 7 -22 0
1000000 22 -63 -49 -50 -43 0
1000000 5 -23 0
1000000 23 -43 -49 -53 -50 0
1000000 3 -24 0
1000000 24 -61 -41 0
1000000 1 -25 0
1000000 25 -58 -51 -53 -40 0
1000000 7 -26 0
1000000 26 -52 -61 -64 -36 -55 0
1000000 3 -27 0
1000000 27 -39 -41 -48 0
1000000 10 -28 0
1000000 28 -50 -38 -57 0
1000000 8 -29 0
1000000 29 -53 -50 -45 -60 0
1000000 4 -30 0
1000000 30 -36 -40 -60 0
1000000 10 -31 0
1000000 31 -57 -53 -52 -48 -45 0
1000000 4 -32 0
1000000 32 -52 -62 -49 0
1000000 6 -33 0
1000000 33 -55 -50 -59 -56 -41 0
1000000 2 -34 0
1000000 34 -38 -64 -59 -9 0
1000000 -1 25 0
1000000 -2 34 0
1000000 -3 15 20 24 17 27 0
1000000 -4 30 32 0
1000000 -5 23 0
1000000 -6 33 0
1000000 -7 26 22 14 0
1000000 -8 18 16 29 0
1000000 -9 19 21 0
1000000 -10 12 11 28 13 31 0
1000000 35 75 0
1000000 36 67 0
1000000 37 79 0
1000000 38 66 0
1000000 39 76 0
1000000 40 78 0
1000000 41 65 0
1000000 42 65 0
1000000 43 67 0
1000000 44 71 0
1000000 45 69 0
1000000 46 69 0
1000000 47 69 0
1000000 48 77 0
1000000 49 75 0
1000000 50 73 0
1000000 51 70 0
1000000 52 70 0
1000000 53 67 0
1000000 54 68 0
1000000 55 72 0
1000000 56 76 0
1000000 57 77 0
1000000 58 74 0
1000000 59 70 0
1000000 60 79 0
1000000 61 72 0
1000000 62 73 0
1000000 63 75 0
1000000 64 74 0
1000000 -35 -75 0
1000000 -36 -67 0
1000000 -37 -79 0
1000000 -38 -66 0
1000000 -39 -76 0
1000000 -40 -78 0
1000000 -41 -65 0
1000000 -42 -65 0
1000000 -43 -67 0
1000000 -44 -71 0
1000000 -45 -69 0
1000000 -46 -69 0
1000000 -47 -69 0
1000000 -48 -77 0
1000000 -49 -75 0
1000000 -50 -73 0
1000000 -51 -70 0
1000000 -52 -70 0
1000000 -53 -67 0
1000000 -54 -68 0
1000000 -55 -72 0
1000000 -56 -76 0
1000000 -57 -77 0
1000000 -58 -74 0
1000000 -59 -70 0
1000000 -60 -79 0
1000000 -61 -72 0
1000000 -62 -73 0
1000000 -63 -75 0
1000000 -64 -74 0
7700 -65 0
7400 -66 0
7400 -67 0
9000 -68 0
9000 -69 0
9700 -70 0
9000 -71 0
7700 -72 0
9700 -73 0
9700 -74 0
9000 -75 0
7700 -76 0
7700 -77 0
9000 -78 0
5100 -79 0
2800 35 0
2400 36 0
4000 37 0
2800 38 0
2800 39 0
2400 40 0
3000 41 0
2400 42 0
3000 43 0
3000 44 0
3000 45 0
3000 46 0
2800 47 0
3000 48 0
2400 49 0
4000 50 0
4200 51 0
4200 52 0
2400 53 0
4000 54 0
3000 55 0
4200 56 0
2400 57 0
3000 58 0
4000 59 0
4200 60 0
4200 61 0
2800 62 0
2400 63 0
2400 64 0
476 -25 0
2950 -34 0
17950 15 20 24 17 -27 0
8975 15 20 24 -17 27 0
22438 15 20 24 -17 -27 0
17950 15 20 -24 17 27 0
26925 15 20 -24 17 -27 0
22438 15 20 -24 -17 27 0
29169 15 20 -24 -17 -27 0
14360 15 -20 24 17 27 0
25130 15 -20 24 17 -27 0
19745 15 -20 24 -17 27 0
27823 15 -20 24 -17 -27 0
25130 15 -20 -24 17 27 0
30515 15 -20 -24 17 -27 0
27823 15 -20 -24 -17 27 0
31861 15 -20 -24 -17 -27 0
21540 -15 20 24 17 27 0
28720 -15 20 24 17 -27 0
25130 -15 20 24 -17 27 0
30515 -15 20 24 -17 -27 0
28720 -15 20 -24 17 27 0
32310 -15 20 -24 17 -27 0
30515 -15 20 -24 -17 27 0
33207 -15 20 -24 -17 -27 0
27284 -15 -20 24 17 27 0
31592 -15 -20 24 17 -27 0
29438 -15 -20 24 -17 27 0
32669 -15 -20 24 -17 -27 0
31592 -15 -20 -24 17 27 0
33746 -15 -20 -24 17 -27 0
32669 -15 -20 -24 -17 27 0
34284 -15 -20 -24 -17 -27 0
4425 30 -32 0
2360 -30 32 0
5015 -30 -32 0
2655 -23 0
2065 -33 0
16660 26 22 -14 0
4760 26 -22 14 0
18088 26 -22 -14 0
19040 -26 22 14 0
22372 -26 22 -14 0
19992 -26 -22 14 0
22658 -26 -22 -14 0
118 18 16 -29 0
3540 18 -16 29 0
3587 18 -16 -29 0
1475 -18 16 29 0
1564 -18 16 -29 0
4130 -18 -16 29 0
4165 -18 -16 -29 0
5015 19 -21 0
1770 -19 21 0
5280 -19 -21 0
295 12 11 28 13 -31 0
2242 12 11 28 -13 31 0
2425 12 11 28 -13 -31 0
2950 12 11 -28 13 31 0
3098 12 11 -28 13 -31 0
4071 12 11 -28 -13 31 0
4162 12 11 -28 -13 -31 0
4130 12 -11 28 13 31 0
4218 12 -11 28 13 -31 0
4803 12 -11 28 -13 31 0
4857 12 -11 28 -13 -31 0
5015 12 -11 -28 13 31 0
5059 12 -11 -28 13 -31 0
5351 12 -11 -28 -13 31 0
5379 12 -11 -28 -13 -31 0
2655 -12 11 28 13 31 0
2817 -12 11 28 13 -31 0
3888 -12 11 28 -13 31 0
3989 -12 11 28 -13 -31 0
4277 -12 11 -28 13 31 0
4359 -12 11 -28 13 -31 0
4894 -12 11 -28 -13 31 0
4944 -12 11 -28 -13 -31 0
4927 -12 -11 28 13 31 0
4975 -12 -11 28 13 -31 0
5296 -12 -11 28 -13 31 0
5327 -12 -11 28 -13 -31 0
5413 -12 -11 -28 13 31 0
5438 -12 -11 -28 13 -31 0
5598 -12 -11 -28 -13 31 0
5613 -12 -11 -28 -13 -31 0
