p wcnf 79 247 1000000
1000000 3 -11 0
1000000 11 -46 -40 -60 -50 0
1000000 5 -12 0
1000000 12 -46 -49 -37 -52 -41 0
1000000 10 -13 0
1000000 13 -49 -60 -56 -62 0
1000000 4 -14 0
1000000 14 -50 -58 -38 -8 0
1000000 2 -15 0
1000000 15 -57 -42 -60 -37 -48 0
1000000 1 -16 0
1000000 16 -57 -64 -44 -35 0
1000000 8 -17 0
1000000 17 -54 -52 0
1000000 1 -18 0
1000000 18 -56 -42 -40 0
1000000 10 -19 0
1000000 19 -50 -43 -48 0
1000000 1 -20 0
1000000 20 -45 -49 0
1000000 10 -21 0
1000000 21 -41 -44 0
1000000 6 -22 0
1000000 22 -41 -36 0
1000000 10 -23 0
1000000 23 -41 -62 -40 -44 0
1000000 7 -24 0
1000000 24 -59 -35 -38 -48 -49 0
1000000 9 -25 0
1000000 25 -38 -45 -42 -63 -35 0
1000000 10 -26 0
1000000 26 -35 -38 -36 -63 0
1000000 9 -27 0
1000000 27 -41 -57 0
1000000 3 -28 0
1000000 28 -37 -50 -51 -49 -8 0
1000000 5 -29 0
1000000 29 -45 -42 -64 0
1000000 3 -30 0
1000000 30 -46 -48 -36 -61 0
1000000 2 -31 0
1000000 31 -39 -36 -48 -54 0
1000000 5 -32 0
1000000 32 -53 -35 -41 -62 0
1000000 9 -33 0
1000000 33 -54 -39 -36 -43 0
1000000 3 -34 0
1000000 34 -54 -55 -8 0
1000000 -1 18 16 20 0
1000000 -2 31 15 0
1000000 -3 11 28 30 34 0
1000000 -4 14 0
1000000 -5 29 12 32 0
1000000 -6 22 0
1000000 -7 24 0
1000000 -8 17 0
1000000 -9 33 27 25 0
1000000 -10 23 13 26 19 21 0
1000000 35 73 0
1000000 36 68 0
1000000 37 65 0
1000000 38 70 0
1000000 39 71 0
1000000 40 69 0
1000000 41 66 0
1000000 42 74 0
1000000 43 76 0
1000000 44 71 0
1000000 45 78 0
1000000 46 75 0
1000000 47 79 0
1000000 48 67 0
1000000 49 73 0
1000000 50 71 0
1000000 51 74 0
1000000 52 77 0
1000000 53 79 0
1000000 54 75 0
1000000 55 79 0
1000000 56 67 0
1000000 57 68 0
1000000 58 76 0
1000000 59 73 0
1000000 60 78 0
1000000 61 65 0
1000000 62 69 0
1000000 63 70 0
1000000 64 72 0
1000000 -35 -73 0
1000000 -36 -68 0
1000000 -37 -65 0
1000000 -38 -70 0
1000000 -39 -71 0
1000000 -40 -69 0
1000000 -41 -66 0
1000000 -42 -74 0
1000000 -43 -76 0
1000000 -44 -71 0
1000000 -45 -78 0
1000000 -46 -75 0
1000000 -47 -79 0
1000000 -48 -67 0
1000000 -49 -73 0
1000000 -50 -71 0
1000000 -51 -74 0
1000000 -52 -77 0
1000000 -53 -79 0
1000000 -54 -75 0
1000000 -55 -79 0
1000000 -56 -67 0
1000000 -57 -68 0
1000000 -58 -76 0
1000000 -59 -73 0
1000000 -60 -78 0
1000000 -61 -65 0
1000000 -62 -69 0
1000000 -63 -70 0
1000000 -64 -72 0
5900 -65 0
6100 -66 0
10000 -67 0
5900 -68 0
6100 -69 0
10000 -70 0
6100 -71 0
10000 -72 0
10000 -73 0
5900 -74 0
5500 -75 0
10000 -76 0
5500 -77 0
9200 -78 0
6100 -79 0
2400 35 0
1200 36 0
2400 37 0
2400 38 0
4000 39 0
3100 40 0
3900 41 0
1200 42 0
1200 43 0
3100 44 0
3100 45 0
1200 46 0
4000 47 0
3900 48 0
3900 49 0
3100 50 0
2400 51 0
1200 52 0
1200 53 0
3100 54 0
2400 55 0
3100 56 0
3900 57 0
1200 58 0
4000 59 0
2400 60 0
4000 61 0
3100 62 0
1200 63 0
2400 64 0
12160 18 16 -20 0
1920 18 -16 20 0
12256 18 -16 -20 0
3840 -18 16 20 0
12352 -18 16 -20 0
5184 -18 -16 20 0
12419 -18 -16 -20 0
5175 31 -15 0
12420 -31 15 0
14490 -31 -15 0
975 11 28 30 -34 0
1950 11 28 -30 34 0
2828 11 28 -30 -34 0
7410 11 -28 30 34 0
8015 11 -28 30 -34 0
8619 11 -28 -30 34 0
9163 11 -28 -30 -34 0
4875 -11 28 30 34 0
5606 -11 28 30 -34 0
6337 -11 28 -30 34 0
6996 -11 28 -30 -34 0
10433 -11 -28 30 34 0
10886 -11 -28 30 -34 0
11339 -11 -28 -30 34 0
11747 -11 -28 -30 -34 0
1850 -14 0
15600 29 12 -32 0
12675 29 -12 32 0
18135 29 -12 -32 0
7800 -29 12 32 0
17160 -29 12 -32 0
15405 -29 -12 32 0
18681 -29 -12 -32 0
12950 -22 0
2484 -24 0
18630 -17 0
11700 33 27 -25 0
10725 33 -27 25 0
15990 33 -27 -25 0
2340 -33 27 25 0
12636 -33 27 -25 0
11778 -33 -27 25 0
16411 -33 -27 -25 0
3700 23 13 26 19 -21 0
3700 23 13 26 -19 21 0
6660 23 13 26 -19 -21 0
6475 23 13 -26 19 21 0
8880 23 13 -26 19 -21 0
8880 23 13 -26 -19 21 0
10804 23 13 -26 -19 -21 0
5550 23 -13 26 19 21 0
8140 23 -13 26 19 -21 0
8140 23 -13 26 -19 21 0
10212 23 -13 26 -19 -21 0
10083 23 -13 -26 19 21 0
11766 23 -13 -26 19 -21 0
11766 23 -13 -26 -19 21 0
13113 23 -13 -26 -19 -21 0
14800 -23 13 26 19 21 0
15540 -23 13 26 19 -21 0
15540 -23 13 26 -19 21 0
16132 -23 13 26 -19 -21 0
16095 -23 13 -26 19 21 0
16576 -23 13 -26 19 -21 0
16576 -23 13 -26 -19 21 0
16961 -23 13 -26 -19 -21 0
15910 -23 -13 26 19 21 0
16428 -23 -13 26 19 -21 0
16428 -23 -13 26 -19 21 0
16842 -23 -13 26 -19 -21 0
16816 -23 -13 -26 19 21 0
17153 -23 -13 -26 19 -21 0
17153 -23 -13 -26 -19 21 0
17423 -23 -13 -26 -19 -21 0
