p wcnf 79 229 1000000
1000000 6 -11 0
1000000 11 -46 -45 -38 0
1000000 2 -12 0
1000000 12 -57 -55 -47 0
1000000 7 -13 0
1000000 13 -57 -47 -60 -62 -46 0
1000000 7 -14 0
1000000 14 -47 -61 -51 0
1000000 6 -15 0
1000000 15 -42 -44 -53 0
1000000 1 -16 0
1000000 16 -45 -54 -52 -35 0
1000000 8 -17 0
1000000 17 -41 -9 0
1000000 4 -18 0
1000000 18 -40 -60 0
1000000 3 -19 0
1000000 19 -50 -54 -42 0
1000000 5 -20 0
1000000 20 -44 -40 -63 0
1000000 10 -21 0
1000000 21 -54 -57 0
1000000 2 -22 0
1000000 22 -49 -38 0
1000000 10 -23 0
1000000 23 -48 -53 -40 -44 -52 0
1000000 2 -24 0
1000000 24 -36 -40 -56 -49 0
1000000 9 -25 0
1000000 25 -62 -64 -35 0
1000000 1 -26 0
1000000 26 -61 -50 -59 -35 -51 0
1000000 6 -27 0
1000000 27 -36 -37 -61 -58 0
1000000 8 -28 0
1000000 28 -50 -48 -39 0
1000000 2 -29 0
1000000 29 -39 -40 0
1000000 9 -30 0
1000000 30 -54 -55 -51 -50 0
1000000 10 -31 0
1000000 31 -50 -59 -38 -41 0
1000000 5 -32 0
1000000 32 -39 -35 -38 0
1000000 6 -33 0
1000000 33 -53 -10 0
1000000 3 -34 0
1000000 34 -51 -52 -4 0
1000000 -1 26 16 0
1000000 -2 29 12 22 24 0
1000000 -3 19 34 0
1000000 -4 18 0
1000000 -5 20 32 0
1000000 -6 11 33 27 15 0
1000000 -7 13 14 0
1000000 -8 28 17 0
1000000 -9 30 25 0
1000000 -10 23 21 31 0
1000000 35 72 0
1000000 36 72 0
1000000 37 65 0
1000000 38 74 0
1000000 39 65 0
1000000 40 77 0
1000000 41 68 0
1000000 42 74 0
1000000 43 66 0
1000000 44 78 0
1000000 45 71 0
1000000 46 73 0
1000000 47 79 0
1000000 48 70 0
1000000 49 67 0
1000000 50 78 0
1000000 51 68 0
1000000 52 72 0
1000000 53 69 0
1000000 54 75 0
1000000 55 65 0
1000000 56 76 0
1000000 57 69 0
1000000 58 66 0
1000000 59 77 0
1000000 60 71 0
1000000 61 75 0
1000000 62 69 0
1000000 63 71 0
1000000 64 76 0
1000000 -35 -72 0
1000000 -36 -72 0
1000000 -37 -65 0
1000000 -38 -74 0
1000000 -39 -65 0
1000000 -40 -77 0
1000000 -41 -68 0
1000000 -42 -74 0
1000000 -43 -66 0
1000000 -44 -78 0
1000000 -45 -71 0
1000000 -46 -73 0
1000000 -47 -79 0
1000000 -48 -70 0
1000000 -49 -67 0
1000000 -50 -78 0
1000000 -51 -68 0
1000000 -52 -72 0
1000000 -53 -69 0
1000000 -54 -75 0
1000000 -55 -65 0
1000000 -56 -76 0
1000000 -57 -69 0
1000000 -58 -66 0
1000000 -59 -77 0
1000000 -60 -71 0
1000000 -61 -75 0
1000000 -62 -69 0
1000000 -63 -71 0
1000000 -64 -76 0
9300 -65 0
6900 -66 0
6900 -67 0
6400 -68 0
9200 -69 0
6900 -70 0
7400 -71 0
7400 -72 0
7400 -73 0
6900 -74 0
9300 -75 0
9200 -76 0
7400 -77 0
9300 -78 0
9300 -79 0
3600 35 0
1100 36 0
1100 37 0
2200 38 0
1100 39 0
2200 40 0
1100 41 0
1600 42 0
2200 43 0
3600 44 0
1100 45 0
1600 46 0
2700 47 0
3600 48 0
1100 49 0
2200 50 0
3600 51 0
2200 52 0
1600 53 0
3600 54 0
3600 55 0
3600 56 0
2200 57 0
1600 58 0
2200 59 0
1600 60 0
1100 61 0
1600 62 0
3600 63 0
2200 64 0
2736 26 -16 0
3240 -26 16 0
4745 -26 -16 0
15072 29 12 22 -24 0
9420 29 12 -22 24 0
21478 29 12 -22 -24 0
14130 29 -12 22 24 0
24680 29 -12 22 -24 0
20724 29 -12 -22 24 0
29164 29 -12 -22 -24 0
40035 -29 12 22 24 0
42296 -29 12 22 -24 0
41448 -29 12 -22 24 0
43257 -29 12 -22 -24 0
42155 -29 -12 22 24 0
43737 -29 -12 22 -24 0
43144 -29 -12 -22 24 0
44410 -29 -12 -22 -24 0
6480 19 -34 0
2160 -19 34 0
6696 -19 -34 0
1690 -18 0
1296 20 -32 0
6480 -20 32 0
6610 -20 -32 0
10410 11 33 27 -15 0
6940 11 33 -27 15 0
15268 11 33 -27 -15 0
24290 11 -33 27 15 0
27413 11 -33 27 -15 0
26372 11 -33 -27 15 0
28870 11 -33 -27 -15 0
4164 -11 33 27 15 0
13325 -11 33 27 -15 0
10271 -11 33 -27 15 0
17600 -11 33 -27 -15 0
25539 -11 -33 27 15 0
28287 -11 -33 27 -15 0
27371 -11 -33 -27 15 0
29570 -11 -33 -27 -15 0
864 13 -14 0
5400 -13 14 0
5616 -13 -14 0
22140 28 -17 0
35055 -28 17 0
36162 -28 -17 0
32965 30 -25 0
1735 -30 25 0
33052 -30 -25 0
10410 23 21 -31 0
32965 23 -21 31 0
33485 23 -21 -31 0
15615 -23 21 31 0
21341 -23 21 -31 0
33746 -23 -21 31 0
34032 -23 -21 -31 0
