p wcnf 79 229 1000000
1000000 6 -11 0
1000000 11 -61 -7 0
1000000 2 -12 0
1000000 12 -57 -52 -61 -58 -43 0
1000000 4 -13 0
1000000 13 -40 -64 -47 -60 -46 0
1000000 10 -14 0
1000000 14 -54 -45 -60 -44 0
1000000 5 -15 0
1000000 15 -41 -46 0
1000000 8 -16 0
1000000 16 -58 -46 -51 -10 0
1000000 2 -17 0
1000000 17 -39 -36 -40 -37 -46 0
1000000 6 -18 0
1000000 18 -44 -58 -46 -62 -39 0
1000000 4 -19 0
1000000 19 -39 -48 -54 0
1000000 6 -20 0
1000000 20 -35 -48 -53 0
1000000 3 -21 0
1000000 21 -43 -47 -37 -59 0
1000000 10 -22 0
1000000 22 -36 -42 -47 0
1000000 3 -23 0
1000000 23 -51 -54 -49 -40 -64 0
1000000 10 -24 0
1000000 24 -36 -40 -60 -42 -50 0
1000000 9 -25 0
1000000 25 -58 -49 -42 -60 -10 0
1000000 4 -26 0
1000000 26 -37 -56 -51 -49 0
1000000 10 -27 0
1000000 27 -37 -58 -45 -48 0
1000000 5 -28 0
1000000 28 -52 -50 -43 -57 -42 0
1000000 5 -29 0
1000000 29 -50 -44 -49 -42 0
1000000 8 -30 0
1000000 30 -38 -53 0
1000000 1 -31 0
1000000 31 -35 -56 -58 -45 0
1000000 7 -32 0
1000000 32 -64 -56 -10 0
1000000 8 -33 0
1000000 33 -49 -39 -55 -63 -38 0
1000000 2 -34 0
1000000 34 -43 -46 -54 -45 -39 0
1000000 -1 31 0
1000000 -2 17 12 34 0
1000000 -3 23 21 0
1000000 -4 26 19 13 0
1000000 -5 29 15 28 0
1000000 -6 18 11 20 0
1000000 -7 32 0
1000000 -8 33 16 30 0
1000000 -9 25 0
1000000 -10 14 27 24 22 0
1000000 35 74 0
1000000 36 72 0
1000000 37 67 0
1000000 38 76 0
1000000 39 73 0
1000000 40 78 0
1000000 41 69 0
1000000 42 75 0
1000000 43 75 0
1000000 44 70 0
1000000 45 75 0
1000000 46 79 0
1000000 47 78 0
1000000 48 74 0
1000000 49 76 0
1000000 50 77 0
1000000 51 67 0
1000000 52 71 0
1000000 53 79 0
1000000 54 66 0
1000000 55 68 0
1000000 56 65 0
1000000 57 71 0
1000000 58 65 0
1000000 59 78 0
1000000 60 68 0
1000000 61 67 0
1000000 62 74 0
1000000 63 70 0
1000000 64 72 0
1000000 -35 -74 0
1000000 -36 -72 0
1000000 -37 -67 0
1000000 -38 -76 0
1000000 -39 -73 0
1000000 -40 -78 0
1000000 -41 -69 0
1000000 -42 -75 0
1000000 -43 -75 0
1000000 -44 -70 0
1000000 -45 -75 0
1000000 -46 -79 0
1000000 -47 -78 0
1000000 -48 -74 0
1000000 -49 -76 0
1000000 -50 -77 0
1000000 -51 -67 0
1000000 -52 -71 0
1000000 -53 -79 0
1000000 -54 -66 0
1000000 -55 -68 0
1000000 -56 -65 0
1000000 -57 -71 0
1000000 -58 -65 0
1000000 -59 -78 0
1000000 -60 -68 0
1000000 -61 -67 0
1000000 -62 -74 0
1000000 -63 -70 0
1000000 -64 -72 0
5400 -65 0
8700 -66 0
8300 -67 0
8300 -68 0
6800 -69 0
6800 -70 0
6800 -71 0
8300 -72 0
8700 -73 0
9300 -74 0
6800 -75 0
6800 -76 0
5400 -77 0
5400 -78 0
8700 -79 0
4900 35 0
2500 36 0
5000 37 0
1300 38 0
2500 39 0
4900 40 0
4900 41 0
2500 42 0
5000 43 0
5000 44 0
5000 45 0
1300 46 0
2500 47 0
5000 48 0
1900 49 0
1300 50 0
1300 51 0
4900 52 0
4900 53 0
2500 54 0
4900 55 0
1300 56 0
1900 57 0
2500 58 0
5000 59 0
2500 60 0
4900 61 0
1900 62 0
1900 63 0
2500 64 0
23400 -31 0
3200 17 12 -34 0
2500 17 -12 34 0
4900 17 -12 -34 0
1200 -17 12 34 0
4016 -17 12 -34 0
3400 -17 -12 34 0
5512 -17 -12 -34 0
14705 23 -21 0
5190 -23 21 0
15484 -23 -21 0
6055 26 19 -13 0
2595 26 -19 13 0
7742 26 -19 -13 0
10380 -26 19 13 0
12802 -26 19 -13 0
11418 -26 -19 13 0
13477 -26 -19 -13 0
12210 29 15 -28 0
7104 29 -15 28 0
15407 29 -15 -28 0
7770 -29 15 28 0
15706 -29 15 -28 0
12388 -29 -15 28 0
17784 -29 -15 -28 0
27300 18 11 -20 0
31200 18 -11 20 0
36660 18 -11 -20 0
3900 -18 11 20 0
28470 -18 11 -20 0
31980 -18 -11 20 0
36894 -18 -11 -20 0
5850 -32 0
1000 33 16 -30 0
8500 33 -16 30 0
8650 33 -16 -30 0
1200 -33 16 30 0
2080 -33 16 -30 0
8680 -33 -16 30 0
8812 -33 -16 -30 0
3996 -25 0
27040 14 27 24 -22 0
12844 14 27 -24 22 0
29609 14 27 -24 -22 0
6760 14 -27 24 22 0
28392 14 -27 24 -22 0
17035 14 -27 -24 22 0
30447 14 -27 -24 -22 0
23660 -14 27 24 22 0
31772 -14 27 24 -22 0
27513 -14 27 -24 22 0
32543 -14 27 -24 -22 0
25688 -14 -27 24 22 0
32178 -14 -27 24 -22 0
28771 -14 -27 -24 22 0
32794 -14 -27 -24 -22 0
