p wcnf 79 259 1000000
1000000 10 -11 0
1000000 11 -54 -41 -40 -63 -35 0
1000000 4 -12 0
1000000 12 -39 -64 0
1000000 6 -13 0
1000000 13 -47 -43 -48 0
1000000 1 -14 0
1000000 14 -62 -39 -8 0
1000000 2 -15 0
1000000 15 -63 -43 -41 -48 0
1000000 7 -16 0
1000000 16 -56 -45 -58 -54 -63 0
1000000 6 -17 0
1000000 17 -44 -61 0
1000000 6 -18 0
1000000 18 -59 -63 -47 0
1000000 10 -19 0
1000000 19 -61 -50 0
1000000 4 -20 0
1000000 20 -42 -58 -46 0
1000000 5 -21 0
1000000 21 -54 -49 -40 -37 -10 0
1000000 3 -22 0
1000000 22 -54 -57 -59 -52 0
1000000 2 -23 0
1000000 23 -42 -55 -9 0
1000000 6 -24 0
1000000 24 -35 -51 0
1000000 10 -25 0
1000000 25 -58 -57 -35 0
1000000 2 -26 0
1000000 26 -37 -44 -35 -55 -57 0
1000000 2 -27 0
1000000 27 -55 -64 -56 -57 0
1000000 6 -28 0
1000000 28 -44 -50 -56 -47 -10 0
1000000 9 -29 0
1000000 29 -37 -54 -49 -64 -60 0
1000000 1 -30 0
1000000 30 -56 -62 -64 -61 -8 0
1000000 2 -31 0
1000000 31 -39 -42 -58 -41 -62 0
1000000 5 -32 0
1000000 32 -39 -36 -53 -52 -49 0
1000000 8 -33 0
1000000 33 -42 -59 -43 -9 0
1000000 1 -34 0
1000000 34 -56 -58 -48 -45 -41 0
1000000 -1 34 14 30 0
1000000 -2 26 31 27 15 23 0
1000000 -3 22 0
1000000 -4 20 12 0
1000000 -5 21 32 0
1000000 -6 18 24 13 17 28 0
1000000 -7 16 0
1000000 -8 33 0
1000000 -9 29 0
1000000 -10 25 11 19 0
1000000 35 75 0
1000000 36 74 0
1000000 37 67 0
1000000 38 76 0
1000000 39 77 0
1000000 40 78 0
1000000 41 73 0
1000000 42 76 0
1000000 43 65 0
1000000 44 75 0
1000000 45 74 0
1000000 46 72 0
1000000 47 71 0
1000000 48 74 0
1000000 49 68 0
1000000 50 78 0
1000000 51 66 0
1000000 52 70 0
1000000 53 68 0
1000000 54 79 0
1000000 55 67 0
1000000 56 65 0
1000000 57 70 0
1000000 58 76 0
1000000 59 69 0
1000000 60 65 0
1000000 61 79 0
1000000 62 78 0
1000000 63 68 0
1000000 64 67 0
1000000 -35 -75 0
1000000 -36 -74 0
1000000 -37 -67 0
1000000 -38 -76 0
1000000 -39 -77 0
1000000 -40 -78 0
1000000 -41 -73 0
1000000 -42 -76 0
1000000 -43 -65 0
1000000 -44 -75 0
1000000 -45 -74 0
1000000 -46 -72 0
1000000 -47 -71 0
1000000 -48 -74 0
1000000 -49 -68 0
1000000 -50 -78 0
1000000 -51 -66 0
1000000 -52 -70 0
1000000 -53 -68 0
1000000 -54 -79 0
1000000 -55 -67 0
1000000 -56 -65 0
1000000 -57 -70 0
1000000 -58 -76 0
1000000 -59 -69 0
1000000 -60 -65 0
1000000 -61 -79 0
1000000 -62 -78 0
1000000 -63 -68 0
1000000 -64 -67 0
8100 -65 0
8400 -66 0
8400 -67 0
9800 -68 0
6900 -69 0
8100 -70 0
8100 -71 0
9800 -72 0
6900 -73 0
8100 -74 0
7400 -75 0
9800 -76 0
6900 -77 0
8100 -78 0
6900 -79 0
1100 35 0
1000 36 0
2900 37 0
1800 38 0
1000 39 0
4900 40 0
1000 41 0
4900 42 0
1000 43 0
1100 44 0
1100 45 0
1100 46 0
2900 47 0
1000 48 0
2900 49 0
4900 50 0
1000 51 0
2900 52 0
2900 53 0
4900 54 0
2900 55 0
1000 56 0
1000 57 0
4900 58 0
2900 59 0
1000 60 0
1100 61 0
1000 62 0
1800 63 0
1100 64 0
3255 34 14 -30 0
8835 34 -14 30 0
8998 34 -14 -30 0
8835 -34 14 30 0
8998 -34 14 -30 0
9277 -34 -14 30 0
9285 -34 -14 -30 0
766 26 31 27 15 -23 0
30640 26 31 27 -15 23 0
30793 26 31 27 -15 -23 0
24895 26 31 -27 15 23 0
25163 26 31 -27 15 -23 0
35619 26 31 -27 -15 23 0
35673 26 31 -27 -15 -23 0
22980 26 -31 27 15 23 0
23286 26 -31 27 15 -23 0
35236 26 -31 27 -15 23 0
35297 26 -31 27 -15 -23 0
32938 26 -31 -27 15 23 0
33045 26 -31 -27 15 -23 0
37228 26 -31 -27 -15 23 0
37249 26 -31 -27 -15 -23 0
12256 -26 31 27 15 23 0
12777 -26 31 27 15 -23 0
33091 -26 31 27 -15 23 0
33195 -26 31 27 -15 -23 0
29185 -26 31 -27 15 23 0
29367 -26 31 -27 15 -23 0
36477 -26 31 -27 -15 23 0
36513 -26 31 -27 -15 -23 0
27882 -26 -31 27 15 23 0
28091 -26 -31 27 15 -23 0
36216 -26 -31 27 -15 23 0
36258 -26 -31 27 -15 -23 0
34654 -26 -31 -27 15 23 0
34727 -26 -31 -27 15 -23 0
37571 -26 -31 -27 -15 23 0
37585 -26 -31 -27 -15 -23 0
3720 -22 0
5185 20 -12 0
915 -20 12 0
5322 -20 -12 0
13940 21 -32 0
13940 -21 32 0
16031 -21 -32 0
9840 18 24 13 17 -28 0
1968 18 24 13 -17 28 0
10627 18 24 13 -17 -28 0
11480 18 24 -13 17 28 0
14432 18 24 -13 17 -28 0
12070 18 24 -13 -17 28 0
14668 18 24 -13 -17 -28 0
1640 18 -24 13 17 28 0
10496 18 -24 13 17 -28 0
3411 18 -24 13 -17 28 0
11204 18 -24 13 -17 -28 0
11972 18 -24 -13 17 28 0
14629 18 -24 -13 17 -28 0
12503 18 -24 -13 -17 28 0
14841 18 -24 -13 -17 -28 0
5740 -18 24 13 17 28 0
12136 -18 24 13 17 -28 0
7019 -18 24 13 -17 28 0
12648 -18 24 13 -17 -28 0
13202 -18 24 -13 17 28 0
15121 -18 24 -13 17 -28 0
13586 -18 24 -13 -17 28 0
15274 -18 24 -13 -17 -28 0
6806 -18 -24 13 17 28 0
12562 -18 -24 13 17 -28 0
7957 -18 -24 13 -17 28 0
13023 -18 -24 13 -17 -28 0
13522 -18 -24 -13 17 28 0
15249 -18 -24 -13 17 -28 0
13867 -18 -24 -13 -17 28 0
15387 -18 -24 -13 -17 -28 0
28725 -16 0
3720 -33 0
1525 -29 0
11480 25 11 -19 0
1640 25 -11 19 0
11972 25 -11 -19 0
8200 -25 11 19 0
13940 -25 11 -19 0
9020 -25 -11 19 0
14186 -25 -11 -19 0
