p wcnf 79 231 1000000
1000000 5 -11 0
1000000 11 -41 -36 -52 -35 0
1000000 1 -12 0
1000000 12 -46 -49 -58 0
1000000 3 -13 0
1000000 13 -60 -61 -50 -56 0
1000000 6 -14 0
1000000 14 -52 -10 0
1000000 7 -15 0
1000000 15 -35 -51 -38 0
1000000 2 -16 0
1000000 16 -46 -5 0
1000000 7 -17 0
1000000 17 -55 -64 -59 0
1000000 3 -18 0
1000000 18 -41 -62 0
1000000 7 -19 0
1000000 19 -59 -52 -50 -62 0
1000000 8 -20 0
1000000 20 -64 -37 -35 -36 -63 0
1000000 2 -21 0
1000000 21 -48 -5 0
1000000 4 -22 0
1000000 22 -45 -57 -44 -43 -9 0
1000000 10 -23 0
1000000 23 -56 -46 -54 -49 0
1000000 9 -24 0
1000000 24 -36 -62 0
1000000 4 -25 0
1000000 25 -53 -42 -40 0
1000000 4 -26 0
1000000 26 -64 -37 -63 0
1000000 6 -27 0
1000000 27 -60 -43 -7 0
1000000 8 -28 0
1000000 28 -37 -50 -38 -36 0
1000000 8 -29 0
1000000 29 -41 -62 -36 -55 -9 0
1000000 3 -30 0
1000000 30 -35 -55 -47 -53 -8 0
1000000 8 -31 0
1000000 31 -39 -60 -64 -54 0
1000000 10 -32 0
1000000 32 -52 -38 0
1000000 1 -33 0
1000000 33 -53 -59 0
1000000 7 -34 0
1000000 34 -49 -39 -57 -60 -64 0
1000000 -1 12 33 0
1000000 -2 16 21 0
1000000 -3 13 18 30 0
1000000 -4 26 22 25 0
1000000 -5 11 0
1000000 -6 14 27 0
1000000 -7 15 19 17 34 0
1000000 -8 28 31 20 29 0
1000000 -9 24 0
1000000 -10 23 32 0
1000000 35 69 0
1000000 36 75 0
1000000 37 71 0
1000000 38 77 0
1000000 39 69 0
1000000 40 71 0
1000000 41 68 0
1000000 42 74 0
1000000 43 78 0
1000000 44 68 0
1000000 45 79 0
1000000 46 79 0
1000000 47 76 0
1000000 48 67 0
1000000 49 74 0
1000000 50 70 0
1000000 51 66 0
1000000 52 67 0
1000000 53 70 0
1000000 54 73 0
1000000 55 66 0
1000000 56 79 0
1000000 57 73 0
1000000 58 65 0
1000000 59 70 0
1000000 60 78 0
1000000 61 78 0
1000000 62 75 0
1000000 63 75 0
1000000 64 72 0
1000000 -35 -69 0
1000000 -36 -75 0
1000000 -37 -71 0
1000000 -38 -77 0
1000000 -39 -69 0
1000000 -40 -71 0
1000000 -41 -68 0
1000000 -42 -74 0
1000000 -43 -78 0
1000000 -44 -68 0
1000000 -45 -79 0
1000000 -46 -79 0
1000000 -47 -76 0
1000000 -48 -67 0
1000000 -49 -74 0
1000000 -50 -70 0
1000000 -51 -66 0
1000000 -52 -67 0
1000000 -53 -70 0
1000000 -54 -73 0
1000000 -55 -66 0
1000000 -56 -79 0
1000000 -57 -73 0
1000000 -58 -65 0
1000000 -59 -70 0
1000000 -60 -78 0
1000000 -61 -78 0
1000000 -62 -75 0
1000000 -63 -75 0
1000000 -64 -72 0
9300 -65 0
8700 -66 0
7400 -67 0
8700 -68 0
8400 -69 0
8400 -70 0
6400 -71 0
8400 -72 0
8400 -73 0
8400 -74 0
8400 -75 0
8400 -76 0
9300 -77 0
6400 -78 0
8400 -79 0
2200 35 0
2200 36 0
2400 37 0
2200 38 0
2400 39 0
2200 40 0
3900 41 0
3900 42 0
3000 43 0
2200 44 0
3000 45 0
2400 46 0
2400 47 0
2200 48 0
2200 49 0
3000 50 0
2400 51 0
3900 52 0
3200 53 0
3200 54 0
2200 55 0
2200 56 0
2200 57 0
2200 58 0
3200 59 0
2400 60 0
2400 61 0
2400 62 0
2200 63 0
3200 64 0
6760 12 -33 0
208 -12 33 0
6833 -12 -33 0
5200 16 -21 0
6240 -16 21 0
8320 -16 -21 0
8442 13 18 -30 0
30485 13 -18 30 0
33440 13 -18 -30 0
18760 -13 18 30 0
23825 -13 18 -30 0
37051 -13 -18 30 0
38824 -13 -18 -30 0
760 26 22 -25 0
13680 26 -22 25 0
13756 26 -22 -25 0
4560 -26 22 25 0
5092 -26 22 -25 0
14136 -26 -22 25 0
14189 -26 -22 -25 0
1872 -11 0
5628 14 -27 0
32830 -14 27 0
34518 -14 -27 0
8442 15 19 17 -34 0
39865 15 19 -17 34 0
41131 15 19 -17 -34 0
11725 15 -19 17 34 0
18056 15 -19 17 -34 0
41624 15 -19 -17 34 0
42573 15 -19 -17 -34 0
7035 -15 19 17 34 0
14211 -15 19 17 -34 0
40920 -15 19 -17 34 0
41997 -15 19 -17 -34 0
17001 -15 -19 17 34 0
22383 -15 -19 17 -34 0
42415 -15 -19 -17 34 0
43222 -15 -19 -17 -34 0
8442 28 31 20 -29 0
2345 28 31 -20 29 0
10365 28 31 -20 -29 0
17822 28 -31 20 29 0
23056 28 -31 20 -29 0
19276 28 -31 -20 29 0
24248 28 -31 -20 -29 0
21105 -28 31 20 29 0
25748 -28 31 20 -29 0
22395 -28 31 -20 29 0
26806 -28 31 -20 -29 0
30907 -28 -31 20 29 0
33786 -28 -31 20 -29 0
31707 -28 -31 -20 29 0
34442 -28 -31 -20 -29 0
7362 -24 0
6840 23 -32 0
5320 -23 32 0
9766 -23 -32 0
