p wcnf 79 233 1000000
1000000 9 -11 0
1000000 11 -47 -50 -56 -58 0
1000000 2 -12 0
1000000 12 -39 -57 -55 -37 -44 0
1000000 7 -13 0
1000000 13 -40 -58 0
1000000 2 -14 0
1000000 14 -39 -10 0
1000000 1 -15 0
1000000 15 -44 -56 -43 -62 0
1000000 8 -16 0
1000000 16 -62 -38 -9 0
1000000 8 -17 0
1000000 17 -55 -46 -10 0
1000000 9 -18 0
1000000 18 -52 -58 -45 -36 -10 0
1000000 4 -19 0
1000000 19 -52 -51 -56 -53 -40 0
1000000 7 -20 0
1000000 20 -64 -37 -47 0
1000000 5 -21 0
1000000 21 -43 -45 -53 -50 -59 0
1000000 1 -22 0
1000000 22 -45 -41 0
1000000 8 -23 0
1000000 23 -46 -39 0
1000000 1 -24 0
1000000 24 -42 -50 -37 -41 0
1000000 6 -25 0
1000000 25 -41 -53 0
1000000 10 -26 0
1000000 26 -52 -43 -41 0
1000000 3 -27 0
1000000 27 -64 -35 -45 0
1000000 4 -28 0
1000000 28 -59 -58 -48 -63 -47 0
1000000 4 -29 0
1000000 29 -44 -45 -63 -47 0
1000000 8 -30 0
1000000 30 -55 -50 -37 0
1000000 9 -31 0
1000000 31 -42 -35 -45 -62 0
1000000 4 -32 0
1000000 32 -59 -51 -56 0
1000000 7 -33 0
1000000 33 -49 -40 -50 -51 -38 0
1000000 3 -34 0
1000000 34 -61 -37 0
1000000 -1 22 15 24 0
1000000 -2 12 14 0
1000000 -3 27 34 0
1000000 -4 19 29 28 32 0
1000000 -5 21 0
1000000 -6 25 0
1000000 -7 13 33 20 0
1000000 -8 23 16 30 17 0
1000000 -9 31 18 11 0
1000000 -10 26 0
1000000 35 67 0
1000000 36 67 0
1000000 37 74 0
1000000 38 69 0
1000000 39 71 0
1000000 40 66 0
1000000 41 79 0
1000000 42 65 0
1000000 43 78 0
1000000 44 73 0
1000000 45 78 0
1000000 46 77 0
1000000 47 77 0
1000000 48 65 0
1000000 49 75 0
1000000 50 65 0
1000000 51 78 0
1000000 52 66 0
1000000 53 77 0
1000000 54 72 0
1000000 55 76 0
1000000 56 70 0
1000000 57 70 0
1000000 58 76 0
1000000 59 71 0
1000000 60 74 0
1000000 61 76 0
1000000 62 68 0
1000000 63 67 0
1000000 64 70 0
1000000 -35 -67 0
1000000 -36 -67 0
1000000 -37 -74 0
1000000 -38 -69 0
1000000 -39 -71 0
1000000 -40 -66 0
1000000 -41 -79 0
1000000 -42 -65 0
1000000 -43 -78 0
1000000 -44 -73 0
1000000 -45 -78 0
1000000 -46 -77 0
1000000 -47 -77 0
1000000 -48 -65 0
1000000 -49 -75 0
1000000 -50 -65 0
1000000 -51 -78 0
1000000 -52 -66 0
1000000 -53 -77 0
1000000 -54 -72 0
1000000 -55 -76 0
1000000 -56 -70 0
1000000 -57 -70 0
1000000 -58 -76 0
1000000 -59 -71 0
1000000 -60 -74 0
1000000 -61 -76 0
1000000 -62 -68 0
1000000 -63 -67 0
1000000 -64 -70 0
6600 -65 0
6100 -66 0
6600 -67 0
6100 -68 0
6500 -69 0
6300 -70 0
6100 -71 0
6300 -72 0
6500 -73 0
6500 -74 0
6700 -75 0
6100 -76 0
6100 -77 0
6100 -78 0
6300 -79 0
3700 35 0
3700 36 0
1500 37 0
3700 38 0
1500 39 0
1600 40 0
5000 41 0
4500 42 0
4500 43 0
1500 44 0
1500 45 0
4500 46 0
4500 47 0
1600 48 0
5000 49 0
5000 50 0
4500 51 0
1600 52 0
5000 53 0
3700 54 0
1600 55 0
1600 56 0
1500 57 0
3700 58 0
1600 59 0
5000 60 0
3700 61 0
1500 62 0
4500 63 0
5000 64 0
33825 22 15 -24 0
33825 22 -15 24 0
42281 22 -15 -24 0
5412 -22 15 24 0
35178 -22 15 -24 0
35178 -22 -15 24 0
42619 -22 -15 -24 0
33825 12 -14 0
24805 -12 14 0
40026 -12 -14 0
29315 27 -34 0
24805 -27 34 0
37997 -27 -34 0
3920 19 29 28 -32 0
7448 19 29 -28 32 0
9878 19 29 -28 -32 0
7840 19 -29 28 32 0
10192 19 -29 28 -32 0
12309 19 -29 -28 32 0
13767 19 -29 -28 -32 0
392 -19 29 28 32 0
4234 -19 29 28 -32 0
7691 -19 29 -28 32 0
10073 -19 29 -28 -32 0
8075 -19 -29 28 32 0
10380 -19 -29 28 -32 0
12455 -19 -29 -28 32 0
13884 -19 -29 -28 -32 0
40660 -21 0
8118 -25 0
5850 13 33 -20 0
19500 13 -33 20 0
21840 13 -33 -20 0
21125 -13 33 20 0
23173 -13 33 -20 0
27950 -13 -33 20 0
28769 -13 -33 -20 0
8118 23 16 30 -17 0
33825 23 16 -30 17 0
35854 23 16 -30 -17 0
29315 23 -16 30 17 0
32156 23 -16 30 -17 0
41154 23 -16 -30 17 0
41864 23 -16 -30 -17 0
8118 -23 16 30 17 0
14775 -23 16 30 -17 0
35854 -23 16 -30 17 0
37519 -23 16 -30 -17 0
32156 -23 -16 30 17 0
34486 -23 -16 30 -17 0
41864 -23 -16 -30 17 0
42447 -23 -16 -30 -17 0
7840 31 18 -11 0
1960 31 -18 11 0
9016 31 -18 -11 0
7448 -31 18 11 0
12309 -31 18 -11 0
8663 -31 -18 11 0
13038 -31 -18 -11 0
4970 -26 0
