p wcnf 79 237 1000000
1000000 3 -11 0
1000000 11 -41 -42 -35 0
1000000 3 -12 0
1000000 12 -44 -10 0
1000000 7 -13 0
1000000 13 -57 -64 -35 -38 -54 0
1000000 6 -14 0
1000000 14 -62 -49 -40 -58 -7 0
1000000 1 -15 0
1000000 15 -43 -38 -8 0
1000000 8 -16 0
1000000 16 -56 -39 0
1000000 2 -17 0
1000000 17 -54 -60 0
1000000 4 -18 0
1000000 18 -59 -56 -36 -42 -9 0
1000000 2 -19 0
1000000 19 -47 -6 0
1000000 6 -20 0
1000000 20 -42 -44 -59 -48 0
1000000 4 -21 0
1000000 21 -57 -37 -52 0
1000000 9 -22 0
1000000 22 -41 -40 -47 -50 -38 0
1000000 3 -23 0
1000000 23 -48 -40 0
1000000 7 -24 0
1000000 24 -55 -63 -49 0
1000000 8 -25 0
1000000 25 -59 -51 -35 0
1000000 10 -26 0
1000000 26 -43 -46 -48 0
1000000 9 -27 0
1000000 27 -61 -59 0
1000000 5 -28 0
1000000 28 -58 -38 -57 -39 0
1000000 6 -29 0
1000000 29 -50 -36 -63 -64 0
1000000 7 -30 0
1000000 30 -35 -43 -39 -55 -53 0
1000000 7 -31 0
1000000 31 -42 -35 -58 0
1000000 3 -32 0
1000000 32 -36 -52 0
1000000 6 -33 0
1000000 33 -53 -51 0
1000000 2 -34 0
1000000 34 -49 -53 -42 0
1000000 -1 15 0
1000000 -2 19 17 34 0
1000000 -3 11 23 32 12 0
1000000 -4 21 18 0
1000000 -5 28 0
1000000 -6 33 20 14 29 0
1000000 -7 30 24 13 31 0
1000000 -8 16 25 0
1000000 -9 22 27 0
1000000 -10 26 0
1000000 35 78 0
1000000 36 69 0
1000000 37 73 0
1000000 38 78 0
1000000 39 74 0
1000000 40 67 0
1000000 41 77 0
1000000 42 68 0
1000000 43 71 0
1000000 44 67 0
1000000 45 79 0
1000000 46 69 0
1000000 47 78 0
1000000 48 73 0
1000000 49 68 0
1000000 50 74 0
1000000 51 68 0
1000000 52 76 0
1000000 53 77 0
1000000 54 77 0
1000000 55 70 0
1000000 56 66 0
1000000 57 74 0
1000000 58 65 0
1000000 59 75 0
1000000 60 72 0
1000000 61 66 0
1000000 62 67 0
1000000 63 73 0
1000000 64 76 0
1000000 -35 -78 0
1000000 -36 -69 0
1000000 -37 -73 0
1000000 -38 -78 0
1000000 -39 -74 0
1000000 -40 -67 0
1000000 -41 -77 0
1000000 -42 -68 0
1000000 -43 -71 0
1000000 -44 -67 0
1000000 -45 -79 0
1000000 -46 -69 0
1000000 -47 -78 0
1000000 -48 -73 0
1000000 -49 -68 0
1000000 -50 -74 0
1000000 -51 -68 0
1000000 -52 -76 0
1000000 -53 -77 0
1000000 -54 -77 0
1000000 -55 -70 0
1000000 -56 -66 0
1000000 -57 -74 0
1000000 -58 -65 0
1000000 -59 -75 0
1000000 -60 -72 0
1000000 -61 -66 0
1000000 -62 -67 0
1000000 -63 -73 0
1000000 -64 -76 0
7700 -65 0
6800 -66 0
9000 -67 0
7700 -68 0
7700 -69 0
5300 -70 0
6100 -71 0
7700 -72 0
6100 -73 0
7700 -74 0
7700 -75 0
6800 -76 0
6800 -77 0
6800 -78 0
6800 -79 0
2100 35 0
4300 36 0
2100 37 0
4300 38 0
3100 39 0
3100 40 0
5000 41 0
5000 42 0
2100 43 0
2100 44 0
2100 45 0
3100 46 0
2100 47 0
2100 48 0
5000 49 0
4900 50 0
4300 51 0
4300 52 0
5000 53 0
4900 54 0
3100 55 0
4300 56 0
4300 57 0
4900 58 0
4900 59 0
3100 60 0
4900 61 0
4300 62 0
4300 63 0
4300 64 0
9614 -15 0
322 19 17 -34 0
15295 19 -17 34 0
15311 19 -17 -34 0
12075 -19 17 34 0
12156 -19 17 -34 0
15899 -19 -17 34 0
15903 -19 -17 -34 0
7455 11 23 32 -12 0
44730 11 23 -32 12 0
45475 11 23 -32 -12 0
994 11 -23 32 12 0
8300 11 -23 32 -12 0
44829 11 -23 -32 12 0
45560 11 -23 -32 -12 0
994 -11 23 32 12 0
8300 -11 23 32 -12 0
44829 -11 23 -32 12 0
45560 -11 23 -32 -12 0
1968 -11 -23 32 12 0
9128 -11 -23 32 -12 0
44927 -11 -23 -32 12 0
45643 -11 -23 -32 -12 0
26100 21 -18 0
22620 -21 18 0
31755 -21 -18 0
805 -28 0
10465 33 20 14 -29 0
8050 33 20 -14 29 0
13282 33 20 -14 -29 0
322 33 -20 14 29 0
10578 33 -20 14 -29 0
8211 33 -20 -14 29 0
13339 33 -20 -14 -29 0
2898 -33 20 14 29 0
11479 -33 20 14 -29 0
9499 -33 20 -14 29 0
13790 -33 20 -14 -29 0
3162 -33 -20 14 29 0
11572 -33 -20 14 -29 0
9631 -33 -20 -14 29 0
13836 -33 -20 -14 -29 0
1880 30 24 13 -31 0
3290 30 24 -13 31 0
4512 30 24 -13 -31 0
8460 30 -24 13 31 0
8648 30 -24 13 -31 0
8789 30 -24 -13 31 0
8911 30 -24 -13 -31 0
1410 -30 24 13 31 0
3008 -30 24 13 -31 0
4206 -30 24 -13 31 0
5245 -30 24 -13 -31 0
8601 -30 -24 13 31 0
8761 -30 -24 13 -31 0
8881 -30 -24 -13 31 0
8985 -30 -24 -13 -31 0
4830 16 -25 0
6118 -16 25 0
9113 -16 -25 0
17710 22 -27 0
3795 -22 27 0
18848 -22 -27 0
15660 -26 0
