p wcnf 79 227 1000000
1000000 3 -11 0
1000000 11 -46 -45 -40 -42 -64 0
1000000 6 -12 0
1000000 12 -49 -60 -37 -41 0
1000000 8 -13 0
1000000 13 -63 -53 -46 -48 0
1000000 7 -14 0
1000000 14 -62 -36 -53 -37 0
1000000 8 -15 0
1000000 15 -40 -37 -35 -38 -9 0
1000000 2 -16 0
1000000 16 -56 -62 -39 -40 -37 0
1000000 6 -17 0
1000000 17 -45 -55 -37 -35 -61 0
1000000 4 -18 0
1000000 18 -38 -63 0
1000000 2 -19 0
1000000 19 -38 -45 -46 -40 0
1000000 9 -20 0
1000000 20 -42 -54 -49 -57 0
1000000 4 -21 0
1000000 21 -43 -46 -37 -59 0
1000000 1 -22 0
1000000 22 -48 -47 0
1000000 2 -23 0
1000000 23 -62 -38 -54 -40 -60 0
1000000 5 -24 0
1000000 24 -60 -42 0
1000000 4 -25 0
1000000 25 -50 -43 -42 -36 -47 0
1000000 8 -26 0
1000000 26 -48 -41 -49 -9 0
1000000 10 -27 0
1000000 27 -41 -38 0
1000000 2 -28 0
1000000 28 -53 -59 -51 -56 0
1000000 7 -29 0
1000000 29 -41 -38 -40 0
1000000 5 -30 0
1000000 30 -45 -63 -53 -37 -7 0
1000000 9 -31 0
1000000 31 -42 -61 0
1000000 7 -32 0
1000000 32 -39 -54 -49 -9 0
1000000 10 -33 0
1000000 33 -55 -60 -41 0
1000000 6 -34 0
1000000 34 -40 -52 -44 0
1000000 -1 22 0
1000000 -2 16 19 28 23 0
1000000 -3 11 0
1000000 -4 21 25 18 0
1000000 -5 24 30 0
1000000 -6 17 12 34 0
1000000 -7 32 14 29 0
1000000 -8 13 26 15 0
1000000 -9 31 20 0
1000000 -10 27 33 0
1000000 35 70 0
1000000 36 70 0
1000000 37 79 0
1000000 38 78 0
1000000 39 79 0
1000000 40 73 0
1000000 41 71 0
1000000 42 65 0
1000000 43 72 0
1000000 44 76 0
1000000 45 72 0
1000000 46 72 0
1000000 47 75 0
1000000 48 77 0
1000000 49 78 0
1000000 50 71 0
1000000 51 66 0
1000000 52 68 0
1000000 53 69 0
1000000 54 76 0
1000000 55 77 0
1000000 56 70 0
1000000 57 74 0
1000000 58 69 0
1000000 59 67 0
1000000 60 65 0
1000000 61 67 0
1000000 62 73 0
1000000 63 74 0
1000000 64 76 0
1000000 -35 -70 0
1000000 -36 -70 0
1000000 -37 -79 0
1000000 -38 -78 0
1000000 -39 -79 0
1000000 -40 -73 0
1000000 -41 -71 0
1000000 -42 -65 0
1000000 -43 -72 0
1000000 -44 -76 0
1000000 -45 -72 0
1000000 -46 -72 0
1000000 -47 -75 0
1000000 -48 -77 0
1000000 -49 -78 0
1000000 -50 -71 0
1000000 -51 -66 0
1000000 -52 -68 0
1000000 -53 -69 0
1000000 -54 -76 0
1000000 -55 -77 0
1000000 -56 -70 0
1000000 -57 -74 0
1000000 -58 -69 0
1000000 -59 -67 0
1000000 -60 -65 0
1000000 -61 -67 0
1000000 -62 -73 0
1000000 -63 -74 0
1000000 -64 -76 0
6200 -65 0
7600 -66 0
6200 -67 0
6400 -68 0
6200 -69 0
8500 -70 0
7600 -71 0
9400 -72 0
9400 -73 0
6400 -74 0
6400 -75 0
8500 -76 0
6200 -77 0
6400 -78 0
8500 -79 0
3500 35 0
3600 36 0
2000 37 0
2000 38 0
5000 39 0
5000 40 0
3500 41 0
4900 42 0
3600 43 0
2000 44 0
3600 45 0
3600 46 0
5000 47 0
5000 48 0
2000 49 0
5000 50 0
5000 51 0
2000 52 0
3500 53 0
5000 54 0
5000 55 0
3600 56 0
3600 57 0
3600 58 0
5000 59 0
5000 60 0
4900 61 0
4900 62 0
3500 63 0
2000 64 0
14220 -22 0
9664 16 19 28 -23 0
19630 16 19 -28 23 0
23012 16 19 -28 -23 0
24160 16 -19 28 23 0
26093 16 -19 28 -23 0
28086 16 -19 -28 23 0
28762 16 -19 -28 -23 0
27180 -16 19 28 23 0
28146 -16 19 28 -23 0
29143 -16 19 -28 23 0
29481 -16 19 -28 -23 0
29596 -16 -19 28 23 0
29789 -16 -19 28 -23 0
29989 -16 -19 -28 23 0
30056 -16 -19 -28 -23 0
4220 -11 0
9495 21 25 -18 0
11605 21 -25 18 0
15878 21 -25 -18 0
17935 -21 25 18 0
19359 -21 25 -18 0
19676 -21 -25 18 0
20317 -21 -25 -18 0
42570 24 -30 0
44935 -24 30 0
47063 -24 -30 0
2370 17 12 -34 0
5530 17 -12 34 0
7070 17 -12 -34 0
316 -17 12 34 0
2639 -17 12 -34 0
5735 -17 -12 34 0
7245 -17 -12 -34 0
3624 32 14 -29 0
18120 32 -14 29 0
19570 32 -14 -29 0
28690 -32 14 29 0
28871 -32 14 -29 0
29596 -32 -14 29 0
29668 -32 -14 -29 0
604 13 26 -15 0
16610 13 -26 15 0
16882 13 -26 -15 0
7550 -13 26 15 0
8003 -13 26 -15 0
20008 -13 -26 15 0
20211 -13 -26 -15 0
28380 31 -20 0
40205 -31 20 0
44462 -31 -20 0
15825 27 -33 0
11605 -27 33 0
18726 -27 -33 0
