p wcnf 79 225 1000000
1000000 9 -11 0
1000000 11 -39 -42 -37 0
1000000 7 -12 0
1000000 12 -47 -44 0
1000000 7 -13 0
1000000 13 -40 -53 -52 -59 0
1000000 7 -14 0
1000000 14 -54 -42 0
1000000 1 -15 0
1000000 15 -47 -60 -56 0
1000000 3 -16 0
1000000 16 -58 -47 0
1000000 5 -17 0
1000000 17 -54 -49 -10 0
1000000 4 -18 0
1000000 18 -43 -54 0
1000000 4 -19 0
1000000 19 -58 -64 0
1000000 2 -20 0
1000000 20 -38 -56 -49 0
1000000 1 -21 0
1000000 21 -55 -63 -35 -59 -51 0
1000000 5 -22 0
1000000 22 -60 -44 -59 0
1000000 7 -23 0
1000000 23 -41 -8 0
1000000 9 -24 0
1000000 24 -36 -55 -47 -57 -64 0
1000000 3 -25 0
1000000 25 -46 -57 -37 0
1000000 8 -26 0
1000000 26 -56 -46 0
1000000 8 -27 0
1000000 27 -42 -44 -53 -62 0
1000000 6 -28 0
1000000 28 -50 -59 -43 -62 -57 0
1000000 6 -29 0
1000000 29 -53 -36 -9 0
1000000 6 -30 0
1000000 30 -38 -54 -40 -53 -59 0
1000000 4 -31 0
1000000 31 -60 -64 -43 -58 -41 0
1000000 3 -32 0
1000000 32 -50 -42 0
1000000 2 -33 0
1000000 33 -44 -50 -59 -51 -45 0
1000000 10 -34 0
1000000 34 -62 -50 0
1000000 -1 15 21 0
1000000 -2 33 20 0
1000000 -3 32 16 25 0
1000000 -4 31 19 18 0
1000000 -5 22 17 0
1000000 -6 30 29 28 0
1000000 -7 23 13 14 12 0
1000000 -8 26 27 0
1000000 -9 11 24 0
1000000 -10 34 0
1000000 35 73 0
1000000 36 76 0
1000000 37 76 0
1000000 38 66 0
1000000 39 79 0
1000000 40 72 0
1000000 41 69 0
1000000 42 74 0
1000000 43 75 0
1000000 44 78 0
1000000 45 69 0
1000000 46 71 0
1000000 47 69 0
1000000 48 73 0
1000000 49 72 0
1000000 50 72 0
1000000 51 78 0
1000000 52 73 0
1000000 53 77 0
1000000 54 66 0
1000000 55 67 0
1000000 56 76 0
1000000 57 71 0
1000000 58 68 0
1000000 59 77 0
1000000 60 70 0
1000000 61 65 0
1000000 62 71 0
1000000 63 75 0
1000000 64 75 0
1000000 -35 -73 0
1000000 -36 -76 0
1000000 -37 -76 0
1000000 -38 -66 0
1000000 -39 -79 0
1000000 -40 -72 0
1000000 -41 -69 0
1000000 -42 -74 0
1000000 -43 -75 0
1000000 -44 -78 0
1000000 -45 -69 0
1000000 -46 -71 0
1000000 -47 -69 0
1000000 -48 -73 0
1000000 -49 -72 0
1000000 -50 -72 0
1000000 -51 -78 0
1000000 -52 -73 0
1000000 -53 -77 0
1000000 -54 -66 0
1000000 -55 -67 0
1000000 -56 -76 0
1000000 -57 -71 0
1000000 -58 -68 0
1000000 -59 -77 0
1000000 -60 -70 0
1000000 -61 -65 0
1000000 -62 -71 0
1000000 -63 -75 0
1000000 -64 -75 0
8400 -65 0
7900 -66 0
5700 -67 0
5500 -68 0
7900 -69 0
7900 -70 0
5700 -71 0
7900 -72 0
5500 -73 0
5500 -74 0
9700 -75 0
8400 -76 0
8400 -77 0
9700 -78 0
5700 -79 0
1700 35 0
1700 36 0
3700 37 0
1700 38 0
3700 39 0
1700 40 0
3700 41 0
1700 42 0
3700 43 0
4200 44 0
4200 45 0
3500 46 0
3500 47 0
3700 48 0
4200 49 0
3700 50 0
3200 51 0
4200 52 0
1700 53 0
4200 54 0
1700 55 0
3700 56 0
3200 57 0
3500 58 0
1700 59 0
3700 60 0
3200 61 0
3500 62 0
3700 63 0
3500 64 0
5640 15 -21 0
564 -15 21 0
6091 -15 -21 0
5130 33 -20 0
21375 -33 20 0
22657 -33 -20 0
7050 32 16 -25 0
21150 32 -16 25 0
22912 32 -16 -25 0
1410 -32 16 25 0
8108 -32 16 -25 0
21502 -32 -16 25 0
23177 -32 -16 -25 0
4275 31 19 -18 0
19950 31 -19 18 0
21232 31 -19 -18 0
18525 -31 19 18 0
20021 -31 19 -18 0
25508 -31 -19 18 0
25956 -31 -19 -18 0
11400 22 -17 0
5130 -22 17 0
14478 -22 -17 0
11280 30 29 -28 0
4230 30 -29 28 0
13818 30 -29 -28 0
21150 -30 29 28 0
23970 -30 29 -28 0
22207 -30 -29 28 0
24605 -30 -29 -28 0
35520 23 13 14 -12 0
7992 23 13 -14 12 0
37118 23 13 -14 -12 0
5328 23 -13 14 12 0
36586 23 -13 14 -12 0
12361 23 -13 -14 12 0
37992 23 -13 -14 -12 0
888 -23 13 14 12 0
35698 -23 13 14 -12 0
8720 -23 13 -14 12 0
37264 -23 13 -14 -12 0
6109 -23 -13 14 12 0
36742 -23 -13 14 -12 0
13002 -23 -13 -14 12 0
38120 -23 -13 -14 -12 0
22800 26 -27 0
14250 -26 27 0
25650 -26 -27 0
37740 11 -24 0
35520 -11 24 0
43068 -11 -24 0
11100 -34 0
