p wcnf 79 245 1000000
1000000 8 -11 0
1000000 11 -45 -36 -57 0
1000000 3 -12 0
1000000 12 -48 -54 -40 -55 -58 0
1000000 6 -13 0
1000000 13 -36 -64 -62 -8 0
1000000 3 -14 0
1000000 14 -40 -37 0
1000000 10 -15 0
1000000 15 -52 -45 0
1000000 7 -16 0
1000000 16 -46 -57 -47 0
1000000 6 -17 0
1000000 17 -40 -47 -59 -51 0
1000000 2 -18 0
1000000 18 -35 -46 -42 -47 -60 0
1000000 9 -19 0
1000000 19 -58 -46 -10 0
1000000 10 -20 0
1000000 20 -64 -46 -55 0
1000000 7 -21 0
1000000 21 -48 -49 -36 -60 -44 0
1000000 8 -22 0
1000000 22 -48 -54 -58 -56 0
1000000 3 -23 0
1000000 23 -53 -63 -64 0
1000000 1 -24 0
1000000 24 -36 -61 -46 -4 0
1000000 5 -25 0
1000000 25 -50 -36 -63 0
1000000 6 -26 0
1000000 26 -49 -60 0
1000000 2 -27 0
1000000 27 -63 -64 -50 -51 0
1000000 2 -28 0
1000000 28 -59 -39 0
1000000 10 -29 0
1000000 29 -45 -46 0
1000000 4 -30 0
1000000 30 -54 -62 -47 -8 0
1000000 3 -31 0
1000000 31 -46 -48 0
1000000 3 -32 0
1000000 32 -38 -42 0
1000000 6 -33 0
1000000 33 -58 -45 0
1000000 4 -34 0
1000000 34 -38 -41 -62 -55 -64 0
1000000 -1 24 0
1000000 -2 27 28 18 0
1000000 -3 23 32 31 14 12 0
1000000 -4 30 34 0
1000000 -5 25 0
1000000 -6 13 26 33 17 0
1000000 -7 16 21 0
1000000 -8 11 22 0
1000000 -9 19 0
1000000 -10 29 15 20 0
1000000 35 66 0
1000000 36 73 0
1000000 37 70 0
1000000 38 79 0
1000000 39 67 0
1000000 40 67 0
1000000 41 78 0
1000000 42 75 0
1000000 43 68 0
1000000 44 68 0
1000000 45 75 0
1000000 46 74 0
1000000 47 69 0
1000000 48 76 0
1000000 49 69 0
1000000 50 74 0
1000000 51 71 0
1000000 52 73 0
1000000 53 74 0
1000000 54 77 0
1000000 55 65 0
1000000 56 70 0
1000000 57 70 0
1000000 58 65 0
1000000 59 72 0
1000000 60 73 0
1000000 61 69 0
1000000 62 77 0
1000000 63 77 0
1000000 64 75 0
1000000 -35 -66 0
1000000 -36 -73 0
1000000 -37 -70 0
1000000 -38 -79 0
1000000 -39 -67 0
1000000 -40 -67 0
1000000 -41 -78 0
1000000 -42 -75 0
1000000 -43 -68 0
1000000 -44 -68 0
1000000 -45 -75 0
1000000 -46 -74 0
1000000 -47 -69 0
1000000 -48 -76 0
1000000 -49 -69 0
1000000 -50 -74 0
1000000 -51 -71 0
1000000 -52 -73 0
1000000 -53 -74 0
1000000 -54 -77 0
1000000 -55 -65 0
1000000 -56 -70 0
1000000 -57 -70 0
1000000 -58 -65 0
1000000 -59 -72 0
1000000 -60 -73 0
1000000 -61 -69 0
1000000 -62 -77 0
1000000 -63 -77 0
1000000 -64 -75 0
5500 -65 0
9000 -66 0
6200 -67 0
5500 -68 0
6700 -69 0
6700 -70 0
9000 -71 0
6200 -72 0
9000 -73 0
9000 -74 0
5200 -75 0
5500 -76 0
5200 -77 0
6700 -78 0
5200 -79 0
1000 35 0
4100 36 0
4800 37 0
1000 38 0
4800 39 0
4100 40 0
1000 41 0
1000 42 0
4100 43 0
4800 44 0
4800 45 0
1800 46 0
1000 47 0
1000 48 0
4100 49 0
4800 50 0
1100 51 0
1100 52 0
1000 53 0
4800 54 0
4100 55 0
1100 56 0
4100 57 0
4100 58 0
1800 59 0
4100 60 0
4800 61 0
4800 62 0
4100 63 0
1800 64 0
6520 -24 0
19560 27 28 -18 0
3912 27 -28 18 0
21125 27 -28 -18 0
13040 -27 28 18 0
24776 -27 28 -18 0
15387 -27 -28 18 0
25715 -27 -28 -18 0
24145 23 32 31 14 -12 0
878 23 32 31 -14 12 0
24540 23 32 31 -14 -12 0
30730 23 32 -31 14 12 0
37974 23 32 -31 14 -12 0
30993 23 32 -31 -14 12 0
38092 23 32 -31 -14 -12 0
878 23 -32 31 14 12 0
24540 23 -32 31 14 -12 0
1738 23 -32 31 -14 12 0
24927 23 -32 31 -14 -12 0
30993 23 -32 -31 14 12 0
38092 23 -32 -31 14 -12 0
31252 23 -32 -31 -14 12 0
38208 23 -32 -31 -14 -12 0
16682 -23 32 31 14 12 0
31652 -23 32 31 14 -12 0
17226 -23 32 31 -14 12 0
31897 -23 32 31 -14 -12 0
35735 -23 32 -31 14 12 0
40226 -23 32 -31 14 -12 0
35898 -23 32 -31 -14 12 0
40299 -23 32 -31 -14 -12 0
17226 -23 -32 31 14 12 0
31897 -23 -32 31 14 -12 0
17760 -23 -32 31 -14 12 0
32137 -23 -32 31 -14 -12 0
35898 -23 -32 -31 14 12 0
40299 -23 -32 -31 14 -12 0
36058 -23 -32 -31 -14 12 0
40371 -23 -32 -31 -14 -12 0
8540 30 -34 0
4270 -30 34 0
11956 -30 -34 0
14490 -25 0
28170 13 26 33 -17 0
626 13 26 -33 17 0
28233 13 26 -33 -17 0
23475 13 -26 33 17 0
30518 13 -26 33 -17 0
23631 13 -26 -33 17 0
30533 13 -26 -33 -17 0
10016 -13 26 33 17 0
29172 -13 26 33 -17 0
10442 -13 26 -33 17 0
29214 -13 26 -33 -17 0
25979 -13 -26 33 17 0
30768 -13 -26 33 -17 0
26085 -13 -26 -33 17 0
30779 -13 -26 -33 -17 0
12388 16 -21 0
12388 -16 21 0
20069 -16 -21 0
10016 11 -22 0
25040 -11 22 0
27043 -11 -22 0
19320 -19 0
30730 29 15 -20 0
878 29 -15 20 0
30993 29 -15 -20 0
6585 -29 15 20 0
32706 -29 15 -20 0
7331 -29 -15 20 0
32929 -29 -15 -20 0
