p wcnf 79 245 1000000
1000000 2 -11 0
1000000 11 -45 -41 -55 -52 -35 0
1000000 10 -12 0
1000000 12 -36 -61 -51 0
1000000 8 -13 0
1000000 13 -64 -41 -9 0
1000000 2 -14 0
1000000 14 -48 -60 -52 0
1000000 6 -15 0
1000000 15 -64 -52 -56 0
1000000 6 -16 0
1000000 16 -57 -44 0
1000000 6 -17 0
1000000 17 -62 -40 -60 -58 0
1000000 1 -18 0
1000000 18 -61 -50 -58 -39 -60 0
1000000 7 -19 0
1000000 19 -58 -9 0
1000000 8 -20 0
1000000 20 -44 -58 -54 -40 -63 0
1000000 4 -21 0
1000000 21 -36 -47 -52 -50 -59 0
1000000 2 -22 0
1000000 22 -39 -42 0
1000000 9 -23 0
1000000 23 -45 -53 -50 0
1000000 6 -24 0
1000000 24 -40 -53 -37 -58 -38 0
1000000 3 -25 0
1000000 25 -59 -62 -49 -55 -10 0
1000000 4 -26 0
1000000 26 -35 -54 -45 -62 -40 0
1000000 5 -27 0
1000000 27 -39 -40 -59 -6 0
1000000 9 -28 0
1000000 28 -35 -52 -59 -42 0
1000000 5 -29 0
1000000 29 -41 -42 -36 -63 0
1000000 2 -30 0
1000000 30 -40 -57 -61 -7 0
1000000 1 -31 0
1000000 31 -39 -40 -61 -50 0
1000000 9 -32 0
1000000 32 -61 -10 0
1000000 8 -33 0
1000000 33 -64 -60 -53 -52 -43 0
1000000 2 -34 0
1000000 34 -45 -50 0
1000000 -1 18 31 0
1000000 -2 30 22 34 14 11 0
1000000 -3 25 0
1000000 -4 21 26 0
1000000 -5 29 27 0
1000000 -6 16 24 17 15 0
1000000 -7 19 0
1000000 -8 13 33 20 0
1000000 -9 32 28 23 0
1000000 -10 12 0
1000000 35 65 0
1000000 36 65 0
1000000 37 77 0
1000000 38 66 0
1000000 39 70 0
1000000 40 71 0
1000000 41 73 0
1000000 42 70 0
1000000 43 71 0
1000000 44 78 0
1000000 45 69 0
1000000 46 66 0
1000000 47 67 0
1000000 48 72 0
1000000 49 74 0
1000000 50 79 0
1000000 51 78 0
1000000 52 68 0
1000000 53 69 0
1000000 54 65 0
1000000 55 72 0
1000000 56 66 0
1000000 57 75 0
1000000 58 73 0
1000000 59 75 0
1000000 60 79 0
1000000 61 76 0
1000000 62 67 0
1000000 63 75 0
1000000 64 68 0
1000000 -35 -65 0
1000000 -36 -65 0
1000000 -37 -77 0
1000000 -38 -66 0
1000000 -39 -70 0
1000000 -40 -71 0
1000000 -41 -73 0
1000000 -42 -70 0
1000000 -43 -71 0
1000000 -44 -78 0
1000000 -45 -69 0
1000000 -46 -66 0
1000000 -47 -67 0
1000000 -48 -72 0
1000000 -49 -74 0
1000000 -50 -79 0
1000000 -51 -78 0
1000000 -52 -68 0
1000000 -53 -69 0
1000000 -54 -65 0
1000000 -55 -72 0
1000000 -56 -66 0
1000000 -57 -75 0
1000000 -58 -73 0
1000000 -59 -75 0
1000000 -60 -79 0
1000000 -61 -76 0
1000000 -62 -67 0
1000000 -63 -75 0
1000000 -64 -68 0
6800 -65 0
6000 -66 0
5200 -67 0
6000 -68 0
8600 -69 0
5200 -70 0
5200 -71 0
5600 -72 0
8600 -73 0
5200 -74 0
5200 -75 0
8600 -76 0
5200 -77 0
6000 -78 0
8600 -79 0
2000 35 0
2600 36 0
4100 37 0
4100 38 0
2800 39 0
4100 40 0
2600 41 0
2000 42 0
4100 43 0
4100 44 0
2600 45 0
2800 46 0
4100 47 0
4100 48 0
2000 49 0
3200 50 0
2800 51 0
4100 52 0
2800 53 0
2600 54 0
4100 55 0
4100 56 0
2000 57 0
2000 58 0
2600 59 0
2600 60 0
3200 61 0
3200 62 0
2600 63 0
3200 64 0
9568 18 -31 0
11362 -18 31 0
17294 -18 -31 0
10465 30 22 34 14 -11 0
9568 30 22 34 -14 11 0
16684 30 22 34 -14 -11 0
5382 30 22 -34 14 11 0
13963 30 22 -34 14 -11 0
13228 30 22 -34 -14 11 0
19063 30 22 -34 -14 -11 0
7475 30 -22 34 14 11 0
15324 30 -22 34 14 -11 0
14651 30 -22 34 -14 11 0
19988 30 -22 34 -14 -11 0
11512 30 -22 -34 14 11 0
17947 30 -22 -34 14 -11 0
17396 30 -22 -34 -14 11 0
21772 30 -22 -34 -14 -11 0
5382 -30 22 34 14 11 0
13963 -30 22 34 14 -11 0
13228 -30 22 34 -14 11 0
19063 -30 22 34 -14 -11 0
9795 -30 22 -34 14 11 0
16832 -30 22 -34 14 -11 0
16229 -30 22 -34 -14 11 0
21014 -30 22 -34 -14 -11 0
11512 -30 -22 34 14 11 0
17947 -30 -22 34 14 -11 0
17396 -30 -22 34 -14 11 0
21772 -30 -22 34 -14 -11 0
14821 -30 -22 -34 14 11 0
20099 -30 -22 -34 14 -11 0
19647 -30 -22 -34 -14 11 0
23235 -30 -22 -34 -14 -11 0
12180 -25 0
33060 21 -26 0
33060 -21 26 0
34713 -21 -26 0
3588 29 -27 0
1495 -29 27 0
4904 -29 -27 0
29580 16 24 17 -15 0
31320 16 24 -17 15 0
34278 16 24 -17 -15 0
6264 16 -24 17 15 0
30520 16 -24 17 -15 0
31946 16 -24 -17 15 0
34372 16 -24 -17 -15 0
10440 -16 24 17 15 0
31146 -16 24 17 -15 0
32364 -16 24 -17 15 0
34435 -16 24 -17 -15 0
14825 -16 -24 17 15 0
31804 -16 -24 17 -15 0
32802 -16 -24 -17 15 0
34500 -16 -24 -17 -15 0
696 -19 0
696 13 33 -20 0
5220 13 -33 20 0
5812 13 -33 -20 0
4176 -13 33 20 0
4788 -13 33 -20 0
8770 -13 -33 20 0
9290 -13 -33 -20 0
22620 32 28 -23 0
13195 32 -28 23 0
27898 32 -28 -23 0
12064 -32 28 23 0
27446 -32 28 -23 0
21037 -32 -28 23 0
31035 -32 -28 -23 0
16160 -12 0
