p wcnf 79 227 1000000
1000000 4 -11 0
1000000 11 -48 -40 -63 -64 -35 0
1000000 1 -12 0
1000000 12 -42 -62 0
1000000 6 -13 0
1000000 13 -63 -50 -37 -59 -46 0
1000000 7 -14 0
1000000 14 -47 -52 0
1000000 3 -15 0
1000000 15 -40 -56 0
1000000 4 -16 0
1000000 16 -56 -54 0
1000000 5 -17 0
1000000 17 -39 -57 -42 -59 -61 0
1000000 3 -18 0
1000000 18 -37 -52 -38 -43 -62 0
1000000 10 -19 0
1000000 19 -62 -57 -64 0
1000000 8 -20 0
1000000 20 -50 -37 -51 -41 -47 0
1000000 10 -21 0
1000000 21 -62 -55 -53 0
1000000 1 -22 0
1000000 22 -37 -61 0
1000000 6 -23 0
1000000 23 -41 -62 -54 -52 0
1000000 2 -24 0
1000000 24 -36 -56 -46 -54 0
1000000 9 -25 0
1000000 25 -58 -56 -39 -54 -64 0
1000000 5 -26 0
1000000 26 -50 -53 -37 -9 0
1000000 8 -27 0
1000000 27 -49 -37 -48 0
1000000 1 -28 0
1000000 28 -60 -40 0
1000000 8 -29 0
1000000 29 -45 -63 0
1000000 6 -30 0
1000000 30 -40 -60 0
1000000 9 -31 0
1000000 31 -60 -48 -41 0
1000000 5 -32 0
1000000 32 -55 -54 0
1000000 3 -33 0
1000000 33 -49 -39 -40 -53 0
1000000 8 -34 0
1000000 34 -56 -39 -10 0
1000000 -1 12 22 28 0
1000000 -2 24 0
1000000 -3 15 18 33 0
1000000 -4 16 11 0
1000000 -5 26 17 32 0
1000000 -6 30 13 23 0
1000000 -7 14 0
1000000 -8 20 29 27 34 0
1000000 -9 31 25 0
1000000 -10 19 21 0
1000000 35 78 0
1000000 36 75 0
1000000 37 69 0
1000000 38 77 0
1000000 39 67 0
1000000 40 70 0
1000000 41 73 0
1000000 42 71 0
1000000 43 76 0
1000000 44 66 0
1000000 45 76 0
1000000 46 72 0
1000000 47 75 0
1000000 48 70 0
1000000 49 74 0
1000000 50 71 0
1000000 51 66 0
1000000 52 79 0
1000000 53 65 0
1000000 54 68 0
1000000 55 69 0
1000000 56 74 0
1000000 57 78 0
1000000 58 67 0
1000000 59 69 0
1000000 60 65 0
1000000 61 78 0
1000000 62 66 0
1000000 63 71 0
1000000 64 68 0
1000000 -35 -78 0
1000000 -36 -75 0
1000000 -37 -69 0
1000000 -38 -77 0
1000000 -39 -67 0
1000000 -40 -70 0
1000000 -41 -73 0
1000000 -42 -71 0
1000000 -43 -76 0
1000000 -44 -66 0
1000000 -45 -76 0
1000000 -46 -72 0
1000000 -47 -75 0
1000000 -48 -70 0
1000000 -49 -74 0
1000000 -50 -71 0
1000000 -51 -66 0
1000000 -52 -79 0
1000000 -53 -65 0
1000000 -54 -68 0
1000000 -55 -69 0
1000000 -56 -74 0
1000000 -57 -78 0
1000000 -58 -67 0
1000000 -59 -69 0
1000000 -60 -65 0
1000000 -61 -78 0
1000000 -62 -66 0
1000000 -63 -71 0
1000000 -64 -68 0
7900 -65 0
8300 -66 0
8500 -67 0
9600 -68 0
9400 -69 0
9600 -70 0
8300 -71 0
8300 -72 0
9400 -73 0
7900 -74 0
8300 -75 0
9600 -76 0
9600 -77 0
9600 -78 0
9400 -79 0
2600 35 0
2500 36 0
3500 37 0
2600 38 0
2500 39 0
2600 40 0
3500 41 0
2500 42 0
2600 43 0
3500 44 0
3500 45 0
2500 46 0
3500 47 0
4500 48 0
3500 49 0
2600 50 0
2500 51 0
4500 52 0
2600 53 0
3500 54 0
2500 55 0
3500 56 0
3500 57 0
2600 58 0
3500 59 0
4500 60 0
2400 61 0
2600 62 0
3500 63 0
2600 64 0
3684 12 22 -28 0
614 12 -22 28 0
4224 12 -22 -28 0
16885 -12 22 28 0
18543 -12 22 -28 0
17161 -12 -22 28 0
18786 -12 -22 -28 0
13815 -24 0
11666 15 18 -33 0
3684 15 -18 33 0
13950 15 -18 -33 0
3684 -15 18 33 0
13950 -15 18 -33 0
6926 -15 -18 33 0
15960 -15 -18 -33 0
3132 16 -11 0
16530 -16 11 0
16687 -16 -11 0
12180 26 17 -32 0
12180 26 -17 32 0
15834 26 -17 -32 0
3480 -26 17 32 0
13224 -26 17 -32 0
13224 -26 -17 32 0
16147 -26 -17 -32 0
14790 30 13 -23 0
348 30 -13 23 0
14842 30 -13 -23 0
11310 -30 13 23 0
16487 -30 13 -23 0
11432 -30 -13 23 0
16505 -30 -13 -23 0
2395 -14 0
15350 20 29 27 -34 0
11666 20 29 -27 34 0
21183 20 29 -27 -34 0
16885 20 -29 27 34 0
23793 20 -29 27 -34 0
22135 20 -29 -27 34 0
26417 20 -29 -27 -34 0
19955 -20 29 27 34 0
25327 -20 29 27 -34 0
24038 -20 29 -27 34 0
27369 -20 29 -27 -34 0
25865 -20 -29 27 34 0
28282 -20 -29 27 -34 0
27702 -20 -29 -27 34 0
29201 -20 -29 -27 -34 0
21555 31 -25 0
8622 -31 25 0
26297 -31 -25 0
8700 19 -21 0
3132 -19 21 0
10266 -19 -21 0
