p wcnf 79 233 1000000
1000000 3 -11 0
1000000 11 -46 -48 -61 0
1000000 7 -12 0
1000000 12 -59 -10 0
1000000 6 -13 0
1000000 13 -37 -62 -46 -48 0
1000000 2 -14 0
1000000 14 -47 -3 0
1000000 10 -15 0
1000000 15 -40 -64 -37 -56 -46 0
1000000 3 -16 0
1000000 16 -50 -35 -8 0
1000000 5 -17 0
1000000 17 -41 -48 -60 -58 0
1000000 1 -18 0
1000000 18 -35 -52 -50 -51 -39 0
1000000 2 -19 0
1000000 19 -57 -4 0
1000000 5 -20 0
1000000 20 -42 -64 -43 -36 -48 0
1000000 6 -21 0
1000000 21 -62 -36 -50 -58 0
1000000 10 -22 0
1000000 22 -53 -61 -58 0
1000000 2 -23 0
1000000 23 -59 -41 -39 -60 -37 0
1000000 7 -24 0
1000000 24 -44 -56 -45 0
1000000 7 -25 0
1000000 25 -41 -62 -57 -47 0
1000000 2 -26 0
1000000 26 -42 -51 -41 0
1000000 3 -27 0
1000000 27 -37 -53 -10 0
1000000 8 -28 0
1000000 28 -51 -43 0
1000000 4 -29 0
1000000 29 -35 -46 -64 0
1000000 1 -30 0
1000000 30 -45 -41 -62 -40 0
1000000 1 -31 0
1000000 31 -52 -50 -37 -38 0
1000000 6 -32 0
1000000 32 -40 -44 0
1000000 9 -33 0
1000000 33 -42 -55 -45 -10 0
1000000 6 -34 0
1000000 34 -41 -57 -35 0
1000000 -1 18 31 30 0
1000000 -2 26 19 14 23 0
1000000 -3 11 16 27 0
1000000 -4 29 0
1000000 -5 20 17 0
1000000 -6 32 13 21 34 0
1000000 -7 24 12 25 0
1000000 -8 28 0
1000000 -9 33 0
1000000 -10 15 22 0
1000000 35 79 0
1000000 36 78 0
1000000 37 71 0
1000000 38 66 0
1000000 39 68 0
1000000 40 74 0
1000000 41 73 0
1000000 42 78 0
1000000 43 76 0
1000000 44 78 0
1000000 45 69 0
1000000 46 73 0
1000000 47 67 0
1000000 48 66 0
1000000 49 72 0
1000000 50 65 0
1000000 51 75 0
1000000 52 68 0
1000000 53 66 0
1000000 54 72 0
1000000 55 67 0
1000000 56 67 0
1000000 57 76 0
1000000 58 79 0
1000000 59 76 0
1000000 60 77 0
1000000 61 69 0
1000000 62 79 0
1000000 63 73 0
1000000 64 70 0
1000000 -35 -79 0
1000000 -36 -78 0
1000000 -37 -71 0
1000000 -38 -66 0
1000000 -39 -68 0
1000000 -40 -74 0
1000000 -41 -73 0
1000000 -42 -78 0
1000000 -43 -76 0
1000000 -44 -78 0
1000000 -45 -69 0
1000000 -46 -73 0
1000000 -47 -67 0
1000000 -48 -66 0
1000000 -49 -72 0
1000000 -50 -65 0
1000000 -51 -75 0
1000000 -52 -68 0
1000000 -53 -66 0
1000000 -54 -72 0
1000000 -55 -67 0
1000000 -56 -67 0
1000000 -57 -76 0
1000000 -58 -79 0
1000000 -59 -76 0
1000000 -60 -77 0
1000000 -61 -69 0
1000000 -62 -79 0
1000000 -63 -73 0
1000000 -64 -70 0
6800 -65 0
5000 -66 0
6900 -67 0
5000 -68 0
5000 -69 0
9700 -70 0
9700 -71 0
6800 -72 0
9700 -73 0
6800 -74 0
6900 -75 0
6900 -76 0
5700 -77 0
6800 -78 0
6800 -79 0
3100 35 0
1400 36 0
4000 37 0
1400 38 0
1100 39 0
3100 40 0
1400 41 0
1400 42 0
1400 43 0
3100 44 0
4000 45 0
1400 46 0
4000 47 0
2900 48 0
4000 49 0
1400 50 0
2900 51 0
4000 52 0
4000 53 0
2900 54 0
4000 55 0
4000 56 0
4000 57 0
1100 58 0
1100 59 0
1100 60 0
3100 61 0
3100 62 0
2900 63 0
4000 64 0
3780 18 31 -30 0
7182 18 -31 30 0
9526 18 -31 -30 0
12285 -18 31 30 0
13608 -18 31 -30 0
14799 -18 -31 30 0
15619 -18 -31 -30 0
15120 26 19 14 -23 0
17010 26 19 -14 23 0
18522 26 19 -14 -23 0
15120 26 -19 14 23 0
18144 26 -19 14 -23 0
18522 26 -19 -14 23 0
18824 26 -19 -14 -23 0
16065 -26 19 14 23 0
18333 -26 19 14 -23 0
18616 -26 19 -14 23 0
18843 -26 19 -14 -23 0
18333 -26 -19 14 23 0
18787 -26 -19 14 -23 0
18843 -26 -19 -14 23 0
18889 -26 -19 -14 -23 0
1315 11 16 -27 0
15780 11 -16 27 0
16306 11 -16 -27 0
9205 -11 16 27 0
10060 -11 16 -27 0
19462 -11 -16 27 0
19804 -11 -16 -27 0
6878 -29 0
15385 20 -17 0
17195 -20 17 0
17964 -20 -17 0
378 32 13 21 -34 0
14175 32 13 -21 34 0
14269 32 13 -21 -34 0
7560 32 -13 21 34 0
7787 32 -13 21 -34 0
16065 32 -13 -21 34 0
16122 32 -13 -21 -34 0
2835 -32 13 21 34 0
3156 -32 13 21 -34 0
14884 -32 13 -21 34 0
14964 -32 13 -21 -34 0
9261 -32 -13 21 34 0
9454 -32 -13 21 -34 0
16490 -32 -13 -21 34 0
16538 -32 -13 -21 -34 0
18410 24 12 -25 0
9205 24 -12 25 0
21171 24 -12 -25 0
7890 -24 12 25 0
20777 -24 12 -25 0
14334 -24 -12 25 0
22710 -24 -12 -25 0
16445 -28 0
23920 -33 0
17010 15 -22 0
17955 -15 22 0
18806 -15 -22 0
