p wcnf 79 227 1000000
1000000 6 -11 0
1000000 11 -45 -36 -52 -59 -58 0
1000000 6 -12 0
1000000 12 -49 -40 -59 0
1000000 10 -13 0
1000000 13 -39 -61 -43 -41 0
1000000 9 -14 0
1000000 14 -36 -50 -37 -44 -56 0
1000000 5 -15 0
1000000 15 -54 -37 -50 -41 0
1000000 3 -16 0
1000000 16 -46 -7 0
1000000 9 -17 0
1000000 17 -57 -49 -47 -51 0
1000000 1 -18 0
1000000 18 -55 -40 -47 -4 0
1000000 6 -19 0
1000000 19 -58 -45 -63 0
1000000 2 -20 0
1000000 20 -52 -51 -46 -48 -3 0
1000000 5 -21 0
1000000 21 -62 -38 -46 -37 -35 0
1000000 8 -22 0
1000000 22 -49 -50 -43 0
1000000 2 -23 0
1000000 23 -49 -36 0
1000000 5 -24 0
1000000 24 -61 -10 0
1000000 2 -25 0
1000000 25 -43 -39 -46 -54 0
1000000 1 -26 0
1000000 26 -52 -61 -62 -55 -4 0
1000000 10 -27 0
1000000 27 -49 -36 0
1000000 4 -28 0
1000000 28 -60 -44 -54 -63 0
1000000 3 -29 0
1000000 29 -62 -57 0
1000000 7 -30 0
1000000 30 -35 -58 -41 -40 -63 0
1000000 10 -31 0
1000000 31 -52 -43 -45 -41 0
1000000 4 -32 0
1000000 32 -40 -55 -60 -37 -57 0
1000000 9 -33 0
1000000 33 -46 -35 -58 -51 -62 0
1000000 2 -34 0
1000000 34 -54 -45 -49 -39 0
1000000 -1 18 26 0
1000000 -2 20 25 34 23 0
1000000 -3 16 29 0
1000000 -4 28 32 0
1000000 -5 24 21 15 0
1000000 -6 11 19 12 0
1000000 -7 30 0
1000000 -8 22 0
1000000 -9 33 17 14 0
1000000 -10 27 13 31 0
1000000 35 75 0
1000000 36 71 0
1000000 37 70 0
1000000 38 79 0
1000000 39 72 0
1000000 40 73 0
1000000 41 73 0
1000000 42 66 0
1000000 43 65 0
1000000 44 78 0
1000000 45 77 0
1000000 46 69 0
1000000 47 77 0
1000000 48 65 0
1000000 49 67 0
1000000 50 72 0
1000000 51 69 0
1000000 52 69 0
1000000 53 65 0
1000000 54 75 0
1000000 55 74 0
1000000 56 67 0
1000000 57 71 0
1000000 58 70 0
1000000 59 76 0
1000000 60 67 0
1000000 61 68 0
1000000 62 78 0
1000000 63 71 0
1000000 64 70 0
1000000 -35 -75 0
1000000 -36 -71 0
1000000 -37 -70 0
1000000 -38 -79 0
1000000 -39 -72 0
1000000 -40 -73 0
1000000 -41 -73 0
1000000 -42 -66 0
1000000 -43 -65 0
1000000 -44 -78 0
1000000 -45 -77 0
1000000 -46 -69 0
1000000 -47 -77 0
1000000 -48 -65 0
1000000 -49 -67 0
1000000 -50 -72 0
1000000 -51 -69 0
1000000 -52 -69 0
1000000 -53 -65 0
1000000 -54 -75 0
1000000 -55 -74 0
1000000 -56 -67 0
1000000 -57 -71 0
1000000 -58 -70 0
1000000 -59 -76 0
1000000 -60 -67 0
1000000 -61 -68 0
1000000 -62 -78 0
1000000 -63 -71 0
1000000 -64 -70 0
6000 -65 0
6500 -66 0
7800 -67 0
6500 -68 0
7800 -69 0
6500 -70 0
6500 -71 0
6200 -72 0
6200 -73 0
6000 -74 0
6200 -75 0
6500 -76 0
6000 -77 0
6200 -78 0
6200 -79 0
1200 35 0
1700 36 0
1700 37 0
4400 38 0
1200 39 0
1200 40 0
1700 41 0
1100 42 0
1200 43 0
1700 44 0
4400 45 0
2900 46 0
4400 47 0
2900 48 0
2900 49 0
2900 50 0
2900 51 0
1100 52 0
1200 53 0
4400 54 0
1100 55 0
2900 56 0
1200 57 0
4400 58 0
1100 59 0
4400 60 0
2900 61 0
1100 62 0
1700 63 0
4400 64 0
13015 18 -26 0
5206 -18 26 0
13275 -18 -26 0
1935 20 25 34 -23 0
9030 20 25 -34 23 0
9611 20 25 -34 -23 0
645 20 -25 34 23 0
2483 20 -25 34 -23 0
9223 20 -25 -34 23 0
9775 20 -25 -34 -23 0
4128 -20 25 34 23 0
5444 -20 25 34 -23 0
10268 -20 25 -34 23 0
10663 -20 25 -34 -23 0
4567 -20 -25 34 23 0
5817 -20 -25 34 -23 0
10400 -20 -25 -34 23 0
10775 -20 -25 -34 -23 0
972 16 -29 0
5670 -16 29 0
5962 -16 -29 0
2740 28 -32 0
3425 -28 32 0
5480 -28 -32 0
1370 24 21 -15 0
4110 24 -21 15 0
5069 24 -21 -15 0
10960 -24 21 15 0
11234 -24 21 -15 0
11782 -24 -21 15 0
11974 -24 -21 -15 0
21930 11 19 -12 0
2580 11 -19 12 0
22317 11 -19 -12 0
9804 -11 19 12 0
23401 -11 19 -12 0
11404 -11 -19 12 0
23641 -11 -19 -12 0
6850 -30 0
4902 -22 0
22185 33 17 -14 0
3915 33 -17 14 0
22772 33 -17 -14 0
18270 -33 17 14 0
24925 -33 17 -14 0
19444 -33 -17 14 0
25102 -33 -17 -14 0
2055 27 13 -31 0
8220 27 -13 31 0
9042 27 -13 -31 0
7535 -27 13 31 0
8460 -27 13 -31 0
11234 -27 -13 31 0
11604 -27 -13 -31 0
