p wcnf 79 247 1000000
1000000 3 -11 0
1000000 11 -54 -55 -56 0
1000000 8 -12 0
1000000 12 -48 -53 -37 -38 -51 0
1000000 7 -13 0
1000000 13 -57 -54 0
1000000 9 -14 0
1000000 14 -61 -50 -35 -46 0
1000000 4 -15 0
1000000 15 -58 -7 0
1000000 5 -16 0
1000000 16 -43 -51 0
1000000 2 -17 0
1000000 17 -41 -40 -64 -52 0
1000000 1 -18 0
1000000 18 -35 -63 0
1000000 5 -19 0
1000000 19 -35 -39 -46 -49 -63 0
1000000 7 -20 0
1000000 20 -46 -56 -41 -40 -48 0
1000000 2 -21 0
1000000 21 -57 -64 -60 -51 0
1000000 5 -22 0
1000000 22 -62 -46 -37 -59 -50 0
1000000 4 -23 0
1000000 23 -63 -44 0
1000000 4 -24 0
1000000 24 -47 -53 -50 -41 -54 0
1000000 4 -25 0
1000000 25 -61 -59 -41 -48 -64 0
1000000 6 -26 0
1000000 26 -46 -9 0
1000000 9 -27 0
1000000 27 -47 -51 0
1000000 9 -28 0
1000000 28 -63 -10 0
1000000 4 -29 0
1000000 29 -42 -47 0
1000000 1 -30 0
1000000 30 -48 -42 -60 -50 0
1000000 1 -31 0
1000000 31 -40 -53 -56 0
1000000 9 -32 0
1000000 32 -44 -41 -10 0
1000000 2 -33 0
1000000 33 -48 -49 -58 -9 0
1000000 10 -34 0
1000000 34 -43 -40 -47 0
1000000 -1 18 31 30 0
1000000 -2 33 17 21 0
1000000 -3 11 0
1000000 -4 29 25 15 23 24 0
1000000 -5 16 19 22 0
1000000 -6 26 0
1000000 -7 13 20 0
1000000 -8 12 0
1000000 -9 27 14 32 28 0
1000000 -10 34 0
1000000 35 72 0
1000000 36 78 0
1000000 37 70 0
1000000 38 75 0
1000000 39 70 0
1000000 40 71 0
1000000 41 78 0
1000000 42 68 0
1000000 43 67 0
1000000 44 74 0
1000000 45 77 0
1000000 46 68 0
1000000 47 67 0
1000000 48 71 0
1000000 49 75 0
1000000 50 71 0
1000000 51 69 0
1000000 52 72 0
1000000 53 75 0
1000000 54 78 0
1000000 55 79 0
1000000 56 66 0
1000000 57 74 0
1000000 58 73 0
1000000 59 65 0
1000000 60 76 0
1000000 61 68 0
1000000 62 74 0
1000000 63 79 0
1000000 64 70 0
1000000 -35 -72 0
1000000 -36 -78 0
1000000 -37 -70 0
1000000 -38 -75 0
1000000 -39 -70 0
1000000 -40 -71 0
1000000 -41 -78 0
1000000 -42 -68 0
1000000 -43 -67 0
1000000 -44 -74 0
1000000 -45 -77 0
1000000 -46 -68 0
1000000 -47 -67 0
1000000 -48 -71 0
1000000 -49 -75 0
1000000 -50 -71 0
1000000 -51 -69 0
1000000 -52 -72 0
1000000 -53 -75 0
1000000 -54 -78 0
1000000 -55 -79 0
1000000 -56 -66 0
1000000 -57 -74 0
1000000 -58 -73 0
1000000 -59 -65 0
1000000 -60 -76 0
1000000 -61 -68 0
1000000 -62 -74 0
1000000 -63 -79 0
1000000 -64 -70 0
6600 -65 0
7000 -66 0
6400 -67 0
7300 -68 0
6600 -69 0
7000 -70 0
6400 -71 0
7000 -72 0
6400 -73 0
6400 -74 0
7300 -75 0
6600 -76 0
6600 -77 0
7300 -78 0
9600 -79 0
1500 35 0
1500 36 0
3000 37 0
1500 38 0
1500 39 0
3000 40 0
1500 41 0
2300 42 0
2300 43 0
1500 44 0
4700 45 0
1500 46 0
2300 47 0
3900 48 0
2300 49 0
3900 50 0
1500 51 0
1500 52 0
2300 53 0
1500 54 0
3900 55 0
2300 56 0
2300 57 0
4700 58 0
4700 59 0
1500 60 0
3900 61 0
2300 62 0
4700 63 0
3900 64 0
7040 18 31 -30 0
7920 18 -31 30 0
11792 18 -31 -30 0
1760 -18 31 30 0
8096 -18 31 -30 0
8888 -18 -31 30 0
12373 -18 -31 -30 0
5840 33 17 -21 0
5840 33 -17 21 0
9344 33 -17 -21 0
5110 -33 17 21 0
8906 -33 17 -21 0
8906 -33 -17 21 0
11184 -33 -17 -21 0
13140 -11 0
5632 29 25 15 23 -24 0
16720 29 25 15 -23 24 0
17002 29 25 15 -23 -24 0
11440 29 25 -15 23 24 0
13411 29 25 -15 23 -24 0
17292 29 25 -15 -23 24 0
17391 29 25 -15 -23 -24 0
16720 29 -25 15 23 24 0
17002 29 -25 15 23 -24 0
17556 29 -25 15 -23 24 0
17570 29 -25 15 -23 -24 0
17292 29 -25 -15 23 24 0
17391 29 -25 -15 23 -24 0
17585 29 -25 -15 -23 24 0
17590 29 -25 -15 -23 -24 0
2640 -29 25 15 23 24 0
7427 -29 25 15 23 -24 0
16852 -29 25 15 -23 24 0
17091 -29 25 15 -23 -24 0
12364 -29 25 -15 23 24 0
14040 -29 25 -15 23 -24 0
17338 -29 25 -15 -23 24 0
17422 -29 25 -15 -23 -24 0
16852 -29 -25 15 23 24 0
17091 -29 -25 15 23 -24 0
17563 -29 -25 15 -23 24 0
17575 -29 -25 15 -23 -24 0
17338 -29 -25 -15 23 24 0
17422 -29 -25 -15 23 -24 0
17587 -29 -25 -15 -23 24 0
17591 -29 -25 -15 -23 -24 0
16150 16 19 -22 0
850 16 -19 22 0
16677 16 -19 -22 0
38250 -16 19 22 0
39865 -16 19 -22 0
38335 -16 -19 22 0
39918 -16 -19 -22 0
33750 -26 0
352 13 -20 0
7920 -13 20 0
8114 -13 -20 0
23475 -12 0
7500 27 14 32 -28 0
26250 27 14 -32 28 0
28500 27 14 -32 -28 0
15000 27 -14 32 28 0
19500 27 -14 32 -28 0
30750 27 -14 -32 28 0
32100 27 -14 -32 -28 0
28125 -27 14 32 28 0
30000 -27 14 32 -28 0
34688 -27 14 -32 28 0
35250 -27 14 -32 -28 0
31875 -27 -14 32 28 0
33000 -27 -14 32 -28 0
35812 -27 -14 -32 28 0
36150 -27 -14 -32 -28 0
20625 -34 0
