p wcnf 79 227 1000000
1000000 1 -11 0
1000000 11 -38 -37 -6 0
1000000 4 -12 0
1000000 12 -49 -56 -43 -62 0
1000000 5 -13 0
1000000 13 -45 -7 0
1000000 8 -14 0
1000000 14 -41 -62 0
1000000 8 -15 0
1000000 15 -35 -61 -56 -46 0
1000000 1 -16 0
1000000 16 -62 -46 -36 0
1000000 2 -17 0
1000000 17 -54 -49 -59 -61 -51 0
1000000 2 -18 0
1000000 18 -63 -40 -8 0
1000000 6 -19 0
1000000 19 -45 -39 -54 -47 0
1000000 7 -20 0
1000000 20 -60 -61 -45 -55 -48 0
1000000 7 -21 0
1000000 21 -62 -46 -49 -42 -63 0
1000000 5 -22 0
1000000 22 -53 -59 -61 0
1000000 1 -23 0
1000000 23 -62 -49 0
1000000 7 -24 0
1000000 24 -36 -57 -56 -43 0
1000000 5 -25 0
1000000 25 -45 -53 -44 -35 0
1000000 9 -26 0
1000000 26 -42 -43 -51 -54 -39 0
1000000 8 -27 0
1000000 27 -45 -46 -9 0
1000000 4 -28 0
1000000 28 -44 -53 -59 -39 0
1000000 7 -29 0
1000000 29 -37 -51 -58 -54 -60 0
1000000 3 -30 0
1000000 30 -54 -42 -64 -60 -8 0
1000000 3 -31 0
1000000 31 -39 -40 -47 -53 -38 0
1000000 10 -32 0
1000000 32 -64 -45 -49 0
1000000 9 -33 0
1000000 33 -55 -60 -37 -52 -43 0
1000000 4 -34 0
1000000 34 -53 -64 -44 0
1000000 -1 11 23 16 0
1000000 -2 17 18 0
1000000 -3 31 30 0
1000000 -4 12 34 28 0
1000000 -5 13 22 25 0
1000000 -6 19 0
1000000 -7 24 21 20 29 0
1000000 -8 27 14 15 0
1000000 -9 33 26 0
1000000 -10 32 0
1000000 35 65 0
1000000 36 66 0
1000000 37 71 0
1000000 38 76 0
1000000 39 65 0
1000000 40 67 0
1000000 41 72 0
1000000 42 66 0
1000000 43 74 0
1000000 44 77 0
1000000 45 78 0
1000000 46 78 0
1000000 47 72 0
1000000 48 65 0
1000000 49 69 0
1000000 50 66 0
1000000 51 73 0
1000000 52 69 0
1000000 53 68 0
1000000 54 70 0
1000000 55 74 0
1000000 56 67 0
1000000 57 79 0
1000000 58 69 0
1000000 59 71 0
1000000 60 70 0
1000000 61 73 0
1000000 62 68 0
1000000 63 75 0
1000000 64 72 0
1000000 -35 -65 0
1000000 -36 -66 0
1000000 -37 -71 0
1000000 -38 -76 0
1000000 -39 -65 0
1000000 -40 -67 0
1000000 -41 -72 0
1000000 -42 -66 0
1000000 -43 -74 0
1000000 -44 -77 0
1000000 -45 -78 0
1000000 -46 -78 0
1000000 -47 -72 0
1000000 -48 -65 0
1000000 -49 -69 0
1000000 -50 -66 0
1000000 -51 -73 0
1000000 -52 -69 0
1000000 -53 -68 0
1000000 -54 -70 0
1000000 -55 -74 0
1000000 -56 -67 0
1000000 -57 -79 0
1000000 -58 -69 0
1000000 -59 -71 0
1000000 -60 -70 0
1000000 -61 -73 0
1000000 -62 -68 0
1000000 -63 -75 0
1000000 -64 -72 0
5800 -65 0
5500 -66 0
8100 -67 0
8100 -68 0
8100 -69 0
5500 -70 0
5500 -71 0
5500 -72 0
5800 -73 0
9000 -74 0
8100 -75 0
9300 -76 0
9000 -77 0
5500 -78 0
9000 -79 0
4000 35 0
2400 36 0
2400 37 0
2400 38 0
2000 39 0
4000 40 0
2500 41 0
4000 42 0
2500 43 0
2400 44 0
2100 45 0
2400 46 0
2100 47 0
2100 48 0
2500 49 0
2000 50 0
2000 51 0
2500 52 0
4000 53 0
2400 54 0
4000 55 0
2500 56 0
2000 57 0
2500 58 0
2400 59 0
2100 60 0
2500 61 0
4000 62 0
2400 63 0
2100 64 0
690 11 23 -16 0
5175 11 -23 16 0
5762 11 -23 -16 0
1725 -11 23 16 0
2381 -11 23 -16 0
6641 -11 -23 16 0
7198 -11 -23 -16 0
31050 17 -18 0
22425 -17 18 0
33293 -17 -18 0
31860 31 -30 0
3540 -31 30 0
32214 -31 -30 0
31860 12 34 -28 0
24780 12 -34 28 0
34338 12 -34 -28 0
8850 -12 34 28 0
32745 -12 34 -28 0
27435 -12 -34 28 0
34604 -12 -34 -28 0
27600 13 22 -25 0
6900 13 -22 25 0
28980 13 -22 -25 0
15525 -13 22 25 0
30705 -13 22 -25 0
19320 -13 -22 25 0
31464 -13 -22 -25 0
22640 -19 0
13034 24 21 20 -29 0
5145 24 21 -20 29 0
16224 24 21 -20 -29 0
27440 24 -21 20 29 0
30047 24 -21 20 -29 0
28469 24 -21 -20 29 0
30685 24 -21 -20 -29 0
15435 -24 21 20 29 0
22604 -24 21 20 -29 0
18265 -24 21 -20 29 0
24358 -24 21 -20 -29 0
30527 -24 -21 20 29 0
31961 -24 -21 20 -29 0
31093 -24 -21 -20 29 0
32312 -24 -21 -20 -29 0
7600 27 14 -15 0
1600 27 -14 15 0
7680 27 -14 -15 0
5600 -27 14 15 0
7880 -27 14 -15 0
6080 -27 -14 15 0
7904 -27 -14 -15 0
160 33 -26 0
4400 -33 26 0
4472 -33 -26 0
1440 -32 0
