p wcnf 79 237 1000000
1000000 9 -11 0
1000000 11 -54 -62 -36 0
1000000 5 -12 0
1000000 12 -39 -64 -43 0
1000000 6 -13 0
1000000 13 -52 -38 0
1000000 4 -14 0
1000000 14 -48 -63 -10 0
1000000 10 -15 0
1000000 15 -36 -63 -47 -59 -41 0
1000000 3 -16 0
1000000 16 -43 -54 -39 -40 -52 0
1000000 9 -17 0
1000000 17 -53 -52 -58 -46 0
1000000 6 -18 0
1000000 18 -44 -43 -57 -60 0
1000000 7 -19 0
1000000 19 -52 -10 0
1000000 1 -20 0
1000000 20 -58 -38 -41 -48 0
1000000 8 -21 0
1000000 21 -54 -61 0
1000000 1 -22 0
1000000 22 -39 -36 -52 -43 -4 0
1000000 3 -23 0
1000000 23 -48 -54 -39 -47 0
1000000 6 -24 0
1000000 24 -53 -50 -37 -45 0
1000000 2 -25 0
1000000 25 -61 -50 -59 -39 -63 0
1000000 5 -26 0
1000000 26 -36 -47 0
1000000 3 -27 0
1000000 27 -49 -39 -40 -47 -60 0
1000000 2 -28 0
1000000 28 -56 -45 -47 -9 0
1000000 9 -29 0
1000000 29 -48 -49 -64 -10 0
1000000 7 -30 0
1000000 30 -49 -50 -8 0
1000000 6 -31 0
1000000 31 -45 -9 0
1000000 7 -32 0
1000000 32 -36 -52 -48 -42 0
1000000 3 -33 0
1000000 33 -48 -42 -51 -41 -62 0
1000000 9 -34 0
1000000 34 -56 -41 -53 -50 0
1000000 -1 22 20 0
1000000 -2 25 28 0
1000000 -3 23 16 33 27 0
1000000 -4 14 0
1000000 -5 26 12 0
1000000 -6 18 24 13 31 0
1000000 -7 32 30 19 0
1000000 -8 21 0
1000000 -9 17 29 34 11 0
1000000 -10 15 0
1000000 35 79 0
1000000 36 76 0
1000000 37 74 0
1000000 38 72 0
1000000 39 68 0
1000000 40 71 0
1000000 41 73 0
1000000 42 67 0
1000000 43 74 0
1000000 44 68 0
1000000 45 75 0
1000000 46 77 0
1000000 47 65 0
1000000 48 72 0
1000000 49 65 0
1000000 50 76 0
1000000 51 71 0
1000000 52 66 0
1000000 53 74 0
1000000 54 72 0
1000000 55 67 0
1000000 56 75 0
1000000 57 73 0
1000000 58 69 0
1000000 59 71 0
1000000 60 70 0
1000000 61 78 0
1000000 62 73 0
1000000 63 77 0
1000000 64 66 0
1000000 -35 -79 0
1000000 -36 -76 0
1000000 -37 -74 0
1000000 -38 -72 0
1000000 -39 -68 0
1000000 -40 -71 0
1000000 -41 -73 0
1000000 -42 -67 0
1000000 -43 -74 0
1000000 -44 -68 0
1000000 -45 -75 0
1000000 -46 -77 0
1000000 -47 -65 0
1000000 -48 -72 0
1000000 -49 -65 0
1000000 -50 -76 0
1000000 -51 -71 0
1000000 -52 -66 0
1000000 -53 -74 0
1000000 -54 -72 0
1000000 -55 -67 0
1000000 -56 -75 0
1000000 -57 -73 0
1000000 -58 -69 0
1000000 -59 -71 0
1000000 -60 -70 0
1000000 -61 -78 0
1000000 -62 -73 0
1000000 -63 -77 0
1000000 -64 -66 0
9700 -65 0
5800 -66 0
6000 -67 0
7200 -68 0
6000 -69 0
6000 -70 0
5800 -71 0
9700 -72 0
9700 -73 0
9700 -74 0
6000 -75 0
6000 -76 0
6000 -77 0
5800 -78 0
7200 -79 0
4000 35 0
3900 36 0
3900 37 0
4300 38 0
4300 39 0
4300 40 0
1100 41 0
3300 42 0
3300 43 0
4300 44 0
3900 45 0
4300 46 0
1100 47 0
3900 48 0
3300 49 0
4300 50 0
3900 51 0
4300 52 0
1100 53 0
3300 54 0
4000 55 0
3900 56 0
4000 57 0
3900 58 0
3900 59 0
4000 60 0
3300 61 0
4300 62 0
3900 63 0
4300 64 0
6080 22 -20 0
4000 -22 20 0
8560 -22 -20 0
1825 25 -28 0
1825 -25 28 0
3559 -25 -28 0
1920 23 16 33 -27 0
4800 23 16 -33 27 0
6144 23 16 -33 -27 0
8000 23 -16 33 27 0
8960 23 -16 33 -27 0
10400 23 -16 -33 27 0
11072 23 -16 -33 -27 0
2400 -23 16 33 27 0
4032 -23 16 33 -27 0
6480 -23 16 -33 27 0
7622 -23 16 -33 -27 0
9200 -23 -16 33 27 0
10016 -23 -16 33 -27 0
11240 -23 -16 -33 27 0
11811 -23 -16 -33 -27 0
7290 -14 0
12150 26 -12 0
41310 -26 12 0
43132 -26 -12 0
10400 18 24 13 -31 0
13600 18 24 -13 31 0
15160 18 24 -13 -31 0
1600 18 -24 13 31 0
10960 18 -24 13 -31 0
13840 18 -24 -13 31 0
15244 18 -24 -13 -31 0
8800 -18 24 13 31 0
13480 -18 24 13 -31 0
14920 -18 24 -13 31 0
15622 -18 24 -13 -31 0
9520 -18 -24 13 31 0
13732 -18 -24 13 -31 0
15028 -18 -24 -13 31 0
15660 -18 -24 -13 -31 0
7075 32 30 -19 0
11320 32 -30 19 0
15565 32 -30 -19 0
9905 -32 30 19 0
14504 -32 30 -19 0
17263 -32 -30 19 0
20022 -32 -30 -19 0
25550 -21 0
24300 17 29 34 -11 0
12150 17 29 -34 11 0
30375 17 29 -34 -11 0
26730 17 -29 34 11 0
37665 17 -29 34 -11 0
32198 17 -29 -34 11 0
40399 17 -29 -34 -11 0
38880 -17 29 34 11 0
43740 -17 29 34 -11 0
41310 -17 29 -34 11 0
44955 -17 29 -34 -11 0
44226 -17 -29 34 11 0
46413 -17 -29 34 -11 0
45319 -17 -29 -34 11 0
46960 -17 -29 -34 -11 0
1535 -15 0
