p wcnf 79 241 1000000
1000000 3 -11 0
1000000 11 -47 -56 -58 0
1000000 5 -12 0
1000000 12 -46 -63 -47 -52 -45 0
1000000 9 -13 0
1000000 13 -39 -47 -51 -10 0
1000000 5 -14 0
1000000 14 -59 -43 -6 0
1000000 1 -15 0
1000000 15 -36 -63 -45 0
1000000 9 -16 0
1000000 16 -62 -63 0
1000000 6 -17 0
1000000 17 -62 -37 -56 0
1000000 3 -18 0
1000000 18 -44 -52 0
1000000 3 -19 0
1000000 19 -52 -50 -38 -64 0
1000000 5 -20 0
1000000 20 -42 -45 -41 0
1000000 5 -21 0
1000000 21 -56 -39 -52 0
1000000 7 -22 0
1000000 22 -39 -49 -9 0
1000000 6 -23 0
1000000 23 -49 -36 -64 -47 0
1000000 3 -24 0
1000000 24 -42 -51 -62 0
1000000 10 -25 0
1000000 25 -58 -46 0
1000000 8 -26 0
1000000 26 -42 -56 -49 0
1000000 3 -27 0
1000000 27 -39 -64 -51 -48 -4 0
1000000 7 -28 0
1000000 28 -44 -36 0
1000000 4 -29 0
1000000 29 -49 -40 0
1000000 4 -30 0
1000000 30 -42 -63 -61 0
1000000 1 -31 0
1000000 31 -63 -60 -42 -52 -44 0
1000000 10 -32 0
1000000 32 -44 -52 -41 -57 0
1000000 2 -33 0
1000000 33 -46 -40 -35 -51 0
1000000 8 -34 0
1000000 34 -56 -9 0
1000000 -1 15 31 0
1000000 -2 33 0
1000000 -3 11 18 19 24 27 0
1000000 -4 30 29 0
1000000 -5 20 21 12 14 0
1000000 -6 17 23 0
1000000 -7 28 22 0
1000000 -8 26 34 0
1000000 -9 16 13 0
1000000 -10 25 32 0
1000000 35 75 0
1000000 36 69 0
1000000 37 65 0
1000000 38 66 0
1000000 39 76 0
1000000 40 77 0
1000000 41 78 0
1000000 42 66 0
1000000 43 70 0
1000000 44 68 0
1000000 45 65 0
1000000 46 79 0
1000000 47 73 0
1000000 48 78 0
1000000 49 76 0
1000000 50 71 0
1000000 51 77 0
1000000 52 74 0
1000000 53 73 0
1000000 54 79 0
1000000 55 68 0
1000000 56 75 0
1000000 57 66 0
1000000 58 73 0
1000000 59 79 0
1000000 60 72 0
1000000 61 68 0
1000000 62 67 0
1000000 63 67 0
1000000 64 69 0
1000000 -35 -75 0
1000000 -36 -69 0
1000000 -37 -65 0
1000000 -38 -66 0
1000000 -39 -76 0
1000000 -40 -77 0
1000000 -41 -78 0
1000000 -42 -66 0
1000000 -43 -70 0
1000000 -44 -68 0
1000000 -45 -65 0
1000000 -46 -79 0
1000000 -47 -73 0
1000000 -48 -78 0
1000000 -49 -76 0
1000000 -50 -71 0
1000000 -51 -77 0
1000000 -52 -74 0
1000000 -53 -73 0
1000000 -54 -79 0
1000000 -55 -68 0
1000000 -56 -75 0
1000000 -57 -66 0
1000000 -58 -73 0
1000000 -59 -79 0
1000000 -60 -72 0
1000000 -61 -68 0
1000000 -62 -67 0
1000000 -63 -67 0
1000000 -64 -69 0
6800 -65 0
5300 -66 0
9300 -67 0
6800 -68 0
5300 -69 0
6800 -70 0
7100 -71 0
6800 -72 0
7100 -73 0
5300 -74 0
7100 -75 0
5300 -76 0
5300 -77 0
9300 -78 0
7100 -79 0
4500 35 0
3100 36 0
5000 37 0
3100 38 0
5000 39 0
4500 40 0
5000 41 0
4500 42 0
5000 43 0
5000 44 0
5000 45 0
3100 46 0
1700 47 0
1700 48 0
2800 49 0
5000 50 0
4500 51 0
1700 52 0
1700 53 0
3100 54 0
1700 55 0
5000 56 0
4500 57 0
2800 58 0
2800 59 0
4500 60 0
4500 61 0
4500 62 0
2800 63 0
3100 64 0
27625 15 -31 0
8125 -15 31 0
28844 -15 -31 0
14250 -33 0
11250 11 18 19 24 -27 0
5250 11 18 19 -24 27 0
12562 11 18 19 -24 -27 0
9750 11 18 -19 24 27 0
13688 11 18 -19 24 -27 0
11588 11 18 -19 -24 27 0
14147 11 18 -19 -24 -27 0
5700 11 -18 19 24 27 0
12675 11 -18 19 24 -27 0
8955 11 -18 19 -24 27 0
13489 11 -18 19 -24 -27 0
11745 11 -18 -19 24 27 0
14186 11 -18 -19 24 -27 0
12884 11 -18 -19 -24 27 0
14471 11 -18 -19 -24 -27 0
12000 -11 18 19 24 27 0
14250 -11 18 19 24 -27 0
13050 -11 18 19 -24 27 0
14512 -11 18 19 -24 -27 0
13950 -11 18 -19 24 27 0
14738 -11 18 -19 24 -27 0
14318 -11 18 -19 -24 27 0
14829 -11 18 -19 -24 -27 0
13140 -11 -18 19 24 27 0
14535 -11 -18 19 24 -27 0
13791 -11 -18 19 -24 27 0
14698 -11 -18 19 -24 -27 0
14349 -11 -18 -19 24 27 0
14837 -11 -18 -19 24 -27 0
14577 -11 -18 -19 -24 27 0
14894 -11 -18 -19 -24 -27 0
30875 30 -29 0
22750 -30 29 0
32012 -30 -29 0
11250 20 21 12 -14 0
13500 20 21 -12 14 0
14625 20 21 -12 -14 0
8250 20 -21 12 14 0
13312 20 -21 12 -14 0
14325 20 -21 -12 14 0
14831 20 -21 -12 -14 0
3000 -20 21 12 14 0
12000 -20 21 12 -14 0
13800 -20 21 -12 14 0
14700 -20 21 -12 -14 0
9600 -20 -21 12 14 0
13650 -20 -21 12 -14 0
14460 -20 -21 -12 14 0
14865 -20 -21 -12 -14 0
29250 17 -23 0
14625 -17 23 0
30712 -17 -23 0
12750 28 -22 0
6000 -28 22 0
13650 -28 -22 0
5400 26 -34 0
8100 -26 34 0
9450 -26 -34 0
4500 16 -13 0
4500 -16 13 0
7650 -16 -13 0
30875 25 -32 0
5850 -25 32 0
31168 -25 -32 0
