p wcnf 79 241 1000000
1000000 8 -11 0
1000000 11 -51 -54 -42 -56 0
1000000 4 -12 0
1000000 12 -53 -37 -38 0
1000000 10 -13 0
1000000 13 -49 -64 -53 -43 0
1000000 3 -14 0
1000000 14 -48 -55 -57 0
1000000 2 -15 0
1000000 15 -49 -35 -62 0
1000000 8 -16 0
1000000 16 -58 -64 -44 -51 0
1000000 5 -17 0
1000000 17 -63 -54 0
1000000 10 -18 0
1000000 18 -52 -51 -42 -40 0
1000000 2 -19 0
1000000 19 -60 -62 -53 -42 -47 0
1000000 9 -20 0
1000000 20 -35 -39 -47 -57 0
1000000 7 -21 0
1000000 21 -45 -41 -37 0
1000000 4 -22 0
1000000 22 -46 -63 -43 0
1000000 6 -23 0
1000000 23 -46 -39 -36 -63 -60 0
1000000 1 -24 0
1000000 24 -47 -64 -43 -51 -49 0
1000000 10 -25 0
1000000 25 -62 -55 -47 -35 0
1000000 3 -26 0
1000000 26 -46 -9 0
1000000 8 -27 0
1000000 27 -39 -53 -9 0
1000000 7 -28 0
1000000 28 -35 -52 -54 -9 0
1000000 7 -29 0
1000000 29 -53 -44 -46 -42 0
1000000 6 -30 0
1000000 30 -62 -64 0
1000000 2 -31 0
1000000 31 -49 -40 -47 -42 -46 0
1000000 8 -32 0
1000000 32 -60 -38 -9 0
1000000 6 -33 0
1000000 33 -39 -50 -59 -9 0
1000000 8 -34 0
1000000 34 -62 -55 -63 -52 -61 0
1000000 -1 24 0
1000000 -2 31 19 15 0
1000000 -3 26 14 0
1000000 -4 12 22 0
1000000 -5 17 0
1000000 -6 30 33 23 0
1000000 -7 28 21 29 0
1000000 -8 32 11 16 27 34 0
1000000 -9 20 0
1000000 -10 25 13 18 0
1000000 35 72 0
1000000 36 79 0
1000000 37 73 0
1000000 38 69 0
1000000 39 71 0
1000000 40 70 0
1000000 41 68 0
1000000 42 76 0
1000000 43 77 0
1000000 44 75 0
1000000 45 67 0
1000000 46 68 0
1000000 47 75 0
1000000 48 65 0
1000000 49 78 0
1000000 50 76 0
1000000 51 76 0
1000000 52 66 0
1000000 53 77 0
1000000 54 74 0
1000000 55 71 0
1000000 56 79 0
1000000 57 71 0
1000000 58 73 0
1000000 59 74 0
1000000 60 74 0
1000000 61 75 0
1000000 62 69 0
1000000 63 73 0
1000000 64 65 0
1000000 -35 -72 0
1000000 -36 -79 0
1000000 -37 -73 0
1000000 -38 -69 0
1000000 -39 -71 0
1000000 -40 -70 0
1000000 -41 -68 0
1000000 -42 -76 0
1000000 -43 -77 0
1000000 -44 -75 0
1000000 -45 -67 0
1000000 -46 -68 0
1000000 -47 -75 0
1000000 -48 -65 0
1000000 -49 -78 0
1000000 -50 -76 0
1000000 -51 -76 0
1000000 -52 -66 0
1000000 -53 -77 0
1000000 -54 -74 0
1000000 -55 -71 0
1000000 -56 -79 0
1000000 -57 -71 0
1000000 -58 -73 0
1000000 -59 -74 0
1000000 -60 -74 0
1000000 -61 -75 0
1000000 -62 -69 0
1000000 -63 -73 0
1000000 -64 -65 0
5100 -65 0
8400 -66 0
8400 -67 0
5400 -68 0
5400 -69 0
5200 -70 0
5200 -71 0
5400 -72 0
10000 -73 0
5100 -74 0
5400 -75 0
5400 -76 0
5200 -77 0
5400 -78 0
5100 -79 0
4300 35 0
2400 36 0
4300 37 0
2400 38 0
4300 39 0
4700 40 0
5000 41 0
4300 42 0
4700 43 0
4700 44 0
4700 45 0
5000 46 0
4700 47 0
5000 48 0
2400 49 0
1900 50 0
2400 51 0
4300 52 0
5000 53 0
4700 54 0
2400 55 0
5000 56 0
4300 57 0
1900 58 0
4700 59 0
2400 60 0
4700 61 0
2400 62 0
5000 63 0
5000 64 0
1260 -24 0
1335 31 19 -15 0
890 31 -19 15 0
2091 31 -19 -15 0
2225 -31 19 15 0
3226 -31 19 -15 0
2892 -31 -19 15 0
3794 -31 -19 -15 0
7620 26 -14 0
8128 -26 14 0
13310 -26 -14 0
3500 12 -22 0
3500 -12 22 0
5250 -12 -22 0
6675 -17 0
14040 30 33 -23 0
31590 30 -33 23 0
32994 30 -33 -23 0
24570 -30 33 23 0
28782 -30 33 -23 0
34047 -30 -33 23 0
34468 -30 -33 -23 0
4212 28 21 -29 0
12285 28 -21 29 0
15023 28 -21 -29 0
7020 -28 21 29 0
10390 -28 21 -29 0
16848 -28 -21 29 0
19038 -28 -21 -29 0
8010 32 11 16 27 -34 0
3382 32 11 16 -27 34 0
8348 32 11 16 -27 -34 0
1068 32 11 -16 27 34 0
8117 32 11 -16 27 -34 0
4044 32 11 -16 -27 34 0
8414 32 11 -16 -27 -34 0
5340 32 -11 16 27 34 0
8544 32 -11 16 27 -34 0
6693 32 -11 16 -27 34 0
8679 32 -11 16 -27 -34 0
5767 32 -11 -16 27 34 0
8587 32 -11 -16 27 -34 0
6958 32 -11 -16 -27 34 0
8706 32 -11 -16 -27 -34 0
6675 -32 11 16 27 34 0
8677 -32 11 16 27 -34 0
7520 -32 11 16 -27 34 0
8762 -32 11 16 -27 -34 0
6942 -32 11 -16 27 34 0
8704 -32 11 -16 27 -34 0
7686 -32 11 -16 -27 34 0
8779 -32 11 -16 -27 -34 0
8010 -32 -11 16 27 34 0
8811 -32 -11 16 27 -34 0
8348 -32 -11 16 -27 34 0
8845 -32 -11 16 -27 -34 0
8117 -32 -11 -16 27 34 0
8822 -32 -11 -16 27 -34 0
8414 -32 -11 -16 -27 34 0
8851 -32 -11 -16 -27 -34 0
26250 -20 0
13338 25 13 -18 0
31590 25 -13 18 0
32924 25 -13 -18 0
14040 -25 13 18 0
22043 -25 13 -18 0
32994 -25 -13 18 0
33794 -25 -13 -18 0
