p wcnf 79 231 1000000
1000000 4 -11 0
1000000 11 -54 -56 -38 0
1000000 10 -12 0
1000000 12 -42 -40 -62 0
1000000 7 -13 0
1000000 13 -36 -61 -45 -46 0
1000000 3 -14 0
1000000 14 -57 -52 -44 0
1000000 2 -15 0
1000000 15 -39 -53 -50 -56 -46 0
1000000 2 -16 0
1000000 16 -43 -50 -59 0
1000000 9 -17 0
1000000 17 -42 -64 -60 -61 0
1000000 10 -18 0
1000000 18 -38 -54 0
1000000 3 -19 0
1000000 19 -60 -50 -56 -43 -6 0
1000000 7 -20 0
1000000 20 -50 -58 -36 0
1000000 3 -21 0
1000000 21 -56 -57 -59 0
1000000 1 -22 0
1000000 22 -57 -38 0
1000000 5 -23 0
1000000 23 -56 -46 -61 -50 0
1000000 8 -24 0
1000000 24 -53 -58 -10 0
1000000 6 -25 0
1000000 25 -64 -7 0
1000000 9 -26 0
1000000 26 -54 -49 -10 0
1000000 4 -27 0
1000000 27 -39 -59 0
1000000 6 -28 0
1000000 28 -60 -51 -38 -63 -10 0
1000000 10 -29 0
1000000 29 -50 -43 -58 -46 0
1000000 8 -30 0
1000000 30 -41 -61 0
1000000 6 -31 0
1000000 31 -57 -42 -41 -38 -54 0
1000000 6 -32 0
1000000 32 -57 -49 0
1000000 4 -33 0
1000000 33 -49 -55 -37 -35 -45 0
1000000 3 -34 0
1000000 34 -48 -52 -61 0
1000000 -1 22 0
1000000 -2 16 15 0
1000000 -3 19 21 14 34 0
1000000 -4 33 27 11 0
1000000 -5 23 0
1000000 -6 32 31 25 28 0
1000000 -7 13 20 0
1000000 -8 24 30 0
1000000 -9 17 26 0
1000000 -10 29 12 18 0
1000000 35 65 0
1000000 36 70 0
1000000 37 70 0
1000000 38 68 0
1000000 39 72 0
1000000 40 74 0
1000000 41 79 0
1000000 42 65 0
1000000 43 77 0
1000000 44 69 0
1000000 45 69 0
1000000 46 79 0
1000000 47 67 0
1000000 48 79 0
1000000 49 73 0
1000000 50 76 0
1000000 51 66 0
1000000 52 77 0
1000000 53 72 0
1000000 54 75 0
1000000 55 78 0
1000000 56 76 0
1000000 57 78 0
1000000 58 72 0
1000000 59 66 0
1000000 60 65 0
1000000 61 71 0
1000000 62 73 0
1000000 63 74 0
1000000 64 77 0
1000000 -35 -65 0
1000000 -36 -70 0
1000000 -37 -70 0
1000000 -38 -68 0
1000000 -39 -72 0
1000000 -40 -74 0
1000000 -41 -79 0
1000000 -42 -65 0
1000000 -43 -77 0
1000000 -44 -69 0
1000000 -45 -69 0
1000000 -46 -79 0
1000000 -47 -67 0
1000000 -48 -79 0
1000000 -49 -73 0
1000000 -50 -76 0
1000000 -51 -66 0
1000000 -52 -77 0
1000000 -53 -72 0
1000000 -54 -75 0
1000000 -55 -78 0
1000000 -56 -76 0
1000000 -57 -78 0
1000000 -58 -72 0
1000000 -59 -66 0
1000000 -60 -65 0
1000000 -61 -71 0
1000000 -62 -73 0
1000000 -63 -74 0
1000000 -64 -77 0
7700 -65 0
5400 -66 0
5400 -67 0
6400 -68 0
5400 -69 0
6400 -70 0
8500 -71 0
6400 -72 0
7700 -73 0
8500 -74 0
5400 -75 0
8500 -76 0
9000 -77 0
9000 -78 0
7700 -79 0
4300 35 0
3900 36 0
3900 37 0
4300 38 0
3100 39 0
4300 40 0
3900 41 0
4300 42 0
3100 43 0
3100 44 0
3800 45 0
4300 46 0
3800 47 0
4300 48 0
4300 49 0
4500 50 0
3900 51 0
3900 52 0
3900 53 0
3800 54 0
4300 55 0
4500 56 0
3100 57 0
4500 58 0
4300 59 0
3100 60 0
3800 61 0
3100 62 0
4500 63 0
3900 64 0
14460 -22 0
16870 16 -15 0
14460 -16 15 0
26269 -16 -15 0
24890 19 21 14 -34 0
7860 19 21 -14 34 0
25283 19 21 -14 -34 0
2620 19 -21 14 34 0
25021 19 -21 14 -34 0
9694 19 -21 -14 34 0
25375 19 -21 -14 -34 0
24890 -19 21 14 34 0
26134 -19 21 14 -34 0
25283 -19 21 -14 34 0
26154 -19 21 -14 -34 0
25021 -19 -21 14 34 0
26141 -19 -21 14 -34 0
25375 -19 -21 -14 34 0
26159 -19 -21 -14 -34 0
2955 33 27 -11 0
13790 33 -27 11 0
14676 33 -27 -11 0
8865 -33 27 11 0
10490 -33 27 -11 0
16450 -33 -27 11 0
16937 -33 -27 -11 0
12805 -23 0
17030 32 31 25 -28 0
4716 32 31 -25 28 0
18681 32 31 -25 -28 0
3930 32 -31 25 28 0
18406 32 -31 25 -28 0
7939 32 -31 -25 28 0
19809 32 -31 -25 -28 0
15720 -32 31 25 28 0
22532 -32 31 25 -28 0
17606 -32 31 -25 28 0
23192 -32 31 -25 -28 0
17292 -32 -31 25 28 0
23082 -32 -31 25 -28 0
18895 -32 -31 -25 28 0
23643 -32 -31 -25 -28 0
14085 13 -20 0
10955 -13 20 0
20110 -13 -20 0
14085 24 -30 0
626 -24 30 0
14429 -24 -30 0
3546 17 -26 0
394 -17 26 0
3869 -17 -26 0
8676 29 12 -18 0
964 29 -12 18 0
9466 29 -12 -18 0
21690 -29 12 18 0
26462 -29 12 -18 0
22220 -29 -12 18 0
26897 -29 -12 -18 0
