p wcnf 79 231 1000000
1000000 10 -11 0
1000000 11 -41 -42 -52 -50 0
1000000 7 -12 0
1000000 12 -44 -50 -38 0
1000000 5 -13 0
1000000 13 -40 -44 -58 -41 0
1000000 7 -14 0
1000000 14 -40 -59 0
1000000 2 -15 0
1000000 15 -37 -51 -46 -6 0
1000000 7 -16 0
1000000 16 -56 -50 -10 0
1000000 8 -17 0
1000000 17 -36 -47 -51 -46 -10 0
1000000 8 -18 0
1000000 18 -51 -40 0
1000000 6 -19 0
1000000 19 -38 -51 -46 -49 -64 0
1000000 9 -20 0
1000000 20 -44 -59 -43 -56 -53 0
1000000 3 -21 0
1000000 21 -39 -40 -37 -53 -10 0
1000000 7 -22 0
1000000 22 -41 -55 -48 -35 -56 0
1000000 8 -23 0
1000000 23 -58 -39 -9 0
1000000 10 -24 0
1000000 24 -36 -40 -55 -60 -46 0
1000000 2 -25 0
1000000 25 -50 -49 0
1000000 2 -26 0
1000000 26 -52 -50 -51 -54 -45 0
1000000 10 -27 0
1000000 27 -63 -37 -35 -46 0
1000000 5 -28 0
1000000 28 -49 -10 0
1000000 8 -29 0
1000000 29 -37 -64 0
1000000 4 -30 0
1000000 30 -45 -62 0
1000000 4 -31 0
1000000 31 -57 -42 -61 -56 -54 0
1000000 1 -32 0
1000000 32 -63 -52 -50 -45 0
1000000 1 -33 0
1000000 33 -40 -4 0
1000000 6 -34 0
1000000 34 -49 -55 0
1000000 -1 32 33 0
1000000 -2 26 25 15 0
1000000 -3 21 0
1000000 -4 31 30 0
1000000 -5 13 28 0
1000000 -6 19 34 0
1000000 -7 16 22 14 12 0
1000000 -8 18 23 17 29 0
1000000 -9 20 0
1000000 -10 27 11 24 0
1000000 35 72 0
1000000 36 69 0
1000000 37 73 0
1000000 38 65 0
1000000 39 75 0
1000000 40 65 0
1000000 41 76 0
1000000 42 66 0
1000000 43 69 0
1000000 44 77 0
1000000 45 75 0
1000000 46 71 0
1000000 47 66 0
1000000 48 73 0
1000000 49 79 0
1000000 50 72 0
1000000 51 72 0
1000000 52 69 0
1000000 53 70 0
1000000 54 71 0
1000000 55 78 0
1000000 56 78 0
1000000 57 79 0
1000000 58 67 0
1000000 59 65 0
1000000 60 68 0
1000000 61 74 0
1000000 62 67 0
1000000 63 66 0
1000000 64 75 0
1000000 -35 -72 0
1000000 -36 -69 0
1000000 -37 -73 0
1000000 -38 -65 0
1000000 -39 -75 0
1000000 -40 -65 0
1000000 -41 -76 0
1000000 -42 -66 0
1000000 -43 -69 0
1000000 -44 -77 0
1000000 -45 -75 0
1000000 -46 -71 0
1000000 -47 -66 0
1000000 -48 -73 0
1000000 -49 -79 0
1000000 -50 -72 0
1000000 -51 -72 0
1000000 -52 -69 0
1000000 -53 -70 0
1000000 -54 -71 0
1000000 -55 -78 0
1000000 -56 -78 0
1000000 -57 -79 0
1000000 -58 -67 0
1000000 -59 -65 0
1000000 -60 -68 0
1000000 -61 -74 0
1000000 -62 -67 0
1000000 -63 -66 0
1000000 -64 -75 0
7800 -65 0
7600 -66 0
6000 -67 0
7600 -68 0
6000 -69 0
7800 -70 0
6000 -71 0
6100 -72 0
6100 -73 0
6000 -74 0
7200 -75 0
6000 -76 0
7600 -77 0
7800 -78 0
7600 -79 0
1800 35 0
1200 36 0
1200 37 0
3300 38 0
3300 39 0
4000 40 0
3300 41 0
4000 42 0
3300 43 0
1800 44 0
3300 45 0
3600 46 0
3300 47 0
1800 48 0
1800 49 0
1200 50 0
4000 51 0
1800 52 0
3300 53 0
3300 54 0
3300 55 0
1800 56 0
3300 57 0
1800 58 0
1200 59 0
1800 60 0
3300 61 0
3300 62 0
1800 63 0
1200 64 0
14960 32 -33 0
3740 -32 33 0
15708 -32 -33 0
25260 26 25 -15 0
35785 26 -25 15 0
39574 26 -25 -15 0
37890 -26 25 15 0
40416 -26 25 -15 0
41469 -26 -25 15 0
41847 -26 -25 -15 0
1386 -21 0
1540 31 -30 0
154 -31 30 0
1663 -31 -30 0
37500 13 -28 0
30000 -13 28 0
45000 -13 -28 0
39995 19 -34 0
4210 -19 34 0
40206 -19 -34 0
7480 16 22 14 -12 0
15895 16 22 -14 12 0
17017 16 22 -14 -12 0
16830 16 -22 14 12 0
17578 16 -22 14 -12 0
18419 16 -22 -14 12 0
18532 16 -22 -14 -12 0
16830 -16 22 14 12 0
17578 -16 22 14 -12 0
18419 -16 22 -14 12 0
18532 -16 22 -14 -12 0
18513 -16 -22 14 12 0
18588 -16 -22 14 -12 0
18672 -16 -22 -14 12 0
18683 -16 -22 -14 -12 0
842 18 23 17 -29 0
7578 18 23 -17 29 0
8268 18 23 -17 -29 0
18945 18 -23 17 29 0
19408 18 -23 17 -29 0
23113 18 -23 -17 29 0
23493 18 -23 -17 -29 0
12630 -18 23 17 29 0
13219 -18 23 17 -29 0
17935 -18 23 -17 29 0
18418 -18 23 -17 -29 0
25892 -18 -23 17 29 0
26216 -18 -23 17 -29 0
28809 -18 -23 -17 29 0
29075 -18 -23 -17 -29 0
10920 -20 0
35000 27 11 -24 0
7500 27 -11 24 0
37250 27 -11 -24 0
22500 -27 11 24 0
41750 -27 11 -24 0
26625 -27 -11 24 0
42988 -27 -11 -24 0
