p wcnf 79 235 1000000
1000000 6 -11 0
1000000 11 -48 -54 -36 -60 -10 0
1000000 7 -12 0
1000000 12 -54 -53 -55 -51 -8 0
1000000 1 -13 0
1000000 13 -44 -61 -46 0
1000000 10 -14 0
1000000 14 -52 -51 0
1000000 5 -15 0
1000000 15 -52 -61 -56 -41 -48 0
1000000 2 -16 0
1000000 16 -49 -51 0
1000000 3 -17 0
1000000 17 -53 -50 0
1000000 6 -18 0
1000000 18 -51 -41 -60 0
1000000 2 -19 0
1000000 19 -43 -48 -40 -4 0
1000000 10 -20 0
1000000 20 -61 -51 -63 0
1000000 3 -21 0
1000000 21 -64 -44 0
1000000 5 -22 0
1000000 22 -63 -35 0
1000000 6 -23 0
1000000 23 -46 -53 -39 0
1000000 5 -24 0
1000000 24 -63 -57 -50 -38 -46 0
1000000 9 -25 0
1000000 25 -36 -63 -47 -60 0
1000000 8 -26 0
1000000 26 -51 -40 -9 0
1000000 3 -27 0
1000000 27 -49 -40 -53 -45 -6 0
1000000 2 -28 0
1000000 28 -38 -48 0
1000000 6 -29 0
1000000 29 -61 -35 -55 -47 0
1000000 4 -30 0
1000000 30 -41 -42 -59 0
1000000 4 -31 0
1000000 31 -42 -50 -46 -45 0
1000000 3 -32 0
1000000 32 -63 -52 0
1000000 10 -33 0
1000000 33 -54 -36 -52 -51 0
1000000 4 -34 0
1000000 34 -43 -54 -57 -64 -44 0
1000000 -1 13 0
1000000 -2 16 19 28 0
1000000 -3 32 21 17 27 0
1000000 -4 31 30 34 0
1000000 -5 24 22 15 0
1000000 -6 18 11 29 23 0
1000000 -7 12 0
1000000 -8 26 0
1000000 -9 25 0
1000000 -10 14 20 33 0
1000000 35 71 0
1000000 36 67 0
1000000 37 70 0
1000000 38 77 0
1000000 39 70 0
1000000 40 65 0
1000000 41 65 0
1000000 42 72 0
1000000 43 68 0
1000000 44 71 0
1000000 45 72 0
1000000 46 75 0
1000000 47 76 0
1000000 48 73 0
1000000 49 66 0
1000000 50 78 0
1000000 51 67 0
1000000 52 75 0
1000000 53 66 0
1000000 54 77 0
1000000 55 79 0
1000000 56 74 0
1000000 57 75 0
1000000 58 73 0
1000000 59 70 0
1000000 60 76 0
1000000 61 71 0
1000000 62 72 0
1000000 63 69 0
1000000 64 78 0
1000000 -35 -71 0
1000000 -36 -67 0
1000000 -37 -70 0
1000000 -38 -77 0
1000000 -39 -70 0
1000000 -40 -65 0
1000000 -41 -65 0
1000000 -42 -72 0
1000000 -43 -68 0
1000000 -44 -71 0
1000000 -45 -72 0
1000000 -46 -75 0
1000000 -47 -76 0
1000000 -48 -73 0
1000000 -49 -66 0
1000000 -50 -78 0
1000000 -51 -67 0
1000000 -52 -75 0
1000000 -53 -66 0
1000000 -54 -77 0
1000000 -55 -79 0
1000000 -56 -74 0
1000000 -57 -75 0
1000000 -58 -73 0
1000000 -59 -70 0
1000000 -60 -76 0
1000000 -61 -71 0
1000000 -62 -72 0
1000000 -63 -69 0
1000000 -64 -78 0
9800 -65 0
6400 -66 0
7400 -67 0
8900 -68 0
7400 -69 0
7400 -70 0
8900 -71 0
8900 -72 0
6400 -73 0
9800 -74 0
8900 -75 0
9800 -76 0
8900 -77 0
8900 -78 0
7400 -79 0
3600 35 0
1100 36 0
3600 37 0
3500 38 0
3300 39 0
3600 40 0
3600 41 0
3600 42 0
3300 43 0
3600 44 0
1100 45 0
4400 46 0
4400 47 0
3500 48 0
3600 49 0
1100 50 0
3600 51 0
4400 52 0
3500 53 0
3300 54 0
3500 55 0
3500 56 0
3300 57 0
3300 58 0
3300 59 0
3500 60 0
3500 61 0
3300 62 0
3600 63 0
3600 64 0
14175 -13 0
12550 16 19 -28 0
3012 16 -19 28 0
14056 16 -19 -28 0
8785 -16 19 28 0
16943 -16 19 -28 0
10743 -16 -19 28 0
17921 -16 -19 -28 0
2455 32 21 17 -27 0
27005 32 21 -17 27 0
28110 32 21 -17 -27 0
39280 32 -21 17 27 0
39771 32 -21 17 -27 0
44681 32 -21 -17 27 0
44902 32 -21 -17 -27 0
27005 -32 21 17 27 0
28110 -32 21 17 -27 0
39157 -32 21 -17 27 0
39654 -32 21 -17 -27 0
44681 -32 -21 17 27 0
44902 -32 -21 17 -27 0
47111 -32 -21 -17 27 0
47211 -32 -21 -17 -27 0
15656 31 30 -34 0
12360 31 -30 34 0
23319 31 -30 -34 0
14420 -31 30 34 0
24596 -31 30 -34 0
22454 -31 -30 34 0
29577 -31 -30 -34 0
502 24 22 -15 0
13805 24 -22 15 0
14031 24 -22 -15 0
9538 -24 22 15 0
9849 -24 22 -15 0
18097 -24 -22 15 0
18237 -24 -22 -15 0
21255 18 11 29 -23 0
6540 18 11 -29 23 0
23544 18 11 -29 -23 0
10464 18 -11 29 23 0
24917 18 -11 29 -23 0
14911 18 -11 -29 23 0
26474 18 -11 -29 -23 0
31065 -18 11 29 23 0
32128 -18 11 29 -23 0
31392 -18 11 -29 23 0
32242 -18 11 -29 -23 0
31588 -18 -11 29 23 0
32311 -18 -11 29 -23 0
31811 -18 -11 -29 23 0
32389 -18 -11 -29 -23 0
9538 -12 0
17955 -26 0
11340 -25 0
21335 14 20 -33 0
6275 14 -20 33 0
22276 14 -20 -33 0
17570 -14 20 33 0
23970 -14 20 -33 0
19452 -14 -20 33 0
24253 -14 -20 -33 0
