p wcnf 79 227 1000000
1000000 7 -11 0
1000000 11 -51 -55 -57 -42 -37 0
1000000 1 -12 0
1000000 12 -39 -60 -37 -56 0
1000000 1 -13 0
1000000 13 -55 -50 -45 -54 0
1000000 5 -14 0
1000000 14 -63 -59 -58 0
1000000 7 -15 0
1000000 15 -36 -40 -47 -50 -45 0
1000000 3 -16 0
1000000 16 -41 -62 -61 -51 -35 0
1000000 8 -17 0
1000000 17 -45 -64 -9 0
1000000 3 -18 0
1000000 18 -44 -59 -51 -62 -8 0
1000000 3 -19 0
1000000 19 -59 -62 -39 -57 0
1000000 2 -20 0
1000000 20 -64 -38 -46 -63 0
1000000 8 -21 0
1000000 21 -47 -58 0
1000000 10 -22 0
1000000 22 -53 -52 0
1000000 2 -23 0
1000000 23 -37 -50 0
1000000 9 -24 0
1000000 24 -55 -64 -56 -10 0
1000000 3 -25 0
1000000 25 -50 -51 -54 -57 -64 0
1000000 10 -26 0
1000000 26 -52 -61 -46 -41 0
1000000 6 -27 0
1000000 27 -40 -63 -35 -59 -38 0
1000000 10 -28 0
1000000 28 -44 -38 -48 -36 -47 0
1000000 2 -29 0
1000000 29 -51 -56 -58 -49 -36 0
1000000 5 -30 0
1000000 30 -43 -54 -55 -60 -44 0
1000000 9 -31 0
1000000 31 -49 -57 -35 -56 0
1000000 4 -32 0
1000000 32 -55 -53 0
1000000 9 -33 0
1000000 33 -57 -42 -47 -58 -41 0
1000000 7 -34 0
1000000 34 -38 -36 -60 0
1000000 -1 12 13 0
1000000 -2 20 29 23 0
1000000 -3 18 16 19 25 0
1000000 -4 32 0
1000000 -5 30 14 0
1000000 -6 27 0
1000000 -7 15 11 34 0
1000000 -8 17 21 0
1000000 -9 33 31 24 0
1000000 -10 28 26 22 0
1000000 35 73 0
1000000 36 65 0
1000000 37 73 0
1000000 38 70 0
1000000 39 78 0
1000000 40 76 0
1000000 41 79 0
1000000 42 67 0
1000000 43 76 0
1000000 44 66 0
1000000 45 72 0
1000000 46 68 0
1000000 47 77 0
1000000 48 78 0
1000000 49 65 0
1000000 50 70 0
1000000 51 67 0
1000000 52 72 0
1000000 53 78 0
1000000 54 74 0
1000000 55 71 0
1000000 56 72 0
1000000 57 77 0
1000000 58 75 0
1000000 59 68 0
1000000 60 69 0
1000000 61 68 0
1000000 62 79 0
1000000 63 66 0
1000000 64 71 0
1000000 -35 -73 0
1000000 -36 -65 0
1000000 -37 -73 0
1000000 -38 -70 0
1000000 -39 -78 0
1000000 -40 -76 0
1000000 -41 -79 0
1000000 -42 -67 0
1000000 -43 -76 0
1000000 -44 -66 0
1000000 -45 -72 0
1000000 -46 -68 0
1000000 -47 -77 0
1000000 -48 -78 0
1000000 -49 -65 0
1000000 -50 -70 0
1000000 -51 -67 0
1000000 -52 -72 0
1000000 -53 -78 0
1000000 -54 -74 0
1000000 -55 -71 0
1000000 -56 -72 0
1000000 -57 -77 0
1000000 -58 -75 0
1000000 -59 -68 0
1000000 -60 -69 0
1000000 -61 -68 0
1000000 -62 -79 0
1000000 -63 -66 0
1000000 -64 -71 0
8800 -65 0
8600 -66 0
7700 -67 0
7700 -68 0
8600 -69 0
8800 -70 0
5100 -71 0
8800 -72 0
8800 -73 0
8800 -74 0
5100 -75 0
8800 -76 0
8200 -77 0
8800 -78 0
8600 -79 0
4100 35 0
4800 36 0
3300 37 0
3300 38 0
3900 39 0
1600 40 0
3900 41 0
4100 42 0
1600 43 0
1600 44 0
3300 45 0
4100 46 0
3900 47 0
4100 48 0
3900 49 0
1600 50 0
4800 51 0
1600 52 0
4800 53 0
3900 54 0
4800 55 0
4800 56 0
4100 57 0
3900 58 0
1600 59 0
3300 60 0
3900 61 0
3300 62 0
4100 63 0
1600 64 0
2030 12 -13 0
28420 -12 13 0
29029 -12 -13 0
8610 20 29 -23 0
9225 20 -29 23 0
11378 20 -29 -23 0
7380 -20 29 23 0
10824 -20 29 -23 0
11070 -20 -29 23 0
11931 -20 -29 -23 0
35200 18 16 19 -25 0
4400 18 16 -19 25 0
36080 18 16 -19 -25 0
7920 18 -16 19 25 0
36784 18 -16 19 -25 0
11528 18 -16 -19 25 0
37506 18 -16 -19 -25 0
13200 -18 16 19 25 0
37840 -18 16 19 -25 0
16280 -18 16 -19 25 0
38456 -18 16 -19 -25 0
18744 -18 -16 19 25 0
38949 -18 -16 19 -25 0
21270 -18 -16 -19 25 0
39454 -18 -16 -19 -25 0
6555 -32 0
1242 30 -14 0
3450 -30 14 0
4071 -30 -14 0
345 -27 0
15400 15 11 -34 0
2200 15 -11 34 0
16830 15 -11 -34 0
2200 -15 11 34 0
16830 -15 11 -34 0
4290 -15 -11 34 0
18189 -15 -11 -34 0
33000 17 -21 0
14080 -17 21 0
36520 -17 -21 0
9840 33 31 -24 0
9840 33 -31 24 0
11808 33 -31 -24 0
4305 -33 31 24 0
10701 -33 31 -24 0
10701 -33 -31 24 0
11980 -33 -31 -24 0
2352 28 26 -22 0
16660 28 -26 22 0
17013 28 -26 -22 0
2352 -28 26 22 0
4422 -28 26 -22 0
17013 -28 -26 22 0
17323 -28 -26 -22 0
