p wcnf 79 243 1000000
1000000 2 -11 0
1000000 11 -46 -64 0
1000000 4 -12 0
1000000 12 -45 -8 0
1000000 1 -13 0
1000000 13 -64 -61 -51 -8 0
1000000 8 -14 0
1000000 14 -48 -39 -43 0
1000000 1 -15 0
1000000 15 -42 -39 -44 -62 -9 0
1000000 4 -16 0
1000000 16 -43 -54 -49 -52 -59 0
1000000 6 -17 0
1000000 17 -57 -40 -51 0
1000000 5 -18 0
1000000 18 -52 -45 -54 -9 0
1000000 1 -19 0
1000000 19 -37 -38 -43 -41 0
1000000 9 -20 0
1000000 20 -59 -45 -41 -49 -10 0
1000000 9 -21 0
1000000 21 -37 -44 -59 0
1000000 10 -22 0
1000000 22 -36 -54 -57 -59 0
1000000 2 -23 0
1000000 23 -46 -39 -50 -3 0
1000000 5 -24 0
1000000 24 -57 -37 -41 -48 0
1000000 1 -25 0
1000000 25 -56 -46 -54 -37 0
1000000 9 -26 0
1000000 26 -42 -59 -58 -39 0
1000000 5 -27 0
1000000 27 -44 -35 -52 -45 -41 0
1000000 3 -28 0
1000000 28 -45 -48 -49 0
1000000 8 -29 0
1000000 29 -50 -55 -10 0
1000000 3 -30 0
1000000 30 -55 -64 -50 -37 0
1000000 7 -31 0
1000000 31 -53 -44 -56 0
1000000 5 -32 0
1000000 32 -40 -58 -42 0
1000000 5 -33 0
1000000 33 -53 -8 0
1000000 6 -34 0
1000000 34 -58 -41 -49 -47 -42 0
1000000 -1 25 15 13 19 0
1000000 -2 11 23 0
1000000 -3 28 30 0
1000000 -4 16 12 0
1000000 -5 24 18 33 27 32 0
1000000 -6 17 34 0
1000000 -7 31 0
1000000 -8 29 14 0
1000000 -9 20 21 26 0
1000000 -10 22 0
1000000 35 66 0
1000000 36 68 0
1000000 37 65 0
1000000 38 70 0
1000000 39 78 0
1000000 40 67 0
1000000 41 73 0
1000000 42 72 0
1000000 43 68 0
1000000 44 79 0
1000000 45 65 0
1000000 46 76 0
1000000 47 74 0
1000000 48 76 0
1000000 49 72 0
1000000 50 69 0
1000000 51 78 0
1000000 52 77 0
1000000 53 70 0
1000000 54 68 0
1000000 55 75 0
1000000 56 66 0
1000000 57 75 0
1000000 58 79 0
1000000 59 77 0
1000000 60 78 0
1000000 61 74 0
1000000 62 71 0
1000000 63 71 0
1000000 64 65 0
1000000 -35 -66 0
1000000 -36 -68 0
1000000 -37 -65 0
1000000 -38 -70 0
1000000 -39 -78 0
1000000 -40 -67 0
1000000 -41 -73 0
1000000 -42 -72 0
1000000 -43 -68 0
1000000 -44 -79 0
1000000 -45 -65 0
1000000 -46 -76 0
1000000 -47 -74 0
1000000 -48 -76 0
1000000 -49 -72 0
1000000 -50 -69 0
1000000 -51 -78 0
1000000 -52 -77 0
1000000 -53 -70 0
1000000 -54 -68 0
1000000 -55 -75 0
1000000 -56 -66 0
1000000 -57 -75 0
1000000 -58 -79 0
1000000 -59 -77 0
1000000 -60 -78 0
1000000 -61 -74 0
1000000 -62 -71 0
1000000 -63 -71 0
1000000 -64 -65 0
6000 -65 0
6000 -66 0
5200 -67 0
6000 -68 0
5300 -69 0
5300 -70 0
9000 -71 0
5200 -72 0
5200 -73 0
9000 -74 0
5200 -75 0
6000 -76 0
8100 -77 0
5300 -78 0
5200 -79 0
2000 35 0
2000 36 0
2200 37 0
2000 38 0
4100 39 0
1800 40 0
1800 41 0
4100 42 0
2200 43 0
3700 44 0
2200 45 0
1800 46 0
2200 47 0
1800 48 0
1800 49 0
1800 50 0
2200 51 0
1800 52 0
1800 53 0
3700 54 0
2200 55 0
2200 56 0
3700 57 0
1800 58 0
1800 59 0
1800 60 0
2200 61 0
2200 62 0
1800 63 0
4100 64 0
8130 25 15 13 -19 0
8130 25 15 -13 19 0
13821 25 15 -13 -19 0
3252 25 -15 13 19 0
10406 25 -15 13 -19 0
10406 25 -15 -13 19 0
15414 25 -15 -13 -19 0
17615 -25 15 13 19 0
20460 -25 15 13 -19 0
20460 -25 15 -13 19 0
22452 -25 15 -13 -19 0
18753 -25 -15 13 19 0
21257 -25 -15 13 -19 0
21257 -25 -15 -13 19 0
23010 -25 -15 -13 -19 0
2690 11 -23 0
5380 -11 23 0
7532 -11 -23 0
21680 28 -30 0
542 -28 30 0
21788 -28 -30 0
8130 16 -12 0
23035 -16 12 0
24255 -16 -12 0
2025 24 18 33 27 -32 0
5670 24 18 33 -27 32 0
6277 24 18 33 -27 -32 0
5265 24 18 -33 27 32 0
5974 24 18 -33 27 -32 0
7250 24 18 -33 -27 32 0
7462 24 18 -33 -27 -32 0
6480 24 -18 33 27 32 0
6885 24 -18 33 27 -32 0
7614 24 -18 33 -27 32 0
7735 24 -18 33 -27 -32 0
7533 24 -18 -33 27 32 0
7675 24 -18 -33 27 -32 0
7930 24 -18 -33 -27 32 0
7972 24 -18 -33 -27 -32 0
7290 -24 18 33 27 32 0
7492 -24 18 33 27 -32 0
7857 -24 18 33 -27 32 0
7918 -24 18 33 -27 -32 0
7816 -24 18 -33 27 32 0
7887 -24 18 -33 27 -32 0
8015 -24 18 -33 -27 32 0
8036 -24 18 -33 -27 -32 0
7938 -24 -18 33 27 32 0
7978 -24 -18 33 27 -32 0
8051 -24 -18 33 -27 32 0
8064 -24 -18 33 -27 -32 0
8043 -24 -18 -33 27 32 0
8057 -24 -18 -33 27 -32 0
8083 -24 -18 -33 -27 32 0
8087 -24 -18 -33 -27 -32 0
12040 17 -34 0
32680 -17 34 0
33282 -17 -34 0
8000 -31 0
15480 29 -14 0
20640 -29 14 0
26832 -29 -14 0
22360 20 21 -26 0
27520 20 -21 26 0
31992 20 -21 -26 0
24080 -20 21 26 0
30788 -20 21 -26 0
32336 -20 -21 26 0
33678 -20 -21 -26 0
12800 -22 0
