p wcnf 79 247 1000000
1000000 5 -11 0
1000000 11 -51 -46 -52 -35 -61 0
1000000 3 -12 0
1000000 12 -46 -35 -62 -6 0
1000000 1 -13 0
1000000 13 -63 -43 -48 -6 0
1000000 9 -14 0
1000000 14 -40 -60 -44 0
1000000 1 -15 0
1000000 15 -42 -36 -60 -61 -56 0
1000000 10 -16 0
1000000 16 -46 -57 -42 0
1000000 6 -17 0
1000000 17 -54 -7 0
1000000 5 -18 0
1000000 18 -35 -56 -41 -55 0
1000000 5 -19 0
1000000 19 -41 -54 0
1000000 2 -20 0
1000000 20 -61 -39 -3 0
1000000 7 -21 0
1000000 21 -41 -49 -35 0
1000000 4 -22 0
1000000 22 -48 -50 -8 0
1000000 1 -23 0
1000000 23 -59 -36 0
1000000 9 -24 0
1000000 24 -60 -54 0
1000000 5 -25 0
1000000 25 -58 -51 -45 -41 -54 0
1000000 5 -26 0
1000000 26 -64 -63 0
1000000 4 -27 0
1000000 27 -40 -55 0
1000000 2 -28 0
1000000 28 -59 -51 -10 0
1000000 7 -29 0
1000000 29 -44 -54 0
1000000 4 -30 0
1000000 30 -35 -55 0
1000000 2 -31 0
1000000 31 -55 -63 -44 -48 -54 0
1000000 2 -32 0
1000000 32 -60 -45 -58 -38 -57 0
1000000 8 -33 0
1000000 33 -49 -59 -45 -62 -9 0
1000000 7 -34 0
1000000 34 -58 -41 -39 -50 -35 0
1000000 -1 15 23 13 0
1000000 -2 31 20 28 32 0
1000000 -3 12 0
1000000 -4 30 22 27 0
1000000 -5 18 26 19 25 11 0
1000000 -6 17 0
1000000 -7 21 29 34 0
1000000 -8 33 0
1000000 -9 14 24 0
1000000 -10 16 0
1000000 35 79 0
1000000 36 71 0
1000000 37 77 0
1000000 38 70 0
1000000 39 68 0
1000000 40 76 0
1000000 41 78 0
1000000 42 78 0
1000000 43 71 0
1000000 44 66 0
1000000 45 74 0
1000000 46 78 0
1000000 47 68 0
1000000 48 68 0
1000000 49 65 0
1000000 50 71 0
1000000 51 72 0
1000000 52 67 0
1000000 53 72 0
1000000 54 75 0
1000000 55 65 0
1000000 56 77 0
1000000 57 69 0
1000000 58 70 0
1000000 59 72 0
1000000 60 67 0
1000000 61 65 0
1000000 62 74 0
1000000 63 73 0
1000000 64 67 0
1000000 -35 -79 0
1000000 -36 -71 0
1000000 -37 -77 0
1000000 -38 -70 0
1000000 -39 -68 0
1000000 -40 -76 0
1000000 -41 -78 0
1000000 -42 -78 0
1000000 -43 -71 0
1000000 -44 -66 0
1000000 -45 -74 0
1000000 -46 -78 0
1000000 -47 -68 0
1000000 -48 -68 0
1000000 -49 -65 0
1000000 -50 -71 0
1000000 -51 -72 0
1000000 -52 -67 0
1000000 -53 -72 0
1000000 -54 -75 0
1000000 -55 -65 0
1000000 -56 -77 0
1000000 -57 -69 0
1000000 -58 -70 0
1000000 -59 -72 0
1000000 -60 -67 0
1000000 -61 -65 0
1000000 -62 -74 0
1000000 -63 -73 0
1000000 -64 -67 0
5000 -65 0
7300 -66 0
5000 -67 0
5900 -68 0
5000 -69 0
5000 -70 0
7300 -71 0
6800 -72 0
7300 -73 0
7300 -74 0
5900 -75 0
7300 -76 0
8700 -77 0
5900 -78 0
6800 -79 0
2800 35 0
2800 36 0
2700 37 0
4100 38 0
2800 39 0
2700 40 0
4100 41 0
4100 42 0
1700 43 0
2700 44 0
1700 45 0
2700 46 0
2700 47 0
4100 48 0
2800 49 0
3800 50 0
4100 51 0
2700 52 0
1700 53 0
1700 54 0
2800 55 0
4100 56 0
3800 57 0
4100 58 0
1700 59 0
1700 60 0
2800 61 0
4100 62 0
1700 63 0
3800 64 0
33300 15 23 -13 0
35150 15 -23 13 0
36815 15 -23 -13 0
14800 -15 23 13 0
34780 -15 23 -13 0
35890 -15 -23 13 0
36889 -15 -23 -13 0
20350 31 20 28 -32 0
35150 31 20 -28 32 0
36168 31 20 -28 -32 0
20350 31 -20 28 32 0
29508 31 -20 28 -32 0
36168 31 -20 -28 32 0
36625 31 -20 -28 -32 0
9250 -31 20 28 32 0
24513 -31 20 28 -32 0
35612 -31 20 -28 32 0
36376 -31 20 -28 -32 0
24513 -31 -20 28 32 0
31381 -31 -20 28 -32 0
36376 -31 -20 -28 32 0
36719 -31 -20 -28 -32 0
6660 -12 0
9250 30 22 -27 0
16650 30 -22 27 0
21737 30 -22 -27 0
5550 -30 22 27 0
13413 -30 22 -27 0
19702 -30 -22 27 0
24027 -30 -22 -27 0
33300 18 26 19 25 -11 0
6660 18 26 19 -25 11 0
33966 18 26 19 -25 -11 0
33300 18 26 -19 25 11 0
36630 18 26 -19 25 -11 0
33966 18 26 -19 -25 11 0
36697 18 26 -19 -25 -11 0
1850 18 -26 19 25 11 0
33485 18 -26 19 25 -11 0
8177 18 -26 19 -25 11 0
34118 18 -26 19 -25 -11 0
33485 18 -26 -19 25 11 0
36649 18 -26 -19 25 -11 0
34118 18 -26 -19 -25 11 0
36712 18 -26 -19 -25 -11 0
1850 -18 26 19 25 11 0
33485 -18 26 19 25 -11 0
8177 -18 26 19 -25 11 0
34118 -18 26 19 -25 -11 0
33485 -18 26 -19 25 11 0
36649 -18 26 -19 25 -11 0
34118 -18 26 -19 -25 11 0
36712 -18 26 -19 -25 -11 0
3608 -18 -26 19 25 11 0
33661 -18 -26 19 25 -11 0
9618 -18 -26 19 -25 11 0
34262 -18 -26 19 -25 -11 0
33661 -18 -26 -19 25 11 0
36666 -18 -26 -19 25 -11 0
34262 -18 -26 -19 -25 11 0
36726 -18 -26 -19 -25 -11 0
4176 -17 0
5880 21 29 -34 0
12544 21 -29 34 0
16542 21 -29 -34 0
31360 -21 29 34 0
32536 -21 29 -34 0
33869 -21 -29 34 0
34668 -21 -29 -34 0
22200 -33 0
12544 14 -24 0
35280 -14 24 0
36534 -14 -24 0
27440 -16 0
