p wcnf 79 231 1000000
1000000 2 -11 0
1000000 11 -48 -45 -37 -44 -56 0
1000000 7 -12 0
1000000 12 -39 -42 0
1000000 1 -13 0
1000000 13 -57 -60 0
1000000 2 -14 0
1000000 14 -54 -41 -62 -63 -37 0
1000000 3 -15 0
1000000 15 -39 -40 0
1000000 6 -16 0
1000000 16 -62 -37 -9 0
1000000 5 -17 0
1000000 17 -57 -49 -60 -50 -58 0
1000000 7 -18 0
1000000 18 -44 -59 -62 0
1000000 5 -19 0
1000000 19 -51 -45 -49 0
1000000 8 -20 0
1000000 20 -39 -10 0
1000000 8 -21 0
1000000 21 -37 -10 0
1000000 10 -22 0
1000000 22 -45 -62 -55 -60 -61 0
1000000 2 -23 0
1000000 23 -43 -62 -54 -10 0
1000000 3 -24 0
1000000 24 -64 -54 -62 0
1000000 10 -25 0
1000000 25 -59 -57 -49 -40 0
1000000 1 -26 0
1000000 26 -42 -64 -43 -49 -60 0
1000000 4 -27 0
1000000 27 -55 -57 0
1000000 6 -28 0
1000000 28 -50 -51 -54 -64 0
1000000 2 -29 0
1000000 29 -53 -40 -55 0
1000000 9 -30 0
1000000 30 -43 -48 -57 -60 0
1000000 1 -31 0
1000000 31 -47 -6 0
1000000 7 -32 0
1000000 32 -39 -37 -58 -38 -10 0
1000000 3 -33 0
1000000 33 -49 -63 -41 0
1000000 1 -34 0
1000000 34 -46 -54 -47 -53 -37 0
1000000 -1 34 13 26 31 0
1000000 -2 29 14 11 23 0
1000000 -3 15 24 33 0
1000000 -4 27 0
1000000 -5 19 17 0
1000000 -6 16 28 0
1000000 -7 18 32 12 0
1000000 -8 20 21 0
1000000 -9 30 0
1000000 -10 25 22 0
1000000 35 74 0
1000000 36 75 0
1000000 37 74 0
1000000 38 72 0
1000000 39 68 0
1000000 40 78 0
1000000 41 72 0
1000000 42 73 0
1000000 43 66 0
1000000 44 65 0
1000000 45 78 0
1000000 46 65 0
1000000 47 75 0
1000000 48 69 0
1000000 49 71 0
1000000 50 66 0
1000000 51 79 0
1000000 52 74 0
1000000 53 71 0
1000000 54 73 0
1000000 55 73 0
1000000 56 67 0
1000000 57 66 0
1000000 58 70 0
1000000 59 71 0
1000000 60 67 0
1000000 61 76 0
1000000 62 68 0
1000000 63 77 0
1000000 64 69 0
1000000 -35 -74 0
1000000 -36 -75 0
1000000 -37 -74 0
1000000 -38 -72 0
1000000 -39 -68 0
1000000 -40 -78 0
1000000 -41 -72 0
1000000 -42 -73 0
1000000 -43 -66 0
1000000 -44 -65 0
1000000 -45 -78 0
1000000 -46 -65 0
1000000 -47 -75 0
1000000 -48 -69 0
1000000 -49 -71 0
1000000 -50 -66 0
1000000 -51 -79 0
1000000 -52 -74 0
1000000 -53 -71 0
1000000 -54 -73 0
1000000 -55 -73 0
1000000 -56 -67 0
1000000 -57 -66 0
1000000 -58 -70 0
1000000 -59 -71 0
1000000 -60 -67 0
1000000 -61 -76 0
1000000 -62 -68 0
1000000 -63 -77 0
1000000 -64 -69 0
8500 -65 0
5300 -66 0
6000 -67 0
7100 -68 0
5800 -69 0
6000 -70 0
7100 -71 0
7100 -72 0
5800 -73 0
6000 -74 0
6000 -75 0
6000 -76 0
8500 -77 0
8500 -78 0
7100 -79 0
4400 35 0
3400 36 0
1200 37 0
4400 38 0
2700 39 0
1600 40 0
2700 41 0
3400 42 0
1200 43 0
1600 44 0
1200 45 0
1200 46 0
4400 47 0
3400 48 0
2700 49 0
3400 50 0
3400 51 0
4400 52 0
1200 53 0
2700 54 0
1600 55 0
4400 56 0
2700 57 0
1200 58 0
2700 59 0
1200 60 0
1600 61 0
3400 62 0
4400 63 0
4400 64 0
7520 34 13 26 -31 0
7520 34 13 -26 31 0
9024 34 13 -26 -31 0
470 34 -13 26 31 0
7614 34 -13 26 -31 0
7614 34 -13 -26 31 0
9043 34 -13 -26 -31 0
5170 -34 13 26 31 0
8554 -34 13 26 -31 0
8554 -34 13 -26 31 0
9231 -34 13 -26 -31 0
5381 -34 -13 26 31 0
8596 -34 -13 26 -31 0
8596 -34 -13 -26 31 0
9239 -34 -13 -26 -31 0
6545 29 14 11 -23 0
5610 29 14 -11 23 0
10192 29 14 -11 -23 0
5984 29 -14 11 23 0
10435 29 -14 11 -23 0
9799 29 -14 -11 23 0
12914 29 -14 -11 -23 0
15895 -29 14 11 23 0
16877 -29 14 11 -23 0
16737 -29 14 -11 23 0
17424 -29 14 -11 -23 0
16793 -29 -14 11 23 0
17460 -29 -14 11 -23 0
17365 -29 -14 -11 23 0
17832 -29 -14 -11 -23 0
33225 15 24 -33 0
886 15 -24 33 0
33446 15 -24 -33 0
15505 -15 24 33 0
37101 -15 24 -33 0
16081 -15 -24 33 0
37245 -15 -24 -33 0
15480 -27 0
4180 19 -17 0
5700 -19 17 0
6745 -19 -17 0
19935 16 -28 0
26580 -16 28 0
34554 -16 -28 0
4180 18 32 -12 0
6460 18 -32 12 0
7087 18 -32 -12 0
1520 -18 32 12 0
4864 -18 32 -12 0
6688 -18 -32 12 0
7190 -18 -32 -12 0
11220 20 -21 0
14960 -20 21 0
17204 -20 -21 0
4940 -30 0
31010 25 -22 0
17720 -25 22 0
36326 -25 -22 0
