p wcnf 79 243 1000000
1000000 3 -11 0
1000000 11 -36 -63 -57 -64 -56 0
1000000 8 -12 0
1000000 12 -39 -53 -47 -35 -62 0
1000000 10 -13 0
1000000 13 -47 -61 -62 -46 0
1000000 1 -14 0
1000000 14 -64 -38 0
1000000 9 -15 0
1000000 15 -54 -57 -39 -58 -59 0
1000000 1 -16 0
1000000 16 -53 -37 -44 0
1000000 8 -17 0
1000000 17 -41 -62 -57 -10 0
1000000 1 -18 0
1000000 18 -38 -51 -57 -64 0
1000000 3 -19 0
1000000 19 -45 -41 0
1000000 3 -20 0
1000000 20 -52 -61 -49 -40 0
1000000 1 -21 0
1000000 21 -41 -54 -40 -55 -35 0
1000000 7 -22 0
1000000 22 -48 -63 -53 -59 -61 0
1000000 6 -23 0
1000000 23 -45 -46 -42 -52 -9 0
1000000 3 -24 0
1000000 24 -49 -5 0
1000000 5 -25 0
1000000 25 -52 -51 -63 -37 0
1000000 5 -26 0
1000000 26 -42 -54 -36 -63 -8 0
1000000 4 -27 0
1000000 27 -47 -56 -45 -38 -54 0
1000000 2 -28 0
1000000 28 -44 -43 -38 0
1000000 10 -29 0
1000000 29 -49 -42 -40 0
1000000 3 -30 0
1000000 30 -54 -63 -57 0
1000000 10 -31 0
1000000 31 -63 -60 -51 0
1000000 7 -32 0
1000000 32 -55 -62 -57 0
1000000 9 -33 0
1000000 33 -55 -59 0
1000000 2 -34 0
1000000 34 -53 -59 0
1000000 -1 14 18 16 21 0
1000000 -2 34 28 0
1000000 -3 11 20 30 19 24 0
1000000 -4 27 0
1000000 -5 26 25 0
1000000 -6 23 0
1000000 -7 32 22 0
1000000 -8 17 12 0
1000000 -9 33 15 0
1000000 -10 29 13 31 0
1000000 35 72 0
1000000 36 75 0
1000000 37 78 0
1000000 38 67 0
1000000 39 66 0
1000000 40 79 0
1000000 41 71 0
1000000 42 66 0
1000000 43 71 0
1000000 44 79 0
1000000 45 76 0
1000000 46 78 0
1000000 47 74 0
1000000 48 68 0
1000000 49 74 0
1000000 50 78 0
1000000 51 69 0
1000000 52 66 0
1000000 53 79 0
1000000 54 72 0
1000000 55 77 0
1000000 56 68 0
1000000 57 72 0
1000000 58 70 0
1000000 59 73 0
1000000 60 75 0
1000000 61 65 0
1000000 62 76 0
1000000 63 65 0
1000000 64 68 0
1000000 -35 -72 0
1000000 -36 -75 0
1000000 -37 -78 0
1000000 -38 -67 0
1000000 -39 -66 0
1000000 -40 -79 0
1000000 -41 -71 0
1000000 -42 -66 0
1000000 -43 -71 0
1000000 -44 -79 0
1000000 -45 -76 0
1000000 -46 -78 0
1000000 -47 -74 0
1000000 -48 -68 0
1000000 -49 -74 0
1000000 -50 -78 0
1000000 -51 -69 0
1000000 -52 -66 0
1000000 -53 -79 0
1000000 -54 -72 0
1000000 -55 -77 0
1000000 -56 -68 0
1000000 -57 -72 0
1000000 -58 -70 0
1000000 -59 -73 0
1000000 -60 -75 0
1000000 -61 -65 0
1000000 -62 -76 0
1000000 -63 -65 0
1000000 -64 -68 0
8900 -65 0
8800 -66 0
5000 -67 0
6900 -68 0
5000 -69 0
8900 -70 0
8900 -71 0
5000 -72 0
9000 -73 0
8800 -74 0
8800 -75 0
6900 -76 0
5000 -77 0
6900 -78 0
6900 -79 0
3200 35 0
1900 36 0
4600 37 0
2100 38 0
3200 39 0
1900 40 0
4600 41 0
3200 42 0
1900 43 0
1900 44 0
2100 45 0
3200 46 0
1900 47 0
1900 48 0
2100 49 0
1900 50 0
2100 51 0
2900 52 0
2900 53 0
2900 54 0
3200 55 0
2100 56 0
4600 57 0
3200 58 0
1900 59 0
4600 60 0
3200 61 0
2100 62 0
3200 63 0
4600 64 0
13920 14 18 16 -21 0
7830 14 18 -16 21 0
15486 14 18 -16 -21 0
1740 14 -18 16 21 0
14268 14 -18 16 -21 0
8787 14 -18 -16 21 0
15677 14 -18 -16 -21 0
1740 -14 18 16 21 0
14268 -14 18 16 -21 0
8787 -14 18 -16 21 0
15677 -14 18 -16 -21 0
3306 -14 -18 16 21 0
14581 -14 -18 16 -21 0
9648 -14 -18 -16 21 0
15850 -14 -18 -16 -21 0
15485 34 -28 0
326 -34 28 0
15501 -34 -28 0
25465 11 20 30 19 -24 0
18520 11 20 30 -19 24 0
33799 11 20 30 -19 -24 0
32410 11 20 -30 19 24 0
40050 11 20 -30 19 -24 0
37966 11 20 -30 -19 24 0
42550 11 20 -30 -19 -24 0
23150 11 -20 30 19 24 0
35882 11 -20 30 19 -24 0
32410 11 -20 30 -19 24 0
40050 11 -20 30 -19 -24 0
39355 11 -20 -30 19 24 0
43175 11 -20 -30 19 -24 0
42133 11 -20 -30 -19 24 0
44425 11 -20 -30 -19 -24 0
41670 -11 20 30 19 24 0
44217 -11 20 30 19 -24 0
43522 -11 20 30 -19 24 0
45050 -11 20 30 -19 -24 0
44911 -11 20 -30 19 24 0
45675 -11 20 -30 19 -24 0
45467 -11 20 -30 -19 24 0
45925 -11 20 -30 -19 -24 0
43985 -11 -20 30 19 24 0
45258 -11 -20 30 19 -24 0
44911 -11 -20 30 -19 24 0
45675 -11 -20 30 -19 -24 0
45606 -11 -20 -30 19 24 0
45987 -11 -20 -30 19 -24 0
45883 -11 -20 -30 -19 24 0
46112 -11 -20 -30 -19 -24 0
5688 -27 0
9260 26 -25 0
34725 -26 25 0
37040 -26 -25 0
2315 -23 0
10440 32 -22 0
7830 -32 22 0
13572 -32 -22 0
6408 17 -12 0
24920 -17 12 0
26842 -17 -12 0
2315 33 -15 0
11575 -33 15 0
13311 -33 -15 0
28480 29 13 -31 0
6408 29 -13 31 0
29762 29 -13 -31 0
13528 -29 13 31 0
31186 -29 13 -31 0
17501 -29 -13 31 0
31980 -29 -13 -31 0
