p wcnf 79 227 1000000
1000000 2 -11 0
1000000 11 -62 -39 -40 -53 -42 0
1000000 7 -12 0
1000000 12 -53 -52 0
1000000 3 -13 0
1000000 13 -47 -61 -58 0
1000000 6 -14 0
1000000 14 -62 -55 -35 -51 0
1000000 6 -15 0
1000000 15 -36 -62 -48 0
1000000 3 -16 0
1000000 16 -53 -4 0
1000000 4 -17 0
1000000 17 -43 -62 -9 0
1000000 8 -18 0
1000000 18 -61 -38 -64 0
1000000 9 -19 0
1000000 19 -41 -46 -49 0
1000000 5 -20 0
1000000 20 -52 -50 -37 -61 -63 0
1000000 3 -21 0
1000000 21 -41 -63 -44 -52 0
1000000 6 -22 0
1000000 22 -46 -57 -40 -51 -7 0
1000000 7 -23 0
1000000 23 -64 -50 0
1000000 5 -24 0
1000000 24 -55 -47 -59 -35 -45 0
1000000 1 -25 0
1000000 25 -48 -63 0
1000000 4 -26 0
1000000 26 -46 -55 0
1000000 7 -27 0
1000000 27 -49 -40 -53 -10 0
1000000 8 -28 0
1000000 28 -61 -50 -38 -54 0
1000000 2 -29 0
1000000 29 -49 -3 0
1000000 4 -30 0
1000000 30 -58 -61 0
1000000 7 -31 0
1000000 31 -35 -58 -46 -48 0
1000000 10 -32 0
1000000 32 -52 -61 -38 -46 -48 0
1000000 9 -33 0
1000000 33 -60 -53 -58 -51 -62 0
1000000 9 -34 0
1000000 34 -46 -54 -55 -53 0
1000000 -1 25 0
1000000 -2 29 11 0
1000000 -3 13 16 21 0
1000000 -4 26 30 17 0
1000000 -5 24 20 0
1000000 -6 14 22 15 0
1000000 -7 23 31 12 27 0
1000000 -8 18 28 0
1000000 -9 33 19 34 0
1000000 -10 32 0
1000000 35 66 0
1000000 36 76 0
1000000 37 78 0
1000000 38 73 0
1000000 39 74 0
1000000 40 74 0
1000000 41 79 0
1000000 42 71 0
1000000 43 66 0
1000000 44 75 0
1000000 45 75 0
1000000 46 65 0
1000000 47 70 0
1000000 48 69 0
1000000 49 69 0
1000000 50 67 0
1000000 51 68 0
1000000 52 71 0
1000000 53 66 0
1000000 54 75 0
1000000 55 72 0
1000000 56 74 0
1000000 57 65 0
1000000 58 77 0
1000000 59 76 0
1000000 60 68 0
1000000 61 73 0
1000000 62 71 0
1000000 63 77 0
1000000 64 72 0
1000000 -35 -66 0
1000000 -36 -76 0
1000000 -37 -78 0
1000000 -38 -73 0
1000000 -39 -74 0
1000000 -40 -74 0
1000000 -41 -79 0
1000000 -42 -71 0
1000000 -43 -66 0
1000000 -44 -75 0
1000000 -45 -75 0
1000000 -46 -65 0
1000000 -47 -70 0
1000000 -48 -69 0
1000000 -49 -69 0
1000000 -50 -67 0
1000000 -51 -68 0
1000000 -52 -71 0
1000000 -53 -66 0
1000000 -54 -75 0
1000000 -55 -72 0
1000000 -56 -74 0
1000000 -57 -65 0
1000000 -58 -77 0
1000000 -59 -76 0
1000000 -60 -68 0
1000000 -61 -73 0
1000000 -62 -71 0
1000000 -63 -77 0
1000000 -64 -72 0
7600 -65 0
7500 -66 0
7600 -67 0
5100 -68 0
6900 -69 0
6900 -70 0
6000 -71 0
5100 -72 0
6000 -73 0
6900 -74 0
7600 -75 0
6000 -76 0
6000 -77 0
7600 -78 0
7500 -79 0
1200 35 0
3600 36 0
2700 37 0
3600 38 0
3000 39 0
3600 40 0
3600 41 0
2700 42 0
3000 43 0
3000 44 0
3600 45 0
3000 46 0
1200 47 0
1200 48 0
3000 49 0
1200 50 0
3600 51 0
3000 52 0
1200 53 0
3600 54 0
1200 55 0
2700 56 0
1200 57 0
2700 58 0
2700 59 0
3600 60 0
3300 61 0
3000 62 0
3300 63 0
1200 64 0
4800 -25 0
9100 29 -11 0
11200 -29 11 0
13020 -29 -11 0
8250 13 16 -21 0
3300 13 -16 21 0
10725 13 -16 -21 0
3960 -13 16 21 0
11220 -13 16 -21 0
6864 -13 -16 21 0
13398 -13 -16 -21 0
780 26 30 -17 0
2080 26 -30 17 0
2548 26 -30 -17 0
260 -26 30 17 0
1001 -26 30 -17 0
2236 -26 -30 17 0
2681 -26 -30 -17 0
5600 24 -20 0
13300 -24 20 0
13580 -24 -20 0
2600 14 22 -15 0
936 14 -22 15 0
3068 14 -22 -15 0
3900 -14 22 15 0
4550 -14 22 -15 0
4134 -14 -22 15 0
4667 -14 -22 -15 0
11200 23 31 12 -27 0
7700 23 31 -12 27 0
12740 23 31 -12 -27 0
11200 23 -31 12 27 0
13440 23 -31 12 -27 0
12740 23 -31 -12 27 0
13748 23 -31 -12 -27 0
7000 -23 31 12 27 0
12600 -23 31 12 -27 0
10850 -23 31 -12 27 0
13370 -23 31 -12 -27 0
12600 -23 -31 12 27 0
13720 -23 -31 12 -27 0
13370 -23 -31 -12 27 0
13874 -23 -31 -12 -27 0
7000 18 -28 0
13300 -18 28 0
13650 -18 -28 0
5600 33 19 -34 0
5200 33 -19 34 0
7160 33 -19 -34 0
3040 -33 19 34 0
6512 -33 19 -34 0
6264 -33 -19 34 0
7479 -33 -19 -34 0
18240 -32 0
