p wcnf 79 239 1000000
1000000 5 -11 0
1000000 11 -49 -47 0
1000000 5 -12 0
1000000 12 -39 -58 -56 0
1000000 7 -13 0
1000000 13 -49 -44 -35 -43 0
1000000 7 -14 0
1000000 14 -36 -55 -38 0
1000000 2 -15 0
1000000 15 -39 -64 -53 -46 0
1000000 6 -16 0
1000000 16 -48 -39 0
1000000 4 -17 0
1000000 17 -42 -47 0
1000000 4 -18 0
1000000 18 -58 -46 -43 -39 -60 0
1000000 8 -19 0
1000000 19 -43 -63 -64 0
1000000 1 -20 0
1000000 20 -56 -10 0
1000000 9 -21 0
1000000 21 -45 -10 0
1000000 6 -22 0
1000000 22 -62 -39 -64 -44 0
1000000 8 -23 0
1000000 23 -56 -54 -40 -50 -9 0
1000000 3 -24 0
1000000 24 -49 -8 0
1000000 10 -25 0
1000000 25 -54 -37 0
1000000 5 -26 0
1000000 26 -44 -45 -63 -57 -60 0
1000000 8 -27 0
1000000 27 -63 -43 -46 0
1000000 9 -28 0
1000000 28 -53 -40 0
1000000 9 -29 0
1000000 29 -59 -56 -38 -10 0
1000000 5 -30 0
1000000 30 -35 -47 0
1000000 2 -31 0
1000000 31 -56 -43 -41 0
1000000 3 -32 0
1000000 32 -43 -41 -4 0
1000000 6 -33 0
1000000 33 -36 -52 -9 0
1000000 5 -34 0
1000000 34 -51 -48 -50 -44 0
1000000 -1 20 0
1000000 -2 31 15 0
1000000 -3 32 24 0
1000000 -4 17 18 0
1000000 -5 26 30 12 34 11 0
1000000 -6 16 33 22 0
1000000 -7 13 14 0
1000000 -8 23 19 27 0
1000000 -9 21 29 28 0
1000000 -10 25 0
1000000 35 79 0
1000000 36 72 0
1000000 37 71 0
1000000 38 79 0
1000000 39 69 0
1000000 40 77 0
1000000 41 73 0
1000000 42 66 0
1000000 43 79 0
1000000 44 78 0
1000000 45 65 0
1000000 46 74 0
1000000 47 72 0
1000000 48 76 0
1000000 49 70 0
1000000 50 74 0
1000000 51 67 0
1000000 52 68 0
1000000 53 74 0
1000000 54 75 0
1000000 55 69 0
1000000 56 73 0
1000000 57 66 0
1000000 58 67 0
1000000 59 67 0
1000000 60 72 0
1000000 61 75 0
1000000 62 76 0
1000000 63 73 0
1000000 64 70 0
1000000 -35 -79 0
1000000 -36 -72 0
1000000 -37 -71 0
1000000 -38 -79 0
1000000 -39 -69 0
1000000 -40 -77 0
1000000 -41 -73 0
1000000 -42 -66 0
1000000 -43 -79 0
1000000 -44 -78 0
1000000 -45 -65 0
1000000 -46 -74 0
1000000 -47 -72 0
1000000 -48 -76 0
1000000 -49 -70 0
1000000 -50 -74 0
1000000 -51 -67 0
1000000 -52 -68 0
1000000 -53 -74 0
1000000 -54 -75 0
1000000 -55 -69 0
1000000 -56 -73 0
1000000 -57 -66 0
1000000 -58 -67 0
1000000 -59 -67 0
1000000 -60 -72 0
1000000 -61 -75 0
1000000 -62 -76 0
1000000 -63 -73 0
1000000 -64 -70 0
9400 -65 0
9400 -66 0
5400 -67 0
5400 -68 0
5400 -69 0
9400 -70 0
8200 -71 0
8200 -72 0
8400 -73 0
9400 -74 0
8200 -75 0
9400 -76 0
5400 -77 0
8200 -78 0
8200 -79 0
4000 35 0
3600 36 0
5000 37 0
5000 38 0
4000 39 0
4000 40 0
5000 41 0
4400 42 0
5000 43 0
2700 44 0
4400 45 0
4400 46 0
2700 47 0
3600 48 0
2700 49 0
5000 50 0
5000 51 0
4400 52 0
3600 53 0
2700 54 0
5000 55 0
3600 56 0
3600 57 0
3600 58 0
5000 59 0
4400 60 0
4000 61 0
4000 62 0
4400 63 0
3600 64 0
11750 -20 0
11160 31 -15 0
4464 -31 15 0
13615 -31 -15 0
8680 32 -24 0
496 -32 24 0
9002 -32 -24 0
4464 17 -18 0
6200 -17 18 0
9548 -17 -18 0
30345 26 30 12 34 -11 0
10710 26 30 12 -34 11 0
31951 26 30 12 -34 -11 0
5355 26 30 -12 34 11 0
31148 26 30 -12 34 -11 0
14459 26 30 -12 -34 11 0
32514 26 30 -12 -34 -11 0
10710 26 -30 12 34 11 0
31951 26 -30 12 34 -11 0
18207 26 -30 12 -34 11 0
33076 26 -30 12 -34 -11 0
14459 26 -30 -12 34 11 0
32514 26 -30 -12 34 -11 0
20831 26 -30 -12 -34 11 0
33470 26 -30 -12 -34 -11 0
6426 -26 30 12 34 11 0
31309 -26 30 12 34 -11 0
15208 -26 30 12 -34 11 0
32626 -26 30 12 -34 -11 0
10817 -26 30 -12 34 11 0
31968 -26 30 -12 34 -11 0
18282 -26 30 -12 -34 11 0
33087 -26 30 -12 -34 -11 0
15208 -26 -30 12 34 11 0
32626 -26 -30 12 34 -11 0
21356 -26 -30 12 -34 11 0
33548 -26 -30 12 -34 -11 0
18282 -26 -30 -12 34 11 0
33087 -26 -30 -12 34 -11 0
23507 -26 -30 -12 -34 11 0
33871 -26 -30 -12 -34 -11 0
25080 16 33 -22 0
34200 16 -33 22 0
40470 16 -33 -22 0
25080 -16 33 22 0
36366 -16 33 -22 0
40470 -16 -33 22 0
43291 -16 -33 -22 0
14100 13 -14 0
9400 -13 14 0
20680 -13 -14 0
7936 23 19 -27 0
12400 23 -19 27 0
16368 23 -19 -27 0
8680 -23 19 27 0
13838 -23 19 -27 0
16740 -23 -19 27 0
19319 -23 -19 -27 0
2640 21 29 -28 0
3520 21 -29 28 0
5632 21 -29 -28 0
1760 -21 29 28 0
4136 -21 29 -28 0
4928 -21 -29 28 0
6829 -21 -29 -28 0
8925 -25 0
