p wcnf 79 251 1000000
1000000 4 -11 0
1000000 11 -36 -35 0
1000000 3 -12 0
1000000 12 -48 -64 -47 -38 -41 0
1000000 10 -13 0
1000000 13 -64 -53 -41 0
1000000 3 -14 0
1000000 14 -36 -61 0
1000000 4 -15 0
1000000 15 -55 -50 -51 -62 -48 0
1000000 10 -16 0
1000000 16 -56 -45 -49 -42 -37 0
1000000 9 -17 0
1000000 17 -45 -49 -52 -10 0
1000000 7 -18 0
1000000 18 -38 -36 0
1000000 8 -19 0
1000000 19 -43 -57 0
1000000 9 -20 0
1000000 20 -46 -62 -55 -48 -47 0
1000000 9 -21 0
1000000 21 -43 -48 -57 -40 -61 0
1000000 9 -22 0
1000000 22 -63 -40 -61 -58 0
1000000 3 -23 0
1000000 23 -46 -6 0
1000000 10 -24 0
1000000 24 -44 -43 -58 -51 0
1000000 6 -25 0
1000000 25 -38 -57 0
1000000 4 -26 0
1000000 26 -50 -58 -36 -60 0
1000000 1 -27 0
1000000 27 -47 -50 -58 -51 -2 0
1000000 5 -28 0
1000000 28 -53 -50 -62 -46 -39 0
1000000 4 -29 0
1000000 29 -58 -41 -38 -48 0
1000000 3 -30 0
1000000 30 -46 -47 -57 0
1000000 7 -31 0
1000000 31 -36 -55 -63 -53 0
1000000 5 -32 0
1000000 32 -39 -63 -6 0
1000000 2 -33 0
1000000 33 -48 -42 -55 -61 -62 0
1000000 9 -34 0
1000000 34 -62 -53 -50 -37 0
1000000 -1 27 0
1000000 -2 33 0
1000000 -3 23 30 14 12 0
1000000 -4 26 29 15 11 0
1000000 -5 32 28 0
1000000 -6 25 0
1000000 -7 18 31 0
1000000 -8 19 0
1000000 -9 20 17 21 22 34 0
1000000 -10 13 16 24 0
1000000 35 74 0
1000000 36 75 0
1000000 37 68 0
1000000 38 79 0
1000000 39 78 0
1000000 40 76 0
1000000 41 73 0
1000000 42 67 0
1000000 43 74 0
1000000 44 77 0
1000000 45 68 0
1000000 46 70 0
1000000 47 72 0
1000000 48 75 0
1000000 49 69 0
1000000 50 78 0
1000000 51 65 0
1000000 52 71 0
1000000 53 67 0
1000000 54 65 0
1000000 55 73 0
1000000 56 78 0
1000000 57 67 0
1000000 58 66 0
1000000 59 77 0
1000000 60 71 0
1000000 61 79 0
1000000 62 75 0
1000000 63 74 0
1000000 64 79 0
1000000 -35 -74 0
1000000 -36 -75 0
1000000 -37 -68 0
1000000 -38 -79 0
1000000 -39 -78 0
1000000 -40 -76 0
1000000 -41 -73 0
1000000 -42 -67 0
1000000 -43 -74 0
1000000 -44 -77 0
1000000 -45 -68 0
1000000 -46 -70 0
1000000 -47 -72 0
1000000 -48 -75 0
1000000 -49 -69 0
1000000 -50 -78 0
1000000 -51 -65 0
1000000 -52 -71 0
1000000 -53 -67 0
1000000 -54 -65 0
1000000 -55 -73 0
1000000 -56 -78 0
1000000 -57 -67 0
1000000 -58 -66 0
1000000 -59 -77 0
1000000 -60 -71 0
1000000 -61 -79 0
1000000 -62 -75 0
1000000 -63 -74 0
1000000 -64 -79 0
5400 -65 0
6200 -66 0
10000 -67 0
6200 -68 0
5400 -69 0
7500 -70 0
5400 -71 0
7500 -72 0
5400 -73 0
6200 -74 0
6200 -75 0
10000 -76 0
6200 -77 0
10000 -78 0
6200 -79 0
4500 35 0
3600 36 0
4500 37 0
3600 38 0
4500 39 0
1300 40 0
4000 41 0
4000 42 0
1300 43 0
4000 44 0
3600 45 0
3600 46 0
4500 47 0
3600 48 0
2800 49 0
2800 50 0
2800 51 0
4000 52 0
2800 53 0
3600 54 0
2800 55 0
4000 56 0
4000 57 0
4000 58 0
1300 59 0
3600 60 0
4000 61 0
4500 62 0
3600 63 0
4000 64 0
1160 -27 0
40375 -33 0
10440 23 30 14 -12 0
2784 23 30 -14 12 0
11971 23 30 -14 -12 0
12760 23 -30 14 12 0
17458 23 -30 14 -12 0
14013 23 -30 -14 12 0
18147 23 -30 -14 -12 0
7424 -23 30 14 12 0
14523 -23 30 14 -12 0
9317 -23 30 -14 12 0
15564 -23 30 -14 -12 0
16101 -23 -30 14 12 0
19295 -23 -30 14 -12 0
16953 -23 -30 -14 12 0
19764 -23 -30 -14 -12 0
42750 26 29 15 -11 0
28500 26 29 -15 11 0
45600 26 29 -15 -11 0
42750 26 -29 15 11 0
47025 26 -29 15 -11 0
45600 26 -29 -15 11 0
47310 26 -29 -15 -11 0
8550 -26 29 15 11 0
43605 -26 29 15 -11 0
31920 -26 29 -15 11 0
45942 -26 29 -15 -11 0
43605 -26 -29 15 11 0
47111 -26 -29 15 -11 0
45942 -26 -29 -15 11 0
47344 -26 -29 -15 -11 0
3600 32 -28 0
2736 -32 28 0
4968 -32 -28 0
2300 -25 0
20640 18 -31 0
6192 -18 31 0
23117 -18 -31 0
12040 -19 0
19550 20 17 21 22 -34 0
20700 20 17 21 -22 34 0
22655 20 17 21 -22 -34 0
4140 20 17 -21 22 34 0
20171 20 17 -21 22 -34 0
21114 20 17 -21 -22 34 0
22717 20 17 -21 -22 -34 0
9200 20 -17 21 22 34 0
20930 20 -17 21 22 -34 0
21620 20 -17 21 -22 34 0
22793 20 -17 21 -22 -34 0
11684 20 -17 -21 22 34 0
21303 20 -17 -21 22 -34 0
21868 20 -17 -21 -22 34 0
22830 20 -17 -21 -22 -34 0
12650 -20 17 21 22 34 0
21447 -20 17 21 22 -34 0
21965 -20 17 21 -22 34 0
22845 -20 17 21 -22 -34 0
14513 -20 17 -21 22 34 0
21727 -20 17 -21 22 -34 0
22151 -20 17 -21 -22 34 0
22873 -20 17 -21 -22 -34 0
16790 -20 -17 21 22 34 0
22069 -20 -17 21 22 -34 0
22379 -20 -17 21 -22 34 0
22907 -20 -17 21 -22 -34 0
17908 -20 -17 -21 22 34 0
22236 -20 -17 -21 22 -34 0
22491 -20 -17 -21 -22 34 0
22924 -20 -17 -21 -22 -34 0
20640 13 16 -24 0
6192 13 -16 24 0
23117 13 -16 -24 0
22360 -13 16 24 0
29584 -13 16 -24 0
24527 -13 -16 24 0
30451 -13 -16 -24 0
