p wcnf 79 237 1000000
1000000 1 -11 0
1000000 11 -55 -63 -37 -4 0
1000000 10 -12 0
1000000 12 -49 -43 0
1000000 4 -13 0
1000000 13 -39 -50 -37 0
1000000 3 -14 0
1000000 14 -48 -37 -58 0
1000000 6 -15 0
1000000 15 -57 -61 -50 -38 0
1000000 6 -16 0
1000000 16 -55 -9 0
1000000 3 -17 0
1000000 17 -54 -50 -46 -5 0
1000000 3 -18 0
1000000 18 -41 -39 -42 -60 0
1000000 8 -19 0
1000000 19 -44 -43 -48 0
1000000 1 -20 0
1000000 20 -50 -60 -61 -53 0
1000000 7 -21 0
1000000 21 -48 -44 -50 -58 0
1000000 5 -22 0
1000000 22 -62 -59 -50 -56 0
1000000 9 -23 0
1000000 23 -53 -64 0
1000000 2 -24 0
1000000 24 -47 -61 -37 -44 -54 0
1000000 8 -25 0
1000000 25 -50 -49 -40 -63 0
1000000 10 -26 0
1000000 26 -50 -46 0
1000000 10 -27 0
1000000 27 -63 -52 -50 0
1000000 3 -28 0
1000000 28 -57 -47 0
1000000 9 -29 0
1000000 29 -61 -50 -62 -57 0
1000000 2 -30 0
1000000 30 -45 -46 -36 -53 0
1000000 8 -31 0
1000000 31 -37 -35 -51 -46 -48 0
1000000 7 -32 0
1000000 32 -58 -8 0
1000000 4 -33 0
1000000 33 -54 -55 0
1000000 3 -34 0
1000000 34 -48 -49 -47 0
1000000 -1 11 20 0
1000000 -2 30 24 0
1000000 -3 28 18 17 14 34 0
1000000 -4 33 13 0
1000000 -5 22 0
1000000 -6 16 15 0
1000000 -7 32 21 0
1000000 -8 31 19 25 0
1000000 -9 29 23 0
1000000 -10 12 27 26 0
1000000 35 74 0
1000000 36 67 0
1000000 37 78 0
1000000 38 78 0
1000000 39 76 0
1000000 40 67 0
1000000 41 65 0
1000000 42 78 0
1000000 43 69 0
1000000 44 72 0
1000000 45 77 0
1000000 46 69 0
1000000 47 66 0
1000000 48 65 0
1000000 49 77 0
1000000 50 67 0
1000000 51 74 0
1000000 52 75 0
1000000 53 68 0
1000000 54 79 0
1000000 55 65 0
1000000 56 70 0
1000000 57 71 0
1000000 58 66 0
1000000 59 72 0
1000000 60 72 0
1000000 61 68 0
1000000 62 73 0
1000000 63 76 0
1000000 64 74 0
1000000 -35 -74 0
1000000 -36 -67 0
1000000 -37 -78 0
1000000 -38 -78 0
1000000 -39 -76 0
1000000 -40 -67 0
1000000 -41 -65 0
1000000 -42 -78 0
1000000 -43 -69 0
1000000 -44 -72 0
1000000 -45 -77 0
1000000 -46 -69 0
1000000 -47 -66 0
1000000 -48 -65 0
1000000 -49 -77 0
1000000 -50 -67 0
1000000 -51 -74 0
1000000 -52 -75 0
1000000 -53 -68 0
1000000 -54 -79 0
1000000 -55 -65 0
1000000 -56 -70 0
1000000 -57 -71 0
1000000 -58 -66 0
1000000 -59 -72 0
1000000 -60 -72 0
1000000 -61 -68 0
1000000 -62 -73 0
1000000 -63 -76 0
1000000 -64 -74 0
6900 -65 0
8300 -66 0
6900 -67 0
6900 -68 0
10000 -69 0
8600 -70 0
6900 -71 0
8300 -72 0
8300 -73 0
10000 -74 0
8600 -75 0
8300 -76 0
8600 -77 0
8300 -78 0
10000 -79 0
1300 35 0
1300 36 0
2400 37 0
4200 38 0
2400 39 0
4100 40 0
4200 41 0
1300 42 0
1300 43 0
4200 44 0
1300 45 0
4200 46 0
2400 47 0
1600 48 0
2400 49 0
4200 50 0
1600 51 0
4100 52 0
2400 53 0
4200 54 0
1300 55 0
4200 56 0
4100 57 0
4200 58 0
2400 59 0
4100 60 0
1600 61 0
4100 62 0
4100 63 0
4100 64 0
835 11 -20 0
6680 -11 20 0
7181 -11 -20 0
11400 30 -24 0
5700 -30 24 0
14820 -30 -24 0
13360 28 18 17 14 -34 0
8350 28 18 17 -14 34 0
15030 28 18 17 -14 -34 0
6346 28 18 -17 14 34 0
14629 28 18 -17 14 -34 0
11523 28 18 -17 -14 34 0
15665 28 18 -17 -14 -34 0
2505 28 -18 17 14 34 0
13861 28 -18 17 14 -34 0
9602 28 -18 17 -14 34 0
15281 28 -18 17 -14 -34 0
7899 28 -18 -17 14 34 0
14940 28 -18 -17 14 -34 0
12300 28 -18 -17 -14 34 0
15820 28 -18 -17 -14 -34 0
5010 -28 18 17 14 34 0
14362 -28 18 17 14 -34 0
10855 -28 18 17 -14 34 0
15531 -28 18 17 -14 -34 0
9452 -28 18 -17 14 34 0
15250 -28 18 -17 14 -34 0
13076 -28 18 -17 -14 34 0
15975 -28 18 -17 -14 -34 0
6764 -28 -18 17 14 34 0
14713 -28 -18 17 14 -34 0
11732 -28 -18 17 -14 34 0
15706 -28 -18 17 -14 -34 0
10539 -28 -18 -17 14 34 0
15468 -28 -18 -17 14 -34 0
13620 -28 -18 -17 -14 34 0
16084 -28 -18 -17 -14 -34 0
24225 33 -13 0
19950 -33 13 0
27218 -33 -13 0
660 -22 0
4275 16 -15 0
12825 -16 15 0
15176 -16 -15 0
15030 32 -21 0
10020 -32 21 0
16032 -32 -21 0
15440 31 19 -25 0
3474 31 -19 25 0
16135 31 -19 -25 0
9650 -31 19 25 0
17370 -31 19 -25 0
11387 -31 -19 25 0
17717 -31 -19 -25 0
13200 29 -23 0
29700 -29 23 0
31020 -29 -23 0
18150 12 27 -26 0
3960 12 -27 26 0
19932 12 -27 -26 0
28050 -12 27 26 0
30773 -12 27 -26 0
28644 -12 -27 26 0
31040 -12 -27 -26 0
