p wcnf 79 241 1000000
1000000 7 -11 0
1000000 11 -54 -63 0
1000000 9 -12 0
1000000 12 -46 -40 -64 -60 -10 0
1000000 9 -13 0
1000000 13 -51 -10 0
1000000 10 -14 0
1000000 14 -49 -39 -53 -52 -46 0
1000000 4 -15 0
1000000 15 -53 -51 -48 0
1000000 7 -16 0
1000000 16 -63 -60 -37 -59 -10 0
1000000 6 -17 0
1000000 17 -41 -51 0
1000000 5 -18 0
1000000 18 -55 -49 -47 -10 0
1000000 4 -19 0
1000000 19 -60 -46 -57 -64 0
1000000 8 -20 0
1000000 20 -59 -43 -36 0
1000000 1 -21 0
1000000 21 -63 -44 0
1000000 4 -22 0
1000000 22 -63 -35 -61 -58 0
1000000 4 -23 0
1000000 23 -63 -52 -61 0
1000000 3 -24 0
1000000 24 -61 -58 -39 0
1000000 10 -25 0
1000000 25 -52 -38 -46 -54 -36 0
1000000 8 -26 0
1000000 26 -42 -35 -56 -62 0
1000000 1 -27 0
1000000 27 -42 -41 -8 0
1000000 4 -28 0
1000000 28 -59 -45 -6 0
1000000 10 -29 0
1000000 29 -48 -49 -42 -63 0
1000000 2 -30 0
1000000 30 -54 -64 -61 0
1000000 6 -31 0
1000000 31 -57 -52 -37 0
1000000 1 -32 0
1000000 32 -40 -60 -52 -51 0
1000000 8 -33 0
1000000 33 -46 -39 -59 -43 -38 0
1000000 6 -34 0
1000000 34 -48 -7 0
1000000 -1 27 32 21 0
1000000 -2 30 0
1000000 -3 24 0
1000000 -4 19 22 15 28 23 0
1000000 -5 18 0
1000000 -6 31 17 34 0
1000000 -7 16 11 0
1000000 -8 26 33 20 0
1000000 -9 12 13 0
1000000 -10 14 29 25 0
1000000 35 77 0
1000000 36 72 0
1000000 37 72 0
1000000 38 70 0
1000000 39 73 0
1000000 40 66 0
1000000 41 79 0
1000000 42 71 0
1000000 43 69 0
1000000 44 76 0
1000000 45 78 0
1000000 46 73 0
1000000 47 65 0
1000000 48 69 0
1000000 49 74 0
1000000 50 75 0
1000000 51 67 0
1000000 52 65 0
1000000 53 68 0
1000000 54 70 0
1000000 55 69 0
1000000 56 76 0
1000000 57 76 0
1000000 58 78 0
1000000 59 77 0
1000000 60 79 0
1000000 61 70 0
1000000 62 73 0
1000000 63 66 0
1000000 64 67 0
1000000 -35 -77 0
1000000 -36 -72 0
1000000 -37 -72 0
1000000 -38 -70 0
1000000 -39 -73 0
1000000 -40 -66 0
1000000 -41 -79 0
1000000 -42 -71 0
1000000 -43 -69 0
1000000 -44 -76 0
1000000 -45 -78 0
1000000 -46 -73 0
1000000 -47 -65 0
1000000 -48 -69 0
1000000 -49 -74 0
1000000 -50 -75 0
1000000 -51 -67 0
1000000 -52 -65 0
1000000 -53 -68 0
1000000 -54 -70 0
1000000 -55 -69 0
1000000 -56 -76 0
1000000 -57 -76 0
1000000 -58 -78 0
1000000 -59 -77 0
1000000 -60 -79 0
1000000 -61 -70 0
1000000 -62 -73 0
1000000 -63 -66 0
1000000 -64 -67 0
6300 -65 0
6200 -66 0
7000 -67 0
9500 -68 0
6300 -69 0
9500 -70 0
9500 -71 0
6100 -72 0
6100 -73 0
6100 -74 0
6100 -75 0
7000 -76 0
7000 -77 0
6100 -78 0
9500 -79 0
2900 35 0
2700 36 0
3400 37 0
2700 38 0
2900 39 0
1500 40 0
1500 41 0
2700 42 0
3400 43 0
2900 44 0
2700 45 0
3400 46 0
2900 47 0
2700 48 0
2900 49 0
2700 50 0
2200 51 0
2200 52 0
3400 53 0
3400 54 0
2200 55 0
2700 56 0
1500 57 0
3400 58 0
1500 59 0
1500 60 0
2200 61 0
2200 62 0
2900 63 0
1500 64 0
16640 27 32 -21 0
10400 27 -32 21 0
22880 27 -32 -21 0
39520 -27 32 21 0
40352 -27 32 -21 0
40040 -27 -32 21 0
40664 -27 -32 -21 0
4408 -30 0
2325 -24 0
16345 19 22 15 28 -23 0
37360 19 22 15 -28 23 0
40629 19 22 15 -28 -23 0
9340 19 22 -15 28 23 0
22416 19 22 -15 28 -23 0
39228 19 22 -15 -28 23 0
41843 19 22 -15 -28 -23 0
8406 19 -22 15 28 23 0
21809 19 -22 15 28 -23 0
39041 19 -22 15 -28 23 0
41722 19 -22 15 -28 -23 0
16065 19 -22 -15 28 23 0
26787 19 -22 -15 28 -23 0
40573 19 -22 -15 -28 23 0
42717 19 -22 -15 -28 -23 0
32690 -19 22 15 28 23 0
37593 -19 22 15 28 -23 0
43898 -19 22 15 -28 23 0
44879 -19 22 15 -28 -23 0
35492 -19 22 -15 28 23 0
39415 -19 22 -15 28 -23 0
44458 -19 22 -15 -28 23 0
45243 -19 22 -15 -28 -23 0
35212 -19 -22 15 28 23 0
39233 -19 -22 15 28 -23 0
44402 -19 -22 15 -28 23 0
45207 -19 -22 15 -28 -23 0
37509 -19 -22 -15 28 23 0
40726 -19 -22 -15 28 -23 0
44862 -19 -22 -15 -28 23 0
45505 -19 -22 -15 -28 -23 0
5115 -18 0
19000 31 17 -34 0
5000 31 -17 34 0
22100 31 -17 -34 0
9000 -31 17 34 0
24580 -31 17 -34 0
13100 -31 -17 34 0
27122 -31 -17 -34 0
2900 16 -11 0
232 -16 11 0
3074 -16 -11 0
6000 26 33 -20 0
37500 26 -33 20 0
39000 26 -33 -20 0
25000 -26 33 20 0
28000 -26 33 -20 0
43750 -26 -33 20 0
44500 -26 -33 -20 0
5580 12 -13 0
1860 -12 13 0
6324 -12 -13 0
42030 14 29 -25 0
934 14 -29 25 0
42123 14 -29 -25 0
25685 -14 29 25 0
44599 -14 29 -25 0
26105 -14 -29 25 0
44641 -14 -29 -25 0
