p wcnf 79 225 1000000
1000000 10 -11 0
1000000 11 -51 -54 -49 -53 0
1000000 8 -12 0
1000000 12 -55 -47 -37 -35 -41 0
1000000 8 -13 0
1000000 13 -42 -63 -45 0
1000000 9 -14 0
1000000 14 -62 -47 -53 -50 0
1000000 3 -15 0
1000000 15 -56 -41 0
1000000 4 -16 0
1000000 16 -45 -38 -64 -35 0
1000000 5 -17 0
1000000 17 -43 -41 -57 -44 -51 0
1000000 6 -18 0
1000000 18 -35 -51 -48 -53 0
1000000 3 -19 0
1000000 19 -50 -46 -64 0
1000000 10 -20 0
1000000 20 -35 -38 -53 0
1000000 6 -21 0
1000000 21 -48 -59 0
1000000 1 -22 0
1000000 22 -54 -2 0
1000000 4 -23 0
1000000 23 -56 -41 -42 -44 -10 0
1000000 5 -24 0
1000000 24 -63 -52 0
1000000 4 -25 0
1000000 25 -57 -53 -47 0
1000000 6 -26 0
1000000 26 -52 -43 -62 -60 -53 0
1000000 7 -27 0
1000000 27 -55 -53 -45 -8 0
1000000 3 -28 0
1000000 28 -50 -43 -62 -36 -47 0
1000000 1 -29 0
1000000 29 -59 -38 0
1000000 5 -30 0
1000000 30 -35 -41 -42 -36 -37 0
1000000 3 -31 0
1000000 31 -59 -7 0
1000000 2 -32 0
1000000 32 -50 -57 -6 0
1000000 9 -33 0
1000000 33 -49 -39 -51 -41 -10 0
1000000 2 -34 0
1000000 34 -56 -58 -59 -7 0
1000000 -1 29 22 0
1000000 -2 34 32 0
1000000 -3 15 28 31 19 0
1000000 -4 16 25 23 0
1000000 -5 24 30 17 0
1000000 -6 18 21 26 0
1000000 -7 27 0
1000000 -8 13 12 0
1000000 -9 33 14 0
1000000 -10 11 20 0
1000000 35 78 0
1000000 36 66 0
1000000 37 67 0
1000000 38 75 0
1000000 39 74 0
1000000 40 72 0
1000000 41 76 0
1000000 42 67 0
1000000 43 79 0
1000000 44 71 0
1000000 45 70 0
1000000 46 66 0
1000000 47 68 0
1000000 48 72 0
1000000 49 71 0
1000000 50 69 0
1000000 51 78 0
1000000 52 74 0
1000000 53 75 0
1000000 54 76 0
1000000 55 73 0
1000000 56 67 0
1000000 57 74 0
1000000 58 77 0
1000000 59 70 0
1000000 60 70 0
1000000 61 75 0
1000000 62 77 0
1000000 63 73 0
1000000 64 65 0
1000000 -35 -78 0
1000000 -36 -66 0
1000000 -37 -67 0
1000000 -38 -75 0
1000000 -39 -74 0
1000000 -40 -72 0
1000000 -41 -76 0
1000000 -42 -67 0
1000000 -43 -79 0
1000000 -44 -71 0
1000000 -45 -70 0
1000000 -46 -66 0
1000000 -47 -68 0
1000000 -48 -72 0
1000000 -49 -71 0
1000000 -50 -69 0
1000000 -51 -78 0
1000000 -52 -74 0
1000000 -53 -75 0
1000000 -54 -76 0
1000000 -55 -73 0
1000000 -56 -67 0
1000000 -57 -74 0
1000000 -58 -77 0
1000000 -59 -70 0
1000000 -60 -70 0
1000000 -61 -75 0
1000000 -62 -77 0
1000000 -63 -73 0
1000000 -64 -65 0
9400 -65 0
9200 -66 0
9900 -67 0
9200 -68 0
9200 -69 0
9400 -70 0
9400 -71 0
9200 -72 0
9400 -73 0
9900 -74 0
9900 -75 0
9200 -76 0
8000 -77 0
9900 -78 0
6200 -79 0
1900 35 0
3700 36 0
3700 37 0
2600 38 0
3500 39 0
1200 40 0
1200 41 0
3500 42 0
3500 43 0
1200 44 0
2600 45 0
3500 46 0
3500 47 0
2600 48 0
3700 49 0
1900 50 0
3700 51 0
2600 52 0
2600 53 0
2600 54 0
1900 55 0
1900 56 0
3700 57 0
2600 58 0
1200 59 0
3700 60 0
1900 61 0
1900 62 0
3500 63 0
1900 64 0
19285 29 -22 0
17255 -29 22 0
20148 -29 -22 0
21015 34 -32 0
21015 -34 32 0
32573 -34 -32 0
13870 15 28 31 -19 0
3650 15 28 -31 19 0
14052 15 28 -31 -19 0
7300 15 -28 31 19 0
14235 15 -28 31 -19 0
9125 15 -28 -31 19 0
14326 15 -28 -31 -19 0
2628 -15 28 31 19 0
14001 -15 28 31 -19 0
5621 -15 28 -31 19 0
14151 -15 28 -31 -19 0
8614 -15 -28 31 19 0
14301 -15 -28 31 -19 0
10111 -15 -28 -31 19 0
14376 -15 -28 -31 -19 0
990 16 25 -23 0
5940 16 -25 23 0
6336 16 -25 -23 0
7920 -16 25 23 0
8118 -16 25 -23 0
9108 -16 -25 23 0
9187 -16 -25 -23 0
12180 24 30 -17 0
7714 24 -30 17 0
15266 24 -30 -17 0
19285 -24 30 17 0
19894 -24 30 -17 0
19671 -24 -30 17 0
20048 -24 -30 -17 0
292 18 21 -26 0
5840 18 -21 26 0
6015 18 -21 -26 0
12410 -18 21 26 0
12454 -18 21 -26 0
13286 -18 -21 26 0
13312 -18 -21 -26 0
1188 -27 0
8760 13 -12 0
4380 -13 12 0
10512 -13 -12 0
13140 33 -14 0
1460 -33 14 0
13286 -33 -14 0
8910 11 -20 0
7920 -11 20 0
9702 -11 -20 0
