p wcnf 79 245 1000000
1000000 4 -11 0
1000000 11 -51 -47 -61 0
1000000 8 -12 0
1000000 12 -54 -49 -40 -60 -45 0
1000000 7 -13 0
1000000 13 -61 -62 0
1000000 8 -14 0
1000000 14 -53 -35 -56 -58 0
1000000 1 -15 0
1000000 15 -36 -40 -35 -56 -48 0
1000000 2 -16 0
1000000 16 -50 -59 0
1000000 2 -17 0
1000000 17 -53 -42 -47 -51 0
1000000 10 -18 0
1000000 18 -39 -36 -48 -40 0
1000000 7 -19 0
1000000 19 -37 -50 -38 -53 -55 0
1000000 8 -20 0
1000000 20 -64 -53 -49 -47 0
1000000 7 -21 0
1000000 21 -46 -60 -8 0
1000000 7 -22 0
1000000 22 -41 -36 -43 0
1000000 3 -23 0
1000000 23 -56 -62 -44 -35 0
1000000 2 -24 0
1000000 24 -50 -59 -56 -45 0
1000000 5 -25 0
1000000 25 -41 -57 -35 0
1000000 8 -26 0
1000000 26 -50 -43 -36 0
1000000 6 -27 0
1000000 27 -64 -52 -59 -9 0
1000000 4 -28 0
1000000 28 -37 -46 -49 0
1000000 5 -29 0
1000000 29 -58 -54 0
1000000 6 -30 0
1000000 30 -49 -64 -52 -8 0
1000000 9 -31 0
1000000 31 -49 -56 -43 -51 -46 0
1000000 4 -32 0
1000000 32 -44 -50 -51 -56 -58 0
1000000 3 -33 0
1000000 33 -39 -37 -61 -51 -56 0
1000000 7 -34 0
1000000 34 -46 -41 -55 -52 0
1000000 -1 15 0
1000000 -2 16 17 24 0
1000000 -3 23 33 0
1000000 -4 28 32 11 0
1000000 -5 29 25 0
1000000 -6 30 27 0
1000000 -7 19 13 21 22 34 0
1000000 -8 26 20 12 14 0
1000000 -9 31 0
1000000 -10 18 0
1000000 35 69 0
1000000 36 76 0
1000000 37 74 0
1000000 38 70 0
1000000 39 68 0
1000000 40 67 0
1000000 41 79 0
1000000 42 74 0
1000000 43 71 0
1000000 44 78 0
1000000 45 66 0
1000000 46 74 0
1000000 47 66 0
1000000 48 69 0
1000000 49 65 0
1000000 50 68 0
1000000 51 77 0
1000000 52 70 0
1000000 53 68 0
1000000 54 73 0
1000000 55 66 0
1000000 56 75 0
1000000 57 72 0
1000000 58 78 0
1000000 59 77 0
1000000 60 67 0
1000000 61 70 0
1000000 62 72 0
1000000 63 77 0
1000000 64 71 0
1000000 -35 -69 0
1000000 -36 -76 0
1000000 -37 -74 0
1000000 -38 -70 0
1000000 -39 -68 0
1000000 -40 -67 0
1000000 -41 -79 0
1000000 -42 -74 0
1000000 -43 -71 0
1000000 -44 -78 0
1000000 -45 -66 0
1000000 -46 -74 0
1000000 -47 -66 0
1000000 -48 -69 0
1000000 -49 -65 0
1000000 -50 -68 0
1000000 -51 -77 0
1000000 -52 -70 0
1000000 -53 -68 0
1000000 -54 -73 0
1000000 -55 -66 0
1000000 -56 -75 0
1000000 -57 -72 0
1000000 -58 -78 0
1000000 -59 -77 0
1000000 -60 -67 0
1000000 -61 -70 0
1000000 -62 -72 0
1000000 -63 -77 0
1000000 -64 -71 0
8200 -65 0
8200 -66 0
5600 -67 0
8200 -68 0
9600 -69 0
7400 -70 0
6900 -71 0
7400 -72 0
8200 -73 0
6900 -74 0
7400 -75 0
7400 -76 0
6900 -77 0
7400 -78 0
7400 -79 0
4200 35 0
5000 36 0
4200 37 0
4200 38 0
3000 39 0
3000 40 0
3000 41 0
1000 42 0
3000 43 0
4200 44 0
4200 45 0
1000 46 0
5000 47 0
3000 48 0
5000 49 0
3000 50 0
3000 51 0
1400 52 0
4200 53 0
1000 54 0
4200 55 0
3000 56 0
5000 57 0
1400 58 0
1000 59 0
1400 60 0
4200 61 0
4200 62 0
1000 63 0
5000 64 0
9100 -15 0
12692 16 17 -24 0
1670 16 -17 24 0
13727 16 -17 -24 0
30060 -16 17 24 0
31329 -16 17 -24 0
30227 -16 -17 24 0
31433 -16 -17 -24 0
8604 23 -33 0
38240 -23 33 0
39961 -23 -33 0
20160 28 32 -11 0
13440 28 -32 11 0
27552 28 -32 -11 0
33600 -28 32 11 0
38640 -28 32 -11 0
36960 -28 -32 11 0
40488 -28 -32 -11 0
17290 29 -25 0
20475 -29 25 0
29985 -29 -25 0
17920 30 -27 0
20160 -30 27 0
30016 -30 -27 0
34125 19 13 21 22 -34 0
43225 19 13 21 -22 34 0
44931 19 13 21 -22 -34 0
27300 19 13 -21 22 34 0
40950 19 13 -21 22 -34 0
44590 19 13 -21 -22 34 0
45273 19 13 -21 -22 -34 0
40950 19 -13 21 22 34 0
44362 19 -13 21 22 -34 0
45273 19 -13 21 -22 34 0
45443 19 -13 21 -22 -34 0
43680 19 -13 -21 22 34 0
45045 19 -13 -21 22 -34 0
45409 19 -13 -21 -22 34 0
45477 19 -13 -21 -22 -34 0
13650 -19 13 21 22 34 0
37538 -19 13 21 22 -34 0
43907 -19 13 21 -22 34 0
45102 -19 13 21 -22 -34 0
32760 -19 13 -21 22 34 0
42315 -19 13 -21 22 -34 0
44863 -19 13 -21 -22 34 0
45341 -19 13 -21 -22 -34 0
42315 -19 -13 21 22 34 0
44704 -19 -13 21 22 -34 0
45341 -19 -13 21 -22 34 0
45460 -19 -13 21 -22 -34 0
44226 -19 -13 -21 22 34 0
45181 -19 -13 -21 22 -34 0
45436 -19 -13 -21 -22 34 0
45484 -19 -13 -21 -22 -34 0
9100 26 20 12 -14 0
18200 26 20 -12 14 0
23660 26 20 -12 -14 0
15925 26 -20 12 14 0
21840 26 -20 12 -14 0
27755 26 -20 -12 14 0
31304 26 -20 -12 -14 0
38675 -26 20 12 14 0
40040 -26 20 12 -14 0
41405 -26 20 -12 14 0
42224 -26 20 -12 -14 0
41064 -26 -20 12 14 0
41951 -26 -20 12 -14 0
42838 -26 -20 -12 14 0
43371 -26 -20 -12 -14 0
23380 -31 0
13360 -18 0
