p wcnf 79 231 1000000
1000000 2 -11 0
1000000 11 -46 -54 -57 -35 -58 0
1000000 4 -12 0
1000000 12 -36 -40 -37 -44 0
1000000 8 -13 0
1000000 13 -52 -61 -58 -62 0
1000000 6 -14 0
1000000 14 -40 -43 0
1000000 7 -15 0
1000000 15 -42 -38 0
1000000 9 -16 0
1000000 16 -60 -52 -51 0
1000000 10 -17 0
1000000 17 -43 -56 0
1000000 3 -18 0
1000000 18 -48 -54 -49 -60 0
1000000 10 -19 0
1000000 19 -59 -50 -39 -49 -40 0
1000000 8 -20 0
1000000 20 -52 -44 -63 -57 0
1000000 2 -21 0
1000000 21 -39 -35 -50 -3 0
1000000 3 -22 0
1000000 22 -55 -64 -47 -50 -58 0
1000000 9 -23 0
1000000 23 -59 -53 -44 0
1000000 5 -24 0
1000000 24 -60 -46 -48 0
1000000 3 -25 0
1000000 25 -39 -57 0
1000000 10 -26 0
1000000 26 -46 -54 -40 0
1000000 1 -27 0
1000000 27 -56 -38 -57 0
1000000 9 -28 0
1000000 28 -44 -43 -57 -49 -55 0
1000000 7 -29 0
1000000 29 -51 -35 -54 0
1000000 8 -30 0
1000000 30 -55 -37 0
1000000 9 -31 0
1000000 31 -36 -50 0
1000000 10 -32 0
1000000 32 -35 -45 0
1000000 4 -33 0
1000000 33 -42 -39 -35 -56 -38 0
1000000 1 -34 0
1000000 34 -48 -50 0
1000000 -1 27 34 0
1000000 -2 11 21 0
1000000 -3 18 22 25 0
1000000 -4 33 12 0
1000000 -5 24 0
1000000 -6 14 0
1000000 -7 15 29 0
1000000 -8 13 20 30 0
1000000 -9 16 31 28 23 0
1000000 -10 17 26 32 19 0
1000000 35 76 0
1000000 36 69 0
1000000 37 73 0
1000000 38 65 0
1000000 39 76 0
1000000 40 75 0
1000000 41 77 0
1000000 42 75 0
1000000 43 79 0
1000000 44 78 0
1000000 45 68 0
1000000 46 69 0
1000000 47 71 0
1000000 48 67 0
1000000 49 77 0
1000000 50 66 0
1000000 51 72 0
1000000 52 70 0
1000000 53 78 0
1000000 54 68 0
1000000 55 70 0
1000000 56 74 0
1000000 57 71 0
1000000 58 69 0
1000000 59 67 0
1000000 60 67 0
1000000 61 75 0
1000000 62 79 0
1000000 63 76 0
1000000 64 78 0
1000000 -35 -76 0
1000000 -36 -69 0
1000000 -37 -73 0
1000000 -38 -65 0
1000000 -39 -76 0
1000000 -40 -75 0
1000000 -41 -77 0
1000000 -42 -75 0
1000000 -43 -79 0
1000000 -44 -78 0
1000000 -45 -68 0
1000000 -46 -69 0
1000000 -47 -71 0
1000000 -48 -67 0
1000000 -49 -77 0
1000000 -50 -66 0
1000000 -51 -72 0
1000000 -52 -70 0
1000000 -53 -78 0
1000000 -54 -68 0
1000000 -55 -70 0
1000000 -56 -74 0
1000000 -57 -71 0
1000000 -58 -69 0
1000000 -59 -67 0
1000000 -60 -67 0
1000000 -61 -75 0
1000000 -62 -79 0
1000000 -63 -76 0
1000000 -64 -78 0
8900 -65 0
5200 -66 0
8700 -67 0
8600 -68 0
8700 -69 0
7700 -70 0
7700 -71 0
8600 -72 0
8700 -73 0
7700 -74 0
7700 -75 0
7700 -76 0
5200 -77 0
8700 -78 0
7700 -79 0
2100 35 0
3400 36 0
4800 37 0
2800 38 0
2800 39 0
3400 40 0
2100 41 0
2100 42 0
3400 43 0
2800 44 0
3400 45 0
2800 46 0
4800 47 0
3400 48 0
4800 49 0
4800 50 0
2800 51 0
2800 52 0
2800 53 0
2800 54 0
4800 55 0
2800 56 0
2100 57 0
2800 58 0
4500 59 0
3400 60 0
4500 61 0
3400 62 0
4800 63 0
2100 64 0
3400 27 -34 0
5440 -27 34 0
7480 -27 -34 0
2720 11 -21 0
10880 -11 21 0
11424 -11 -21 0
29700 18 22 -25 0
23760 18 -22 25 0
35640 18 -22 -25 0
13860 -18 22 25 0
33165 -18 22 -25 0
29304 -18 -22 25 0
37026 -18 -22 -25 0
12815 33 -12 0
16310 -33 12 0
20154 -33 -12 0
12920 -24 0
1250 -14 0
2448 15 -29 0
3400 -15 29 0
5236 -15 -29 0
5168 13 20 -30 0
12240 13 -20 30 0
12757 13 -20 -30 0
11560 -13 20 30 0
12335 -13 20 -30 0
13396 -13 -20 30 0
13474 -13 -20 -30 0
6120 16 31 28 -23 0
2040 16 31 -28 23 0
7242 16 31 -28 -23 0
2720 16 -31 28 23 0
7616 16 -31 28 -23 0
4352 16 -31 -28 23 0
8514 16 -31 -28 -23 0
10200 -16 31 28 23 0
11730 -16 31 28 -23 0
10710 -16 31 -28 23 0
12010 -16 31 -28 -23 0
10880 -16 -31 28 23 0
12104 -16 -31 28 -23 0
11288 -16 -31 -28 23 0
12328 -16 -31 -28 -23 0
9320 17 26 32 -19 0
2330 17 26 -32 19 0
10718 17 26 -32 -19 0
10485 17 -26 32 19 0
15611 17 -26 32 -19 0
11766 17 -26 -32 19 0
16380 17 -26 -32 -19 0
2330 -17 26 32 19 0
10718 -17 26 32 -19 0
4427 -17 26 -32 19 0
11976 -17 26 -32 -19 0
11766 -17 -26 32 19 0
16380 -17 -26 32 -19 0
12920 -17 -26 -32 19 0
17072 -17 -26 -32 -19 0
