p wcnf 79 235 1000000
1000000 3 -11 0
1000000 11 -49 -53 -59 -61 -6 0
1000000 4 -12 0
1000000 12 -48 -54 0
1000000 3 -13 0
1000000 13 -60 -58 0
1000000 9 -14 0
1000000 14 -39 -60 -51 -46 0
1000000 10 -15 0
1000000 15 -39 -47 -60 -52 0
1000000 7 -16 0
1000000 16 -43 -62 -40 0
1000000 7 -17 0
1000000 17 -62 -38 -51 -46 0
1000000 3 -18 0
1000000 18 -55 -49 -40 -8 0
1000000 2 -19 0
1000000 19 -49 -7 0
1000000 4 -20 0
1000000 20 -52 -56 -47 -57 -53 0
1000000 1 -21 0
1000000 21 -43 -38 -52 -59 0
1000000 5 -22 0
1000000 22 -63 -53 -50 -58 0
1000000 6 -23 0
1000000 23 -41 -36 -63 -9 0
1000000 2 -24 0
1000000 24 -36 -63 -52 -41 -10 0
1000000 1 -25 0
1000000 25 -52 -42 -44 0
1000000 8 -26 0
1000000 26 -51 -48 -49 -57 -53 0
1000000 9 -27 0
1000000 27 -35 -50 0
1000000 7 -28 0
1000000 28 -37 -44 -41 -39 -55 0
1000000 3 -29 0
1000000 29 -35 -46 -10 0
1000000 7 -30 0
1000000 30 -48 -36 -53 0
1000000 4 -31 0
1000000 31 -55 -47 -59 -41 0
1000000 4 -32 0
1000000 32 -63 -64 -47 -56 -42 0
1000000 8 -33 0
1000000 33 -42 -61 -50 0
1000000 10 -34 0
1000000 34 -54 -61 -50 0
1000000 -1 25 21 0
1000000 -2 19 24 0
1000000 -3 11 13 18 29 0
1000000 -4 31 20 12 32 0
1000000 -5 22 0
1000000 -6 23 0
1000000 -7 28 16 30 17 0
1000000 -8 26 33 0
1000000 -9 27 14 0
1000000 -10 34 15 0
1000000 35 76 0
1000000 36 68 0
1000000 37 74 0
1000000 38 79 0
1000000 39 65 0
1000000 40 72 0
1000000 41 75 0
1000000 42 70 0
1000000 43 66 0
1000000 44 74 0
1000000 45 72 0
1000000 46 75 0
1000000 47 71 0
1000000 48 67 0
1000000 49 79 0
1000000 50 69 0
1000000 51 73 0
1000000 52 77 0
1000000 53 74 0
1000000 54 79 0
1000000 55 71 0
1000000 56 65 0
1000000 57 72 0
1000000 58 77 0
1000000 59 73 0
1000000 60 69 0
1000000 61 73 0
1000000 62 78 0
1000000 63 71 0
1000000 64 67 0
1000000 -35 -76 0
1000000 -36 -68 0
1000000 -37 -74 0
1000000 -38 -79 0
1000000 -39 -65 0
1000000 -40 -72 0
1000000 -41 -75 0
1000000 -42 -70 0
1000000 -43 -66 0
1000000 -44 -74 0
1000000 -45 -72 0
1000000 -46 -75 0
1000000 -47 -71 0
1000000 -48 -67 0
1000000 -49 -79 0
1000000 -50 -69 0
1000000 -51 -73 0
1000000 -52 -77 0
1000000 -53 -74 0
1000000 -54 -79 0
1000000 -55 -71 0
1000000 -56 -65 0
1000000 -57 -72 0
1000000 -58 -77 0
1000000 -59 -73 0
1000000 -60 -69 0
1000000 -61 -73 0
1000000 -62 -78 0
1000000 -63 -71 0
1000000 -64 -67 0
7100 -65 0
8900 -66 0
7100 -67 0
7300 -68 0
7100 -69 0
5600 -70 0
5600 -71 0
7100 -72 0
8900 -73 0
7100 -74 0
5400 -75 0
7300 -76 0
5600 -77 0
7100 -78 0
5400 -79 0
2400 35 0
2400 36 0
4300 37 0
2400 38 0
3600 39 0
3600 40 0
4400 41 0
3600 42 0
4400 43 0
2900 44 0
2400 45 0
3600 46 0
2400 47 0
3600 48 0
4300 49 0
2900 50 0
2900 51 0
4400 52 0
3600 53 0
2900 54 0
4300 55 0
2900 56 0
4400 57 0
2900 58 0
2400 59 0
4400 60 0
3600 61 0
4300 62 0
2900 63 0
4300 64 0
3025 25 -21 0
110 -25 21 0
3075 -25 -21 0
12768 19 -24 0
5040 -19 24 0
15893 -19 -24 0
26880 11 13 18 -29 0
6912 11 13 -18 29 0
28954 11 13 -18 -29 0
7680 11 -13 18 29 0
29184 11 -13 18 -29 0
13210 11 -13 -18 29 0
30843 11 -13 -18 -29 0
32640 -11 13 18 29 0
36672 -11 13 18 -29 0
33677 -11 13 -18 29 0
36983 -11 13 -18 -29 0
33792 -11 -13 18 29 0
37018 -11 -13 18 -29 0
34621 -11 -13 -18 29 0
37266 -11 -13 -18 -29 0
26880 31 20 12 -32 0
3840 31 20 -12 32 0
28032 31 20 -12 -32 0
24960 31 -20 12 32 0
34368 31 -20 12 -32 0
26304 31 -20 -12 32 0
34771 31 -20 -12 -32 0
768 -31 20 12 32 0
27110 -31 20 12 -32 0
4531 -31 20 -12 32 0
28239 -31 20 -12 -32 0
25229 -31 -20 12 32 0
34449 -31 -20 12 -32 0
26546 -31 -20 -12 32 0
34844 -31 -20 -12 -32 0
27740 -22 0
26880 -23 0
6720 28 16 30 -17 0
12768 28 16 -30 17 0
16934 28 16 -30 -17 0
6048 28 -16 30 17 0
11558 28 -16 30 -17 0
16518 28 -16 -30 17 0
19934 28 -16 -30 -17 0
1680 -28 16 30 17 0
8064 -28 16 30 -17 0
13810 -28 16 -30 17 0
17768 -28 16 -30 -17 0
7426 -28 -16 30 17 0
12660 -28 -16 30 -17 0
17372 -28 -16 -30 17 0
20617 -28 -16 -30 -17 0
32640 26 -33 0
32640 -26 33 0
37536 -26 -33 0
20160 27 -14 0
28560 -27 14 0
31584 -27 -14 0
24820 34 -15 0
584 -34 15 0
24908 -34 -15 0
