p wcnf 79 233 1000000
1000000 8 -11 0
1000000 11 -51 -56 -10 0
1000000 1 -12 0
1000000 12 -53 -36 -55 -37 -3 0
1000000 6 -13 0
1000000 13 -47 -56 -46 0
1000000 9 -14 0
1000000 14 -57 -44 0
1000000 8 -15 0
1000000 15 -44 -53 -61 -59 -45 0
1000000 9 -16 0
1000000 16 -56 -46 -10 0
1000000 10 -17 0
1000000 17 -41 -54 -60 -58 0
1000000 7 -18 0
1000000 18 -37 -38 -40 -47 0
1000000 10 -19 0
1000000 19 -50 -45 -53 -40 0
1000000 5 -20 0
1000000 20 -64 -51 -49 -39 -47 0
1000000 4 -21 0
1000000 21 -49 -58 0
1000000 3 -22 0
1000000 22 -54 -57 -64 -61 -56 0
1000000 2 -23 0
1000000 23 -38 -48 -37 0
1000000 4 -24 0
1000000 24 -63 -47 -60 -44 0
1000000 5 -25 0
1000000 25 -51 -43 -48 -35 0
1000000 8 -26 0
1000000 26 -58 -39 -55 -57 -60 0
1000000 5 -27 0
1000000 27 -42 -40 -56 0
1000000 6 -28 0
1000000 28 -58 -46 -49 -10 0
1000000 5 -29 0
1000000 29 -44 -54 0
1000000 3 -30 0
1000000 30 -50 -6 0
1000000 10 -31 0
1000000 31 -42 -50 -44 -59 -58 0
1000000 8 -32 0
1000000 32 -55 -44 -10 0
1000000 9 -33 0
1000000 33 -39 -55 -43 0
1000000 6 -34 0
1000000 34 -54 -41 -39 -44 0
1000000 -1 12 0
1000000 -2 23 0
1000000 -3 30 22 0
1000000 -4 21 24 0
1000000 -5 20 29 25 27 0
1000000 -6 13 34 28 0
1000000 -7 18 0
1000000 -8 32 11 26 15 0
1000000 -9 33 16 14 0
1000000 -10 17 19 31 0
1000000 35 70 0
1000000 36 76 0
1000000 37 70 0
1000000 38 74 0
1000000 39 72 0
1000000 40 79 0
1000000 41 75 0
1000000 42 75 0
1000000 43 79 0
1000000 44 65 0
1000000 45 78 0
1000000 46 66 0
1000000 47 77 0
1000000 48 73 0
1000000 49 77 0
1000000 50 68 0
1000000 51 65 0
1000000 52 78 0
1000000 53 65 0
1000000 54 71 0
1000000 55 72 0
1000000 56 69 0
1000000 57 66 0
1000000 58 69 0
1000000 59 68 0
1000000 60 76 0
1000000 61 68 0
1000000 62 76 0
1000000 63 67 0
1000000 64 79 0
1000000 -35 -70 0
1000000 -36 -76 0
1000000 -37 -70 0
1000000 -38 -74 0
1000000 -39 -72 0
1000000 -40 -79 0
1000000 -41 -75 0
1000000 -42 -75 0
1000000 -43 -79 0
1000000 -44 -65 0
1000000 -45 -78 0
1000000 -46 -66 0
1000000 -47 -77 0
1000000 -48 -73 0
1000000 -49 -77 0
1000000 -50 -68 0
1000000 -51 -65 0
1000000 -52 -78 0
1000000 -53 -65 0
1000000 -54 -71 0
1000000 -55 -72 0
1000000 -56 -69 0
1000000 -57 -66 0
1000000 -58 -69 0
1000000 -59 -68 0
1000000 -60 -76 0
1000000 -61 -68 0
1000000 -62 -76 0
1000000 -63 -67 0
1000000 -64 -79 0
5000 -65 0
9300 -66 0
9300 -67 0
9300 -68 0
9100 -69 0
8500 -70 0
9300 -71 0
9100 -72 0
8500 -73 0
9100 -74 0
5000 -75 0
9100 -76 0
9300 -77 0
9100 -78 0
8500 -79 0
4600 35 0
2100 36 0
1000 37 0
3900 38 0
3900 39 0
1000 40 0
2100 41 0
4600 42 0
4000 43 0
3900 44 0
4000 45 0
4600 46 0
4600 47 0
4000 48 0
4000 49 0
4600 50 0
1000 51 0
4000 52 0
4600 53 0
4600 54 0
4600 55 0
2100 56 0
1000 57 0
4000 58 0
4000 59 0
4000 60 0
1000 61 0
4000 62 0
3900 63 0
4000 64 0
2470 -12 0
780 -23 0
902 30 -22 0
29315 -30 22 0
29631 -30 -22 0
902 21 -24 0
22550 -21 24 0
23001 -21 -24 0
2275 20 29 25 -27 0
2080 20 29 -25 27 0
3627 20 29 -25 -27 0
5200 20 -29 25 27 0
5655 20 -29 25 -27 0
5616 20 -29 -25 27 0
5925 20 -29 -25 -27 0
4550 -20 29 25 27 0
5232 -20 29 25 -27 0
5174 -20 29 -25 27 0
5638 -20 29 -25 -27 0
6110 -20 -29 25 27 0
6246 -20 -29 25 -27 0
6235 -20 -29 -25 27 0
6328 -20 -29 -25 -27 0
31360 13 34 -28 0
17920 13 -34 28 0
36736 13 -34 -28 0
2240 -13 34 28 0
32032 -13 34 -28 0
19264 -13 -34 28 0
37139 -13 -34 -28 0
29315 -18 0
33825 32 11 26 -15 0
902 32 11 -26 15 0
34050 32 11 -26 -15 0
11275 32 -11 26 15 0
36644 32 -11 26 -15 0
11952 32 -11 -26 15 0
36813 32 -11 -26 -15 0
22550 -32 11 26 15 0
39462 -32 11 26 -15 0
23001 -32 11 -26 15 0
39575 -32 11 -26 -15 0
28188 -32 -11 26 15 0
40872 -32 -11 26 -15 0
28526 -32 -11 -26 15 0
40956 -32 -11 -26 -15 0
29495 33 16 -14 0
22555 33 -16 14 0
32878 33 -16 -14 0
13880 -33 16 14 0
31577 -33 16 -14 0
27413 -33 -16 14 0
33607 -33 -16 -14 0
33600 17 19 -31 0
35840 17 -19 31 0
42560 17 -19 -31 0
24640 -17 19 31 0
39760 -17 19 -31 0
40768 -17 -19 31 0
43792 -17 -19 -31 0
