p wcnf 79 227 1000000
1000000 4 -11 0
1000000 11 -49 -37 -61 -43 0
1000000 7 -12 0
1000000 12 -49 -50 -51 -56 0
1000000 4 -13 0
1000000 13 -39 -50 -37 -5 0
1000000 8 -14 0
1000000 14 -36 -63 -64 -46 0
1000000 2 -15 0
1000000 15 -39 -58 -45 -41 0
1000000 10 -16 0
1000000 16 -54 -57 -49 -40 -51 0
1000000 8 -17 0
1000000 17 -57 -53 -9 0
1000000 10 -18 0
1000000 18 -43 -45 -41 -36 -60 0
1000000 10 -19 0
1000000 19 -44 -50 -41 0
1000000 5 -20 0
1000000 20 -59 -43 -58 -51 0
1000000 1 -21 0
1000000 21 -38 -36 -64 -37 -61 0
1000000 9 -22 0
1000000 22 -36 -57 -42 -38 -10 0
1000000 3 -23 0
1000000 23 -43 -41 -42 -55 0
1000000 8 -24 0
1000000 24 -40 -53 -35 -54 -49 0
1000000 6 -25 0
1000000 25 -59 -48 0
1000000 4 -26 0
1000000 26 -35 -38 -40 -9 0
1000000 5 -27 0
1000000 27 -36 -61 -50 -62 0
1000000 6 -28 0
1000000 28 -54 -47 0
1000000 7 -29 0
1000000 29 -41 -46 -63 -47 0
1000000 3 -30 0
1000000 30 -48 -36 -60 -61 -50 0
1000000 1 -31 0
1000000 31 -40 -63 -35 -54 -45 0
1000000 6 -32 0
1000000 32 -40 -63 0
1000000 4 -33 0
1000000 33 -40 -60 -35 -43 0
1000000 1 -34 0
1000000 34 -57 -35 0
1000000 -1 34 31 21 0
1000000 -2 15 0
1000000 -3 23 30 0
1000000 -4 26 33 11 13 0
1000000 -5 20 27 0
1000000 -6 32 25 28 0
1000000 -7 29 12 0
1000000 -8 24 17 14 0
1000000 -9 22 0
1000000 -10 18 16 19 0
1000000 35 68 0
1000000 36 70 0
1000000 37 66 0
1000000 38 73 0
1000000 39 65 0
1000000 40 74 0
1000000 41 69 0
1000000 42 76 0
1000000 43 79 0
1000000 44 69 0
1000000 45 72 0
1000000 46 68 0
1000000 47 65 0
1000000 48 79 0
1000000 49 78 0
1000000 50 73 0
1000000 51 67 0
1000000 52 67 0
1000000 53 75 0
1000000 54 66 0
1000000 55 76 0
1000000 56 76 0
1000000 57 71 0
1000000 58 72 0
1000000 59 73 0
1000000 60 70 0
1000000 61 69 0
1000000 62 77 0
1000000 63 78 0
1000000 64 68 0
1000000 -35 -68 0
1000000 -36 -70 0
1000000 -37 -66 0
1000000 -38 -73 0
1000000 -39 -65 0
1000000 -40 -74 0
1000000 -41 -69 0
1000000 -42 -76 0
1000000 -43 -79 0
1000000 -44 -69 0
1000000 -45 -72 0
1000000 -46 -68 0
1000000 -47 -65 0
1000000 -48 -79 0
1000000 -49 -78 0
1000000 -50 -73 0
1000000 -51 -67 0
1000000 -52 -67 0
1000000 -53 -75 0
1000000 -54 -66 0
1000000 -55 -76 0
1000000 -56 -76 0
1000000 -57 -71 0
1000000 -58 -72 0
1000000 -59 -73 0
1000000 -60 -70 0
1000000 -61 -69 0
1000000 -62 -77 0
1000000 -63 -78 0
1000000 -64 -68 0
6100 -65 0
9700 -66 0
9700 -67 0
7900 -68 0
9700 -69 0
8100 -70 0
8100 -71 0
8300 -72 0
8100 -73 0
9700 -74 0
8300 -75 0
7900 -76 0
9700 -77 0
8300 -78 0
9700 -79 0
4500 35 0
1600 36 0
3800 37 0
1600 38 0
4500 39 0
2600 40 0
4500 41 0
2600 42 0
2600 43 0
2800 44 0
2800 45 0
3800 46 0
2600 47 0
2600 48 0
3800 49 0
2600 50 0
4500 51 0
2600 52 0
1600 53 0
4500 54 0
2600 55 0
3800 56 0
1600 57 0
1600 58 0
2800 59 0
2600 60 0
2600 61 0
3800 62 0
2600 63 0
3800 64 0
8360 34 31 -21 0
11495 34 -31 21 0
15257 34 -31 -21 0
1045 -34 31 21 0
8987 -34 31 -21 0
11965 -34 -31 21 0
15539 -34 -31 -21 0
2752 -15 0
7942 23 -30 0
6688 -23 30 0
12089 -23 -30 0
5632 26 33 11 -13 0
13200 26 33 -11 13 0
14608 26 33 -11 -13 0
7920 26 -33 11 13 0
11018 26 -33 11 -13 0
15180 26 -33 -11 13 0
15954 26 -33 -11 -13 0
5280 -26 33 11 13 0
9222 -26 33 11 -13 0
14520 -26 33 -11 13 0
15506 -26 33 -11 -13 0
10824 -26 -33 11 13 0
12992 -26 -33 11 -13 0
15906 -26 -33 -11 13 0
16448 -26 -33 -11 -13 0
172 20 -27 0
3268 -20 27 0
3375 -20 -27 0
13200 32 25 -28 0
7040 32 -25 28 0
14960 32 -25 -28 0
13200 -32 25 28 0
16500 -32 25 -28 0
14960 -32 -25 28 0
16940 -32 -25 -28 0
14960 29 -12 0
3264 -29 12 0
16429 -29 -12 0
1720 24 17 -14 0
1720 24 -17 14 0
3096 24 -17 -14 0
860 -24 17 14 0
2408 -24 17 -14 0
2408 -24 -17 14 0
3646 -24 -17 -14 0
1760 -22 0
17765 18 16 -19 0
2090 18 -16 19 0
18078 18 -16 -19 0
7315 -18 16 19 0
18862 -18 16 -19 0
8673 -18 -16 19 0
19066 -18 -16 -19 0
