p wcnf 79 221 1000000
1000000 2 -11 0
1000000 11 -54 -40 -47 -60 -5 0
1000000 1 -12 0
1000000 12 -54 -51 -62 0
1000000 7 -13 0
1000000 13 -57 -53 -59 -48 -10 0
1000000 2 -14 0
1000000 14 -54 -39 -53 -52 -59 0
1000000 9 -15 0
1000000 15 -36 -52 -59 -10 0
1000000 8 -16 0
1000000 16 -64 -52 -51 0
1000000 1 -17 0
1000000 17 -57 -49 -53 -9 0
1000000 10 -18 0
1000000 18 -38 -63 -40 -60 0
1000000 3 -19 0
1000000 19 -51 -62 -40 0
1000000 9 -20 0
1000000 20 -58 -39 0
1000000 5 -21 0
1000000 21 -45 -40 -64 -60 -61 0
1000000 6 -22 0
1000000 22 -45 -62 -39 -55 -49 0
1000000 3 -23 0
1000000 23 -62 -7 0
1000000 4 -24 0
1000000 24 -63 -52 -45 -58 -6 0
1000000 5 -25 0
1000000 25 -38 -40 -63 -64 -9 0
1000000 10 -26 0
1000000 26 -54 -60 0
1000000 8 -27 0
1000000 27 -60 -44 -53 -51 0
1000000 5 -28 0
1000000 28 -58 -41 -57 0
1000000 8 -29 0
1000000 29 -58 -41 -62 -42 -60 0
1000000 10 -30 0
1000000 30 -56 -43 -53 0
1000000 3 -31 0
1000000 31 -53 -59 -35 -41 0
1000000 1 -32 0
1000000 32 -36 -54 -3 0
1000000 7 -33 0
1000000 33 -57 -40 -35 -43 -41 0
1000000 4 -34 0
1000000 34 -58 -45 0
1000000 -1 12 32 17 0
1000000 -2 14 11 0
1000000 -3 23 31 19 0
1000000 -4 34 24 0
1000000 -5 21 25 28 0
1000000 -6 22 0
1000000 -7 13 33 0
1000000 -8 16 29 27 0
1000000 -9 20 15 0
1000000 -10 18 26 30 0
1000000 35 79 0
1000000 36 78 0
1000000 37 76 0
1000000 38 72 0
1000000 39 65 0
1000000 40 66 0
1000000 41 66 0
1000000 42 71 0
1000000 43 76 0
1000000 44 73 0
1000000 45 70 0
1000000 46 73 0
1000000 47 77 0
1000000 48 70 0
1000000 49 77 0
1000000 50 76 0
1000000 51 75 0
1000000 52 71 0
1000000 53 71 0
1000000 54 79 0
1000000 55 75 0
1000000 56 70 0
1000000 57 69 0
1000000 58 67 0
1000000 59 75 0
1000000 60 74 0
1000000 61 73 0
1000000 62 69 0
1000000 63 68 0
1000000 64 68 0
1000000 -35 -79 0
1000000 -36 -78 0
1000000 -37 -76 0
1000000 -38 -72 0
1000000 -39 -65 0
1000000 -40 -66 0
1000000 -41 -66 0
1000000 -42 -71 0
1000000 -43 -76 0
1000000 -44 -73 0
1000000 -45 -70 0
1000000 -46 -73 0
1000000 -47 -77 0
1000000 -48 -70 0
1000000 -49 -77 0
1000000 -50 -76 0
1000000 -51 -75 0
1000000 -52 -71 0
1000000 -53 -71 0
1000000 -54 -79 0
1000000 -55 -75 0
1000000 -56 -70 0
1000000 -57 -69 0
1000000 -58 -67 0
1000000 -59 -75 0
1000000 -60 -74 0
1000000 -61 -73 0
1000000 -62 -69 0
1000000 -63 -68 0
1000000 -64 -68 0
5900 -65 0
5600 -66 0
5100 -67 0
5100 -68 0
5900 -69 0
5700 -70 0
5700 -71 0
5100 -72 0
5700 -73 0
5100 -74 0
5600 -75 0
5100 -76 0
6000 -77 0
5900 -78 0
5900 -79 0
3500 35 0
1800 36 0
3500 37 0
2400 38 0
1800 39 0
1000 40 0
2400 41 0
3500 42 0
1000 43 0
3500 44 0
3500 45 0
1800 46 0
1000 47 0
2400 48 0
2400 49 0
3500 50 0
2400 51 0
2400 52 0
3500 53 0
3500 54 0
2400 55 0
2400 56 0
1000 57 0
1800 58 0
1800 59 0
1000 60 0
1800 61 0
1000 62 0
1800 63 0
3500 64 0
2700 12 32 -17 0
900 12 -32 17 0
3195 12 -32 -17 0
4500 -12 32 17 0
5175 -12 32 -17 0
4725 -12 -32 17 0
5299 -12 -32 -17 0
755 14 -11 0
2718 -14 11 0
3337 -14 -11 0
600 23 31 -19 0
4800 23 -31 19 0
4920 23 -31 -19 0
1200 -23 31 19 0
1680 -23 31 -19 0
5040 -23 -31 19 0
5136 -23 -31 -19 0
5328 34 -24 0
6660 -34 24 0
11189 -34 -24 0
7550 21 25 -28 0
755 21 -25 28 0
7928 21 -25 -28 0
11325 -21 25 28 0
13212 -21 25 -28 0
11514 -21 -25 28 0
13307 -21 -25 -28 0
32240 -22 0
10600 13 -33 0
5088 -13 33 0
14416 -13 -33 0
36040 16 29 -27 0
27560 16 -29 27 0
40174 16 -29 -27 0
27560 -16 29 27 0
40174 -16 29 -27 0
37206 -16 -29 27 0
41621 -16 -29 -27 0
4530 20 -15 0
5738 -20 15 0
8547 -20 -15 0
24420 18 26 -30 0
42180 18 -26 30 0
43401 18 -26 -30 0
15540 -18 26 30 0
31413 -18 26 -30 0
42957 -18 -26 30 0
43751 -18 -26 -30 0
