p wcnf 79 245 1000000
1000000 3 -11 0
1000000 11 -64 -37 0
1000000 5 -12 0
1000000 12 -57 -53 -35 -38 -41 0
1000000 10 -13 0
1000000 13 -40 -47 -44 -35 -38 0
1000000 2 -14 0
1000000 14 -48 -54 -45 -41 -43 0
1000000 8 -15 0
1000000 15 -42 -56 0
1000000 10 -16 0
1000000 16 -36 -64 -35 0
1000000 6 -17 0
1000000 17 -45 -54 -64 -37 -44 0
1000000 9 -18 0
1000000 18 -52 -39 -42 0
1000000 9 -19 0
1000000 19 -61 -54 -57 -55 0
1000000 2 -20 0
1000000 20 -64 -62 0
1000000 2 -21 0
1000000 21 -62 -55 -44 -10 0
1000000 1 -22 0
1000000 22 -41 -63 -37 -35 -38 0
1000000 2 -23 0
1000000 23 -36 -64 0
1000000 3 -24 0
1000000 24 -38 -48 -49 -39 0
1000000 5 -25 0
1000000 25 -51 -36 0
1000000 2 -26 0
1000000 26 -37 -48 -60 0
1000000 7 -27 0
1000000 27 -42 -47 -60 -43 -41 0
1000000 6 -28 0
1000000 28 -44 -7 0
1000000 3 -29 0
1000000 29 -37 -51 -63 -64 -5 0
1000000 7 -30 0
1000000 30 -63 -59 0
1000000 10 -31 0
1000000 31 -49 -64 0
1000000 4 -32 0
1000000 32 -55 -63 -53 0
1000000 6 -33 0
1000000 33 -57 -39 -64 -37 -35 0
1000000 6 -34 0
1000000 34 -48 -61 -44 0
1000000 -1 22 0
1000000 -2 26 20 14 23 21 0
1000000 -3 11 24 29 0
1000000 -4 32 0
1000000 -5 12 25 0
1000000 -6 33 17 34 28 0
1000000 -7 30 27 0
1000000 -8 15 0
1000000 -9 19 18 0
1000000 -10 13 16 31 0
1000000 35 76 0
1000000 36 76 0
1000000 37 78 0
1000000 38 72 0
1000000 39 71 0
1000000 40 77 0
1000000 41 78 0
1000000 42 69 0
1000000 43 70 0
1000000 44 74 0
1000000 45 68 0
1000000 46 73 0
1000000 47 75 0
1000000 48 77 0
1000000 49 67 0
1000000 50 75 0
1000000 51 74 0
1000000 52 72 0
1000000 53 65 0
1000000 54 69 0
1000000 55 75 0
1000000 56 79 0
1000000 57 65 0
1000000 58 78 0
1000000 59 73 0
1000000 60 66 0
1000000 61 72 0
1000000 62 68 0
1000000 63 76 0
1000000 64 70 0
1000000 -35 -76 0
1000000 -36 -76 0
1000000 -37 -78 0
1000000 -38 -72 0
1000000 -39 -71 0
1000000 -40 -77 0
1000000 -41 -78 0
1000000 -42 -69 0
1000000 -43 -70 0
1000000 -44 -74 0
1000000 -45 -68 0
1000000 -46 -73 0
1000000 -47 -75 0
1000000 -48 -77 0
1000000 -49 -67 0
1000000 -50 -75 0
1000000 -51 -74 0
1000000 -52 -72 0
1000000 -53 -65 0
1000000 -54 -69 0
1000000 -55 -75 0
1000000 -56 -79 0
1000000 -57 -65 0
1000000 -58 -78 0
1000000 -59 -73 0
1000000 -60 -66 0
1000000 -61 -72 0
1000000 -62 -68 0
1000000 -63 -76 0
1000000 -64 -70 0
5100 -65 0
6400 -66 0
5000 -67 0
5100 -68 0
8600 -69 0
5100 -70 0
5000 -71 0
8600 -72 0
5100 -73 0
6400 -74 0
6400 -75 0
5100 -76 0
5000 -77 0
5700 -78 0
5100 -79 0
3400 35 0
3400 36 0
2400 37 0
2400 38 0
2800 39 0
2800 40 0
2100 41 0
2100 42 0
2400 43 0
2400 44 0
3400 45 0
2800 46 0
1700 47 0
3400 48 0
2100 49 0
1700 50 0
2100 51 0
1700 52 0
2800 53 0
2800 54 0
2800 55 0
2800 56 0
3400 57 0
3400 58 0
2800 59 0
2100 60 0
2400 61 0
1700 62 0
3400 63 0
3400 64 0
7770 -22 0
7365 26 20 14 23 -21 0
46645 26 20 14 -23 21 0
47013 26 20 14 -23 -21 0
18658 26 20 -14 23 21 0
23224 26 20 -14 23 -21 0
47578 26 20 -14 -23 21 0
47806 26 20 -14 -23 -21 0
9820 26 -20 14 23 21 0
15712 26 -20 14 23 -21 0
47136 26 -20 14 -23 21 0
47431 26 -20 14 -23 -21 0
24746 26 -20 -14 23 21 0
28399 26 -20 -14 23 -21 0
47882 26 -20 -14 -23 21 0
48065 26 -20 -14 -23 -21 0
2455 -26 20 14 23 21 0
9452 -26 20 14 23 -21 0
46768 -26 20 14 -23 21 0
47118 -26 20 14 -23 -21 0
20180 -26 20 -14 23 21 0
24518 -26 20 -14 23 -21 0
47654 -26 20 -14 -23 21 0
47871 -26 20 -14 -23 -21 0
11784 -26 -20 14 23 21 0
17381 -26 -20 14 23 -21 0
47234 -26 -20 14 -23 21 0
47514 -26 -20 14 -23 -21 0
25964 -26 -20 -14 23 21 0
29434 -26 -20 -14 23 -21 0
47943 -26 -20 -14 -23 21 0
48117 -26 -20 -14 -23 -21 0
14715 11 24 -29 0
8175 11 -24 29 0
19211 11 -24 -29 0
26160 -11 24 29 0
29103 -11 24 -29 0
27795 -11 -24 29 0
30002 -11 -24 -29 0
38855 -32 0
1635 12 -25 0
10464 -12 25 0
11576 -12 -25 0
27795 33 17 34 -28 0
29430 33 17 -34 28 0
32209 33 17 -34 -28 0
17985 33 -17 34 28 0
30493 33 -17 34 -28 0
31229 33 -17 -34 28 0
32479 33 -17 -34 -28 0
29430 -33 17 34 28 0
32209 -33 17 34 -28 0
32373 -33 17 -34 28 0
32651 -33 17 -34 -28 0
31229 -33 -17 34 28 0
32479 -33 -17 34 -28 0
32553 -33 -17 -34 28 0
32678 -33 -17 -34 -28 0
41735 30 -27 0
44190 -30 27 0
48363 -30 -27 0
19640 -15 0
14245 19 -18 0
5180 -19 18 0
16576 -19 -18 0
1635 13 16 -31 0
3924 13 -16 31 0
5363 13 -16 -31 0
1635 -13 16 31 0
3188 -13 16 -31 0
5363 -13 -16 31 0
6730 -13 -16 -31 0
