p wcnf 79 221 1000000
1000000 5 -11 0
1000000 11 -36 -61 0
1000000 2 -12 0
1000000 12 -49 -60 -44 -61 -43 0
1000000 8 -13 0
1000000 13 -60 -61 -35 0
1000000 7 -14 0
1000000 14 -60 -8 0
1000000 10 -15 0
1000000 15 -57 -37 -44 0
1000000 6 -16 0
1000000 16 -48 -42 -55 -52 -59 0
1000000 4 -17 0
1000000 17 -54 -64 -44 0
1000000 4 -18 0
1000000 18 -50 -53 0
1000000 10 -19 0
1000000 19 -39 -53 -64 0
1000000 6 -20 0
1000000 20 -44 -61 -38 -56 -53 0
1000000 1 -21 0
1000000 21 -38 -57 -58 -8 0
1000000 2 -22 0
1000000 22 -45 -41 -64 -35 -3 0
1000000 3 -23 0
1000000 23 -47 -9 0
1000000 4 -24 0
1000000 24 -48 -49 0
1000000 9 -25 0
1000000 25 -39 -37 0
1000000 3 -26 0
1000000 26 -59 -43 -60 0
1000000 8 -27 0
1000000 27 -40 -60 -52 0
1000000 2 -28 0
1000000 28 -60 -58 -62 0
1000000 1 -29 0
1000000 29 -53 -10 0
1000000 9 -30 0
1000000 30 -43 -58 -63 -61 0
1000000 1 -31 0
1000000 31 -49 -50 -59 -56 0
1000000 9 -32 0
1000000 32 -39 -36 -60 -51 -49 0
1000000 7 -33 0
1000000 33 -42 -40 -60 -52 0
1000000 7 -34 0
1000000 34 -58 -51 -47 0
1000000 -1 29 31 21 0
1000000 -2 12 22 28 0
1000000 -3 23 26 0
1000000 -4 17 18 24 0
1000000 -5 11 0
1000000 -6 16 20 0
1000000 -7 33 14 34 0
1000000 -8 13 27 0
1000000 -9 30 25 32 0
1000000 -10 15 19 0
1000000 35 67 0
1000000 36 71 0
1000000 37 77 0
1000000 38 69 0
1000000 39 70 0
1000000 40 74 0
1000000 41 77 0
1000000 42 67 0
1000000 43 66 0
1000000 44 65 0
1000000 45 78 0
1000000 46 73 0
1000000 47 65 0
1000000 48 68 0
1000000 49 67 0
1000000 50 70 0
1000000 51 78 0
1000000 52 66 0
1000000 53 79 0
1000000 54 74 0
1000000 55 69 0
1000000 56 72 0
1000000 57 66 0
1000000 58 79 0
1000000 59 76 0
1000000 60 75 0
1000000 61 73 0
1000000 62 74 0
1000000 63 71 0
1000000 64 72 0
1000000 -35 -67 0
1000000 -36 -71 0
1000000 -37 -77 0
1000000 -38 -69 0
1000000 -39 -70 0
1000000 -40 -74 0
1000000 -41 -77 0
1000000 -42 -67 0
1000000 -43 -66 0
1000000 -44 -65 0
1000000 -45 -78 0
1000000 -46 -73 0
1000000 -47 -65 0
1000000 -48 -68 0
1000000 -49 -67 0
1000000 -50 -70 0
1000000 -51 -78 0
1000000 -52 -66 0
1000000 -53 -79 0
1000000 -54 -74 0
1000000 -55 -69 0
1000000 -56 -72 0
1000000 -57 -66 0
1000000 -58 -79 0
1000000 -59 -76 0
1000000 -60 -75 0
1000000 -61 -73 0
1000000 -62 -74 0
1000000 -63 -71 0
1000000 -64 -72 0
9600 -65 0
8000 -66 0
9300 -67 0
6600 -68 0
9300 -69 0
8000 -70 0
6600 -71 0
9600 -72 0
6600 -73 0
7700 -74 0
7700 -75 0
7700 -76 0
9300 -77 0
6600 -78 0
9300 -79 0
4200 35 0
4800 36 0
4700 37 0
1700 38 0
4200 39 0
4200 40 0
4700 41 0
4700 42 0
1700 43 0
1700 44 0
4200 45 0
4800 46 0
4800 47 0
4800 48 0
2500 49 0
2500 50 0
1700 51 0
4700 52 0
4700 53 0
4700 54 0
4700 55 0
2500 56 0
2500 57 0
4700 58 0
4700 59 0
4800 60 0
4200 61 0
4200 62 0
2500 63 0
4200 64 0
6045 29 31 -21 0
18135 29 -31 21 0
21460 29 -31 -21 0
4030 -29 31 21 0
9470 -29 31 -21 0
20351 -29 -31 21 0
23344 -29 -31 -21 0
15104 12 22 -28 0
5664 12 -22 28 0
18956 12 -22 -28 0
40120 -12 22 28 0
42386 -12 22 -28 0
40970 -12 -22 28 0
42963 -12 -22 -28 0
35400 23 -26 0
944 -23 26 0
35636 -23 -26 0
23595 17 18 -24 0
30030 17 -18 24 0
37108 17 -18 -24 0
6435 -17 18 24 0
26491 -17 18 -24 0
31961 -17 -18 24 0
37977 -17 -18 -24 0
38880 -11 0
15314 16 -20 0
32240 -16 20 0
35303 -16 -20 0
21240 33 14 -34 0
944 33 -14 34 0
21759 33 -14 -34 0
18880 -33 14 34 0
31624 -33 14 -34 0
19446 -33 -14 34 0
31936 -33 -14 -34 0
25920 13 -27 0
18720 -13 27 0
27792 -13 -27 0
19440 30 25 -32 0
17280 30 -25 32 0
28944 30 -25 -32 0
8640 -30 25 32 0
24192 -30 25 -32 0
22464 -30 -25 32 0
31795 -30 -25 -32 0
30240 15 -19 0
30240 -15 19 0
39312 -15 -19 0
