p wcnf 79 239 1000000
1000000 8 -11 0
1000000 11 -62 -10 0
1000000 4 -12 0
1000000 12 -44 -43 0
1000000 9 -13 0
1000000 13 -64 -51 -58 -46 0
1000000 8 -14 0
1000000 14 -62 -37 -58 0
1000000 9 -15 0
1000000 15 -40 -61 -62 0
1000000 6 -16 0
1000000 16 -55 -64 -8 0
1000000 3 -17 0
1000000 17 -38 -10 0
1000000 5 -18 0
1000000 18 -35 -49 0
1000000 7 -19 0
1000000 19 -37 -44 -53 -63 0
1000000 5 -20 0
1000000 20 -35 -45 -41 -55 -57 0
1000000 2 -21 0
1000000 21 -42 -39 -52 -50 -59 0
1000000 10 -22 0
1000000 22 -36 -44 0
1000000 6 -23 0
1000000 23 -57 -42 -39 0
1000000 9 -24 0
1000000 24 -42 -41 -51 -39 0
1000000 1 -25 0
1000000 25 -52 -62 -46 -10 0
1000000 6 -26 0
1000000 26 -49 -63 0
1000000 2 -27 0
1000000 27 -42 -53 -6 0
1000000 1 -28 0
1000000 28 -60 -44 -38 -39 0
1000000 3 -29 0
1000000 29 -43 -41 -38 -55 0
1000000 1 -30 0
1000000 30 -46 -48 -62 0
1000000 9 -31 0
1000000 31 -43 -45 0
1000000 9 -32 0
1000000 32 -47 -60 -52 -38 -49 0
1000000 10 -33 0
1000000 33 -40 -55 -37 -58 -38 0
1000000 2 -34 0
1000000 34 -39 -57 -60 -37 0
1000000 -1 25 28 30 0
1000000 -2 27 34 21 0
1000000 -3 17 29 0
1000000 -4 12 0
1000000 -5 18 20 0
1000000 -6 16 26 23 0
1000000 -7 19 0
1000000 -8 11 14 0
1000000 -9 31 15 32 24 13 0
1000000 -10 33 22 0
1000000 35 68 0
1000000 36 79 0
1000000 37 74 0
1000000 38 71 0
1000000 39 71 0
1000000 40 69 0
1000000 41 77 0
1000000 42 70 0
1000000 43 73 0
1000000 44 75 0
1000000 45 72 0
1000000 46 73 0
1000000 47 78 0
1000000 48 76 0
1000000 49 65 0
1000000 50 77 0
1000000 51 70 0
1000000 52 67 0
1000000 53 78 0
1000000 54 75 0
1000000 55 77 0
1000000 56 74 0
1000000 57 65 0
1000000 58 79 0
1000000 59 66 0
1000000 60 72 0
1000000 61 66 0
1000000 62 74 0
1000000 63 72 0
1000000 64 75 0
1000000 -35 -68 0
1000000 -36 -79 0
1000000 -37 -74 0
1000000 -38 -71 0
1000000 -39 -71 0
1000000 -40 -69 0
1000000 -41 -77 0
1000000 -42 -70 0
1000000 -43 -73 0
1000000 -44 -75 0
1000000 -45 -72 0
1000000 -46 -73 0
1000000 -47 -78 0
1000000 -48 -76 0
1000000 -49 -65 0
1000000 -50 -77 0
1000000 -51 -70 0
1000000 -52 -67 0
1000000 -53 -78 0
1000000 -54 -75 0
1000000 -55 -77 0
1000000 -56 -74 0
1000000 -57 -65 0
1000000 -58 -79 0
1000000 -59 -66 0
1000000 -60 -72 0
1000000 -61 -66 0
1000000 -62 -74 0
1000000 -63 -72 0
1000000 -64 -75 0
7200 -65 0
7200 -66 0
5900 -67 0
7200 -68 0
9800 -69 0
9800 -70 0
9800 -71 0
6700 -72 0
6700 -73 0
7200 -74 0
7200 -75 0
6700 -76 0
7200 -77 0
7200 -78 0
8700 -79 0
3100 35 0
3100 36 0
1000 37 0
4500 38 0
2900 39 0
1000 40 0
4300 41 0
1000 42 0
4300 43 0
2900 44 0
4300 45 0
1000 46 0
2900 47 0
4300 48 0
4500 49 0
2900 50 0
4500 51 0
4300 52 0
1000 53 0
2900 54 0
4500 55 0
4300 56 0
1000 57 0
3100 58 0
2900 59 0
4500 60 0
1000 61 0
4300 62 0
3100 63 0
4500 64 0
28880 25 28 -30 0
32490 25 -28 30 0
35378 25 -28 -30 0
34295 -25 28 30 0
35739 -25 28 -30 0
35919 -25 -28 30 0
36064 -25 -28 -30 0
29200 27 34 -21 0
13870 27 -34 21 0
31974 27 -34 -21 0
14600 -27 34 21 0
32120 -27 34 -21 0
22922 -27 -34 21 0
33784 -27 -34 -21 0
14440 17 -29 0
9025 -17 29 0
19855 -17 -29 0
21125 -12 0
3610 18 -20 0
25270 -18 20 0
26353 -18 -20 0
28350 16 26 -23 0
18225 16 -26 23 0
33818 16 -26 -23 0
2025 -16 26 23 0
28957 -16 26 -23 0
19339 -16 -26 23 0
34152 -16 -26 -23 0
21900 -19 0
1600 11 -14 0
100 -11 14 0
1668 -11 -14 0
18050 31 15 32 24 -13 0
16245 31 15 32 -24 13 0
26172 31 15 32 -24 -13 0
722 31 15 -32 24 13 0
18411 31 15 -32 24 -13 0
16642 31 15 -32 -24 13 0
26371 31 15 -32 -24 -13 0
23465 31 -15 32 24 13 0
29782 31 -15 32 24 -13 0
29151 31 -15 32 -24 13 0
32625 31 -15 32 -24 -13 0
23718 31 -15 -32 24 13 0
29909 31 -15 -32 24 -13 0
29290 31 -15 -32 -24 13 0
32695 31 -15 -32 -24 -13 0
25270 -31 15 32 24 13 0
30685 -31 15 32 24 -13 0
30144 -31 15 32 -24 13 0
33122 -31 15 32 -24 -13 0
25487 -31 15 -32 24 13 0
30793 -31 15 -32 24 -13 0
30263 -31 15 -32 -24 13 0
33181 -31 15 -32 -24 -13 0
32310 -31 -15 32 24 13 0
34205 -31 -15 32 24 -13 0
34015 -31 -15 32 -24 13 0
35058 -31 -15 32 -24 -13 0
32385 -31 -15 -32 24 13 0
34243 -31 -15 -32 24 -13 0
34057 -31 -15 -32 -24 13 0
35078 -31 -15 -32 -24 -13 0
3610 33 -22 0
11552 -33 22 0
14007 -33 -22 0
