p wcnf 79 229 1000000
1000000 3 -11 0
1000000 11 -50 -37 -44 0
1000000 9 -12 0
1000000 12 -47 -10 0
1000000 6 -13 0
1000000 13 -47 -37 -35 -56 -48 0
1000000 9 -14 0
1000000 14 -64 -58 0
1000000 8 -15 0
1000000 15 -36 -63 -52 0
1000000 8 -16 0
1000000 16 -41 -62 -37 0
1000000 1 -17 0
1000000 17 -54 -49 -60 -38 0
1000000 2 -18 0
1000000 18 -45 -40 0
1000000 1 -19 0
1000000 19 -37 -44 -59 -39 -36 0
1000000 6 -20 0
1000000 20 -35 -7 0
1000000 2 -21 0
1000000 21 -35 -4 0
1000000 3 -22 0
1000000 22 -46 -63 -64 -52 0
1000000 8 -23 0
1000000 23 -51 -43 -39 -36 -63 0
1000000 5 -24 0
1000000 24 -52 -50 -46 0
1000000 3 -25 0
1000000 25 -38 -41 -54 -37 0
1000000 6 -26 0
1000000 26 -38 -8 0
1000000 4 -27 0
1000000 27 -53 -43 0
1000000 1 -28 0
1000000 28 -56 -41 -49 -42 0
1000000 5 -29 0
1000000 29 -53 -39 -9 0
1000000 5 -30 0
1000000 30 -35 -56 -38 -51 -9 0
1000000 10 -31 0
1000000 31 -59 -48 0
1000000 2 -32 0
1000000 32 -44 -51 -56 -58 -57 0
1000000 7 -33 0
1000000 33 -46 -47 -52 -51 0
1000000 8 -34 0
1000000 34 -56 -54 -53 -50 0
1000000 -1 28 19 17 0
1000000 -2 18 32 21 0
1000000 -3 11 22 25 0
1000000 -4 27 0
1000000 -5 24 30 29 0
1000000 -6 13 26 20 0
1000000 -7 33 0
1000000 -8 23 16 34 15 0
1000000 -9 12 14 0
1000000 -10 31 0
1000000 35 74 0
1000000 36 78 0
1000000 37 73 0
1000000 38 70 0
1000000 39 73 0
1000000 40 70 0
1000000 41 72 0
1000000 42 68 0
1000000 43 75 0
1000000 44 72 0
1000000 45 73 0
1000000 46 67 0
1000000 47 71 0
1000000 48 77 0
1000000 49 72 0
1000000 50 67 0
1000000 51 74 0
1000000 52 65 0
1000000 53 78 0
1000000 54 76 0
1000000 55 75 0
1000000 56 65 0
1000000 57 78 0
1000000 58 70 0
1000000 59 67 0
1000000 60 66 0
1000000 61 68 0
1000000 62 74 0
1000000 63 79 0
1000000 64 69 0
1000000 -35 -74 0
1000000 -36 -78 0
1000000 -37 -73 0
1000000 -38 -70 0
1000000 -39 -73 0
1000000 -40 -70 0
1000000 -41 -72 0
1000000 -42 -68 0
1000000 -43 -75 0
1000000 -44 -72 0
1000000 -45 -73 0
1000000 -46 -67 0
1000000 -47 -71 0
1000000 -48 -77 0
1000000 -49 -72 0
1000000 -50 -67 0
1000000 -51 -74 0
1000000 -52 -65 0
1000000 -53 -78 0
1000000 -54 -76 0
1000000 -55 -75 0
1000000 -56 -65 0
1000000 -57 -78 0
1000000 -58 -70 0
1000000 -59 -67 0
1000000 -60 -66 0
1000000 -61 -68 0
1000000 -62 -74 0
1000000 -63 -79 0
1000000 -64 -69 0
9200 -65 0
6300 -66 0
9500 -67 0
7600 -68 0
9200 -69 0
7400 -70 0
9500 -71 0
7400 -72 0
9200 -73 0
9200 -74 0
6300 -75 0
7400 -76 0
9200 -77 0
7400 -78 0
6300 -79 0
1800 35 0
3000 36 0
1900 37 0
1900 38 0
1600 39 0
4800 40 0
4800 41 0
4800 42 0
3000 43 0
1800 44 0
1600 45 0
1600 46 0
1800 47 0
3000 48 0
4800 49 0
1800 50 0
1800 51 0
1900 52 0
1800 53 0
1800 54 0
3000 55 0
1600 56 0
1800 57 0
1600 58 0
1800 59 0
4800 60 0
1900 61 0
3000 62 0
1800 63 0
1900 64 0
8000 28 19 -17 0
19000 28 -19 17 0
19400 28 -19 -17 0
14000 -28 19 17 0
16400 -28 19 -17 0
19700 -28 -19 17 0
19820 -28 -19 -17 0
3520 18 32 -21 0
10450 18 -32 21 0
10626 18 -32 -21 0
550 -18 32 21 0
3894 -18 32 -21 0
10477 -18 -32 21 0
10645 -18 -32 -21 0
4908 11 22 -25 0
6135 11 -22 25 0
10307 11 -22 -25 0
26585 -11 22 25 0
28303 -11 22 -25 0
28732 -11 -22 25 0
30192 -11 -22 -25 0
4275 -27 0
7150 24 30 -29 0
9350 24 -30 29 0
10422 24 -30 -29 0
4180 -24 30 29 0
8613 -24 30 -29 0
9977 -24 -30 29 0
10642 -24 -30 -29 0
38855 13 26 -20 0
8180 13 -26 20 0
39264 13 -26 -20 0
30675 -13 26 20 0
40389 -13 26 -20 0
32720 -13 -26 20 0
40491 -13 -26 -20 0
6400 -33 0
1425 23 16 34 -15 0
11400 23 16 -34 15 0
12255 23 16 -34 -15 0
17100 23 -16 34 15 0
17670 23 -16 34 -15 0
21660 23 -16 -34 15 0
22002 23 -16 -34 -15 0
21375 -23 16 34 15 0
21731 -23 16 34 -15 0
24225 -23 16 -34 15 0
24439 -23 16 -34 -15 0
25650 -23 -16 34 15 0
25793 -23 -16 34 -15 0
26790 -23 -16 -34 15 0
26875 -23 -16 -34 -15 0
1100 12 -14 0
2750 -12 14 0
3575 -12 -14 0
1100 -31 0
