p wcnf 79 245 1000000
1000000 9 -11 0
1000000 11 -44 -35 0
1000000 2 -12 0
1000000 12 -48 -47 0
1000000 3 -13 0
1000000 13 -57 -52 -56 -62 0
1000000 9 -14 0
1000000 14 -64 -44 0
1000000 7 -15 0
1000000 15 -54 -42 -37 -61 0
1000000 9 -16 0
1000000 16 -56 -42 -52 -35 0
1000000 5 -17 0
1000000 17 -39 -47 0
1000000 2 -18 0
1000000 18 -43 -45 0
1000000 4 -19 0
1000000 19 -35 -52 -36 -47 0
1000000 1 -20 0
1000000 20 -37 -39 0
1000000 10 -21 0
1000000 21 -39 -55 -60 -52 -50 0
1000000 7 -22 0
1000000 22 -41 -44 0
1000000 5 -23 0
1000000 23 -58 -41 -42 -6 0
1000000 5 -24 0
1000000 24 -55 -57 -39 -58 0
1000000 1 -25 0
1000000 25 -50 -56 -49 -47 -35 0
1000000 9 -26 0
1000000 26 -42 -64 -38 -54 -36 0
1000000 8 -27 0
1000000 27 -61 -62 -10 0
1000000 8 -28 0
1000000 28 -59 -41 -62 0
1000000 1 -29 0
1000000 29 -56 -57 0
1000000 5 -30 0
1000000 30 -38 -39 -40 -53 -61 0
1000000 5 -31 0
1000000 31 -49 -39 -56 0
1000000 7 -32 0
1000000 32 -53 -59 -43 -38 -54 0
1000000 3 -33 0
1000000 33 -46 -63 -64 -50 -62 0
1000000 6 -34 0
1000000 34 -51 -46 -41 -62 -60 0
1000000 -1 29 25 20 0
1000000 -2 12 18 0
1000000 -3 13 33 0
1000000 -4 19 0
1000000 -5 23 24 31 30 17 0
1000000 -6 34 0
1000000 -7 15 32 22 0
1000000 -8 28 27 0
1000000 -9 16 14 11 26 0
1000000 -10 21 0
1000000 35 68 0
1000000 36 76 0
1000000 37 77 0
1000000 38 74 0
1000000 39 69 0
1000000 40 71 0
1000000 41 77 0
1000000 42 69 0
1000000 43 77 0
1000000 44 65 0
1000000 45 76 0
1000000 46 78 0
1000000 47 67 0
1000000 48 75 0
1000000 49 65 0
1000000 50 74 0
1000000 51 70 0
1000000 52 70 0
1000000 53 78 0
1000000 54 72 0
1000000 55 66 0
1000000 56 65 0
1000000 57 71 0
1000000 58 69 0
1000000 59 70 0
1000000 60 79 0
1000000 61 79 0
1000000 62 73 0
1000000 63 72 0
1000000 64 68 0
1000000 -35 -68 0
1000000 -36 -76 0
1000000 -37 -77 0
1000000 -38 -74 0
1000000 -39 -69 0
1000000 -40 -71 0
1000000 -41 -77 0
1000000 -42 -69 0
1000000 -43 -77 0
1000000 -44 -65 0
1000000 -45 -76 0
1000000 -46 -78 0
1000000 -47 -67 0
1000000 -48 -75 0
1000000 -49 -65 0
1000000 -50 -74 0
1000000 -51 -70 0
1000000 -52 -70 0
1000000 -53 -78 0
1000000 -54 -72 0
1000000 -55 -66 0
1000000 -56 -65 0
1000000 -57 -71 0
1000000 -58 -69 0
1000000 -59 -70 0
1000000 -60 -79 0
1000000 -61 -79 0
1000000 -62 -73 0
1000000 -63 -72 0
1000000 -64 -68 0
7400 -65 0
7400 -66 0
8600 -67 0
8600 -68 0
6200 -69 0
7400 -70 0
6300 -71 0
6300 -72 0
6300 -73 0
6300 -74 0
9600 -75 0
6300 -76 0
7400 -77 0
7400 -78 0
6300 -79 0
3100 35 0
3400 36 0
2400 37 0
3800 38 0
3800 39 0
3800 40 0
3800 41 0
2400 42 0
3100 43 0
4100 44 0
3800 45 0
3800 46 0
2400 47 0
3400 48 0
2400 49 0
3800 50 0
2400 51 0
4100 52 0
4100 53 0
3100 54 0
3800 55 0
3400 56 0
3100 57 0
3800 58 0
3400 59 0
3800 60 0
3100 61 0
2400 62 0
3100 63 0
2400 64 0
240 29 25 -20 0
8400 29 -25 20 0
8472 29 -25 -20 0
3000 -29 25 20 0
3180 -29 25 -20 0
9300 -29 -25 20 0
9354 -29 -25 -20 0
11880 12 -18 0
7425 -12 18 0
16335 -12 -18 0
9600 13 -33 0
11400 -13 33 0
11880 -13 -33 0
7425 -19 0
3030 23 24 31 30 -17 0
16160 23 24 31 -30 17 0
16766 23 24 31 -30 -17 0
15150 23 24 -31 30 17 0
15907 23 24 -31 30 -17 0
19190 23 24 -31 -30 17 0
19341 23 24 -31 -30 -17 0
8080 23 -24 31 30 17 0
9898 23 -24 31 30 -17 0
17776 23 -24 31 -30 17 0
18140 23 -24 31 -30 -17 0
17170 23 -24 -31 30 17 0
17625 23 -24 -31 30 -17 0
19594 23 -24 -31 -30 17 0
19685 23 -24 -31 -30 -17 0
10100 -23 24 31 30 17 0
11615 -23 24 31 30 -17 0
18180 -23 24 31 -30 17 0
18483 -23 24 31 -30 -17 0
17675 -23 24 -31 30 17 0
18054 -23 24 -31 30 -17 0
19695 -23 24 -31 -30 17 0
19771 -23 24 -31 -30 -17 0
14140 -23 -24 31 30 17 0
15049 -23 -24 31 30 -17 0
18988 -23 -24 31 -30 17 0
19170 -23 -24 31 -30 -17 0
18685 -23 -24 -31 30 17 0
18912 -23 -24 -31 30 -17 0
19897 -23 -24 -31 -30 17 0
19942 -23 -24 -31 -30 -17 0
15070 -34 0
6680 15 32 -22 0
668 15 -32 22 0
7214 15 -32 -22 0
6012 -15 32 22 0
11490 -15 32 -22 0
6560 -15 -32 22 0
11928 -15 -32 -22 0
10100 28 -27 0
5050 -28 27 0
12625 -28 -27 0
2160 16 14 11 -26 0
240 16 14 -11 26 0
2357 16 14 -11 -26 0
240 16 -14 11 26 0
2357 16 -14 11 -26 0
475 16 -14 -11 26 0
2550 16 -14 -11 -26 0
11400 -16 14 11 26 0
11508 -16 14 11 -26 0
11412 -16 14 -11 26 0
11518 -16 14 -11 -26 0
11412 -16 -14 11 26 0
11518 -16 -14 11 -26 0
11424 -16 -14 -11 26 0
11527 -16 -14 -11 -26 0
10800 -21 0
