p wcnf 79 227 1000000
1000000 5 -11 0
1000000 11 -44 -35 -43 -6 0
1000000 3 -12 0
1000000 12 -39 -44 -56 0
1000000 1 -13 0
1000000 13 -50 -5 0
1000000 2 -14 0
1000000 14 -55 -59 0
1000000 9 -15 0
1000000 15 -47 -45 -38 0
1000000 7 -16 0
1000000 16 -62 -36 -55 -60 -44 0
1000000 5 -17 0
1000000 17 -45 -36 -52 -38 -10 0
1000000 8 -18 0
1000000 18 -59 -41 -62 -48 -57 0
1000000 7 -19 0
1000000 19 -44 -35 -49 -53 -64 0
1000000 10 -20 0
1000000 20 -52 -37 -58 -51 -40 0
1000000 6 -21 0
1000000 21 -55 -51 0
1000000 8 -22 0
1000000 22 -36 -35 -52 -58 0
1000000 6 -23 0
1000000 23 -45 -54 -37 -50 0
1000000 2 -24 0
1000000 24 -55 -53 -54 0
1000000 1 -25 0
1000000 25 -56 -35 -42 -55 0
1000000 8 -26 0
1000000 26 -37 -38 -40 -9 0
1000000 4 -27 0
1000000 27 -39 -61 -51 0
1000000 9 -28 0
1000000 28 -57 -36 -47 -10 0
1000000 5 -29 0
1000000 29 -53 -59 -43 -42 -63 0
1000000 2 -30 0
1000000 30 -53 -52 -61 -59 0
1000000 1 -31 0
1000000 31 -49 -57 -53 -38 0
1000000 5 -32 0
1000000 32 -37 -50 0
1000000 3 -33 0
1000000 33 -48 -36 -52 -50 -4 0
1000000 3 -34 0
1000000 34 -64 -37 -44 -6 0
1000000 -1 25 13 31 0
1000000 -2 30 14 24 0
1000000 -3 33 12 34 0
1000000 -4 27 0
1000000 -5 29 17 32 11 0
1000000 -6 21 23 0
1000000 -7 16 19 0
1000000 -8 18 26 22 0
1000000 -9 15 28 0
1000000 -10 20 0
1000000 35 73 0
1000000 36 69 0
1000000 37 75 0
1000000 38 72 0
1000000 39 71 0
1000000 40 77 0
1000000 41 70 0
1000000 42 65 0
1000000 43 69 0
1000000 44 78 0
1000000 45 66 0
1000000 46 68 0
1000000 47 69 0
1000000 48 66 0
1000000 49 67 0
1000000 50 72 0
1000000 51 74 0
1000000 52 71 0
1000000 53 70 0
1000000 54 71 0
1000000 55 77 0
1000000 56 67 0
1000000 57 76 0
1000000 58 77 0
1000000 59 74 0
1000000 60 74 0
1000000 61 79 0
1000000 62 68 0
1000000 63 72 0
1000000 64 76 0
1000000 -35 -73 0
1000000 -36 -69 0
1000000 -37 -75 0
1000000 -38 -72 0
1000000 -39 -71 0
1000000 -40 -77 0
1000000 -41 -70 0
1000000 -42 -65 0
1000000 -43 -69 0
1000000 -44 -78 0
1000000 -45 -66 0
1000000 -46 -68 0
1000000 -47 -69 0
1000000 -48 -66 0
1000000 -49 -67 0
1000000 -50 -72 0
1000000 -51 -74 0
1000000 -52 -71 0
1000000 -53 -70 0
1000000 -54 -71 0
1000000 -55 -77 0
1000000 -56 -67 0
1000000 -57 -76 0
1000000 -58 -77 0
1000000 -59 -74 0
1000000 -60 -74 0
1000000 -61 -79 0
1000000 -62 -68 0
1000000 -63 -72 0
1000000 -64 -76 0
7800 -65 0
6800 -66 0
6800 -67 0
6600 -68 0
7600 -69 0
6800 -70 0
6800 -71 0
6800 -72 0
8900 -73 0
6800 -74 0
7600 -75 0
7800 -76 0
8900 -77 0
7600 -78 0
7800 -79 0
3200 35 0
3500 36 0
1200 37 0
3800 38 0
3800 39 0
1200 40 0
3500 41 0
1200 42 0
3200 43 0
1200 44 0
3500 45 0
3200 46 0
3200 47 0
2200 48 0
1200 49 0
2200 50 0
3500 51 0
3800 52 0
3800 53 0
3500 54 0
3500 55 0
3800 56 0
3500 57 0
1200 58 0
2200 59 0
1200 60 0
2200 61 0
3200 62 0
1200 63 0
2200 64 0
4650 25 13 -31 0
2790 25 -13 31 0
6603 25 -13 -31 0
14725 -25 13 31 0
14957 -25 13 -31 0
14864 -25 -13 31 0
15055 -25 -13 -31 0
29495 30 14 -24 0
6940 30 -14 24 0
30536 30 -14 -24 0
24290 -30 14 24 0
33138 -30 14 -24 0
26372 -30 -14 24 0
33451 -30 -14 -24 0
5250 33 12 -34 0
1500 33 -12 34 0
6225 33 -12 -34 0
12750 -33 12 34 0
13538 -33 12 -34 0
12975 -33 -12 34 0
13684 -33 -12 -34 0
19085 -27 0
36380 29 17 32 -11 0
29960 29 17 -32 11 0
40874 29 17 -32 -11 0
6420 29 -17 32 11 0
37343 29 -17 32 -11 0
31886 29 -17 -32 11 0
41163 29 -17 -32 -11 0
36380 -29 17 32 11 0
41837 -29 17 32 -11 0
40874 -29 17 -32 11 0
42511 -29 17 -32 -11 0
37343 -29 -17 32 11 0
41981 -29 -17 32 -11 0
41163 -29 -17 -32 11 0
42554 -29 -17 -32 -11 0
10410 21 -23 0
694 -21 23 0
10896 -21 -23 0
14250 16 -19 0
2250 -16 19 0
14362 -16 -19 0
4500 18 26 -22 0
1800 18 -26 22 0
5760 18 -26 -22 0
2250 -18 26 22 0
6075 -18 26 -22 0
3780 -18 -26 22 0
7146 -18 -26 -22 0
9300 15 -28 0
7750 -15 28 0
12400 -15 -28 0
9450 -20 0
