p wcnf 79 231 1000000
1000000 1 -11 0
1000000 11 -46 -54 -45 -52 -5 0
1000000 8 -12 0
1000000 12 -48 -54 -36 -35 0
1000000 8 -13 0
1000000 13 -63 -51 -9 0
1000000 8 -14 0
1000000 14 -39 -40 -60 -43 0
1000000 5 -15 0
1000000 15 -39 -35 -58 0
1000000 2 -16 0
1000000 16 -41 -46 0
1000000 6 -17 0
1000000 17 -41 -60 -58 0
1000000 2 -18 0
1000000 18 -35 -52 -51 -46 -4 0
1000000 1 -19 0
1000000 19 -61 -51 -36 0
1000000 5 -20 0
1000000 20 -36 -47 0
1000000 3 -21 0
1000000 21 -55 -44 0
1000000 3 -22 0
1000000 22 -38 -8 0
1000000 4 -23 0
1000000 23 -53 -44 -35 0
1000000 2 -24 0
1000000 24 -44 -41 -46 -9 0
1000000 7 -25 0
1000000 25 -42 -9 0
1000000 1 -26 0
1000000 26 -52 -43 -41 -39 -47 0
1000000 9 -27 0
1000000 27 -49 -40 -50 -51 -10 0
1000000 10 -28 0
1000000 28 -59 -40 0
1000000 8 -29 0
1000000 29 -52 -59 -44 -35 -62 0
1000000 4 -30 0
1000000 30 -43 -49 -55 -61 0
1000000 6 -31 0
1000000 31 -36 -47 -37 -48 0
1000000 7 -32 0
1000000 32 -51 -57 0
1000000 5 -33 0
1000000 33 -47 -50 -59 -43 -62 0
1000000 2 -34 0
1000000 34 -43 -41 -61 -8 0
1000000 -1 11 26 19 0
1000000 -2 16 34 18 24 0
1000000 -3 21 22 0
1000000 -4 30 23 0
1000000 -5 20 33 15 0
1000000 -6 31 17 0
1000000 -7 32 25 0
1000000 -8 13 29 12 14 0
1000000 -9 27 0
1000000 -10 28 0
1000000 35 70 0
1000000 36 73 0
1000000 37 69 0
1000000 38 77 0
1000000 39 79 0
1000000 40 74 0
1000000 41 74 0
1000000 42 69 0
1000000 43 65 0
1000000 44 68 0
1000000 45 66 0
1000000 46 70 0
1000000 47 71 0
1000000 48 77 0
1000000 49 69 0
1000000 50 70 0
1000000 51 71 0
1000000 52 66 0
1000000 53 75 0
1000000 54 68 0
1000000 55 79 0
1000000 56 67 0
1000000 57 72 0
1000000 58 67 0
1000000 59 78 0
1000000 60 76 0
1000000 61 76 0
1000000 62 76 0
1000000 63 65 0
1000000 64 78 0
1000000 -35 -70 0
1000000 -36 -73 0
1000000 -37 -69 0
1000000 -38 -77 0
1000000 -39 -79 0
1000000 -40 -74 0
1000000 -41 -74 0
1000000 -42 -69 0
1000000 -43 -65 0
1000000 -44 -68 0
1000000 -45 -66 0
1000000 -46 -70 0
1000000 -47 -71 0
1000000 -48 -77 0
1000000 -49 -69 0
1000000 -50 -70 0
1000000 -51 -71 0
1000000 -52 -66 0
1000000 -53 -75 0
1000000 -54 -68 0
1000000 -55 -79 0
1000000 -56 -67 0
1000000 -57 -72 0
1000000 -58 -67 0
1000000 -59 -78 0
1000000 -60 -76 0
1000000 -61 -76 0
1000000 -62 -76 0
1000000 -63 -65 0
1000000 -64 -78 0
5700 -65 0
8100 -66 0
6200 -67 0
9600 -68 0
8100 -69 0
5100 -70 0
6200 -71 0
8100 -72 0
9600 -73 0
6200 -74 0
5100 -75 0
6200 -76 0
5700 -77 0
9600 -78 0
5700 -79 0
3200 35 0
4100 36 0
3200 37 0
3200 38 0
3200 39 0
2500 40 0
3200 41 0
3200 42 0
1900 43 0
2500 44 0
1400 45 0
2500 46 0
2500 47 0
2500 48 0
4100 49 0
1400 50 0
1400 51 0
1400 52 0
4100 53 0
4100 54 0
1900 55 0
4100 56 0
3200 57 0
3200 58 0
4100 59 0
4100 60 0
1400 61 0
2500 62 0
3200 63 0
2500 64 0
4104 11 26 -19 0
8664 11 -26 19 0
11208 11 -26 -19 0
9120 -11 26 19 0
11582 -11 26 -19 0
14318 -11 -26 19 0
15845 -11 -26 -19 0
31950 16 34 18 -24 0
10650 16 34 -18 24 0
33015 16 34 -18 -24 0
710 16 -34 18 24 0
32021 16 -34 18 -24 0
11147 16 -34 -18 24 0
33065 16 -34 -18 -24 0
12425 -16 34 18 24 0
33193 -16 34 18 -24 0
19348 -16 34 -18 24 0
33885 -16 34 -18 -24 0
12887 -16 -34 18 24 0
33239 -16 -34 18 -24 0
19671 -16 -34 -18 24 0
33917 -16 -34 -18 -24 0
15960 21 -22 0
1140 -21 22 0
16302 -21 -22 0
10540 30 -23 0
2480 -30 23 0
10912 -30 -23 0
20520 20 33 -15 0
7980 20 -33 15 0
21318 20 -33 -15 0
2280 -20 33 15 0
20748 -20 33 -15 0
9462 -20 -33 15 0
21466 -20 -33 -15 0
17750 31 -17 0
31950 -31 17 0
33725 -31 -17 0
14820 32 -25 0
6840 -32 25 0
17214 -32 -25 0
8875 13 29 12 -14 0
10650 13 29 -12 14 0
16863 13 29 -12 -14 0
12425 13 -29 12 14 0
18194 13 -29 12 -14 0
19348 13 -29 -12 14 0
23386 13 -29 -12 -14 0
13490 -13 29 12 14 0
18993 -13 29 12 -14 0
20093 -13 29 -12 14 0
23945 -13 29 -12 -14 0
21194 -13 -29 12 14 0
24770 -13 -29 12 -14 0
25485 -13 -29 -12 14 0
27989 -13 -29 -12 -14 0
620 -27 0
1860 -28 0
