p wcnf 79 229 1000000
1000000 5 -11 0
1000000 11 -60 -44 -58 0
1000000 10 -12 0
1000000 12 -53 -35 -43 -62 0
1000000 4 -13 0
1000000 13 -57 -39 -63 -52 -41 0
1000000 4 -14 0
1000000 14 -39 -63 -47 -50 0
1000000 10 -15 0
1000000 15 -49 -40 -55 0
1000000 7 -16 0
1000000 16 -48 -42 -39 -9 0
1000000 8 -17 0
1000000 17 -36 -57 -9 0
1000000 9 -18 0
1000000 18 -52 -38 -48 0
1000000 6 -19 0
1000000 19 -44 -41 -57 -49 0
1000000 8 -20 0
1000000 20 -64 -60 -44 -53 0
1000000 4 -21 0
1000000 21 -56 -62 -47 0
1000000 1 -22 0
1000000 22 -55 -43 -8 0
1000000 3 -23 0
1000000 23 -57 -42 -40 -55 -44 0
1000000 6 -24 0
1000000 24 -40 -42 -50 -44 -43 0
1000000 10 -25 0
1000000 25 -38 -59 -56 -55 -35 0
1000000 2 -26 0
1000000 26 -37 -58 -60 0
1000000 7 -27 0
1000000 27 -55 -9 0
1000000 10 -28 0
1000000 28 -37 -44 0
1000000 6 -29 0
1000000 29 -53 -56 -62 -49 0
1000000 5 -30 0
1000000 30 -49 -42 -47 -44 0
1000000 7 -31 0
1000000 31 -36 -57 -44 -58 -51 0
1000000 8 -32 0
1000000 32 -36 -45 -49 0
1000000 5 -33 0
1000000 33 -54 -49 -60 -43 0
1000000 1 -34 0
1000000 34 -45 -64 0
1000000 -1 22 34 0
1000000 -2 26 0
1000000 -3 23 0
1000000 -4 21 14 13 0
1000000 -5 30 33 11 0
1000000 -6 24 19 29 0
1000000 -7 16 31 27 0
1000000 -8 32 20 17 0
1000000 -9 18 0
1000000 -10 12 25 15 28 0
1000000 35 78 0
1000000 36 70 0
1000000 37 71 0
1000000 38 70 0
1000000 39 75 0
1000000 40 79 0
1000000 41 71 0
1000000 42 67 0
1000000 43 65 0
1000000 44 68 0
1000000 45 72 0
1000000 46 79 0
1000000 47 66 0
1000000 48 77 0
1000000 49 66 0
1000000 50 69 0
1000000 51 79 0
1000000 52 77 0
1000000 53 72 0
1000000 54 77 0
1000000 55 70 0
1000000 56 74 0
1000000 57 75 0
1000000 58 67 0
1000000 59 76 0
1000000 60 65 0
1000000 61 73 0
1000000 62 71 0
1000000 63 65 0
1000000 64 66 0
1000000 -35 -78 0
1000000 -36 -70 0
1000000 -37 -71 0
1000000 -38 -70 0
1000000 -39 -75 0
1000000 -40 -79 0
1000000 -41 -71 0
1000000 -42 -67 0
1000000 -43 -65 0
1000000 -44 -68 0
1000000 -45 -72 0
1000000 -46 -79 0
1000000 -47 -66 0
1000000 -48 -77 0
1000000 -49 -66 0
1000000 -50 -69 0
1000000 -51 -79 0
1000000 -52 -77 0
1000000 -53 -72 0
1000000 -54 -77 0
1000000 -55 -70 0
1000000 -56 -74 0
1000000 -57 -75 0
1000000 -58 -67 0
1000000 -59 -76 0
1000000 -60 -65 0
1000000 -61 -73 0
1000000 -62 -71 0
1000000 -63 -65 0
1000000 -64 -66 0
5000 -65 0
6700 -66 0
5700 -67 0
6700 -68 0
6700 -69 0
7300 -70 0
9500 -71 0
5700 -72 0
7300 -73 0
5700 -74 0
9500 -75 0
6700 -76 0
6700 -77 0
9500 -78 0
5700 -79 0
3100 35 0
1600 36 0
3100 37 0
2700 38 0
4400 39 0
3000 40 0
2700 41 0
1600 42 0
3100 43 0
2700 44 0
2700 45 0
3100 46 0
1600 47 0
3000 48 0
1600 49 0
2700 50 0
1600 51 0
2700 52 0
1600 53 0
4400 54 0
4400 55 0
2700 56 0
2700 57 0
2700 58 0
1600 59 0
1600 60 0
3000 61 0
3100 62 0
2700 63 0
1600 64 0
15936 22 -34 0
996 -22 34 0
16613 -22 -34 0
27390 -26 0
9920 -23 0
23485 21 14 -13 0
29890 21 -14 13 0
36936 21 -14 -13 0
14945 -21 14 13 0
30210 -21 14 -13 0
34373 -21 -14 13 0
38953 -21 -14 -13 0
32025 30 33 -11 0
2135 30 -33 11 0
32559 30 -33 -11 0
27755 -30 33 11 0
38964 -30 33 -11 0
28502 -30 -33 11 0
39151 -30 -33 -11 0
620 24 19 -29 0
1488 24 -19 29 0
2034 24 -19 -29 0
8680 -24 19 29 0
8866 -24 19 -29 0
9126 -24 -19 29 0
9290 -24 -19 -29 0
10950 16 31 -27 0
1752 16 -31 27 0
11388 16 -31 -27 0
4672 -16 31 27 0
12118 -16 31 -27 0
5863 -16 -31 27 0
12416 -16 -31 -27 0
2490 32 20 -17 0
15936 32 -20 17 0
17629 32 -20 -17 0
44820 -32 20 17 0
45069 -32 20 -17 0
46414 -32 -20 17 0
46583 -32 -20 -17 0
15936 -18 0
730 12 25 15 -28 0
10220 12 25 -15 28 0
10439 12 25 -15 -28 0
4380 12 -25 15 28 0
4891 12 -25 15 -28 0
11534 12 -25 -15 28 0
11687 12 -25 -15 -28 0
12410 -12 25 15 28 0
12519 -12 25 15 -28 0
13943 -12 25 -15 28 0
13976 -12 25 -15 -28 0
13067 -12 -25 15 28 0
13144 -12 -25 15 -28 0
14140 -12 -25 -15 28 0
14163 -12 -25 -15 -28 0
