p wcnf 79 227 1000000
1000000 8 -11 0
1000000 11 -45 -55 -61 0
1000000 5 -12 0
1000000 12 -46 -57 -50 -41 0
1000000 10 -13 0
1000000 13 -60 -62 0
1000000 7 -14 0
1000000 14 -36 -51 0
1000000 6 -15 0
1000000 15 -42 -40 -59 -38 0
1000000 8 -16 0
1000000 16 -57 -53 -52 -35 0
1000000 3 -17 0
1000000 17 -63 -44 -56 -10 0
1000000 3 -18 0
1000000 18 -61 -45 -49 0
1000000 7 -19 0
1000000 19 -38 -53 -42 0
1000000 6 -20 0
1000000 20 -64 -9 0
1000000 4 -21 0
1000000 21 -48 -47 -61 0
1000000 2 -22 0
1000000 22 -39 -63 -50 0
1000000 9 -23 0
1000000 23 -41 -53 -52 -10 0
1000000 10 -24 0
1000000 24 -55 -47 -52 -50 -43 0
1000000 1 -25 0
1000000 25 -49 -9 0
1000000 4 -26 0
1000000 26 -37 -44 -46 -36 -53 0
1000000 1 -27 0
1000000 27 -49 -53 -35 -52 -56 0
1000000 7 -28 0
1000000 28 -60 -46 -57 0
1000000 1 -29 0
1000000 29 -61 -59 -43 -38 -7 0
1000000 2 -30 0
1000000 30 -55 -50 0
1000000 10 -31 0
1000000 31 -63 -41 -35 -45 0
1000000 4 -32 0
1000000 32 -37 -50 0
1000000 1 -33 0
1000000 33 -64 -37 -58 -59 0
1000000 6 -34 0
1000000 34 -63 -47 -57 -53 -61 0
1000000 -1 29 27 25 33 0
1000000 -2 30 22 0
1000000 -3 18 17 0
1000000 -4 21 26 32 0
1000000 -5 12 0
1000000 -6 20 34 15 0
1000000 -7 28 19 14 0
1000000 -8 11 16 0
1000000 -9 23 0
1000000 -10 13 24 31 0
1000000 35 69 0
1000000 36 70 0
1000000 37 66 0
1000000 38 77 0
1000000 39 67 0
1000000 40 65 0
1000000 41 79 0
1000000 42 71 0
1000000 43 65 0
1000000 44 71 0
1000000 45 72 0
1000000 46 77 0
1000000 47 78 0
1000000 48 66 0
1000000 49 66 0
1000000 50 74 0
1000000 51 79 0
1000000 52 68 0
1000000 53 70 0
1000000 54 77 0
1000000 55 68 0
1000000 56 73 0
1000000 57 68 0
1000000 58 75 0
1000000 59 75 0
1000000 60 73 0
1000000 61 78 0
1000000 62 76 0
1000000 63 76 0
1000000 64 74 0
1000000 -35 -69 0
1000000 -36 -70 0
1000000 -37 -66 0
1000000 -38 -77 0
1000000 -39 -67 0
1000000 -40 -65 0
1000000 -41 -79 0
1000000 -42 -71 0
1000000 -43 -65 0
1000000 -44 -71 0
1000000 -45 -72 0
1000000 -46 -77 0
1000000 -47 -78 0
1000000 -48 -66 0
1000000 -49 -66 0
1000000 -50 -74 0
1000000 -51 -79 0
1000000 -52 -68 0
1000000 -53 -70 0
1000000 -54 -77 0
1000000 -55 -68 0
1000000 -56 -73 0
1000000 -57 -68 0
1000000 -58 -75 0
1000000 -59 -75 0
1000000 -60 -73 0
1000000 -61 -78 0
1000000 -62 -76 0
1000000 -63 -76 0
1000000 -64 -74 0
8800 -65 0
5300 -66 0
8200 -67 0
5100 -68 0
8200 -69 0
8800 -70 0
8800 -71 0
5100 -72 0
5300 -73 0
8800 -74 0
8200 -75 0
6200 -76 0
8200 -77 0
8200 -78 0
6200 -79 0
4200 35 0
2200 36 0
2200 37 0
2600 38 0
1900 39 0
2200 40 0
4200 41 0
1900 42 0
1900 43 0
4200 44 0
1500 45 0
1500 46 0
4200 47 0
2200 48 0
2200 49 0
2600 50 0
4200 51 0
4200 52 0
2200 53 0
2600 54 0
2600 55 0
1900 56 0
1900 57 0
1500 58 0
2200 59 0
4200 60 0
4200 61 0
2200 62 0
1900 63 0
2200 64 0
2970 29 27 25 -33 0
540 29 27 -25 33 0
3213 29 27 -25 -33 0
1350 29 -27 25 33 0
3578 29 -27 25 -33 0
1755 29 -27 -25 33 0
3760 29 -27 -25 -33 0
1728 -29 27 25 33 0
3748 -29 27 25 -33 0
2095 -29 27 -25 33 0
3913 -29 27 -25 -33 0
2646 -29 -27 25 33 0
4161 -29 -27 25 -33 0
2921 -29 -27 -25 33 0
4285 -29 -27 -25 -33 0
9160 30 -22 0
6870 -30 22 0
14656 -30 -22 0
11744 18 -17 0
25690 -18 17 0
29213 -18 -17 0
11825 21 26 -32 0
2580 21 -26 32 0
12986 21 -26 -32 0
8170 -21 26 32 0
15502 -21 26 -32 0
9770 -21 -26 32 0
16221 -21 -26 -32 0
3225 -12 0
3240 20 34 -15 0
3780 20 -34 15 0
4752 20 -34 -15 0
1620 -20 34 15 0
3888 -20 34 -15 0
4266 -20 -34 15 0
4946 -20 -34 -15 0
29450 28 19 -14 0
620 28 -19 14 0
29481 28 -19 -14 0
3720 -28 19 14 0
29636 -28 19 -14 0
4266 -28 -19 14 0
29663 -28 -19 -14 0
17404 11 -16 0
6870 -11 16 0
21663 -11 -16 0
8600 -23 0
9675 13 24 -31 0
430 13 -24 31 0
9911 13 -24 -31 0
5375 -13 24 31 0
12631 -13 24 -31 0
5698 -13 -24 31 0
12809 -13 -24 -31 0
