p wcnf 79 245 1000000
1000000 4 -11 0
1000000 11 -39 -36 -42 -52 -58 0
1000000 1 -12 0
1000000 12 -46 -54 -44 -56 -8 0
1000000 2 -13 0
1000000 13 -39 -36 -50 0
1000000 7 -14 0
1000000 14 -41 -47 -52 0
1000000 6 -15 0
1000000 15 -55 -62 -46 0
1000000 7 -16 0
1000000 16 -40 -63 0
1000000 6 -17 0
1000000 17 -43 -49 -42 -60 -56 0
1000000 6 -18 0
1000000 18 -46 -43 -45 -55 -42 0
1000000 6 -19 0
1000000 19 -37 -61 -51 -41 -39 0
1000000 4 -20 0
1000000 20 -37 -35 -38 -56 0
1000000 1 -21 0
1000000 21 -53 -52 -2 0
1000000 8 -22 0
1000000 22 -40 -60 0
1000000 10 -23 0
1000000 23 -45 -63 -60 -52 0
1000000 8 -24 0
1000000 24 -63 -46 -54 0
1000000 3 -25 0
1000000 25 -58 -51 -54 -42 -10 0
1000000 7 -26 0
1000000 26 -43 -51 -60 0
1000000 5 -27 0
1000000 27 -39 -47 -45 -38 0
1000000 3 -28 0
1000000 28 -35 -51 -62 -38 0
1000000 9 -29 0
1000000 29 -52 -42 -55 -63 -10 0
1000000 3 -30 0
1000000 30 -35 -54 -61 0
1000000 2 -31 0
1000000 31 -49 -58 0
1000000 6 -32 0
1000000 32 -59 -45 0
1000000 8 -33 0
1000000 33 -64 -47 0
1000000 8 -34 0
1000000 34 -38 -54 -53 -37 -44 0
1000000 -1 12 21 0
1000000 -2 31 13 0
1000000 -3 28 30 25 0
1000000 -4 20 11 0
1000000 -5 27 0
1000000 -6 18 32 19 17 15 0
1000000 -7 16 26 14 0
1000000 -8 24 33 22 34 0
1000000 -9 29 0
1000000 -10 23 0
1000000 35 79 0
1000000 36 65 0
1000000 37 68 0
1000000 38 76 0
1000000 39 65 0
1000000 40 76 0
1000000 41 67 0
1000000 42 66 0
1000000 43 68 0
1000000 44 66 0
1000000 45 78 0
1000000 46 69 0
1000000 47 65 0
1000000 48 74 0
1000000 49 66 0
1000000 50 75 0
1000000 51 69 0
1000000 52 68 0
1000000 53 73 0
1000000 54 78 0
1000000 55 71 0
1000000 56 72 0
1000000 57 78 0
1000000 58 79 0
1000000 59 74 0
1000000 60 77 0
1000000 61 70 0
1000000 62 75 0
1000000 63 76 0
1000000 64 74 0
1000000 -35 -79 0
1000000 -36 -65 0
1000000 -37 -68 0
1000000 -38 -76 0
1000000 -39 -65 0
1000000 -40 -76 0
1000000 -41 -67 0
1000000 -42 -66 0
1000000 -43 -68 0
1000000 -44 -66 0
1000000 -45 -78 0
1000000 -46 -69 0
1000000 -47 -65 0
1000000 -48 -74 0
1000000 -49 -66 0
1000000 -50 -75 0
1000000 -51 -69 0
1000000 -52 -68 0
1000000 -53 -73 0
1000000 -54 -78 0
1000000 -55 -71 0
1000000 -56 -72 0
1000000 -57 -78 0
1000000 -58 -79 0
1000000 -59 -74 0
1000000 -60 -77 0
1000000 -61 -70 0
1000000 -62 -75 0
1000000 -63 -76 0
1000000 -64 -74 0
8000 -65 0
7500 -66 0
8300 -67 0
8300 -68 0
7000 -69 0
7000 -70 0
8200 -71 0
7000 -72 0
8000 -73 0
8300 -74 0
7000 -75 0
8300 -76 0
8200 -77 0
8200 -78 0
8300 -79 0
4100 35 0
4100 36 0
3500 37 0
1000 38 0
4100 39 0
3500 40 0
1000 41 0
4100 42 0
1000 43 0
3200 44 0
3200 45 0
3500 46 0
1000 47 0
4100 48 0
1000 49 0
3500 50 0
3500 51 0
1000 52 0
3500 53 0
2400 54 0
4100 55 0
1000 56 0
2400 57 0
2400 58 0
4100 59 0
2400 60 0
3200 61 0
4100 62 0
3500 63 0
2400 64 0
4970 12 -21 0
2840 -12 21 0
6816 -12 -21 0
740 31 -13 0
13320 -31 13 0
13394 -31 -13 0
1044 28 30 -25 0
174 28 -30 25 0
1197 28 -30 -25 0
7395 -28 30 25 0
7552 -28 30 -25 0
7421 -28 -30 25 0
7575 -28 -30 -25 0
1704 20 -11 0
12780 -20 11 0
12950 -20 -11 0
15540 -27 0
4970 18 32 19 17 -15 0
9940 18 32 19 -17 15 0
11431 18 32 19 -17 -15 0
9940 18 32 -19 17 15 0
11431 18 32 -19 17 -15 0
12922 18 32 -19 -17 15 0
13369 18 32 -19 -17 -15 0
13490 18 -32 19 17 15 0
13738 18 -32 19 17 -15 0
13987 18 -32 19 -17 15 0
14062 18 -32 19 -17 -15 0
13987 18 -32 -19 17 15 0
14062 18 -32 -19 17 -15 0
14136 18 -32 -19 -17 15 0
14158 18 -32 -19 -17 -15 0
9230 -18 32 19 17 15 0
10969 -18 32 19 17 -15 0
12709 -18 32 19 -17 15 0
13231 -18 32 19 -17 -15 0
12709 -18 32 -19 17 15 0
13231 -18 32 -19 17 -15 0
13753 -18 32 -19 -17 15 0
13909 -18 32 -19 -17 -15 0
13951 -18 -32 19 17 15 0
14038 -18 -32 19 17 -15 0
14125 -18 -32 19 -17 15 0
14152 -18 -32 19 -17 -15 0
14125 -18 -32 -19 17 15 0
14152 -18 -32 -19 17 -15 0
14178 -18 -32 -19 -17 15 0
14185 -18 -32 -19 -17 -15 0
16200 16 26 -14 0
8640 16 -26 14 0
18360 16 -26 -14 0
14040 -16 26 14 0
19710 -16 26 -14 0
17064 -16 -26 14 0
20466 -16 -26 -14 0
9065 24 33 22 -34 0
1295 24 33 -22 34 0
9907 24 33 -22 -34 0
5180 24 -33 22 34 0
12432 24 -33 22 -34 0
6216 24 -33 -22 34 0
13105 24 -33 -22 -34 0
18130 -24 33 22 34 0
20849 -24 33 22 -34 0
18519 -24 33 -22 34 0
21102 -24 33 -22 -34 0
19684 -24 -33 22 34 0
21860 -24 -33 22 -34 0
19995 -24 -33 -22 34 0
22062 -24 -33 -22 -34 0
20520 -29 0
6475 -23 0
