p wcnf 79 227 1000000
1000000 5 -11 0
1000000 11 -40 -53 -52 -35 -61 0
1000000 9 -12 0
1000000 12 -54 -49 -37 0
1000000 4 -13 0
1000000 13 -44 -53 -59 -35 -48 0
1000000 10 -14 0
1000000 14 -44 -43 -38 0
1000000 6 -15 0
1000000 15 -40 -35 -51 -56 -41 0
1000000 1 -16 0
1000000 16 -64 -7 0
1000000 9 -17 0
1000000 17 -35 -46 0
1000000 3 -18 0
1000000 18 -38 -48 -40 -64 0
1000000 5 -19 0
1000000 19 -48 -40 0
1000000 3 -20 0
1000000 20 -54 -39 0
1000000 2 -21 0
1000000 21 -62 -35 -58 0
1000000 3 -22 0
1000000 22 -53 -44 -50 -51 0
1000000 7 -23 0
1000000 23 -59 -54 -52 -9 0
1000000 6 -24 0
1000000 24 -63 -60 -42 -61 0
1000000 5 -25 0
1000000 25 -58 -59 -39 -57 0
1000000 3 -26 0
1000000 26 -56 -38 -51 -6 0
1000000 10 -27 0
1000000 27 -55 -44 -62 -57 0
1000000 4 -28 0
1000000 28 -57 -55 0
1000000 1 -29 0
1000000 29 -53 -61 -43 -39 0
1000000 7 -30 0
1000000 30 -46 -62 -42 -64 -8 0
1000000 1 -31 0
1000000 31 -40 -57 -56 -41 0
1000000 6 -32 0
1000000 32 -37 -52 -50 -59 -49 0
1000000 8 -33 0
1000000 33 -48 -55 -47 -43 0
1000000 7 -34 0
1000000 34 -58 -54 0
1000000 -1 29 16 31 0
1000000 -2 21 0
1000000 -3 18 26 20 22 0
1000000 -4 28 13 0
1000000 -5 19 25 11 0
1000000 -6 32 24 15 0
1000000 -7 23 30 34 0
1000000 -8 33 0
1000000 -9 17 12 0
1000000 -10 14 27 0
1000000 35 76 0
1000000 36 77 0
1000000 37 72 0
1000000 38 78 0
1000000 39 74 0
1000000 40 74 0
1000000 41 72 0
1000000 42 70 0
1000000 43 71 0
1000000 44 70 0
1000000 45 75 0
1000000 46 73 0
1000000 47 78 0
1000000 48 67 0
1000000 49 73 0
1000000 50 73 0
1000000 51 65 0
1000000 52 72 0
1000000 53 68 0
1000000 54 67 0
1000000 55 65 0
1000000 56 69 0
1000000 57 71 0
1000000 58 79 0
1000000 59 78 0
1000000 60 77 0
1000000 61 66 0
1000000 62 70 0
1000000 63 71 0
1000000 64 65 0
1000000 -35 -76 0
1000000 -36 -77 0
1000000 -37 -72 0
1000000 -38 -78 0
1000000 -39 -74 0
1000000 -40 -74 0
1000000 -41 -72 0
1000000 -42 -70 0
1000000 -43 -71 0
1000000 -44 -70 0
1000000 -45 -75 0
1000000 -46 -73 0
1000000 -47 -78 0
1000000 -48 -67 0
1000000 -49 -73 0
1000000 -50 -73 0
1000000 -51 -65 0
1000000 -52 -72 0
1000000 -53 -68 0
1000000 -54 -67 0
1000000 -55 -65 0
1000000 -56 -69 0
1000000 -57 -71 0
1000000 -58 -79 0
1000000 -59 -78 0
1000000 -60 -77 0
1000000 -61 -66 0
1000000 -62 -70 0
1000000 -63 -71 0
1000000 -64 -65 0
7100 -65 0
6000 -66 0
7100 -67 0
7100 -68 0
9700 -69 0
7100 -70 0
7100 -71 0
5900 -72 0
7100 -73 0
6000 -74 0
6000 -75 0
7800 -76 0
7800 -77 0
9700 -78 0
9700 -79 0
2700 35 0
2100 36 0
4300 37 0
4300 38 0
2700 39 0
2300 40 0
2300 41 0
2700 42 0
4300 43 0
4300 44 0
4300 45 0
2300 46 0
2300 47 0
2700 48 0
2700 49 0
2700 50 0
2700 51 0
2300 52 0
2100 53 0
2700 54 0
2500 55 0
2100 56 0
2500 57 0
2700 58 0
4300 59 0
2700 60 0
2100 61 0
2100 62 0
2500 63 0
2500 64 0
19600 29 16 -31 0
490 29 -16 31 0
19698 29 -16 -31 0
1225 -29 16 31 0
19845 -29 16 -31 0
1691 -29 -16 31 0
19938 -29 -16 -31 0
32560 -21 0
12240 18 26 20 -22 0
1020 18 26 -20 22 0
12648 18 26 -20 -22 0
12240 18 -26 20 22 0
17136 18 -26 20 -22 0
12648 18 -26 -20 22 0
17299 18 -26 -20 -22 0
18360 -18 26 20 22 0
19584 -18 26 20 -22 0
18462 -18 26 -20 22 0
19625 -18 26 -20 -22 0
19584 -18 -26 20 22 0
20074 -18 -26 20 -22 0
19625 -18 -26 -20 22 0
20090 -18 -26 -20 -22 0
22050 28 -13 0
6125 -28 13 0
22662 -28 -13 0
16800 19 25 -11 0
23800 19 -25 11 0
26320 19 -25 -11 0
11200 -19 25 11 0
21280 -19 25 -11 0
25480 -19 -25 11 0
26992 -19 -25 -11 0
16800 32 24 -15 0
560 32 -24 15 0
17024 32 -24 -15 0
19600 -32 24 15 0
24640 -32 24 -15 0
19768 -32 -24 15 0
24707 -32 -24 -15 0
298 23 30 -34 0
1788 23 -30 34 0
2050 23 -30 -34 0
298 -23 30 34 0
590 -23 30 -34 0
2050 -23 -30 34 0
2307 -23 -30 -34 0
11200 -33 0
2450 17 -12 0
17150 -17 12 0
17885 -17 -12 0
15400 14 -27 0
11200 -14 27 0
20440 -14 -27 0
