p wcnf 79 245 1000000
1000000 10 -11 0
1000000 11 -45 -40 -55 -44 -56 0
1000000 5 -12 0
1000000 12 -39 -57 -55 -63 -60 0
1000000 2 -13 0
1000000 13 -36 -51 -35 -58 -54 0
1000000 8 -14 0
1000000 14 -49 -63 0
1000000 9 -15 0
1000000 15 -57 -42 0
1000000 2 -16 0
1000000 16 -44 -35 0
1000000 4 -17 0
1000000 17 -54 -44 -61 0
1000000 4 -18 0
1000000 18 -62 -36 -55 -63 -42 0
1000000 2 -19 0
1000000 19 -63 -3 0
1000000 9 -20 0
1000000 20 -52 -60 -61 -45 -10 0
1000000 2 -21 0
1000000 21 -48 -54 -35 0
1000000 4 -22 0
1000000 22 -39 -53 -37 0
1000000 6 -23 0
1000000 23 -43 -39 -36 0
1000000 3 -24 0
1000000 24 -42 -61 -44 -41 0
1000000 3 -25 0
1000000 25 -38 -59 -49 -53 0
1000000 5 -26 0
1000000 26 -46 -41 -62 -47 -10 0
1000000 1 -27 0
1000000 27 -55 -52 -61 -50 -56 0
1000000 8 -28 0
1000000 28 -37 -61 -41 -64 -10 0
1000000 6 -29 0
1000000 29 -64 -10 0
1000000 7 -30 0
1000000 30 -38 -46 -60 -59 -37 0
1000000 9 -31 0
1000000 31 -57 -43 0
1000000 4 -32 0
1000000 32 -35 -38 -42 -5 0
1000000 6 -33 0
1000000 33 -59 -43 0
1000000 2 -34 0
1000000 34 -48 -45 -55 -59 0
1000000 -1 27 0
1000000 -2 16 19 34 13 21 0
1000000 -3 24 25 0
1000000 -4 17 22 18 32 0
1000000 -5 26 12 0
1000000 -6 33 29 23 0
1000000 -7 30 0
1000000 -8 28 14 0
1000000 -9 31 20 15 0
1000000 -10 11 0
1000000 35 71 0
1000000 36 78 0
1000000 37 79 0
1000000 38 71 0
1000000 39 72 0
1000000 40 67 0
1000000 41 75 0
1000000 42 73 0
1000000 43 70 0
1000000 44 78 0
1000000 45 77 0
1000000 46 74 0
1000000 47 79 0
1000000 48 76 0
1000000 49 65 0
1000000 50 76 0
1000000 51 75 0
1000000 52 78 0
1000000 53 74 0
1000000 54 66 0
1000000 55 69 0
1000000 56 74 0
1000000 57 79 0
1000000 58 73 0
1000000 59 77 0
1000000 60 66 0
1000000 61 68 0
1000000 62 65 0
1000000 63 68 0
1000000 64 70 0
1000000 -35 -71 0
1000000 -36 -78 0
1000000 -37 -79 0
1000000 -38 -71 0
1000000 -39 -72 0
1000000 -40 -67 0
1000000 -41 -75 0
1000000 -42 -73 0
1000000 -43 -70 0
1000000 -44 -78 0
1000000 -45 -77 0
1000000 -46 -74 0
1000000 -47 -79 0
1000000 -48 -76 0
1000000 -49 -65 0
1000000 -50 -76 0
1000000 -51 -75 0
1000000 -52 -78 0
1000000 -53 -74 0
1000000 -54 -66 0
1000000 -55 -69 0
1000000 -56 -74 0
1000000 -57 -79 0
1000000 -58 -73 0
1000000 -59 -77 0
1000000 -60 -66 0
1000000 -61 -68 0
1000000 -62 -65 0
1000000 -63 -68 0
1000000 -64 -70 0
6500 -65 0
5900 -66 0
9000 -67 0
8900 -68 0
8900 -69 0
8500 -70 0
5900 -71 0
8500 -72 0
9000 -73 0
8900 -74 0
8900 -75 0
8500 -76 0
6500 -77 0
8900 -78 0
8900 -79 0
2200 35 0
2800 36 0
4500 37 0
2200 38 0
4000 39 0
4500 40 0
4500 41 0
4500 42 0
1700 43 0
1700 44 0
4500 45 0
4000 46 0
4000 47 0
1700 48 0
4000 49 0
2200 50 0
2200 51 0
2200 52 0
4000 53 0
2200 54 0
2800 55 0
4000 56 0
2200 57 0
2800 58 0
4500 59 0
4500 60 0
4000 61 0
2200 62 0
4000 63 0
2200 64 0
8650 -27 0
4320 16 19 34 13 -21 0
10800 16 19 34 -13 21 0
12960 16 19 34 -13 -21 0
14040 16 19 -34 13 21 0
15552 16 19 -34 13 -21 0
17820 16 19 -34 -13 21 0
18576 16 19 -34 -13 -21 0
19440 16 -19 34 13 21 0
19872 16 -19 34 13 -21 0
20520 16 -19 34 -13 21 0
20736 16 -19 34 -13 -21 0
20844 16 -19 -34 13 21 0
20995 16 -19 -34 13 -21 0
21222 16 -19 -34 -13 21 0
21298 16 -19 -34 -13 -21 0
14040 -16 19 34 13 21 0
15552 -16 19 34 13 -21 0
17820 -16 19 34 -13 21 0
18576 -16 19 34 -13 -21 0
18954 -16 19 -34 13 21 0
19483 -16 19 -34 13 -21 0
20277 -16 19 -34 -13 21 0
20542 -16 19 -34 -13 -21 0
20844 -16 -19 34 13 21 0
20995 -16 -19 34 13 -21 0
21222 -16 -19 34 -13 21 0
21298 -16 -19 34 -13 -21 0
21335 -16 -19 -34 13 21 0
21388 -16 -19 -34 13 -21 0
21468 -16 -19 -34 -13 21 0
21494 -16 -19 -34 -13 -21 0
1812 24 -25 0
1510 -24 25 0
3141 -24 -25 0
8950 17 22 18 -32 0
2148 17 22 -18 32 0
10024 17 22 -18 -32 0
17005 17 -22 18 32 0
17453 17 -22 18 -32 0
17112 17 -22 -18 32 0
17506 17 -22 -18 -32 0
1790 -17 22 18 32 0
9845 -17 22 18 -32 0
3723 -17 22 -18 32 0
10812 -17 22 -18 -32 0
17094 -17 -22 18 32 0
17497 -17 -22 18 -32 0
17191 -17 -22 -18 32 0
17546 -17 -22 -18 -32 0
9815 26 -12 0
10570 -26 12 0
13515 -26 -12 0
7560 33 29 -23 0
14040 33 -29 23 0
16686 33 -29 -23 0
17280 -33 29 23 0
18792 -33 29 -23 0
20088 -33 -29 23 0
20617 -33 -29 -23 0
2076 -30 0
12975 28 -14 0
1730 -28 14 0
13408 -28 -14 0
16110 31 20 -15 0
17005 31 -20 15 0
17810 31 -20 -15 0
5370 -31 20 15 0
16647 -31 20 -15 0
17273 -31 -20 15 0
17837 -31 -20 -15 0
41310 -11 0
