p wcnf 79 237 1000000
1000000 7 -11 0
1000000 11 -54 -36 -37 0
1000000 9 -12 0
1000000 12 -49 -64 -37 -52 0
1000000 9 -13 0
1000000 13 -42 -36 -53 -35 -38 0
1000000 10 -14 0
1000000 14 -49 -55 0
1000000 9 -15 0
1000000 15 -55 -64 -52 -58 -10 0
1000000 3 -16 0
1000000 16 -55 -35 0
1000000 8 -17 0
1000000 17 -47 -37 -35 -38 0
1000000 8 -18 0
1000000 18 -42 -9 0
1000000 3 -19 0
1000000 19 -44 -59 -50 -62 -54 0
1000000 2 -20 0
1000000 20 -51 -45 -57 0
1000000 7 -21 0
1000000 21 -38 -50 -59 0
1000000 4 -22 0
1000000 22 -39 -40 -59 0
1000000 7 -23 0
1000000 23 -56 -42 -52 0
1000000 9 -24 0
1000000 24 -38 -48 0
1000000 4 -25 0
1000000 25 -58 -51 -45 -37 -35 0
1000000 7 -26 0
1000000 26 -41 -47 0
1000000 10 -27 0
1000000 27 -36 -41 0
1000000 3 -28 0
1000000 28 -55 -63 0
1000000 6 -29 0
1000000 29 -50 -64 0
1000000 5 -30 0
1000000 30 -35 -62 -42 -37 -59 0
1000000 1 -31 0
1000000 31 -55 -45 -41 0
1000000 1 -32 0
1000000 32 -64 -51 -42 0
1000000 3 -33 0
1000000 33 -46 -53 -50 -58 0
1000000 8 -34 0
1000000 34 -56 -46 -54 -60 -64 0
1000000 -1 32 31 0
1000000 -2 20 0
1000000 -3 28 16 19 33 0
1000000 -4 22 25 0
1000000 -5 30 0
1000000 -6 29 0
1000000 -7 23 11 21 26 0
1000000 -8 18 17 34 0
1000000 -9 12 15 24 13 0
1000000 -10 14 27 0
1000000 35 78 0
1000000 36 65 0
1000000 37 76 0
1000000 38 68 0
1000000 39 67 0
1000000 40 71 0
1000000 41 78 0
1000000 42 77 0
1000000 43 68 0
1000000 44 76 0
1000000 45 74 0
1000000 46 70 0
1000000 47 75 0
1000000 48 65 0
1000000 49 72 0
1000000 50 73 0
1000000 51 66 0
1000000 52 65 0
1000000 53 74 0
1000000 54 79 0
1000000 55 78 0
1000000 56 72 0
1000000 57 71 0
1000000 58 72 0
1000000 59 69 0
1000000 60 79 0
1000000 61 66 0
1000000 62 69 0
1000000 63 74 0
1000000 64 69 0
1000000 -35 -78 0
1000000 -36 -65 0
1000000 -37 -76 0
1000000 -38 -68 0
1000000 -39 -67 0
1000000 -40 -71 0
1000000 -41 -78 0
1000000 -42 -77 0
1000000 -43 -68 0
1000000 -44 -76 0
1000000 -45 -74 0
1000000 -46 -70 0
1000000 -47 -75 0
1000000 -48 -65 0
1000000 -49 -72 0
1000000 -50 -73 0
1000000 -51 -66 0
1000000 -52 -65 0
1000000 -53 -74 0
1000000 -54 -79 0
1000000 -55 -78 0
1000000 -56 -72 0
1000000 -57 -71 0
1000000 -58 -72 0
1000000 -59 -69 0
1000000 -60 -79 0
1000000 -61 -66 0
1000000 -62 -69 0
1000000 -63 -74 0
1000000 -64 -69 0
8200 -65 0
6200 -66 0
9500 -67 0
6200 -68 0
6200 -69 0
9000 -70 0
9500 -71 0
9500 -72 0
8200 -73 0
8200 -74 0
7400 -75 0
6200 -76 0
6200 -77 0
9500 -78 0
9500 -79 0
1000 35 0
2400 36 0
1300 37 0
2400 38 0
1000 39 0
2400 40 0
1000 41 0
1300 42 0
1000 43 0
2400 44 0
1000 45 0
1300 46 0
2400 47 0
1300 48 0
1300 49 0
1300 50 0
2400 51 0
4400 52 0
1300 53 0
1000 54 0
2400 55 0
1300 56 0
4400 57 0
1000 58 0
4400 59 0
2400 60 0
1100 61 0
1300 62 0
4400 63 0
2400 64 0
975 32 -31 0
1625 -32 31 0
2356 -32 -31 0
15575 -20 0
9920 28 16 19 -33 0
9920 28 16 -19 33 0
17856 28 16 -19 -33 0
42160 28 -16 19 33 0
43648 28 -16 19 -33 0
43648 28 -16 -19 33 0
44838 28 -16 -19 -33 0
15872 -28 16 19 33 0
22618 -28 16 19 -33 0
22618 -28 16 -19 33 0
28014 -28 16 -19 -33 0
44541 -28 -16 19 33 0
45553 -28 -16 19 -33 0
45553 -28 -16 -19 33 0
46362 -28 -16 -19 -33 0
3900 22 -25 0
4225 -22 25 0
5590 -22 -25 0
8820 -30 0
10230 -29 0
19840 23 11 21 -26 0
12400 23 11 -21 26 0
27280 23 11 -21 -26 0
47120 23 -11 21 26 0
48112 23 -11 21 -26 0
47740 23 -11 -21 26 0
48484 23 -11 -21 -26 0
7440 -23 11 21 26 0
24304 -23 11 21 -26 0
17980 -23 11 -21 26 0
30628 -23 11 -21 -26 0
47492 -23 -11 21 26 0
48335 -23 -11 21 -26 0
48019 -23 -11 -21 26 0
48651 -23 -11 -21 -26 0
2600 18 17 -34 0
3575 18 -17 34 0
4745 18 -17 -34 0
6175 -18 17 34 0
6305 -18 17 -34 0
6354 -18 -17 34 0
6412 -18 -17 -34 0
5952 12 15 24 -13 0
44640 12 15 -24 13 0
45235 12 15 -24 -13 0
32240 12 -15 24 13 0
34323 12 -15 24 -13 0
47864 12 -15 -24 13 0
48072 12 -15 -24 -13 0
34720 -12 15 24 13 0
36506 -12 15 24 -13 0
48112 -12 15 -24 13 0
48291 -12 15 -24 -13 0
44392 -12 -15 24 13 0
45017 -12 -15 24 -13 0
49079 -12 -15 -24 13 0
49142 -12 -15 -24 -13 0
4960 14 -27 0
42160 -14 27 0
42904 -14 -27 0
