p wcnf 79 223 1000000
1000000 4 -11 0
1000000 11 -55 -9 0
1000000 7 -12 0
1000000 12 -54 -56 -9 0
1000000 3 -13 0
1000000 13 -55 -45 0
1000000 3 -14 0
1000000 14 -45 -41 -49 -36 0
1000000 9 -15 0
1000000 15 -54 -42 -60 -38 0
1000000 7 -16 0
1000000 16 -48 -40 -63 -52 0
1000000 5 -17 0
1000000 17 -59 -52 -7 0
1000000 6 -18 0
1000000 18 -37 -44 -50 -60 -8 0
1000000 2 -19 0
1000000 19 -44 -62 -57 0
1000000 9 -20 0
1000000 20 -60 -49 -47 0
1000000 9 -21 0
1000000 21 -45 -44 -59 0
1000000 8 -22 0
1000000 22 -46 -36 -37 -38 -56 0
1000000 4 -23 0
1000000 23 -58 -56 -45 -49 0
1000000 1 -24 0
1000000 24 -61 -56 -41 -8 0
1000000 7 -25 0
1000000 25 -58 -39 -49 -53 -42 0
1000000 8 -26 0
1000000 26 -64 -35 -48 -40 -47 0
1000000 6 -27 0
1000000 27 -48 -57 0
1000000 1 -28 0
1000000 28 -52 -62 -54 -63 -47 0
1000000 4 -29 0
1000000 29 -45 -42 -60 0
1000000 10 -30 0
1000000 30 -35 -38 -51 0
1000000 8 -31 0
1000000 31 -43 -9 0
1000000 3 -32 0
1000000 32 -64 -61 0
1000000 6 -33 0
1000000 33 -64 -37 -35 -62 0
1000000 10 -34 0
1000000 34 -57 -37 0
1000000 -1 28 24 0
1000000 -2 19 0
1000000 -3 13 32 14 0
1000000 -4 29 11 23 0
1000000 -5 17 0
1000000 -6 18 33 27 0
1000000 -7 16 12 25 0
1000000 -8 26 31 22 0
1000000 -9 20 21 15 0
1000000 -10 34 30 0
1000000 35 75 0
1000000 36 68 0
1000000 37 74 0
1000000 38 79 0
1000000 39 74 0
1000000 40 77 0
1000000 41 71 0
1000000 42 76 0
1000000 43 77 0
1000000 44 70 0
1000000 45 72 0
1000000 46 65 0
1000000 47 67 0
1000000 48 69 0
1000000 49 69 0
1000000 50 79 0
1000000 51 73 0
1000000 52 72 0
1000000 53 74 0
1000000 54 75 0
1000000 55 78 0
1000000 56 69 0
1000000 57 68 0
1000000 58 70 0
1000000 59 75 0
1000000 60 66 0
1000000 61 66 0
1000000 62 76 0
1000000 63 67 0
1000000 64 72 0
1000000 -35 -75 0
1000000 -36 -68 0
1000000 -37 -74 0
1000000 -38 -79 0
1000000 -39 -74 0
1000000 -40 -77 0
1000000 -41 -71 0
1000000 -42 -76 0
1000000 -43 -77 0
1000000 -44 -70 0
1000000 -45 -72 0
1000000 -46 -65 0
1000000 -47 -67 0
1000000 -48 -69 0
1000000 -49 -69 0
1000000 -50 -79 0
1000000 -51 -73 0
1000000 -52 -72 0
1000000 -53 -74 0
1000000 -54 -75 0
1000000 -55 -78 0
1000000 -56 -69 0
1000000 -57 -68 0
1000000 -58 -70 0
1000000 -59 -75 0
1000000 -60 -66 0
1000000 -61 -66 0
1000000 -62 -76 0
1000000 -63 -67 0
1000000 -64 -72 0
9800 -65 0
7800 -66 0
5900 -67 0
5900 -68 0
8800 -69 0
9800 -70 0
7800 -71 0
9300 -72 0
9300 -73 0
8800 -74 0
8800 -75 0
5900 -76 0
9800 -77 0
8800 -78 0
9800 -79 0
4400 35 0
3400 36 0
3400 37 0
4400 38 0
3400 39 0
2000 40 0
4000 41 0
1100 42 0
4400 43 0
4400 44 0
1100 45 0
2000 46 0
3400 47 0
3400 48 0
4400 49 0
1100 50 0
1100 51 0
3400 52 0
4400 53 0
2000 54 0
4000 55 0
4400 56 0
3400 57 0
4000 58 0
1100 59 0
1100 60 0
4000 61 0
4400 62 0
1100 63 0
4400 64 0
29355 28 -24 0
13905 -28 24 0
30050 -28 -24 0
10716 -19 0
43110 13 32 -14 0
8622 13 -32 14 0
43972 13 -32 -14 0
31135 -13 32 14 0
46223 -13 32 -14 0
34153 -13 -32 14 0
46525 -13 -32 -14 0
18202 29 11 -23 0
23950 29 -11 23 0
33051 29 -11 -23 0
40715 -29 11 23 0
43445 -29 11 -23 0
44308 -29 -11 23 0
45673 -29 -11 -23 0
18202 -17 0
1410 18 33 -27 0
7050 18 -33 27 0
8108 18 -33 -27 0
9024 -18 33 27 0
9983 -18 33 -27 0
13818 -18 -33 27 0
14537 -18 -33 -27 0
4020 16 12 -25 0
670 16 -12 25 0
4610 16 -12 -25 0
15075 -16 12 25 0
17286 -16 12 -25 0
15444 -16 -12 25 0
17610 -16 -12 -25 0
19740 26 31 -22 0
8460 26 -31 22 0
22278 26 -31 -22 0
5076 -26 31 22 0
21263 -26 31 -22 0
12013 -26 -31 22 0
23344 -26 -31 -22 0
45505 20 21 -15 0
14370 20 -21 15 0
46223 20 -21 -15 0
45505 -20 21 15 0
47780 -20 21 -15 0
46223 -20 -21 15 0
47816 -20 -21 -15 0
7136 34 -30 0
11150 -34 30 0
14718 -34 -30 0
