p wcnf 79 245 1000000
1000000 9 -11 0
1000000 11 -51 -36 0
1000000 3 -12 0
1000000 12 -46 -63 -6 0
1000000 3 -13 0
1000000 13 -36 -50 -56 -41 0
1000000 2 -14 0
1000000 14 -54 -62 -36 -53 -8 0
1000000 4 -15 0
1000000 15 -53 -58 0
1000000 10 -16 0
1000000 16 -57 -63 0
1000000 7 -17 0
1000000 17 -36 -54 -57 -50 -58 0
1000000 6 -18 0
1000000 18 -56 -45 -49 0
1000000 7 -19 0
1000000 19 -37 -43 -10 0
1000000 8 -20 0
1000000 20 -60 -37 -58 -38 -45 0
1000000 7 -21 0
1000000 21 -56 -48 -57 -9 0
1000000 2 -22 0
1000000 22 -62 -37 -35 -61 0
1000000 5 -23 0
1000000 23 -52 -6 0
1000000 3 -24 0
1000000 24 -61 -35 -41 -39 0
1000000 3 -25 0
1000000 25 -38 -59 -42 -63 0
1000000 8 -26 0
1000000 26 -37 -35 -51 -63 -47 0
1000000 3 -27 0
1000000 27 -60 -53 -50 0
1000000 1 -28 0
1000000 28 -60 -51 -62 -42 -39 0
1000000 5 -29 0
1000000 29 -50 -37 -59 -10 0
1000000 8 -30 0
1000000 30 -64 -57 0
1000000 7 -31 0
1000000 31 -36 -61 -54 -45 0
1000000 6 -32 0
1000000 32 -58 -49 -10 0
1000000 1 -33 0
1000000 33 -48 -63 -47 -53 -59 0
1000000 2 -34 0
1000000 34 -54 -57 -53 -50 -35 0
1000000 -1 28 33 0
1000000 -2 22 34 14 0
1000000 -3 13 24 12 27 25 0
1000000 -4 15 0
1000000 -5 23 29 0
1000000 -6 18 32 0
1000000 -7 19 21 31 17 0
1000000 -8 26 20 30 0
1000000 -9 11 0
1000000 -10 16 0
1000000 35 77 0
1000000 36 66 0
1000000 37 65 0
1000000 38 74 0
1000000 39 69 0
1000000 40 73 0
1000000 41 73 0
1000000 42 78 0
1000000 43 74 0
1000000 44 67 0
1000000 45 70 0
1000000 46 76 0
1000000 47 78 0
1000000 48 71 0
1000000 49 75 0
1000000 50 72 0
1000000 51 74 0
1000000 52 66 0
1000000 53 77 0
1000000 54 70 0
1000000 55 66 0
1000000 56 70 0
1000000 57 72 0
1000000 58 68 0
1000000 59 79 0
1000000 60 78 0
1000000 61 71 0
1000000 62 67 0
1000000 63 77 0
1000000 64 79 0
1000000 -35 -77 0
1000000 -36 -66 0
1000000 -37 -65 0
1000000 -38 -74 0
1000000 -39 -69 0
1000000 -40 -73 0
1000000 -41 -73 0
1000000 -42 -78 0
1000000 -43 -74 0
1000000 -44 -67 0
1000000 -45 -70 0
1000000 -46 -76 0
1000000 -47 -78 0
1000000 -48 -71 0
1000000 -49 -75 0
1000000 -50 -72 0
1000000 -51 -74 0
1000000 -52 -66 0
1000000 -53 -77 0
1000000 -54 -70 0
1000000 -55 -66 0
1000000 -56 -70 0
1000000 -57 -72 0
1000000 -58 -68 0
1000000 -59 -79 0
1000000 -60 -78 0
1000000 -61 -71 0
1000000 -62 -67 0
1000000 -63 -77 0
1000000 -64 -79 0
8000 -65 0
6000 -66 0
9200 -67 0
5400 -68 0
9200 -69 0
8000 -70 0
8000 -71 0
9200 -72 0
8000 -73 0
8600 -74 0
8600 -75 0
9200 -76 0
6000 -77 0
6000 -78 0
5400 -79 0
2700 35 0
4300 36 0
4300 37 0
1600 38 0
1600 39 0
4700 40 0
4700 41 0
4600 42 0
4600 43 0
2700 44 0
1600 45 0
1600 46 0
2700 47 0
1600 48 0
2700 49 0
4300 50 0
4300 51 0
4600 52 0
2700 53 0
2700 54 0
1600 55 0
4700 56 0
4700 57 0
4700 58 0
2700 59 0
4300 60 0
4300 61 0
1600 62 0
4600 63 0
4700 64 0
12882 28 -33 0
4068 -28 33 0
15404 -28 -33 0
6625 22 34 -14 0
10600 22 -34 14 0
14575 22 -34 -14 0
10600 -22 34 14 0
14575 -22 34 -14 0
16960 -22 -34 14 0
19345 -22 -34 -14 0
10048 13 24 12 27 -25 0
26690 13 24 12 -27 25 0
28197 13 24 12 -27 -25 0
28260 13 24 -12 27 25 0
29265 13 24 -12 27 -25 0
30929 13 24 -12 -27 25 0
31080 13 24 -12 -27 -25 0
10048 13 -24 12 27 25 0
16881 13 -24 12 27 -25 0
28197 13 -24 12 -27 25 0
29222 13 -24 12 -27 -25 0
29265 13 -24 -12 27 25 0
29948 13 -24 -12 27 -25 0
31080 13 -24 -12 -27 25 0
31182 13 -24 -12 -27 -25 0
5652 -13 24 12 27 25 0
13891 -13 24 12 27 -25 0
27538 -13 24 12 -27 25 0
28774 -13 24 12 -27 -25 0
28825 -13 24 -12 27 25 0
29649 -13 24 -12 27 -25 0
31014 -13 24 -12 -27 25 0
31137 -13 24 -12 -27 -25 0
13891 -13 -24 12 27 25 0
19494 -13 -24 12 27 -25 0
28774 -13 -24 12 -27 25 0
29614 -13 -24 12 -27 -25 0
29649 -13 -24 -12 27 25 0
30209 -13 -24 -12 27 -25 0
31137 -13 -24 -12 -27 25 0
31221 -13 -24 -12 -27 -25 0
23550 -15 0
25120 23 -29 0
25120 -23 29 0
30144 -23 -29 0
1655 18 -32 0
24825 -18 32 0
25239 -18 -32 0
7850 19 21 31 -17 0
18840 19 21 -31 17 0
21980 19 21 -31 -17 0
628 19 -21 31 17 0
8321 19 -21 31 -17 0
19091 19 -21 -31 17 0
22168 19 -21 -31 -17 0
4710 -19 21 31 17 0
11383 -19 21 31 -17 0
20724 -19 21 -31 17 0
23393 -19 21 -31 -17 0
5244 -19 -21 31 17 0
11783 -19 -21 31 -17 0
20938 -19 -21 -31 17 0
23553 -19 -21 -31 -17 0
21980 26 20 -30 0
17270 26 -20 30 0
27161 26 -20 -30 0
10048 -26 20 30 0
24994 -26 20 -30 0
21792 -26 -20 30 0
28517 -26 -20 -30 0
4770 -11 0
5958 -16 0
