p wcnf 79 259 1000000
1000000 8 -11 0
1000000 11 -61 -56 -58 -38 0
1000000 3 -12 0
1000000 12 -39 -46 -60 -58 -43 0
1000000 4 -13 0
1000000 13 -44 -61 -37 -43 0
1000000 1 -14 0
1000000 14 -48 -60 -56 0
1000000 9 -15 0
1000000 15 -52 -51 0
1000000 5 -16 0
1000000 16 -38 -54 -42 -61 -35 0
1000000 6 -17 0
1000000 17 -55 -50 -58 0
1000000 5 -18 0
1000000 18 -37 -59 -51 0
1000000 9 -19 0
1000000 19 -58 -39 -64 0
1000000 10 -20 0
1000000 20 -43 -36 -55 -63 0
1000000 8 -21 0
1000000 21 -36 -37 0
1000000 6 -22 0
1000000 22 -45 -46 -63 -42 -37 0
1000000 5 -23 0
1000000 23 -62 -54 -42 -44 0
1000000 9 -24 0
1000000 24 -37 -59 -48 0
1000000 3 -25 0
1000000 25 -45 -35 -49 -42 -63 0
1000000 6 -26 0
1000000 26 -64 -58 -51 -7 0
1000000 8 -27 0
1000000 27 -40 -60 -51 -46 0
1000000 7 -28 0
1000000 28 -39 -63 -47 0
1000000 6 -29 0
1000000 29 -46 -54 -36 -47 0
1000000 6 -30 0
1000000 30 -61 -7 0
1000000 8 -31 0
1000000 31 -62 -9 0
1000000 7 -32 0
1000000 32 -58 -41 -38 0
1000000 8 -33 0
1000000 33 -54 -60 -53 -58 0
1000000 2 -34 0
1000000 34 -46 -42 -50 -64 -44 0
1000000 -1 14 0
1000000 -2 34 0
1000000 -3 12 25 0
1000000 -4 13 0
1000000 -5 23 18 16 0
1000000 -6 30 26 17 29 22 0
1000000 -7 28 32 0
1000000 -8 11 33 31 21 27 0
1000000 -9 19 15 24 0
1000000 -10 20 0
1000000 35 76 0
1000000 36 73 0
1000000 37 69 0
1000000 38 69 0
1000000 39 70 0
1000000 40 77 0
1000000 41 71 0
1000000 42 78 0
1000000 43 76 0
1000000 44 65 0
1000000 45 70 0
1000000 46 72 0
1000000 47 68 0
1000000 48 68 0
1000000 49 76 0
1000000 50 72 0
1000000 51 67 0
1000000 52 74 0
1000000 53 70 0
1000000 54 66 0
1000000 55 78 0
1000000 56 72 0
1000000 57 65 0
1000000 58 78 0
1000000 59 79 0
1000000 60 69 0
1000000 61 75 0
1000000 62 79 0
1000000 63 65 0
1000000 64 71 0
1000000 -35 -76 0
1000000 -36 -73 0
1000000 -37 -69 0
1000000 -38 -69 0
1000000 -39 -70 0
1000000 -40 -77 0
1000000 -41 -71 0
1000000 -42 -78 0
1000000 -43 -76 0
1000000 -44 -65 0
1000000 -45 -70 0
1000000 -46 -72 0
1000000 -47 -68 0
1000000 -48 -68 0
1000000 -49 -76 0
1000000 -50 -72 0
1000000 -51 -67 0
1000000 -52 -74 0
1000000 -53 -70 0
1000000 -54 -66 0
1000000 -55 -78 0
1000000 -56 -72 0
1000000 -57 -65 0
1000000 -58 -78 0
1000000 -59 -79 0
1000000 -60 -69 0
1000000 -61 -75 0
1000000 -62 -79 0
1000000 -63 -65 0
1000000 -64 -71 0
9000 -65 0
8400 -66 0
6600 -67 0
9200 -68 0
6600 -69 0
8400 -70 0
9000 -71 0
9000 -72 0
8600 -73 0
8600 -74 0
8400 -75 0
6600 -76 0
8400 -77 0
9000 -78 0
9200 -79 0
1900 35 0
3000 36 0
1100 37 0
1100 38 0
1900 39 0
1900 40 0
3000 41 0
1900 42 0
4000 43 0
4000 44 0
1900 45 0
4000 46 0
1800 47 0
1900 48 0
1800 49 0
3000 50 0
1100 51 0
1800 52 0
1100 53 0
1800 54 0
3000 55 0
4000 56 0
3000 57 0
3000 58 0
4000 59 0
1800 60 0
3000 61 0
1800 62 0
3000 63 0
3000 64 0
3540 -14 0
21780 -34 0
17990 12 -25 0
3855 -12 25 0
19147 -12 -25 0
21770 -13 0
3110 23 18 -16 0
15550 23 -18 16 0
17105 23 -18 -16 0
10885 -23 18 16 0
12906 -23 18 -16 0
20993 -23 -18 16 0
22003 -23 -18 -16 0
10280 30 26 17 29 -22 0
10280 30 26 17 -29 22 0
16448 30 26 17 -29 -22 0
17990 30 26 -17 29 22 0
21074 30 26 -17 29 -22 0
21074 30 26 -17 -29 22 0
22924 30 26 -17 -29 -22 0
11565 30 -26 17 29 22 0
17219 30 -26 17 29 -22 0
17219 30 -26 17 -29 22 0
20611 30 -26 17 -29 -22 0
21459 30 -26 -17 29 22 0
23156 30 -26 -17 29 -22 0
23156 30 -26 -17 -29 22 0
24173 30 -26 -17 -29 -22 0
24415 -30 26 17 29 22 0
24929 -30 26 17 29 -22 0
24929 -30 26 17 -29 22 0
25237 -30 26 17 -29 -22 0
25315 -30 26 -17 29 22 0
25469 -30 26 -17 29 -22 0
25469 -30 26 -17 -29 22 0
25561 -30 26 -17 -29 -22 0
24993 -30 -26 17 29 22 0
25276 -30 -26 17 29 -22 0
25276 -30 -26 17 -29 22 0
25446 -30 -26 17 -29 -22 0
25488 -30 -26 -17 29 22 0
25573 -30 -26 -17 29 -22 0
25573 -30 -26 -17 -29 22 0
25624 -30 -26 -17 -29 -22 0
12850 28 -32 0
1285 -28 32 0
13493 -28 -32 0
8260 11 33 31 21 -27 0
14160 11 33 31 -21 27 0
17464 11 33 31 -21 -27 0
3540 11 33 -31 21 27 0
10561 11 33 -31 21 -27 0
15576 11 33 -31 -21 27 0
18384 11 33 -31 -21 -27 0
472 11 -33 31 21 27 0
8567 11 -33 31 21 -27 0
14349 11 -33 31 -21 27 0
17587 11 -33 31 -21 -27 0
3941 11 -33 -31 21 27 0
10822 11 -33 -31 21 -27 0
15736 11 -33 -31 -21 27 0
18489 11 -33 -31 -21 -27 0
472 -11 33 31 21 27 0
8567 -11 33 31 21 -27 0
14349 -11 33 31 -21 27 0
17587 -11 33 31 -21 -27 0
3941 -11 33 -31 21 27 0
10822 -11 33 -31 21 -27 0
15736 -11 33 -31 -21 27 0
18489 -11 33 -31 -21 -27 0
935 -11 -33 31 21 27 0
8867 -11 -33 31 21 -27 0
14534 -11 -33 31 -21 27 0
17707 -11 -33 31 -21 -27 0
4334 -11 -33 -31 21 27 0
11077 -11 -33 -31 21 -27 0
15894 -11 -33 -31 -21 27 0
18591 -11 -33 -31 -21 -27 0
24415 19 15 -24 0
2570 19 -15 24 0
24544 19 -15 -24 0
7710 -19 15 24 0
24800 -19 15 -24 0
9509 -19 -15 24 0
24890 -19 -15 -24 0
8550 -20 0
