p wcnf 79 245 1000000
1000000 9 -11 0
1000000 11 -62 -56 0
1000000 2 -12 0
1000000 12 -57 -55 -44 -52 -56 0
1000000 5 -13 0
1000000 13 -49 -42 -40 0
1000000 3 -14 0
1000000 14 -53 -52 0
1000000 9 -15 0
1000000 15 -37 -35 -51 0
1000000 7 -16 0
1000000 16 -41 -42 -36 -47 -37 0
1000000 2 -17 0
1000000 17 -47 -5 0
1000000 9 -18 0
1000000 18 -43 -41 -49 -53 -47 0
1000000 8 -19 0
1000000 19 -42 -55 -64 0
1000000 4 -20 0
1000000 20 -59 -5 0
1000000 6 -21 0
1000000 21 -39 -50 -10 0
1000000 3 -22 0
1000000 22 -51 -9 0
1000000 1 -23 0
1000000 23 -59 -39 -40 -9 0
1000000 2 -24 0
1000000 24 -60 -42 0
1000000 3 -25 0
1000000 25 -58 -36 -37 0
1000000 5 -26 0
1000000 26 -35 -51 -46 -45 0
1000000 10 -27 0
1000000 27 -43 -48 0
1000000 10 -28 0
1000000 28 -56 -64 0
1000000 3 -29 0
1000000 29 -53 -35 -63 -64 -8 0
1000000 2 -30 0
1000000 30 -42 -55 -37 0
1000000 4 -31 0
1000000 31 -49 -64 0
1000000 4 -32 0
1000000 32 -40 -53 -43 -41 -42 0
1000000 7 -33 0
1000000 33 -36 -60 -52 -45 0
1000000 2 -34 0
1000000 34 -58 -36 -55 -61 -59 0
1000000 -1 23 0
1000000 -2 30 17 12 34 24 0
1000000 -3 22 14 29 25 0
1000000 -4 31 20 32 0
1000000 -5 13 26 0
1000000 -6 21 0
1000000 -7 16 33 0
1000000 -8 19 0
1000000 -9 15 18 11 0
1000000 -10 27 28 0
1000000 35 65 0
1000000 36 78 0
1000000 37 68 0
1000000 38 71 0
1000000 39 78 0
1000000 40 74 0
1000000 41 74 0
1000000 42 69 0
1000000 43 69 0
1000000 44 76 0
1000000 45 70 0
1000000 46 73 0
1000000 47 73 0
1000000 48 72 0
1000000 49 65 0
1000000 50 77 0
1000000 51 75 0
1000000 52 74 0
1000000 53 67 0
1000000 54 77 0
1000000 55 76 0
1000000 56 79 0
1000000 57 78 0
1000000 58 76 0
1000000 59 75 0
1000000 60 72 0
1000000 61 73 0
1000000 62 75 0
1000000 63 66 0
1000000 64 70 0
1000000 -35 -65 0
1000000 -36 -78 0
1000000 -37 -68 0
1000000 -38 -71 0
1000000 -39 -78 0
1000000 -40 -74 0
1000000 -41 -74 0
1000000 -42 -69 0
1000000 -43 -69 0
1000000 -44 -76 0
1000000 -45 -70 0
1000000 -46 -73 0
1000000 -47 -73 0
1000000 -48 -72 0
1000000 -49 -65 0
1000000 -50 -77 0
1000000 -51 -75 0
1000000 -52 -74 0
1000000 -53 -67 0
1000000 -54 -77 0
1000000 -55 -76 0
1000000 -56 -79 0
1000000 -57 -78 0
1000000 -58 -76 0
1000000 -59 -75 0
1000000 -60 -72 0
1000000 -61 -73 0
1000000 -62 -75 0
1000000 -63 -66 0
1000000 -64 -70 0
5400 -65 0
6700 -66 0
6700 -67 0
5100 -68 0
9700 -69 0
9700 -70 0
9700 -71 0
6700 -72 0
6700 -73 0
5100 -74 0
5400 -75 0
5400 -76 0
5400 -77 0
5400 -78 0
5100 -79 0
4500 35 0
1300 36 0
1200 37 0
1200 38 0
4500 39 0
1300 40 0
1300 41 0
1200 42 0
4500 43 0
4500 44 0
1300 45 0
1300 46 0
1200 47 0
1300 48 0
1300 49 0
1200 50 0
1200 51 0
1200 52 0
1200 53 0
1200 54 0
4600 55 0
1200 56 0
4500 57 0
4500 58 0
1100 59 0
4600 60 0
4500 61 0
1300 62 0
1200 63 0
1100 64 0
14400 -23 0
2980 30 17 12 34 -24 0
2235 30 17 12 -34 24 0
4768 30 17 12 -34 -24 0
11175 30 17 -12 34 24 0
11920 30 17 -12 34 -24 0
11734 30 17 -12 -34 24 0
12367 30 17 -12 -34 -24 0
1490 30 -17 12 34 24 0
4172 30 -17 12 34 -24 0
3502 30 -17 12 -34 24 0
5781 30 -17 12 -34 -24 0
11548 30 -17 -12 34 24 0
12218 30 -17 -12 34 -24 0
12050 30 -17 -12 -34 24 0
12620 30 -17 -12 -34 -24 0
298 -30 17 12 34 24 0
3218 -30 17 12 34 -24 0
2488 -30 17 12 -34 24 0
4971 -30 17 12 -34 -24 0
11250 -30 17 -12 34 24 0
11980 -30 17 -12 34 -24 0
11797 -30 17 -12 -34 24 0
12418 -30 17 -12 -34 -24 0
1758 -30 -17 12 34 24 0
4387 -30 -17 12 34 -24 0
3729 -30 -17 12 -34 24 0
5964 -30 -17 12 -34 -24 0
11615 -30 -17 -12 34 24 0
12272 -30 -17 -12 34 -24 0
12107 -30 -17 -12 -34 24 0
12666 -30 -17 -12 -34 -24 0
10222 22 14 29 -25 0
6725 22 14 -29 25 0
14392 22 14 -29 -25 0
25555 22 -14 29 25 0
26066 22 -14 29 -25 0
25891 22 -14 -29 25 0
26275 22 -14 -29 -25 0
4035 -22 14 29 25 0
12724 -22 14 29 -25 0
9751 -22 14 -29 25 0
16268 -22 14 -29 -25 0
25757 -22 -14 29 25 0
26191 -22 -14 29 -25 0
26043 -22 -14 -29 25 0
26368 -22 -14 -29 -25 0
24210 31 20 -32 0
538 31 -20 32 0
24264 31 -20 -32 0
4035 -31 20 32 0
24614 -31 20 -32 0
4492 -31 -20 32 0
24659 -31 -20 -32 0
2400 13 -26 0
2400 -13 26 0
4560 -13 -26 0
18830 -21 0
538 16 -33 0
13450 -16 33 0
13719 -16 -33 0
4842 -19 0
8070 15 18 -11 0
6725 15 -18 11 0
12778 15 -18 -11 0
1345 -15 18 11 0
9012 -15 18 -11 0
7734 -15 -18 11 0
13484 -15 -18 -11 0
10430 27 -28 0
13410 -27 28 0
14453 -27 -28 0
