p wcnf 79 257 1000000
1000000 8 -11 0
1000000 11 -48 -39 0
1000000 10 -12 0
1000000 12 -41 -39 -50 -59 0
1000000 4 -13 0
1000000 13 -57 -53 -46 0
1000000 2 -14 0
1000000 14 -44 -46 0
1000000 1 -15 0
1000000 15 -54 -40 -37 -43 0
1000000 4 -16 0
1000000 16 -57 -64 -52 -61 0
1000000 10 -17 0
1000000 17 -42 -60 -44 -38 0
1000000 7 -18 0
1000000 18 -37 -53 0
1000000 2 -19 0
1000000 19 -37 -38 -51 0
1000000 3 -20 0
1000000 20 -52 -59 -8 0
1000000 10 -21 0
1000000 21 -41 -62 -57 -60 -58 0
1000000 7 -22 0
1000000 22 -62 -55 -54 -49 -59 0
1000000 4 -23 0
1000000 23 -43 -60 -37 0
1000000 4 -24 0
1000000 24 -36 -49 0
1000000 4 -25 0
1000000 25 -58 -47 0
1000000 7 -26 0
1000000 26 -35 -49 -63 -47 -53 0
1000000 6 -27 0
1000000 27 -44 -53 -35 -52 -9 0
1000000 3 -28 0
1000000 28 -56 -48 -54 0
1000000 9 -29 0
1000000 29 -37 -46 -57 0
1000000 6 -30 0
1000000 30 -58 -46 -48 -40 -63 0
1000000 10 -31 0
1000000 31 -47 -42 0
1000000 5 -32 0
1000000 32 -40 -59 -41 -57 0
1000000 9 -33 0
1000000 33 -59 -41 0
1000000 10 -34 0
1000000 34 -48 -49 -55 -64 -44 0
1000000 -1 15 0
1000000 -2 19 14 0
1000000 -3 28 20 0
1000000 -4 16 25 23 24 13 0
1000000 -5 32 0
1000000 -6 30 27 0
1000000 -7 18 26 22 0
1000000 -8 11 0
1000000 -9 33 29 0
1000000 -10 17 12 34 21 31 0
1000000 35 75 0
1000000 36 71 0
1000000 37 69 0
1000000 38 74 0
1000000 39 70 0
1000000 40 70 0
1000000 41 67 0
1000000 42 79 0
1000000 43 72 0
1000000 44 68 0
1000000 45 69 0
1000000 46 77 0
1000000 47 74 0
1000000 48 65 0
1000000 49 70 0
1000000 50 69 0
1000000 51 71 0
1000000 52 76 0
1000000 53 78 0
1000000 54 76 0
1000000 55 73 0
1000000 56 75 0
1000000 57 75 0
1000000 58 73 0
1000000 59 73 0
1000000 60 66 0
1000000 61 68 0
1000000 62 79 0
1000000 63 71 0
1000000 64 76 0
1000000 -35 -75 0
1000000 -36 -71 0
1000000 -37 -69 0
1000000 -38 -74 0
1000000 -39 -70 0
1000000 -40 -70 0
1000000 -41 -67 0
1000000 -42 -79 0
1000000 -43 -72 0
1000000 -44 -68 0
1000000 -45 -69 0
1000000 -46 -77 0
1000000 -47 -74 0
1000000 -48 -65 0
1000000 -49 -70 0
1000000 -50 -69 0
1000000 -51 -71 0
1000000 -52 -76 0
1000000 -53 -78 0
1000000 -54 -76 0
1000000 -55 -73 0
1000000 -56 -75 0
1000000 -57 -75 0
1000000 -58 -73 0
1000000 -59 -73 0
1000000 -60 -66 0
1000000 -61 -68 0
1000000 -62 -79 0
1000000 -63 -71 0
1000000 -64 -76 0
8100 -65 0
7100 -66 0
8100 -67 0
7100 -68 0
8100 -69 0
7100 -70 0
7100 -71 0
5700 -72 0
7100 -73 0
8100 -74 0
7900 -75 0
5700 -76 0
7900 -77 0
5700 -78 0
5700 -79 0
3400 35 0
4800 36 0
2300 37 0
1700 38 0
4800 39 0
2300 40 0
2300 41 0
4800 42 0
1700 43 0
2300 44 0
3400 45 0
2300 46 0
1700 47 0
4800 48 0
2300 49 0
3400 50 0
1700 51 0
3400 52 0
3400 53 0
1700 54 0
1700 55 0
1700 56 0
4800 57 0
2300 58 0
1400 59 0
1700 60 0
2300 61 0
4800 62 0
4800 63 0
2300 64 0
37350 -15 0
8520 19 -14 0
12780 -19 14 0
18744 -19 -14 0
37350 28 -20 0
24900 -28 20 0
39840 -28 -20 0
29050 16 25 23 24 -13 0
20750 16 25 23 -24 13 0
35275 16 25 23 -24 -13 0
24900 16 25 -23 24 13 0
36520 16 25 -23 24 -13 0
33200 16 25 -23 -24 13 0
39010 16 25 -23 -24 -13 0
24900 16 -25 23 24 13 0
36520 16 -25 23 24 -13 0
33200 16 -25 23 -24 13 0
39010 16 -25 23 -24 -13 0
34860 16 -25 -23 24 13 0
39508 16 -25 -23 24 -13 0
38180 16 -25 -23 -24 13 0
40504 16 -25 -23 -24 -13 0
31125 -16 25 23 24 13 0
38388 -16 25 23 24 -13 0
36312 -16 25 23 -24 13 0
39944 -16 25 23 -24 -13 0
37350 -16 25 -23 24 13 0
40255 -16 25 -23 24 -13 0
39425 -16 25 -23 -24 13 0
40877 -16 25 -23 -24 -13 0
37350 -16 -25 23 24 13 0
40255 -16 -25 23 24 -13 0
39425 -16 -25 23 -24 13 0
40877 -16 -25 23 -24 -13 0
39840 -16 -25 -23 24 13 0
41002 -16 -25 -23 24 -13 0
40670 -16 -25 -23 -24 13 0
41251 -16 -25 -23 -24 -13 0
6390 -32 0
25470 30 -27 0
1415 -30 27 0
25612 -30 -27 0
8520 18 26 -22 0
8520 18 -26 22 0
15336 18 -26 -22 0
23430 -18 26 22 0
27264 -18 26 -22 0
27264 -18 -26 22 0
30331 -18 -26 -22 0
15428 -11 0
13632 33 -29 0
6390 -33 29 0
17977 -33 -29 0
23430 17 12 34 21 -31 0
13632 17 12 34 -21 31 0
29564 17 12 34 -21 -31 0
19170 17 12 -34 21 31 0
32056 17 12 -34 21 -31 0
26668 17 12 -34 -21 31 0
35430 17 12 -34 -21 -31 0
8520 17 -12 34 21 31 0
27264 17 -12 34 21 -31 0
19426 17 -12 34 -21 31 0
32172 17 -12 34 -21 -31 0
23856 17 -12 -34 21 31 0
34165 17 -12 -34 21 -31 0
29854 17 -12 -34 -21 31 0
36864 17 -12 -34 -21 -31 0
25560 -17 12 34 21 31 0
34932 -17 12 34 21 -31 0
31013 -17 12 34 -21 31 0
37386 -17 12 34 -21 -31 0
33228 -17 12 -34 21 31 0
38383 -17 12 -34 21 -31 0
36227 -17 12 -34 -21 31 0
39732 -17 12 -34 -21 -31 0
28968 -17 -12 34 21 31 0
36466 -17 -12 34 21 -31 0
33330 -17 -12 34 -21 31 0
38429 -17 -12 34 -21 -31 0
35102 -17 -12 -34 21 31 0
39226 -17 -12 -34 21 -31 0
37502 -17 -12 -34 -21 31 0
40306 -17 -12 -34 -21 -31 0
