p wcnf 79 245 1000000
1000000 8 -11 0
1000000 11 -49 -37 -35 -56 -43 0
1000000 9 -12 0
1000000 12 -42 -10 0
1000000 6 -13 0
1000000 13 -45 -10 0
1000000 3 -14 0
1000000 14 -57 -61 -58 0
1000000 6 -15 0
1000000 15 -53 -38 0
1000000 4 -16 0
1000000 16 -58 -49 0
1000000 2 -17 0
1000000 17 -41 -64 -44 -61 -51 0
1000000 8 -18 0
1000000 18 -46 -49 -42 0
1000000 3 -19 0
1000000 19 -48 -49 0
1000000 9 -20 0
1000000 20 -45 -41 -40 -48 -57 0
1000000 2 -21 0
1000000 21 -56 -43 -63 -64 -59 0
1000000 10 -22 0
1000000 22 -45 -47 0
1000000 9 -23 0
1000000 23 -53 -40 -63 -44 -10 0
1000000 5 -24 0
1000000 24 -47 -45 -38 -54 -49 0
1000000 1 -25 0
1000000 25 -62 -63 -47 0
1000000 9 -26 0
1000000 26 -61 -36 0
1000000 3 -27 0
1000000 27 -45 -62 -38 -46 -6 0
1000000 2 -28 0
1000000 28 -52 -58 0
1000000 8 -29 0
1000000 29 -37 -42 -55 -47 0
1000000 10 -30 0
1000000 30 -35 -46 -39 -52 -61 0
1000000 9 -31 0
1000000 31 -47 -48 -54 0
1000000 7 -32 0
1000000 32 -40 -35 -50 -56 0
1000000 7 -33 0
1000000 33 -48 -42 -39 -10 0
1000000 8 -34 0
1000000 34 -46 -50 -10 0
1000000 -1 25 0
1000000 -2 17 28 21 0
1000000 -3 19 14 27 0
1000000 -4 16 0
1000000 -5 24 0
1000000 -6 13 15 0
1000000 -7 32 33 0
1000000 -8 18 11 29 34 0
1000000 -9 31 20 12 23 26 0
1000000 -10 30 22 0
1000000 35 76 0
1000000 36 78 0
1000000 37 65 0
1000000 38 77 0
1000000 39 76 0
1000000 40 77 0
1000000 41 70 0
1000000 42 71 0
1000000 43 74 0
1000000 44 78 0
1000000 45 78 0
1000000 46 73 0
1000000 47 66 0
1000000 48 72 0
1000000 49 65 0
1000000 50 79 0
1000000 51 65 0
1000000 52 73 0
1000000 53 66 0
1000000 54 68 0
1000000 55 69 0
1000000 56 67 0
1000000 57 75 0
1000000 58 68 0
1000000 59 67 0
1000000 60 72 0
1000000 61 79 0
1000000 62 70 0
1000000 63 71 0
1000000 64 69 0
1000000 -35 -76 0
1000000 -36 -78 0
1000000 -37 -65 0
1000000 -38 -77 0
1000000 -39 -76 0
1000000 -40 -77 0
1000000 -41 -70 0
1000000 -42 -71 0
1000000 -43 -74 0
1000000 -44 -78 0
1000000 -45 -78 0
1000000 -46 -73 0
1000000 -47 -66 0
1000000 -48 -72 0
1000000 -49 -65 0
1000000 -50 -79 0
1000000 -51 -65 0
1000000 -52 -73 0
1000000 -53 -66 0
1000000 -54 -68 0
1000000 -55 -69 0
1000000 -56 -67 0
1000000 -57 -75 0
1000000 -58 -68 0
1000000 -59 -67 0
1000000 -60 -72 0
1000000 -61 -79 0
1000000 -62 -70 0
1000000 -63 -71 0
1000000 -64 -69 0
7600 -65 0
6500 -66 0
8700 -67 0
7600 -68 0
7600 -69 0
8700 -70 0
7600 -71 0
7600 -72 0
8700 -73 0
6700 -74 0
6700 -75 0
7600 -76 0
8700 -77 0
8000 -78 0
8000 -79 0
1800 35 0
1700 36 0
1700 37 0
1000 38 0
1700 39 0
1800 40 0
1800 41 0
1000 42 0
1700 43 0
2900 44 0
1800 45 0
1800 46 0
2900 47 0
2900 48 0
1700 49 0
2900 50 0
1000 51 0
1700 52 0
1700 53 0
2900 54 0
1800 55 0
2900 56 0
1000 57 0
1700 58 0
4000 59 0
1800 60 0
2900 61 0
4000 62 0
4000 63 0
1000 64 0
27965 -25 0
33520 17 28 -21 0
14665 17 -28 21 0
36453 17 -28 -21 0
15922 -17 28 21 0
36704 -17 28 -21 0
25014 -17 -28 21 0
38523 -17 -28 -21 0
11750 19 14 -27 0
30550 19 -14 27 0
34662 19 -14 -27 0
2350 -19 14 27 0
13513 -19 14 -27 0
31372 -19 -14 27 0
35279 -19 -14 -27 0
37710 -16 0
39950 -24 0
12570 13 -15 0
16760 -13 15 0
24302 -13 -15 0
658 32 -33 0
3948 -32 33 0
4527 -32 -33 0
37710 18 11 29 -34 0
39805 18 11 -29 34 0
41690 18 11 -29 -34 0
8380 18 -11 29 34 0
38548 18 -11 29 -34 0
40224 18 -11 -29 34 0
41732 18 -11 -29 -34 0
16760 -18 11 29 34 0
39386 -18 11 29 -34 0
40643 -18 11 -29 34 0
41774 -18 11 -29 -34 0
21788 -18 -11 29 34 0
39889 -18 -11 29 -34 0
40894 -18 -11 -29 34 0
41799 -18 -11 -29 -34 0
29610 31 20 12 23 -26 0
13160 31 20 12 -23 26 0
30926 31 20 12 -23 -26 0
23030 31 20 -12 23 26 0
31913 31 20 -12 23 -26 0
26978 31 20 -12 -23 26 0
32308 31 20 -12 -23 -26 0
14805 31 -20 12 23 26 0
31091 31 -20 12 23 -26 0
22043 31 -20 12 -23 26 0
31814 31 -20 12 -23 -26 0
27471 31 -20 -12 23 26 0
32357 31 -20 -12 23 -26 0
29643 31 -20 -12 -23 26 0
32574 31 -20 -12 -23 -26 0
26320 -31 20 12 23 26 0
32242 -31 20 12 23 -26 0
28952 -31 20 12 -23 26 0
32505 -31 20 12 -23 -26 0
30926 -31 20 -12 23 26 0
32703 -31 20 -12 23 -26 0
31716 -31 20 -12 -23 26 0
32782 -31 20 -12 -23 -26 0
29281 -31 -20 12 23 26 0
32538 -31 -20 12 23 -26 0
30729 -31 -20 12 -23 26 0
32683 -31 -20 12 -23 -26 0
31814 -31 -20 -12 23 26 0
32791 -31 -20 -12 23 -26 0
32249 -31 -20 -12 -23 26 0
32835 -31 -20 -12 -23 -26 0
838 30 -22 0
29330 -30 22 0
29581 -30 -22 0
