p wcnf 79 237 1000000
1000000 1 -11 0
1000000 11 -54 -39 -55 -63 -47 0
1000000 9 -12 0
1000000 12 -39 -53 -45 0
1000000 8 -13 0
1000000 13 -36 -50 -58 -62 -54 0
1000000 5 -14 0
1000000 14 -47 -64 -59 0
1000000 8 -15 0
1000000 15 -39 -55 -47 0
1000000 9 -16 0
1000000 16 -38 -49 -50 -37 -44 0
1000000 10 -17 0
1000000 17 -42 -44 -58 -56 0
1000000 7 -18 0
1000000 18 -46 -41 -47 -8 0
1000000 4 -19 0
1000000 19 -44 -46 -48 0
1000000 1 -20 0
1000000 20 -56 -36 0
1000000 3 -21 0
1000000 21 -63 -64 0
1000000 2 -22 0
1000000 22 -39 -44 -9 0
1000000 6 -23 0
1000000 23 -64 -47 -61 0
1000000 8 -24 0
1000000 24 -57 -44 -54 0
1000000 10 -25 0
1000000 25 -39 -57 -36 -40 -55 0
1000000 6 -26 0
1000000 26 -64 -37 -46 -57 0
1000000 7 -27 0
1000000 27 -36 -63 -51 -43 -46 0
1000000 1 -28 0
1000000 28 -37 -53 -61 -46 0
1000000 3 -29 0
1000000 29 -51 -63 0
1000000 6 -30 0
1000000 30 -58 -44 0
1000000 8 -31 0
1000000 31 -42 -58 -38 -45 -10 0
1000000 6 -32 0
1000000 32 -64 -52 -61 -57 0
1000000 10 -33 0
1000000 33 -42 -36 -45 -41 0
1000000 1 -34 0
1000000 34 -36 -57 -59 -35 0
1000000 -1 34 11 28 20 0
1000000 -2 22 0
1000000 -3 21 29 0
1000000 -4 19 0
1000000 -5 14 0
1000000 -6 32 30 26 23 0
1000000 -7 18 27 0
1000000 -8 24 13 31 15 0
1000000 -9 16 12 0
1000000 -10 17 25 33 0
1000000 35 68 0
1000000 36 67 0
1000000 37 71 0
1000000 38 70 0
1000000 39 71 0
1000000 40 65 0
1000000 41 76 0
1000000 42 73 0
1000000 43 75 0
1000000 44 77 0
1000000 45 77 0
1000000 46 73 0
1000000 47 79 0
1000000 48 75 0
1000000 49 69 0
1000000 50 69 0
1000000 51 69 0
1000000 52 70 0
1000000 53 67 0
1000000 54 78 0
1000000 55 67 0
1000000 56 72 0
1000000 57 72 0
1000000 58 66 0
1000000 59 74 0
1000000 60 79 0
1000000 61 70 0
1000000 62 73 0
1000000 63 72 0
1000000 64 79 0
1000000 -35 -68 0
1000000 -36 -67 0
1000000 -37 -71 0
1000000 -38 -70 0
1000000 -39 -71 0
1000000 -40 -65 0
1000000 -41 -76 0
1000000 -42 -73 0
1000000 -43 -75 0
1000000 -44 -77 0
1000000 -45 -77 0
1000000 -46 -73 0
1000000 -47 -79 0
1000000 -48 -75 0
1000000 -49 -69 0
1000000 -50 -69 0
1000000 -51 -69 0
1000000 -52 -70 0
1000000 -53 -67 0
1000000 -54 -78 0
1000000 -55 -67 0
1000000 -56 -72 0
1000000 -57 -72 0
1000000 -58 -66 0
1000000 -59 -74 0
1000000 -60 -79 0
1000000 -61 -70 0
1000000 -62 -73 0
1000000 -63 -72 0
1000000 -64 -79 0
5300 -65 0
6900 -66 0
5300 -67 0
6200 -68 0
5300 -69 0
5500 -70 0
5500 -71 0
5500 -72 0
6200 -73 0
6200 -74 0
5500 -75 0
6200 -76 0
5300 -77 0
5500 -78 0
6100 -79 0
2300 35 0
2300 36 0
1300 37 0
3400 38 0
3400 39 0
1200 40 0
1200 41 0
1800 42 0
1200 43 0
1800 44 0
3400 45 0
1800 46 0
2300 47 0
1300 48 0
2300 49 0
2300 50 0
1800 51 0
3400 52 0
1200 53 0
1300 54 0
1200 55 0
1200 56 0
1300 57 0
1300 58 0
3400 59 0
2300 60 0
1200 61 0
2300 62 0
3400 63 0
2300 64 0
18525 34 11 28 -20 0
24225 34 11 -28 20 0
27004 34 11 -28 -20 0
21375 34 -11 28 20 0
26006 34 -11 28 -20 0
27431 34 -11 -28 20 0
28126 34 -11 -28 -20 0
15675 -34 11 28 20 0
24011 -34 11 28 -20 0
26576 -34 11 -28 20 0
27827 -34 11 -28 -20 0
25294 -34 -11 28 20 0
27378 -34 -11 28 -20 0
28019 -34 -11 -28 20 0
28332 -34 -11 -28 -20 0
34160 -22 0
24100 21 -29 0
8676 -21 29 0
28438 -21 -29 0
28920 -19 0
12050 -14 0
4560 32 30 26 -23 0
15200 32 30 -26 23 0
17480 32 30 -26 -23 0
22800 32 -30 26 23 0
23940 32 -30 26 -23 0
26600 32 -30 -26 23 0
27170 32 -30 -26 -23 0
25840 -32 30 26 23 0
26524 -32 30 26 -23 0
28120 -32 30 -26 23 0
28462 -32 30 -26 -23 0
29260 -32 -30 26 23 0
29431 -32 -30 26 -23 0
29830 -32 -30 -26 23 0
29915 -32 -30 -26 -23 0
5700 18 -27 0
22800 -18 27 0
23940 -18 -27 0
1425 24 13 31 -15 0
475 24 13 -31 15 0
1829 24 13 -31 -15 0
4750 24 -13 31 15 0
5462 24 -13 31 -15 0
4988 24 -13 -31 15 0
5664 24 -13 -31 -15 0
190 -24 13 31 15 0
1587 -24 13 31 -15 0
656 -24 13 -31 15 0
1982 -24 13 -31 -15 0
4845 -24 -13 31 15 0
5543 -24 -13 31 -15 0
5078 -24 -13 -31 15 0
5741 -24 -13 -31 -15 0
3325 16 -12 0
8550 -16 12 0
8883 -16 -12 0
5856 17 25 -33 0
18544 17 -25 33 0
22175 17 -25 -33 0
21960 -17 25 33 0
25181 -17 25 -33 0
32159 -17 -25 33 0
34156 -17 -25 -33 0
