p wcnf 79 221 1000000
1000000 2 -11 0
1000000 11 -51 -53 -52 -64 -59 0
1000000 10 -12 0
1000000 12 -63 -47 -43 0
1000000 9 -13 0
1000000 13 -36 -63 0
1000000 6 -14 0
1000000 14 -41 -8 0
1000000 5 -15 0
1000000 15 -36 -55 -37 -48 0
1000000 10 -16 0
1000000 16 -39 -51 0
1000000 9 -17 0
1000000 17 -45 -39 -63 -59 0
1000000 4 -18 0
1000000 18 -37 -59 -35 -36 -64 0
1000000 3 -19 0
1000000 19 -50 -56 -43 -48 -42 0
1000000 10 -20 0
1000000 20 -52 -44 -46 -47 0
1000000 1 -21 0
1000000 21 -37 -52 -51 0
1000000 7 -22 0
1000000 22 -41 -62 -55 -64 0
1000000 8 -23 0
1000000 23 -58 -39 -50 0
1000000 5 -24 0
1000000 24 -36 -47 -48 -54 0
1000000 3 -25 0
1000000 25 -39 -46 -36 -63 -60 0
1000000 7 -26 0
1000000 26 -42 -50 -46 -54 -41 0
1000000 6 -27 0
1000000 27 -35 -52 -58 -38 -54 0
1000000 2 -28 0
1000000 28 -53 -56 -36 0
1000000 9 -29 0
1000000 29 -37 -45 0
1000000 1 -30 0
1000000 30 -48 -44 0
1000000 6 -31 0
1000000 31 -36 -64 -54 -7 0
1000000 5 -32 0
1000000 32 -63 -44 -59 -43 -6 0
1000000 4 -33 0
1000000 33 -54 -49 -52 0
1000000 3 -34 0
1000000 34 -41 -62 -49 -55 -6 0
1000000 -1 30 21 0
1000000 -2 28 11 0
1000000 -3 19 25 34 0
1000000 -4 33 18 0
1000000 -5 24 15 32 0
1000000 -6 31 14 27 0
1000000 -7 26 22 0
1000000 -8 23 0
1000000 -9 17 29 13 0
1000000 -10 12 16 20 0
1000000 35 69 0
1000000 36 74 0
1000000 37 73 0
1000000 38 68 0
1000000 39 76 0
1000000 40 79 0
1000000 41 77 0
1000000 42 71 0
1000000 43 78 0
1000000 44 75 0
1000000 45 65 0
1000000 46 72 0
1000000 47 74 0
1000000 48 70 0
1000000 49 75 0
1000000 50 66 0
1000000 51 69 0
1000000 52 73 0
1000000 53 78 0
1000000 54 73 0
1000000 55 78 0
1000000 56 69 0
1000000 57 79 0
1000000 58 67 0
1000000 59 72 0
1000000 60 68 0
1000000 61 77 0
1000000 62 71 0
1000000 63 75 0
1000000 64 66 0
1000000 -35 -69 0
1000000 -36 -74 0
1000000 -37 -73 0
1000000 -38 -68 0
1000000 -39 -76 0
1000000 -40 -79 0
1000000 -41 -77 0
1000000 -42 -71 0
1000000 -43 -78 0
1000000 -44 -75 0
1000000 -45 -65 0
1000000 -46 -72 0
1000000 -47 -74 0
1000000 -48 -70 0
1000000 -49 -75 0
1000000 -50 -66 0
1000000 -51 -69 0
1000000 -52 -73 0
1000000 -53 -78 0
1000000 -54 -73 0
1000000 -55 -78 0
1000000 -56 -69 0
1000000 -57 -79 0
1000000 -58 -67 0
1000000 -59 -72 0
1000000 -60 -68 0
1000000 -61 -77 0
1000000 -62 -71 0
1000000 -63 -75 0
1000000 -64 -66 0
6000 -65 0
7200 -66 0
6000 -67 0
7100 -68 0
7100 -69 0
7100 -70 0
7200 -71 0
6800 -72 0
7200 -73 0
9800 -74 0
6000 -75 0
7100 -76 0
6800 -77 0
7100 -78 0
6000 -79 0
2900 35 0
4600 36 0
1000 37 0
1600 38 0
4600 39 0
4300 40 0
4300 41 0
2900 42 0
4600 43 0
1600 44 0
4600 45 0
1000 46 0
1000 47 0
1600 48 0
4600 49 0
1000 50 0
2900 51 0
4300 52 0
4300 53 0
4600 54 0
4600 55 0
1000 56 0
1600 57 0
1600 58 0
1600 59 0
2900 60 0
4600 61 0
2900 62 0
2900 63 0
1000 64 0
28160 30 -21 0
4224 -30 21 0
29005 -30 -21 0
13186 28 -11 0
20820 -28 11 0
26094 -28 -11 0
11264 19 25 -34 0
14080 19 -25 34 0
20838 19 -25 -34 0
24640 -19 25 34 0
28019 -19 25 -34 0
28864 -19 -25 34 0
30892 -19 -25 -34 0
27240 33 -18 0
17252 -33 18 0
34141 -33 -18 0
15615 24 15 -32 0
32965 24 -15 32 0
33746 24 -15 -32 0
20820 -24 15 32 0
27066 -24 15 -32 0
34006 -24 -15 32 0
34318 -24 -15 -32 0
11264 31 14 -27 0
6336 31 -14 27 0
15572 31 -14 -27 0
24640 -31 14 27 0
28019 -31 14 -27 0
26541 -31 -14 27 0
29312 -31 -14 -27 0
19360 26 -22 0
24640 -26 22 0
30448 -26 -22 0
34050 -23 0
42415 17 29 -13 0
44910 17 -29 13 0
49151 17 -29 -13 0
32435 -17 29 13 0
47280 -17 29 -13 0
48153 -17 -29 13 0
49638 -17 -29 -13 0
36320 12 16 -20 0
18160 12 -16 20 0
39952 12 -16 -20 0
43130 -12 16 20 0
44946 -12 16 -20 0
44038 -12 -16 20 0
45128 -12 -16 -20 0
