p wcnf 79 259 1000000
1000000 4 -11 0
1000000 11 -48 -53 -50 0
1000000 7 -12 0
1000000 12 -46 -36 -37 -61 -56 0
1000000 7 -13 0
1000000 13 -61 -43 -10 0
1000000 4 -14 0
1000000 14 -54 -39 -40 -51 0
1000000 4 -15 0
1000000 15 -42 -48 0
1000000 10 -16 0
1000000 16 -45 -55 -61 0
1000000 2 -17 0
1000000 17 -62 -54 -49 -52 0
1000000 7 -18 0
1000000 18 -44 -51 -56 -57 -47 0
1000000 6 -19 0
1000000 19 -39 -64 0
1000000 5 -20 0
1000000 20 -41 -63 -57 -10 0
1000000 1 -21 0
1000000 21 -42 -39 -53 0
1000000 5 -22 0
1000000 22 -60 -50 0
1000000 9 -23 0
1000000 23 -59 -56 -57 -42 -47 0
1000000 3 -24 0
1000000 24 -43 -41 -46 -49 0
1000000 8 -25 0
1000000 25 -56 -55 0
1000000 6 -26 0
1000000 26 -58 -38 -36 0
1000000 2 -27 0
1000000 27 -56 -48 0
1000000 4 -28 0
1000000 28 -53 -50 -38 0
1000000 7 -29 0
1000000 29 -52 -8 0
1000000 7 -30 0
1000000 30 -43 -36 -10 0
1000000 8 -31 0
1000000 31 -49 -42 -54 -45 -9 0
1000000 2 -32 0
1000000 32 -39 -48 -54 0
1000000 4 -33 0
1000000 33 -57 -61 0
1000000 8 -34 0
1000000 34 -43 -35 0
1000000 -1 21 0
1000000 -2 17 27 32 0
1000000 -3 24 0
1000000 -4 33 14 15 28 11 0
1000000 -5 20 22 0
1000000 -6 26 19 0
1000000 -7 18 30 13 29 12 0
1000000 -8 31 25 34 0
1000000 -9 23 0
1000000 -10 16 0
1000000 35 71 0
1000000 36 73 0
1000000 37 72 0
1000000 38 78 0
1000000 39 79 0
1000000 40 76 0
1000000 41 70 0
1000000 42 69 0
1000000 43 65 0
1000000 44 76 0
1000000 45 67 0
1000000 46 69 0
1000000 47 75 0
1000000 48 71 0
1000000 49 69 0
1000000 50 73 0
1000000 51 68 0
1000000 52 77 0
1000000 53 66 0
1000000 54 70 0
1000000 55 73 0
1000000 56 65 0
1000000 57 77 0
1000000 58 78 0
1000000 59 74 0
1000000 60 65 0
1000000 61 77 0
1000000 62 67 0
1000000 63 68 0
1000000 64 75 0
1000000 -35 -71 0
1000000 -36 -73 0
1000000 -37 -72 0
1000000 -38 -78 0
1000000 -39 -79 0
1000000 -40 -76 0
1000000 -41 -70 0
1000000 -42 -69 0
1000000 -43 -65 0
1000000 -44 -76 0
1000000 -45 -67 0
1000000 -46 -69 0
1000000 -47 -75 0
1000000 -48 -71 0
1000000 -49 -69 0
1000000 -50 -73 0
1000000 -51 -68 0
1000000 -52 -77 0
1000000 -53 -66 0
1000000 -54 -70 0
1000000 -55 -73 0
1000000 -56 -65 0
1000000 -57 -77 0
1000000 -58 -78 0
1000000 -59 -74 0
1000000 -60 -65 0
1000000 -61 -77 0
1000000 -62 -67 0
1000000 -63 -68 0
1000000 -64 -75 0
6800 -65 0
6800 -66 0
10000 -67 0
9400 -68 0
6800 -69 0
6400 -70 0
6800 -71 0
8100 -72 0
8100 -73 0
9400 -74 0
6400 -75 0
6400 -76 0
10000 -77 0
10000 -78 0
8100 -79 0
1300 35 0
3900 36 0
2300 37 0
1300 38 0
4200 39 0
3900 40 0
1300 41 0
2300 42 0
4200 43 0
4800 44 0
2300 45 0
1300 46 0
2300 47 0
4800 48 0
4200 49 0
1300 50 0
4800 51 0
3900 52 0
3900 53 0
3900 54 0
3900 55 0
4800 56 0
4200 57 0
4800 58 0
2300 59 0
3900 60 0
4800 61 0
4800 62 0
2300 63 0
1300 64 0
21735 -21 0
652 17 27 -32 0
12388 17 -27 32 0
12792 17 -27 -32 0
3260 -17 27 32 0
3847 -17 27 -32 0
14409 -17 -27 32 0
14773 -17 -27 -32 0
9660 -24 0
27710 33 14 15 28 -11 0
652 33 14 15 -28 11 0
27808 33 14 15 -28 -11 0
8150 33 14 -15 28 11 0
28932 33 14 -15 28 -11 0
8639 33 14 -15 -28 11 0
29006 33 14 -15 -28 -11 0
13040 33 -14 15 28 11 0
29666 33 -14 15 28 -11 0
13431 33 -14 15 -28 11 0
29725 33 -14 15 -28 -11 0
17930 33 -14 -15 28 11 0
30400 33 -14 -15 28 -11 0
18223 33 -14 -15 -28 11 0
30444 33 -14 -15 -28 -11 0
9780 -33 14 15 28 11 0
29177 -33 14 15 28 -11 0
10236 -33 14 15 -28 11 0
29245 -33 14 15 -28 -11 0
15485 -33 14 -15 28 11 0
30033 -33 14 -15 28 -11 0
15827 -33 14 -15 -28 11 0
30084 -33 14 -15 -28 -11 0
18908 -33 -14 15 28 11 0
30546 -33 -14 15 28 -11 0
19182 -33 -14 15 -28 11 0
30587 -33 -14 15 -28 -11 0
22331 -33 -14 -15 28 11 0
31060 -33 -14 -15 28 -11 0
22536 -33 -14 -15 -28 11 0
31090 -33 -14 -15 -28 -11 0
298 20 -22 0
12665 -20 22 0
12710 -20 -22 0
14155 26 -19 0
1788 -26 19 0
14244 -26 -19 0
9780 18 30 13 29 -12 0
12388 18 30 13 -29 12 0
18452 18 30 13 -29 -12 0
13040 18 30 -13 29 12 0
18908 18 30 -13 29 -12 0
20473 18 30 -13 -29 12 0
24111 18 30 -13 -29 -12 0
29340 18 -30 13 29 12 0
30318 18 -30 13 29 -12 0
30579 18 -30 13 -29 12 0
31185 18 -30 13 -29 -12 0
30644 18 -30 -13 29 12 0
31231 18 -30 -13 29 -12 0
31387 18 -30 -13 -29 12 0
31751 18 -30 -13 -29 -12 0
13040 -18 30 13 29 12 0
18908 -18 30 13 29 -12 0
20473 -18 30 13 -29 12 0
24111 -18 30 13 -29 -12 0
20864 -18 30 -13 29 12 0
24385 -18 30 -13 29 -12 0
25324 -18 30 -13 -29 12 0
27507 -18 30 -13 -29 -12 0
30644 -18 -30 13 29 12 0
31231 -18 -30 13 29 -12 0
31387 -18 -30 13 -29 12 0
31751 -18 -30 13 -29 -12 0
31426 -18 -30 -13 29 12 0
31778 -18 -30 -13 29 -12 0
31872 -18 -30 -13 -29 12 0
32091 -18 -30 -13 -29 -12 0
24290 31 25 -34 0
22555 31 -25 34 0
31056 31 -25 -34 0
13186 -31 25 34 0
28246 -31 25 -34 0
27170 -31 -25 34 0
32441 -31 -25 -34 0
7450 -23 0
10485 -16 0
