p wcnf 79 251 1000000
1000000 4 -11 0
1000000 11 -40 -58 0
1000000 6 -12 0
1000000 12 -39 -52 -62 -10 0
1000000 10 -13 0
1000000 13 -53 -48 0
1000000 7 -14 0
1000000 14 -47 -50 0
1000000 9 -15 0
1000000 15 -57 -47 -60 0
1000000 7 -16 0
1000000 16 -40 -10 0
1000000 7 -17 0
1000000 17 -63 -40 -35 0
1000000 9 -18 0
1000000 18 -37 -50 -48 -10 0
1000000 5 -19 0
1000000 19 -60 -38 -56 -49 0
1000000 9 -20 0
1000000 20 -42 -44 -56 -39 -40 0
1000000 2 -21 0
1000000 21 -49 -40 0
1000000 8 -22 0
1000000 22 -48 -35 0
1000000 6 -23 0
1000000 23 -51 -57 -49 -39 -40 0
1000000 6 -24 0
1000000 24 -40 -53 -45 -46 -49 0
1000000 3 -25 0
1000000 25 -52 -58 -46 -42 -6 0
1000000 3 -26 0
1000000 26 -50 -37 -59 -39 0
1000000 7 -27 0
1000000 27 -49 -55 -63 -47 0
1000000 9 -28 0
1000000 28 -44 -43 -45 -38 -47 0
1000000 6 -29 0
1000000 29 -43 -46 -54 -57 0
1000000 5 -30 0
1000000 30 -46 -47 -44 -9 0
1000000 10 -31 0
1000000 31 -63 -35 -58 0
1000000 3 -32 0
1000000 32 -53 -50 -10 0
1000000 7 -33 0
1000000 33 -50 -8 0
1000000 1 -34 0
1000000 34 -51 -50 0
1000000 -1 34 0
1000000 -2 21 0
1000000 -3 26 32 25 0
1000000 -4 11 0
1000000 -5 30 19 0
1000000 -6 24 29 12 23 0
1000000 -7 16 33 17 14 27 0
1000000 -8 22 0
1000000 -9 20 15 18 28 0
1000000 -10 13 31 0
1000000 35 79 0
1000000 36 77 0
1000000 37 73 0
1000000 38 79 0
1000000 39 68 0
1000000 40 66 0
1000000 41 66 0
1000000 42 68 0
1000000 43 65 0
1000000 44 66 0
1000000 45 72 0
1000000 46 72 0
1000000 47 68 0
1000000 48 71 0
1000000 49 74 0
1000000 50 76 0
1000000 51 67 0
1000000 52 65 0
1000000 53 70 0
1000000 54 78 0
1000000 55 67 0
1000000 56 65 0
1000000 57 72 0
1000000 58 69 0
1000000 59 78 0
1000000 60 75 0
1000000 61 69 0
1000000 62 79 0
1000000 63 77 0
1000000 64 75 0
1000000 -35 -79 0
1000000 -36 -77 0
1000000 -37 -73 0
1000000 -38 -79 0
1000000 -39 -68 0
1000000 -40 -66 0
1000000 -41 -66 0
1000000 -42 -68 0
1000000 -43 -65 0
1000000 -44 -66 0
1000000 -45 -72 0
1000000 -46 -72 0
1000000 -47 -68 0
1000000 -48 -71 0
1000000 -49 -74 0
1000000 -50 -76 0
1000000 -51 -67 0
1000000 -52 -65 0
1000000 -53 -70 0
1000000 -54 -78 0
1000000 -55 -67 0
1000000 -56 -65 0
1000000 -57 -72 0
1000000 -58 -69 0
1000000 -59 -78 0
1000000 -60 -75 0
1000000 -61 -69 0
1000000 -62 -79 0
1000000 -63 -77 0
1000000 -64 -75 0
8100 -65 0
8800 -66 0
6200 -67 0
8800 -68 0
8800 -69 0
6500 -70 0
7300 -71 0
6200 -72 0
6200 -73 0
8100 -74 0
8100 -75 0
7300 -76 0
8100 -77 0
6200 -78 0
7300 -79 0
3900 35 0
3800 36 0
2600 37 0
3500 38 0
3900 39 0
3800 40 0
3900 41 0
2000 42 0
2600 43 0
3800 44 0
3500 45 0
2600 46 0
3900 47 0
3500 48 0
2600 49 0
2600 50 0
2600 51 0
3500 52 0
2600 53 0
2000 54 0
3800 55 0
2000 56 0
2000 57 0
3900 58 0
2600 59 0
3500 60 0
2000 61 0
2600 62 0
3800 63 0
2000 64 0
17600 -34 0
7040 -21 0
4140 26 32 -25 0
6900 26 -32 25 0
7935 26 -32 -25 0
7360 -26 32 25 0
8188 -26 32 -25 0
8740 -26 -32 25 0
8947 -26 -32 -25 0
5980 -11 0
7200 30 -19 0
15200 -30 19 0
19664 -30 -19 0
8970 24 29 12 -23 0
2760 24 29 -12 23 0
9936 24 29 -12 -23 0
8280 24 -29 12 23 0
11868 24 -29 12 -23 0
9384 24 -29 -12 23 0
12254 24 -29 -12 -23 0
6210 -24 29 12 23 0
11144 -24 29 12 -23 0
7728 -24 29 -12 23 0
11675 -24 29 -12 -23 0
10764 -24 -29 12 23 0
12737 -24 -29 12 -23 0
11371 -24 -29 -12 23 0
12950 -24 -29 -12 -23 0
13110 16 33 17 14 -27 0
690 16 33 17 -14 27 0
13144 16 33 17 -14 -27 0
5520 16 33 -17 14 27 0
13386 16 33 -17 14 -27 0
5934 16 33 -17 -14 27 0
13407 16 33 -17 -14 -27 0
9660 16 -33 17 14 27 0
13593 16 -33 17 14 -27 0
9867 16 -33 17 -14 27 0
13603 16 -33 17 -14 -27 0
11316 16 -33 -17 14 27 0
13676 16 -33 -17 14 -27 0
11440 16 -33 -17 -14 27 0
13682 16 -33 -17 -14 -27 0
690 -16 33 17 14 27 0
13144 -16 33 17 14 -27 0
1346 -16 33 17 -14 27 0
13177 -16 33 17 -14 -27 0
5934 -16 33 -17 14 27 0
13407 -16 33 -17 14 -27 0
6327 -16 33 -17 -14 27 0
13426 -16 33 -17 -14 -27 0
9867 -16 -33 17 14 27 0
13603 -16 -33 17 14 -27 0
10064 -16 -33 17 -14 27 0
13613 -16 -33 17 -14 -27 0
11440 -16 -33 -17 14 27 0
13682 -16 -33 -17 14 -27 0
11558 -16 -33 -17 -14 27 0
13688 -16 -33 -17 -14 -27 0
3970 -22 0
4416 20 15 18 -28 0
6210 20 15 -18 28 0
8639 20 15 -18 -28 0
8280 20 -15 18 28 0
10046 20 -15 18 -28 0
10764 20 -15 -18 28 0
11736 20 -15 -18 -28 0
8970 -20 15 18 28 0
10516 -20 15 18 -28 0
11144 -20 15 -18 28 0
11994 -20 15 -18 -28 0
11868 -20 -15 18 28 0
12486 -20 -15 18 -28 0
12737 -20 -15 -18 28 0
13077 -20 -15 -18 -28 0
2070 13 -31 0
4140 -13 31 0
5589 -13 -31 0
