p wcnf 79 221 1000000
1000000 5 -11 0
1000000 11 -48 -41 -52 -50 -9 0
1000000 7 -12 0
1000000 12 -54 -47 -56 -41 0
1000000 8 -13 0
1000000 13 -57 -36 -55 -52 -43 0
1000000 1 -14 0
1000000 14 -41 -57 -44 -35 -58 0
1000000 9 -15 0
1000000 15 -41 -62 0
1000000 2 -16 0
1000000 16 -45 -62 -38 -42 -63 0
1000000 5 -17 0
1000000 17 -42 -10 0
1000000 4 -18 0
1000000 18 -43 -62 0
1000000 3 -19 0
1000000 19 -50 -42 0
1000000 3 -20 0
1000000 20 -42 -59 -45 -57 0
1000000 4 -21 0
1000000 21 -57 -37 -50 0
1000000 8 -22 0
1000000 22 -61 -56 -43 -10 0
1000000 8 -23 0
1000000 23 -51 -9 0
1000000 9 -24 0
1000000 24 -42 -56 -39 0
1000000 6 -25 0
1000000 25 -38 -56 -53 -55 -47 0
1000000 7 -26 0
1000000 26 -54 -41 -49 -63 -10 0
1000000 1 -27 0
1000000 27 -42 -44 -53 -58 0
1000000 6 -28 0
1000000 28 -37 -51 -49 -39 0
1000000 1 -29 0
1000000 29 -61 -37 -41 -39 -36 0
1000000 9 -30 0
1000000 30 -41 -49 -53 -61 0
1000000 10 -31 0
1000000 31 -58 -48 -54 0
1000000 3 -32 0
1000000 32 -40 -37 -52 -50 -43 0
1000000 7 -33 0
1000000 33 -39 -40 -55 -47 0
1000000 10 -34 0
1000000 34 -51 -41 -36 -61 -44 0
1000000 -1 29 27 14 0
1000000 -2 16 0
1000000 -3 32 20 19 0
1000000 -4 21 18 0
1000000 -5 17 11 0
1000000 -6 25 28 0
1000000 -7 26 33 12 0
1000000 -8 23 13 22 0
1000000 -9 30 15 24 0
1000000 -10 34 31 0
1000000 35 79 0
1000000 36 74 0
1000000 37 70 0
1000000 38 70 0
1000000 39 76 0
1000000 40 68 0
1000000 41 67 0
1000000 42 77 0
1000000 43 72 0
1000000 44 75 0
1000000 45 68 0
1000000 46 71 0
1000000 47 75 0
1000000 48 73 0
1000000 49 79 0
1000000 50 74 0
1000000 51 71 0
1000000 52 75 0
1000000 53 79 0
1000000 54 65 0
1000000 55 66 0
1000000 56 69 0
1000000 57 77 0
1000000 58 74 0
1000000 59 68 0
1000000 60 71 0
1000000 61 72 0
1000000 62 78 0
1000000 63 78 0
1000000 64 73 0
1000000 -35 -79 0
1000000 -36 -74 0
1000000 -37 -70 0
1000000 -38 -70 0
1000000 -39 -76 0
1000000 -40 -68 0
1000000 -41 -67 0
1000000 -42 -77 0
1000000 -43 -72 0
1000000 -44 -75 0
1000000 -45 -68 0
1000000 -46 -71 0
1000000 -47 -75 0
1000000 -48 -73 0
1000000 -49 -79 0
1000000 -50 -74 0
1000000 -51 -71 0
1000000 -52 -75 0
1000000 -53 -79 0
1000000 -54 -65 0
1000000 -55 -66 0
1000000 -56 -69 0
1000000 -57 -77 0
1000000 -58 -74 0
1000000 -59 -68 0
1000000 -60 -71 0
1000000 -61 -72 0
1000000 -62 -78 0
1000000 -63 -78 0
1000000 -64 -73 0
9100 -65 0
6300 -66 0
6300 -67 0
5200 -68 0
5200 -69 0
9100 -70 0
5200 -71 0
6300 -72 0
8900 -73 0
8900 -74 0
6300 -75 0
8900 -76 0
5200 -77 0
6700 -78 0
9100 -79 0
3700 35 0
3600 36 0
3700 37 0
3600 38 0
4800 39 0
4100 40 0
3700 41 0
2700 42 0
2700 43 0
4100 44 0
4100 45 0
3600 46 0
3700 47 0
4800 48 0
4100 49 0
3600 50 0
3700 51 0
3600 52 0
4800 53 0
3700 54 0
3700 55 0
2700 56 0
3600 57 0
2700 58 0
4100 59 0
3700 60 0
3700 61 0
2700 62 0
4800 63 0
3600 64 0
9265 29 27 -14 0
1635 29 -27 14 0
9510 29 -27 -14 0
218 -29 27 14 0
9298 -29 27 -14 0
1820 -29 -27 14 0
9538 -29 -27 -14 0
545 -16 0
3960 32 20 -19 0
5720 32 -20 19 0
7106 32 -20 -19 0
2200 -32 20 19 0
5170 -32 20 -19 0
6490 -32 -20 19 0
7530 -32 -20 -19 0
4662 21 -18 0
518 -21 18 0
5087 -21 -18 0
6475 17 -11 0
9842 -17 11 0
13856 -17 -11 0
21675 25 -28 0
7225 -25 28 0
23481 -25 -28 0
23120 26 33 -12 0
27455 26 -33 12 0
28611 26 -33 -12 0
578 -26 33 12 0
23236 -26 33 -12 0
27484 -26 -33 12 0
28617 -26 -33 -12 0
8175 23 13 -22 0
9265 23 -13 22 0
10491 23 -13 -22 0
5450 -23 13 22 0
9538 -23 13 -22 0
10083 -23 -13 22 0
10696 -23 -13 -22 0
16796 30 15 -24 0
17680 30 -15 24 0
27758 30 -15 -24 0
7956 -30 15 24 0
21729 -30 15 -24 0
22454 -30 -15 24 0
30717 -30 -15 -24 0
19425 34 -31 0
22015 -34 31 0
24929 -34 -31 0
