p wcnf 79 229 1000000
1000000 5 -11 0
1000000 11 -46 -40 -60 -37 0
1000000 3 -12 0
1000000 12 -59 -6 0
1000000 5 -13 0
1000000 13 -61 -56 -41 0
1000000 6 -14 0
1000000 14 -49 -36 -63 -52 -56 0
1000000 5 -15 0
1000000 15 -56 -46 0
1000000 7 -16 0
1000000 16 -56 -45 -61 0
1000000 3 -17 0
1000000 17 -45 -36 -63 -44 -58 0
1000000 2 -18 0
1000000 18 -58 -42 0
1000000 2 -19 0
1000000 19 -45 -62 -63 -8 0
1000000 5 -20 0
1000000 20 -42 -50 -40 -9 0
1000000 4 -21 0
1000000 21 -45 -55 0
1000000 3 -22 0
1000000 22 -45 -62 -53 -35 -61 0
1000000 8 -23 0
1000000 23 -54 -42 -47 -37 0
1000000 8 -24 0
1000000 24 -60 -59 -46 -54 -9 0
1000000 7 -25 0
1000000 25 -50 -59 -42 0
1000000 2 -26 0
1000000 26 -52 -59 -46 -63 -5 0
1000000 1 -27 0
1000000 27 -42 -47 -7 0
1000000 6 -28 0
1000000 28 -60 -50 -51 -58 -40 0
1000000 9 -29 0
1000000 29 -52 -50 -44 -46 0
1000000 8 -30 0
1000000 30 -43 -51 -9 0
1000000 1 -31 0
1000000 31 -61 -38 -45 0
1000000 6 -32 0
1000000 32 -40 -51 -45 -38 -8 0
1000000 7 -33 0
1000000 33 -54 -57 -35 -59 -56 0
1000000 10 -34 0
1000000 34 -54 -57 0
1000000 -1 27 31 0
1000000 -2 26 19 18 0
1000000 -3 22 17 12 0
1000000 -4 21 0
1000000 -5 13 20 15 11 0
1000000 -6 32 14 28 0
1000000 -7 16 33 25 0
1000000 -8 23 24 30 0
1000000 -9 29 0
1000000 -10 34 0
1000000 35 76 0
1000000 36 73 0
1000000 37 77 0
1000000 38 66 0
1000000 39 71 0
1000000 40 69 0
1000000 41 74 0
1000000 42 69 0
1000000 43 71 0
1000000 44 74 0
1000000 45 68 0
1000000 46 72 0
1000000 47 66 0
1000000 48 67 0
1000000 49 66 0
1000000 50 67 0
1000000 51 74 0
1000000 52 72 0
1000000 53 78 0
1000000 54 75 0
1000000 55 65 0
1000000 56 79 0
1000000 57 76 0
1000000 58 69 0
1000000 59 70 0
1000000 60 75 0
1000000 61 75 0
1000000 62 78 0
1000000 63 72 0
1000000 64 78 0
1000000 -35 -76 0
1000000 -36 -73 0
1000000 -37 -77 0
1000000 -38 -66 0
1000000 -39 -71 0
1000000 -40 -69 0
1000000 -41 -74 0
1000000 -42 -69 0
1000000 -43 -71 0
1000000 -44 -74 0
1000000 -45 -68 0
1000000 -46 -72 0
1000000 -47 -66 0
1000000 -48 -67 0
1000000 -49 -66 0
1000000 -50 -67 0
1000000 -51 -74 0
1000000 -52 -72 0
1000000 -53 -78 0
1000000 -54 -75 0
1000000 -55 -65 0
1000000 -56 -79 0
1000000 -57 -76 0
1000000 -58 -69 0
1000000 -59 -70 0
1000000 -60 -75 0
1000000 -61 -75 0
1000000 -62 -78 0
1000000 -63 -72 0
1000000 -64 -78 0
7700 -65 0
8400 -66 0
8400 -67 0
7700 -68 0
8400 -69 0
8800 -70 0
6700 -71 0
7700 -72 0
6700 -73 0
7700 -74 0
8400 -75 0
8800 -76 0
8800 -77 0
8800 -78 0
8400 -79 0
3700 35 0
3300 36 0
3300 37 0
2900 38 0
3300 39 0
3300 40 0
1100 41 0
2900 42 0
3700 43 0
3300 44 0
3700 45 0
3700 46 0
3700 47 0
2900 48 0
4100 49 0
3300 50 0
3300 51 0
3300 52 0
3700 53 0
3700 54 0
3700 55 0
3700 56 0
4100 57 0
3700 58 0
3300 59 0
4100 60 0
3700 61 0
1100 62 0
1100 63 0
4100 64 0
6580 27 -31 0
27965 -27 31 0
28952 -27 -31 0
11775 26 19 -18 0
2355 26 -19 18 0
13541 26 -19 -18 0
8478 -26 19 18 0
18134 -26 19 -18 0
10409 -26 -19 18 0
19582 -26 -19 -18 0
17898 22 17 -12 0
40035 22 -17 12 0
42720 22 -17 -12 0
11775 -22 17 12 0
25199 -22 17 -12 0
41801 -22 -17 12 0
43815 -22 -17 -12 0
5005 -21 0
26320 13 20 15 -11 0
658 13 20 -15 11 0
26452 13 20 -15 -11 0
16450 13 -20 15 11 0
29610 13 -20 15 -11 0
16779 13 -20 -15 11 0
29676 13 -20 -15 -11 0
1645 -13 20 15 11 0
26649 -13 20 15 -11 0
2270 -13 20 -15 11 0
26774 -13 20 -15 -11 0
17272 -13 -20 15 11 0
29775 -13 -20 15 -11 0
17585 -13 -20 -15 11 0
29837 -13 -20 -15 -11 0
13585 32 14 -28 0
9295 32 -14 28 0
14050 32 -14 -28 0
7865 -32 14 28 0
13978 -32 14 -28 0
12048 -32 -14 28 0
14187 -32 -14 -28 0
1645 16 33 -25 0
658 16 -33 25 0
2270 16 -33 -25 0
9870 -16 33 25 0
11022 -16 33 -25 0
10331 -16 -33 25 0
11459 -16 -33 -25 0
7910 23 24 -30 0
2034 23 -24 30 0
8520 23 -24 -30 0
3390 -23 24 30 0
8927 -23 24 -30 0
4814 -23 -24 30 0
9354 -23 -24 -30 0
6215 -29 0
10170 -34 0
