p wcnf 79 221 1000000
1000000 7 -11 0
1000000 11 -50 -44 -35 0
1000000 6 -12 0
1000000 12 -37 -58 0
1000000 8 -13 0
1000000 13 -64 -51 0
1000000 2 -14 0
1000000 14 -48 -45 -62 -49 -9 0
1000000 7 -15 0
1000000 15 -64 -58 0
1000000 6 -16 0
1000000 16 -56 -40 -59 0
1000000 4 -17 0
1000000 17 -43 -60 0
1000000 1 -18 0
1000000 18 -61 -58 -53 0
1000000 1 -19 0
1000000 19 -60 -62 -10 0
1000000 9 -20 0
1000000 20 -52 -64 -58 -45 -63 0
1000000 6 -21 0
1000000 21 -41 -39 -35 -52 0
1000000 3 -22 0
1000000 22 -63 -54 -60 -61 -50 0
1000000 1 -23 0
1000000 23 -58 -64 0
1000000 4 -24 0
1000000 24 -52 -44 0
1000000 5 -25 0
1000000 25 -59 -39 -36 -47 0
1000000 7 -26 0
1000000 26 -62 -53 0
1000000 8 -27 0
1000000 27 -42 -52 -62 0
1000000 9 -28 0
1000000 28 -51 -36 -64 -10 0
1000000 5 -29 0
1000000 29 -35 -9 0
1000000 9 -30 0
1000000 30 -43 -41 0
1000000 3 -31 0
1000000 31 -49 -60 -53 -62 0
1000000 2 -32 0
1000000 32 -60 -44 -52 -45 -62 0
1000000 8 -33 0
1000000 33 -36 -55 -37 -50 -38 0
1000000 10 -34 0
1000000 34 -56 -45 -35 0
1000000 -1 18 23 19 0
1000000 -2 14 32 0
1000000 -3 31 22 0
1000000 -4 17 24 0
1000000 -5 29 25 0
1000000 -6 16 21 12 0
1000000 -7 15 11 26 0
1000000 -8 13 33 27 0
1000000 -9 20 30 28 0
1000000 -10 34 0
1000000 35 71 0
1000000 36 69 0
1000000 37 69 0
1000000 38 67 0
1000000 39 74 0
1000000 40 78 0
1000000 41 65 0
1000000 42 77 0
1000000 43 73 0
1000000 44 68 0
1000000 45 75 0
1000000 46 70 0
1000000 47 77 0
1000000 48 73 0
1000000 49 76 0
1000000 50 67 0
1000000 51 77 0
1000000 52 65 0
1000000 53 73 0
1000000 54 75 0
1000000 55 68 0
1000000 56 71 0
1000000 57 72 0
1000000 58 71 0
1000000 59 76 0
1000000 60 74 0
1000000 61 79 0
1000000 62 66 0
1000000 63 75 0
1000000 64 67 0
1000000 -35 -71 0
1000000 -36 -69 0
1000000 -37 -69 0
1000000 -38 -67 0
1000000 -39 -74 0
1000000 -40 -78 0
1000000 -41 -65 0
1000000 -42 -77 0
1000000 -43 -73 0
1000000 -44 -68 0
1000000 -45 -75 0
1000000 -46 -70 0
1000000 -47 -77 0
1000000 -48 -73 0
1000000 -49 -76 0
1000000 -50 -67 0
1000000 -51 -77 0
1000000 -52 -65 0
1000000 -53 -73 0
1000000 -54 -75 0
1000000 -55 -68 0
1000000 -56 -71 0
1000000 -57 -72 0
1000000 -58 -71 0
1000000 -59 -76 0
1000000 -60 -74 0
1000000 -61 -79 0
1000000 -62 -66 0
1000000 -63 -75 0
1000000 -64 -67 0
8000 -65 0
8000 -66 0
6200 -67 0
6200 -68 0
5600 -69 0
8700 -70 0
8700 -71 0
6200 -72 0
6200 -73 0
6900 -74 0
8700 -75 0
5600 -76 0
5600 -77 0
8700 -78 0
8700 -79 0
2100 35 0
2600 36 0
2600 37 0
3700 38 0
2000 39 0
2100 40 0
1200 41 0
1200 42 0
2100 43 0
2100 44 0
3700 45 0
1200 46 0
2600 47 0
3700 48 0
1200 49 0
2100 50 0
2600 51 0
2100 52 0
1200 53 0
1200 54 0
1200 55 0
1200 56 0
2600 57 0
3700 58 0
2100 59 0
3700 60 0
1200 61 0
2600 62 0
2000 63 0
3700 64 0
6368 18 23 -19 0
7562 18 -23 19 0
11510 18 -23 -19 0
4975 -18 23 19 0
9751 -18 23 -19 0
10647 -18 -23 19 0
13608 -18 -23 -19 0
10540 14 -32 0
4712 -14 32 0
11247 -14 -32 0
600 31 -22 0
12000 -31 22 0
12360 -31 -22 0
3696 17 -24 0
27720 -17 24 0
28090 -17 -24 0
37655 29 -25 0
15505 -29 25 0
39981 -29 -25 0
13290 16 21 -12 0
8860 16 -21 12 0
19492 16 -21 -12 0
5316 -16 21 12 0
17011 -16 21 -12 0
13113 -16 -21 12 0
22469 -16 -21 -12 0
3000 15 11 -26 0
25500 15 -11 26 0
25950 15 -11 -26 0
9600 -15 11 26 0
11640 -15 11 -26 0
26940 -15 -11 26 0
27246 -15 -11 -26 0
22500 13 33 -27 0
22500 13 -33 27 0
28125 13 -33 -27 0
600 -13 33 27 0
22650 -13 33 -27 0
22650 -13 -33 27 0
28162 -13 -33 -27 0
27720 20 30 -28 0
616 20 -30 28 0
27782 20 -30 -28 0
1540 -20 30 28 0
27874 -20 30 -28 0
2125 -20 -30 28 0
27933 -20 -30 -28 0
13500 -34 0
