p wcnf 79 219 1000000
1000000 8 -11 0
1000000 11 -62 -47 -50 -44 -56 0
1000000 9 -12 0
1000000 12 -44 -35 0
1000000 5 -13 0
1000000 13 -49 -6 0
1000000 5 -14 0
1000000 14 -52 -9 0
1000000 1 -15 0
1000000 15 -44 -53 -61 0
1000000 4 -16 0
1000000 16 -46 -49 -55 -53 0
1000000 3 -17 0
1000000 17 -39 -55 -46 -56 0
1000000 1 -18 0
1000000 18 -36 -42 -40 -64 0
1000000 3 -19 0
1000000 19 -37 -50 -38 -51 0
1000000 10 -20 0
1000000 20 -42 -54 -53 0
1000000 6 -21 0
1000000 21 -43 -38 -64 -37 -53 0
1000000 3 -22 0
1000000 22 -46 -64 -38 0
1000000 9 -23 0
1000000 23 -41 -42 -39 -36 -35 0
1000000 2 -24 0
1000000 24 -38 -6 0
1000000 10 -25 0
1000000 25 -58 -56 -36 0
1000000 8 -26 0
1000000 26 -50 -39 0
1000000 6 -27 0
1000000 27 -49 -36 -63 -64 0
1000000 10 -28 0
1000000 28 -52 -45 -62 -38 0
1000000 2 -29 0
1000000 29 -38 -4 0
1000000 4 -30 0
1000000 30 -49 -52 -51 0
1000000 7 -31 0
1000000 31 -52 -41 -35 -54 0
1000000 5 -32 0
1000000 32 -55 -37 0
1000000 8 -33 0
1000000 33 -48 -55 -60 0
1000000 7 -34 0
1000000 34 -63 -44 0
1000000 -1 15 18 0
1000000 -2 29 24 0
1000000 -3 19 22 17 0
1000000 -4 16 30 0
1000000 -5 13 14 32 0
1000000 -6 21 27 0
1000000 -7 31 34 0
1000000 -8 11 26 33 0
1000000 -9 12 23 0
1000000 -10 25 28 20 0
1000000 35 72 0
1000000 36 69 0
1000000 37 67 0
1000000 38 78 0
1000000 39 71 0
1000000 40 73 0
1000000 41 68 0
1000000 42 76 0
1000000 43 66 0
1000000 44 65 0
1000000 45 76 0
1000000 46 68 0
1000000 47 77 0
1000000 48 79 0
1000000 49 69 0
1000000 50 73 0
1000000 51 76 0
1000000 52 69 0
1000000 53 74 0
1000000 54 68 0
1000000 55 70 0
1000000 56 72 0
1000000 57 75 0
1000000 58 72 0
1000000 59 66 0
1000000 60 71 0
1000000 61 71 0
1000000 62 78 0
1000000 63 65 0
1000000 64 70 0
1000000 -35 -72 0
1000000 -36 -69 0
1000000 -37 -67 0
1000000 -38 -78 0
1000000 -39 -71 0
1000000 -40 -73 0
1000000 -41 -68 0
1000000 -42 -76 0
1000000 -43 -66 0
1000000 -44 -65 0
1000000 -45 -76 0
1000000 -46 -68 0
1000000 -47 -77 0
1000000 -48 -79 0
1000000 -49 -69 0
1000000 -50 -73 0
1000000 -51 -76 0
1000000 -52 -69 0
1000000 -53 -74 0
1000000 -54 -68 0
1000000 -55 -70 0
1000000 -56 -72 0
1000000 -57 -75 0
1000000 -58 -72 0
1000000 -59 -66 0
1000000 -60 -71 0
1000000 -61 -71 0
1000000 -62 -78 0
1000000 -63 -65 0
1000000 -64 -70 0
8100 -65 0
8100 -66 0
8100 -67 0
8300 -68 0
6200 -69 0
8200 -70 0
6200 -71 0
8100 -72 0
7500 -73 0
8300 -74 0
8100 -75 0
7500 -76 0
8100 -77 0
8100 -78 0
8300 -79 0
4700 35 0
1400 36 0
3900 37 0
2900 38 0
2900 39 0
3900 40 0
2100 41 0
4700 42 0
2100 43 0
4700 44 0
4700 45 0
2100 46 0
2100 47 0
2900 48 0
4700 49 0
3900 50 0
2900 51 0
4700 52 0
2100 53 0
3900 54 0
3900 55 0
2100 56 0
1400 57 0
2900 58 0
4700 59 0
4700 60 0
2900 61 0
4700 62 0
2100 63 0
4700 64 0
1475 15 -18 0
8850 -15 18 0
9883 -15 -18 0
3070 29 -24 0
6140 -29 24 0
8596 -29 -24 0
17370 19 22 -17 0
14475 19 -22 17 0
18817 19 -22 -17 0
4825 -19 22 17 0
17853 -19 22 -17 0
15681 -19 -22 17 0
18938 -19 -22 -17 0
5070 16 -30 0
10140 -16 30 0
13689 -16 -30 0
5070 13 14 -32 0
6760 13 -14 32 0
10816 13 -14 -32 0
676 -13 14 32 0
5645 -13 14 -32 0
7301 -13 -14 32 0
11276 -13 -14 -32 0
1120 21 -27 0
2016 -21 27 0
2934 -21 -27 0
15350 31 -34 0
19955 -31 34 0
25327 -31 -34 0
5600 11 26 -33 0
9520 11 -26 33 0
10360 11 -26 -33 0
1680 -11 26 33 0
6440 -11 26 -33 0
9772 -11 -26 33 0
10486 -11 -26 -33 0
8685 12 -23 0
4825 -12 23 0
11339 -12 -23 0
18420 25 28 -20 0
24560 25 -28 20 0
28244 25 -28 -20 0
3070 -25 28 20 0
19648 -25 28 -20 0
25174 -25 -28 20 0
28490 -25 -28 -20 0
