p wcnf 79 245 1000000
1000000 4 -11 0
1000000 11 -54 -57 -37 -38 0
1000000 2 -12 0
1000000 12 -46 -42 -37 -59 0
1000000 4 -13 0
1000000 13 -42 -59 -38 0
1000000 5 -14 0
1000000 14 -41 -47 -56 -38 -6 0
1000000 9 -15 0
1000000 15 -63 -60 -59 -48 0
1000000 7 -16 0
1000000 16 -63 -8 0
1000000 7 -17 0
1000000 17 -59 -61 0
1000000 4 -18 0
1000000 18 -37 -47 0
1000000 1 -19 0
1000000 19 -51 -45 -41 0
1000000 2 -20 0
1000000 20 -42 -60 -35 0
1000000 9 -21 0
1000000 21 -36 -60 -10 0
1000000 8 -22 0
1000000 22 -47 -35 -58 -51 -43 0
1000000 8 -23 0
1000000 23 -51 -64 -10 0
1000000 3 -24 0
1000000 24 -57 -53 -50 -56 0
1000000 10 -25 0
1000000 25 -50 -63 -37 0
1000000 1 -26 0
1000000 26 -44 -43 -45 0
1000000 7 -27 0
1000000 27 -55 -61 -43 0
1000000 9 -28 0
1000000 28 -58 -39 -55 0
1000000 6 -29 0
1000000 29 -50 -49 -64 0
1000000 4 -30 0
1000000 30 -36 -47 -37 -59 0
1000000 1 -31 0
1000000 31 -55 -42 -9 0
1000000 1 -32 0
1000000 32 -64 -46 -42 0
1000000 10 -33 0
1000000 33 -39 -56 -62 0
1000000 4 -34 0
1000000 34 -46 -57 -37 0
1000000 -1 32 26 31 19 0
1000000 -2 20 12 0
1000000 -3 24 0
1000000 -4 30 34 18 11 13 0
1000000 -5 14 0
1000000 -6 29 0
1000000 -7 16 17 27 0
1000000 -8 23 22 0
1000000 -9 21 15 28 0
1000000 -10 25 33 0
1000000 35 65 0
1000000 36 76 0
1000000 37 73 0
1000000 38 77 0
1000000 39 78 0
1000000 40 67 0
1000000 41 69 0
1000000 42 69 0
1000000 43 74 0
1000000 44 73 0
1000000 45 78 0
1000000 46 71 0
1000000 47 72 0
1000000 48 71 0
1000000 49 68 0
1000000 50 73 0
1000000 51 70 0
1000000 52 66 0
1000000 53 65 0
1000000 54 78 0
1000000 55 66 0
1000000 56 75 0
1000000 57 68 0
1000000 58 74 0
1000000 59 71 0
1000000 60 74 0
1000000 61 76 0
1000000 62 68 0
1000000 63 79 0
1000000 64 77 0
1000000 -35 -65 0
1000000 -36 -76 0
1000000 -37 -73 0
1000000 -38 -77 0
1000000 -39 -78 0
1000000 -40 -67 0
1000000 -41 -69 0
1000000 -42 -69 0
1000000 -43 -74 0
1000000 -44 -73 0
1000000 -45 -78 0
1000000 -46 -71 0
1000000 -47 -72 0
1000000 -48 -71 0
1000000 -49 -68 0
1000000 -50 -73 0
1000000 -51 -70 0
1000000 -52 -66 0
1000000 -53 -65 0
1000000 -54 -78 0
1000000 -55 -66 0
1000000 -56 -75 0
1000000 -57 -68 0
1000000 -58 -74 0
1000000 -59 -71 0
1000000 -60 -74 0
1000000 -61 -76 0
1000000 -62 -68 0
1000000 -63 -79 0
1000000 -64 -77 0
7500 -65 0
7000 -66 0
7400 -67 0
8200 -68 0
8400 -69 0
7400 -70 0
8200 -71 0
7500 -72 0
8200 -73 0
8200 -74 0
7000 -75 0
8400 -76 0
8400 -77 0
8200 -78 0
7400 -79 0
3200 35 0
4000 36 0
4000 37 0
1500 38 0
3200 39 0
1500 40 0
2900 41 0
1500 42 0
2900 43 0
2900 44 0
2900 45 0
2900 46 0
2100 47 0
1500 48 0
4000 49 0
3200 50 0
3200 51 0
3200 52 0
3200 53 0
1500 54 0
3200 55 0
2900 56 0
4000 57 0
2900 58 0
1500 59 0
2900 60 0
2100 61 0
3200 62 0
4000 63 0
3200 64 0
10700 32 26 31 -19 0
6420 32 26 -31 19 0
15515 32 26 -31 -19 0
7704 32 -26 31 19 0
16478 32 -26 31 -19 0
12968 32 -26 -31 19 0
20426 32 -26 -31 -19 0
38520 -32 26 31 19 0
39590 -32 26 31 -19 0
39162 -32 26 -31 19 0
40072 -32 26 -31 -19 0
39290 -32 -26 31 19 0
40168 -32 -26 31 -19 0
39817 -32 -26 -31 19 0
40563 -32 -26 -31 -19 0
1152 20 -12 0
4800 -20 12 0
5376 -20 -12 0
3072 -24 0
9180 30 34 18 11 -13 0
408 30 34 18 -11 13 0
9404 30 34 18 -11 -13 0
4080 30 34 -18 11 13 0
11424 30 34 -18 11 -13 0
4406 30 34 -18 -11 13 0
11604 30 34 -18 -11 -13 0
9180 30 -34 18 11 13 0
14229 30 -34 18 11 -13 0
9404 30 -34 18 -11 13 0
14352 30 -34 18 -11 -13 0
11424 30 -34 -18 11 13 0
15463 30 -34 -18 11 -13 0
11604 30 -34 -18 -11 13 0
15562 30 -34 -18 -11 -13 0
16320 -30 34 18 11 13 0
18156 -30 34 18 11 -13 0
16402 -30 34 18 -11 13 0
18201 -30 34 18 -11 -13 0
17136 -30 34 -18 11 13 0
18605 -30 34 -18 11 -13 0
17201 -30 34 -18 -11 13 0
18641 -30 34 -18 -11 -13 0
18156 -30 -34 18 11 13 0
19166 -30 -34 18 11 -13 0
18201 -30 -34 18 -11 13 0
19190 -30 -34 18 -11 -13 0
18605 -30 -34 -18 11 13 0
19413 -30 -34 -18 11 -13 0
18641 -30 -34 -18 -11 13 0
19432 -30 -34 -18 -11 -13 0
6528 -14 0
4800 -29 0
7500 16 17 -27 0
11250 16 -17 27 0
13125 16 -17 -27 0
5700 -16 17 27 0
10350 -16 17 -27 0
12675 -16 -17 27 0
13838 -16 -17 -27 0
7704 23 -22 0
10700 -23 22 0
16478 -23 -22 0
3000 21 15 -28 0
5250 21 -15 28 0
7200 21 -15 -28 0
2700 -21 15 28 0
5160 -21 15 -28 0
7005 -21 -15 28 0
8604 -21 -15 -28 0
11340 25 -33 0
8190 -25 33 0
12159 -25 -33 0
