p wcnf 79 225 1000000
1000000 4 -11 0
1000000 11 -54 -49 -42 -35 0
1000000 9 -12 0
1000000 12 -46 -53 -37 -58 -10 0
1000000 10 -13 0
1000000 13 -42 -45 0
1000000 8 -14 0
1000000 14 -54 -53 0
1000000 4 -15 0
1000000 15 -36 -50 -46 0
1000000 3 -16 0
1000000 16 -38 -4 0
1000000 5 -17 0
1000000 17 -41 -36 -40 -46 -8 0
1000000 2 -18 0
1000000 18 -52 -36 -42 -47 -5 0
1000000 10 -19 0
1000000 19 -43 -41 -36 -55 -64 0
1000000 1 -20 0
1000000 20 -46 -39 -55 0
1000000 2 -21 0
1000000 21 -45 -35 -58 0
1000000 1 -22 0
1000000 22 -37 -59 -10 0
1000000 4 -23 0
1000000 23 -56 -41 -57 -40 -55 0
1000000 2 -24 0
1000000 24 -57 -5 0
1000000 7 -25 0
1000000 25 -38 -59 -9 0
1000000 7 -26 0
1000000 26 -51 -49 -40 0
1000000 8 -27 0
1000000 27 -42 -59 -48 -9 0
1000000 9 -28 0
1000000 28 -52 -59 -43 0
1000000 5 -29 0
1000000 29 -44 -45 -49 -47 -8 0
1000000 2 -30 0
1000000 30 -48 -55 -52 -37 -51 0
1000000 1 -31 0
1000000 31 -61 -64 0
1000000 10 -32 0
1000000 32 -36 -35 0
1000000 3 -33 0
1000000 33 -49 -53 -50 -5 0
1000000 6 -34 0
1000000 34 -45 -64 -37 0
1000000 -1 22 31 20 0
1000000 -2 30 18 21 24 0
1000000 -3 16 33 0
1000000 -4 15 11 23 0
1000000 -5 29 17 0
1000000 -6 34 0
1000000 -7 26 25 0
1000000 -8 27 14 0
1000000 -9 12 28 0
1000000 -10 13 32 19 0
1000000 35 70 0
1000000 36 79 0
1000000 37 73 0
1000000 38 66 0
1000000 39 79 0
1000000 40 75 0
1000000 41 76 0
1000000 42 77 0
1000000 43 67 0
1000000 44 75 0
1000000 45 70 0
1000000 46 78 0
1000000 47 74 0
1000000 48 77 0
1000000 49 71 0
1000000 50 68 0
1000000 51 78 0
1000000 52 65 0
1000000 53 68 0
1000000 54 69 0
1000000 55 73 0
1000000 56 72 0
1000000 57 68 0
1000000 58 69 0
1000000 59 67 0
1000000 60 75 0
1000000 61 71 0
1000000 62 78 0
1000000 63 71 0
1000000 64 77 0
1000000 -35 -70 0
1000000 -36 -79 0
1000000 -37 -73 0
1000000 -38 -66 0
1000000 -39 -79 0
1000000 -40 -75 0
1000000 -41 -76 0
1000000 -42 -77 0
1000000 -43 -67 0
1000000 -44 -75 0
1000000 -45 -70 0
1000000 -46 -78 0
1000000 -47 -74 0
1000000 -48 -77 0
1000000 -49 -71 0
1000000 -50 -68 0
1000000 -51 -78 0
1000000 -52 -65 0
1000000 -53 -68 0
1000000 -54 -69 0
1000000 -55 -73 0
1000000 -56 -72 0
1000000 -57 -68 0
1000000 -58 -69 0
1000000 -59 -67 0
1000000 -60 -75 0
1000000 -61 -71 0
1000000 -62 -78 0
1000000 -63 -71 0
1000000 -64 -77 0
6200 -65 0
9400 -66 0
9100 -67 0
9400 -68 0
9900 -69 0
9900 -70 0
9800 -71 0
9900 -72 0
9400 -73 0
9100 -74 0
9800 -75 0
9800 -76 0
9100 -77 0
9400 -78 0
6200 -79 0
1100 35 0
1100 36 0
4400 37 0
2300 38 0
4400 39 0
1100 40 0
2300 41 0
1100 42 0
5000 43 0
1100 44 0
1100 45 0
1100 46 0
5000 47 0
2300 48 0
2700 49 0
2700 50 0
2300 51 0
2300 52 0
1100 53 0
2300 54 0
1100 55 0
1100 56 0
2300 57 0
4400 58 0
1100 59 0
4400 60 0
4400 61 0
4400 62 0
5000 63 0
4400 64 0
4294 22 31 -20 0
2825 22 -31 20 0
6046 22 -31 -20 0
6215 -22 31 20 0
8147 -22 31 -20 0
7486 -22 -31 20 0
8935 -22 -31 -20 0
6534 30 18 21 -24 0
32670 30 18 -21 24 0
33323 30 18 -21 -24 0
11616 30 -18 21 24 0
16059 30 -18 21 -24 0
33832 30 -18 -21 24 0
34276 30 -18 -21 -24 0
7260 -30 18 21 24 0
12487 -30 18 21 -24 0
33396 -30 18 -21 24 0
33919 -30 18 -21 -24 0
16553 -30 -18 21 24 0
20107 -30 -18 21 -24 0
34325 -30 -18 -21 24 0
34681 -30 -18 -21 -24 0
23440 16 -33 0
11134 -16 33 0
25667 -16 -33 0
17580 15 11 -23 0
9376 15 -11 23 0
21330 15 -11 -23 0
13185 -15 11 23 0
22854 -15 11 -23 0
18342 -15 -11 23 0
24917 -15 -11 -23 0
6780 29 -17 0
2034 -29 17 0
7594 -29 -17 0
8790 -34 0
1860 26 -25 0
744 -26 25 0
2567 -26 -25 0
7345 27 -14 0
2825 -27 14 0
8334 -27 -14 0
14650 12 -28 0
27835 -12 28 0
28568 -12 -28 0
34485 13 32 -19 0
1815 13 -32 19 0
34576 13 -32 -19 0
5445 -13 32 19 0
34757 -13 32 -19 0
6988 -13 -32 19 0
34834 -13 -32 -19 0
