p wcnf 79 243 1000000
1000000 6 -11 0
1000000 11 -40 -60 -50 -64 0
1000000 7 -12 0
1000000 12 -46 -54 -57 -51 0
1000000 3 -13 0
1000000 13 -36 -52 -41 -38 0
1000000 2 -14 0
1000000 14 -40 -37 -59 0
1000000 4 -15 0
1000000 15 -57 -37 -35 0
1000000 9 -16 0
1000000 16 -62 -47 -51 0
1000000 5 -17 0
1000000 17 -62 -38 0
1000000 6 -18 0
1000000 18 -36 -55 -48 -63 -60 0
1000000 4 -19 0
1000000 19 -37 -50 -41 0
1000000 3 -20 0
1000000 20 -60 -62 -55 0
1000000 4 -21 0
1000000 21 -48 -49 -40 -61 -50 0
1000000 2 -22 0
1000000 22 -41 -50 0
1000000 6 -23 0
1000000 23 -56 -40 -55 -60 -37 0
1000000 5 -24 0
1000000 24 -63 -61 0
1000000 2 -25 0
1000000 25 -40 -55 0
1000000 8 -26 0
1000000 26 -46 -48 -55 0
1000000 10 -27 0
1000000 27 -49 -39 -60 -58 -41 0
1000000 3 -28 0
1000000 28 -49 -55 0
1000000 2 -29 0
1000000 29 -61 -51 -62 0
1000000 5 -30 0
1000000 30 -41 -38 -42 -52 -9 0
1000000 8 -31 0
1000000 31 -57 -60 -42 -62 0
1000000 2 -32 0
1000000 32 -44 -51 -62 -54 0
1000000 8 -33 0
1000000 33 -47 -52 -58 -51 -38 0
1000000 1 -34 0
1000000 34 -54 -45 -36 -44 0
1000000 -1 34 0
1000000 -2 29 22 25 14 32 0
1000000 -3 28 13 20 0
1000000 -4 21 19 15 0
1000000 -5 24 30 17 0
1000000 -6 18 11 23 0
1000000 -7 12 0
1000000 -8 26 33 31 0
1000000 -9 16 0
1000000 -10 27 0
1000000 35 72 0
1000000 36 79 0
1000000 37 77 0
1000000 38 65 0
1000000 39 74 0
1000000 40 70 0
1000000 41 78 0
1000000 42 68 0
1000000 43 76 0
1000000 44 66 0
1000000 45 75 0
1000000 46 68 0
1000000 47 70 0
1000000 48 74 0
1000000 49 79 0
1000000 50 65 0
1000000 51 79 0
1000000 52 69 0
1000000 53 65 0
1000000 54 66 0
1000000 55 78 0
1000000 56 77 0
1000000 57 67 0
1000000 58 71 0
1000000 59 74 0
1000000 60 71 0
1000000 61 73 0
1000000 62 67 0
1000000 63 70 0
1000000 64 76 0
1000000 -35 -72 0
1000000 -36 -79 0
1000000 -37 -77 0
1000000 -38 -65 0
1000000 -39 -74 0
1000000 -40 -70 0
1000000 -41 -78 0
1000000 -42 -68 0
1000000 -43 -76 0
1000000 -44 -66 0
1000000 -45 -75 0
1000000 -46 -68 0
1000000 -47 -70 0
1000000 -48 -74 0
1000000 -49 -79 0
1000000 -50 -65 0
1000000 -51 -79 0
1000000 -52 -69 0
1000000 -53 -65 0
1000000 -54 -66 0
1000000 -55 -78 0
1000000 -56 -77 0
1000000 -57 -67 0
1000000 -58 -71 0
1000000 -59 -74 0
1000000 -60 -71 0
1000000 -61 -73 0
1000000 -62 -67 0
1000000 -63 -70 0
1000000 -64 -76 0
8800 -65 0
5700 -66 0
6800 -67 0
6800 -68 0
6800 -69 0
5700 -70 0
6800 -71 0
6800 -72 0
6800 -73 0
8800 -74 0
6800 -75 0
9800 -76 0
6600 -77 0
5700 -78 0
5700 -79 0
4000 35 0
2900 36 0
1800 37 0
1800 38 0
4400 39 0
4400 40 0
1800 41 0
2900 42 0
3700 43 0
1800 44 0
4400 45 0
4400 46 0
3700 47 0
1800 48 0
1800 49 0
3700 50 0
4400 51 0
2900 52 0
2900 53 0
3700 54 0
4000 55 0
1800 56 0
4400 57 0
4400 58 0
2900 59 0
2900 60 0
1800 61 0
1800 62 0
2900 63 0
4400 64 0
14080 -34 0
17350 29 22 25 14 -32 0
8675 29 22 25 -14 32 0
21688 29 22 25 -14 -32 0
11104 29 22 -25 14 32 0
22902 29 22 -25 14 -32 0
17003 29 22 -25 -14 32 0
25851 29 22 -25 -14 -32 0
13880 29 -22 25 14 32 0
24290 29 -22 25 14 -32 0
19085 29 -22 25 -14 32 0
26893 29 -22 25 -14 -32 0
20542 29 -22 -25 14 32 0
27621 29 -22 -25 14 -32 0
24082 29 -22 -25 -14 32 0
29391 29 -22 -25 -14 -32 0
24290 -29 22 25 14 32 0
29495 -29 22 25 14 -32 0
26892 -29 22 25 -14 32 0
30796 -29 22 25 -14 -32 0
27621 -29 22 -25 14 32 0
31161 -29 22 -25 14 -32 0
29391 -29 22 -25 -14 32 0
32045 -29 22 -25 -14 -32 0
28454 -29 -22 25 14 32 0
31577 -29 -22 25 14 -32 0
30015 -29 -22 25 -14 32 0
32358 -29 -22 25 -14 -32 0
30453 -29 -22 -25 14 32 0
32576 -29 -22 -25 14 -32 0
31515 -29 -22 -25 -14 32 0
33107 -29 -22 -25 -14 -32 0
11744 28 13 -20 0
16515 28 -13 20 0
22974 28 -13 -20 0
9175 -28 13 20 0
17983 -28 13 -20 0
21561 -28 -13 20 0
26406 -28 -13 -20 0
4220 21 19 -15 0
13504 21 -19 15 0
16374 21 -19 -15 0
2110 -21 19 15 0
6119 -21 19 -15 0
14939 -21 -19 15 0
17665 -21 -19 -15 0
11744 24 30 -17 0
4404 24 -30 17 0
14739 24 -30 -17 0
34865 -24 30 17 0
35452 -24 30 -17 0
35085 -24 -30 17 0
35602 -24 -30 -17 0
34865 18 11 -23 0
11010 18 -11 23 0
35415 18 -11 -23 0
14680 -18 11 23 0
35599 -18 11 -23 0
21286 -18 -11 23 0
35929 -18 -11 -23 0
7920 -12 0
27525 26 33 -31 0
7340 26 -33 31 0
29360 26 -33 -31 0
6606 -26 33 31 0
29176 -26 33 -31 0
12625 -26 -33 31 0
30681 -26 -33 -31 0
27525 -16 0
8675 -27 0
