p wcnf 79 221 1000000
1000000 6 -11 0
1000000 11 -52 -37 -43 0
1000000 1 -12 0
1000000 12 -42 -52 -38 -43 -62 0
1000000 8 -13 0
1000000 13 -49 -61 -45 0
1000000 8 -14 0
1000000 14 -63 -47 -42 0
1000000 6 -15 0
1000000 15 -36 -40 -53 -58 0
1000000 2 -16 0
1000000 16 -41 -54 -55 -51 -8 0
1000000 7 -17 0
1000000 17 -43 -48 -59 -46 0
1000000 5 -18 0
1000000 18 -52 -51 -36 -53 0
1000000 7 -19 0
1000000 19 -38 -36 -55 -8 0
1000000 7 -20 0
1000000 20 -44 -59 -51 -39 0
1000000 5 -21 0
1000000 21 -59 -51 0
1000000 10 -22 0
1000000 22 -48 -49 0
1000000 10 -23 0
1000000 23 -39 -55 0
1000000 4 -24 0
1000000 24 -50 -41 -46 -39 -6 0
1000000 9 -25 0
1000000 25 -48 -64 -47 0
1000000 2 -26 0
1000000 26 -38 -45 -57 0
1000000 10 -27 0
1000000 27 -47 -44 -38 -46 0
1000000 9 -28 0
1000000 28 -53 -54 0
1000000 2 -29 0
1000000 29 -58 -36 -5 0
1000000 3 -30 0
1000000 30 -35 -47 0
1000000 8 -31 0
1000000 31 -50 -59 -10 0
1000000 1 -32 0
1000000 32 -53 -48 0
1000000 4 -33 0
1000000 33 -42 -56 0
1000000 6 -34 0
1000000 34 -49 -42 -64 0
1000000 -1 12 32 0
1000000 -2 26 16 29 0
1000000 -3 30 0
1000000 -4 33 24 0
1000000 -5 18 21 0
1000000 -6 11 34 15 0
1000000 -7 19 20 17 0
1000000 -8 13 31 14 0
1000000 -9 25 28 0
1000000 -10 27 23 22 0
1000000 35 79 0
1000000 36 73 0
1000000 37 71 0
1000000 38 78 0
1000000 39 72 0
1000000 40 67 0
1000000 41 68 0
1000000 42 66 0
1000000 43 69 0
1000000 44 66 0
1000000 45 69 0
1000000 46 68 0
1000000 47 78 0
1000000 48 66 0
1000000 49 71 0
1000000 50 68 0
1000000 51 75 0
1000000 52 75 0
1000000 53 79 0
1000000 54 78 0
1000000 55 65 0
1000000 56 69 0
1000000 57 71 0
1000000 58 70 0
1000000 59 76 0
1000000 60 77 0
1000000 61 74 0
1000000 62 77 0
1000000 63 72 0
1000000 64 67 0
1000000 -35 -79 0
1000000 -36 -73 0
1000000 -37 -71 0
1000000 -38 -78 0
1000000 -39 -72 0
1000000 -40 -67 0
1000000 -41 -68 0
1000000 -42 -66 0
1000000 -43 -69 0
1000000 -44 -66 0
1000000 -45 -69 0
1000000 -46 -68 0
1000000 -47 -78 0
1000000 -48 -66 0
1000000 -49 -71 0
1000000 -50 -68 0
1000000 -51 -75 0
1000000 -52 -75 0
1000000 -53 -79 0
1000000 -54 -78 0
1000000 -55 -65 0
1000000 -56 -69 0
1000000 -57 -71 0
1000000 -58 -70 0
1000000 -59 -76 0
1000000 -60 -77 0
1000000 -61 -74 0
1000000 -62 -77 0
1000000 -63 -72 0
1000000 -64 -67 0
8100 -65 0
8100 -66 0
8800 -67 0
8200 -68 0
8800 -69 0
7100 -70 0
5100 -71 0
8800 -72 0
5100 -73 0
7100 -74 0
8100 -75 0
8200 -76 0
5100 -77 0
8800 -78 0
8200 -79 0
3300 35 0
2800 36 0
3100 37 0
3100 38 0
2800 39 0
3100 40 0
1100 41 0
2800 42 0
2800 43 0
3100 44 0
1100 45 0
2900 46 0
2800 47 0
2900 48 0
3300 49 0
3100 50 0
2800 51 0
2800 52 0
3300 53 0
2800 54 0
3300 55 0
3300 56 0
2800 57 0
3300 58 0
2900 59 0
2800 60 0
2900 61 0
2800 62 0
1100 63 0
1100 64 0
6000 12 -32 0
8500 -12 32 0
9400 -12 -32 0
5595 26 16 -29 0
3730 26 -16 29 0
8766 26 -16 -29 0
6714 -26 16 29 0
11302 -26 16 -29 0
9773 -26 -16 29 0
13902 -26 -16 -29 0
1000 -30 0
7460 33 -24 0
6714 -33 24 0
12831 -33 -24 0
5225 18 -21 0
418 -18 21 0
5539 -18 -21 0
22770 11 34 -15 0
8280 11 -34 15 0
26496 11 -34 -15 0
12420 -11 34 15 0
28359 -11 34 -15 0
18216 -11 -34 15 0
30967 -11 -34 -15 0
20700 19 20 -17 0
6210 19 -20 17 0
23805 19 -20 -17 0
4140 -19 20 17 0
22770 -19 20 -17 0
9729 -19 -20 17 0
25564 -19 -20 -17 0
286 13 31 -14 0
4290 13 -31 14 0
4490 13 -31 -14 0
11440 -13 31 14 0
11497 -13 31 -14 0
12298 -13 -31 14 0
12338 -13 -31 -14 0
3000 25 -28 0
1800 -25 28 0
4260 -25 -28 0
15732 27 23 -22 0
16560 27 -23 22 0
25999 27 -23 -22 0
12420 -27 23 22 0
23432 -27 23 -22 0
24012 -27 -23 22 0
30619 -27 -23 -22 0
