p wcnf 79 247 1000000
1000000 5 -11 0
1000000 11 -48 -40 -55 -52 0
1000000 2 -12 0
1000000 12 -53 -9 0
1000000 9 -13 0
1000000 13 -42 -60 -44 -50 0
1000000 6 -14 0
1000000 14 -39 -60 -42 -61 -37 0
1000000 8 -15 0
1000000 15 -54 -39 -50 -48 -10 0
1000000 3 -16 0
1000000 16 -57 -47 -59 0
1000000 1 -17 0
1000000 17 -35 -61 -46 -56 0
1000000 1 -18 0
1000000 18 -59 -38 -41 -64 -60 0
1000000 1 -19 0
1000000 19 -35 -41 -62 0
1000000 1 -20 0
1000000 20 -42 -35 -40 -53 0
1000000 8 -21 0
1000000 21 -48 -54 -39 -40 -44 0
1000000 8 -22 0
1000000 22 -45 -57 -44 -10 0
1000000 4 -23 0
1000000 23 -58 -41 -8 0
1000000 9 -24 0
1000000 24 -40 -55 -60 -56 -49 0
1000000 3 -25 0
1000000 25 -43 -46 -57 -36 -64 0
1000000 9 -26 0
1000000 26 -50 -35 -51 0
1000000 9 -27 0
1000000 27 -55 -52 -46 0
1000000 5 -28 0
1000000 28 -37 -58 0
1000000 3 -29 0
1000000 29 -52 -60 0
1000000 2 -30 0
1000000 30 -46 -64 -52 -44 -8 0
1000000 7 -31 0
1000000 31 -49 -35 -51 0
1000000 1 -32 0
1000000 32 -63 -47 -53 -43 0
1000000 10 -33 0
1000000 33 -36 -47 -37 -52 -58 0
1000000 5 -34 0
1000000 34 -45 -53 -61 0
1000000 -1 18 32 20 19 17 0
1000000 -2 30 12 0
1000000 -3 16 29 25 0
1000000 -4 23 0
1000000 -5 34 11 28 0
1000000 -6 14 0
1000000 -7 31 0
1000000 -8 21 22 15 0
1000000 -9 26 27 24 13 0
1000000 -10 33 0
1000000 35 79 0
1000000 36 65 0
1000000 37 68 0
1000000 38 65 0
1000000 39 73 0
1000000 40 70 0
1000000 41 78 0
1000000 42 67 0
1000000 43 74 0
1000000 44 70 0
1000000 45 67 0
1000000 46 77 0
1000000 47 73 0
1000000 48 71 0
1000000 49 65 0
1000000 50 72 0
1000000 51 76 0
1000000 52 75 0
1000000 53 70 0
1000000 54 74 0
1000000 55 76 0
1000000 56 66 0
1000000 57 74 0
1000000 58 77 0
1000000 59 76 0
1000000 60 67 0
1000000 61 79 0
1000000 62 72 0
1000000 63 69 0
1000000 64 71 0
1000000 -35 -79 0
1000000 -36 -65 0
1000000 -37 -68 0
1000000 -38 -65 0
1000000 -39 -73 0
1000000 -40 -70 0
1000000 -41 -78 0
1000000 -42 -67 0
1000000 -43 -74 0
1000000 -44 -70 0
1000000 -45 -67 0
1000000 -46 -77 0
1000000 -47 -73 0
1000000 -48 -71 0
1000000 -49 -65 0
1000000 -50 -72 0
1000000 -51 -76 0
1000000 -52 -75 0
1000000 -53 -70 0
1000000 -54 -74 0
1000000 -55 -76 0
1000000 -56 -66 0
1000000 -57 -74 0
1000000 -58 -77 0
1000000 -59 -76 0
1000000 -60 -67 0
1000000 -61 -79 0
1000000 -62 -72 0
1000000 -63 -69 0
1000000 -64 -71 0
9800 -65 0
9800 -66 0
9800 -67 0
9800 -68 0
8100 -69 0
8100 -70 0
9800 -71 0
7300 -72 0
9800 -73 0
7300 -74 0
9800 -75 0
7300 -76 0
8100 -77 0
7300 -78 0
8500 -79 0
3900 35 0
3900 36 0
3900 37 0
4300 38 0
4300 39 0
3000 40 0
4300 41 0
3000 42 0
3000 43 0
3900 44 0
3000 45 0
4300 46 0
2200 47 0
2200 48 0
4300 49 0
3900 50 0
1000 51 0
1000 52 0
1000 53 0
2200 54 0
4300 55 0
3900 56 0
3000 57 0
1000 58 0
4300 59 0
2200 60 0
3900 61 0
2200 62 0
2200 63 0
3900 64 0
3600 18 32 20 19 -17 0
3600 18 32 20 -19 17 0
6768 18 32 20 -19 -17 0
19500 18 32 -20 19 17 0
20760 18 32 -20 19 -17 0
20760 18 32 -20 -19 17 0
21869 18 32 -20 -19 -17 0
24000 18 -32 20 19 17 0
24720 18 -32 20 19 -17 0
24720 18 -32 20 -19 17 0
25354 18 -32 20 -19 -17 0
27900 18 -32 -20 19 17 0
28152 18 -32 -20 19 -17 0
28152 18 -32 -20 -19 17 0
28374 18 -32 -20 -19 -17 0
28500 -18 32 20 19 17 0
28680 -18 32 20 19 -17 0
28680 -18 32 20 -19 17 0
28838 -18 32 20 -19 -17 0
29475 -18 32 -20 19 17 0
29538 -18 32 -20 19 -17 0
29538 -18 32 -20 -19 17 0
29593 -18 32 -20 -19 -17 0
29700 -18 -32 20 19 17 0
29736 -18 -32 20 19 -17 0
29736 -18 -32 20 -19 17 0
29768 -18 -32 20 -19 -17 0
29895 -18 -32 -20 19 17 0
29908 -18 -32 -20 19 -17 0
29908 -18 -32 -20 -19 17 0
29919 -18 -32 -20 -19 -17 0
6690 30 -12 0
40140 -30 12 0
40809 -30 -12 0
1035 16 29 -25 0
138 16 -29 25 0
1152 16 -29 -25 0
2070 -16 29 25 0
2795 -16 29 -25 0
2167 -16 -29 25 0
2877 -16 -29 -25 0
28990 -23 0
10725 34 11 -28 0
8775 34 -11 28 0
14674 34 -11 -28 0
2925 -34 11 28 0
12041 -34 11 -28 0
10384 -34 -11 28 0
15398 -34 -11 -28 0
6210 -14 0
31800 -31 0
828 21 22 -15 0
3450 21 -22 15 0
3864 21 -22 -15 0
690 -21 22 15 0
1435 -21 22 -15 0
3795 -21 -22 15 0
4168 -21 -22 -15 0
14272 26 27 24 -13 0
892 26 27 -24 13 0
14879 26 27 -24 -13 0
40140 26 -27 24 13 0
41567 26 -27 24 -13 0
40229 26 -27 -24 13 0
41628 26 -27 -24 -13 0
42370 -26 27 24 13 0
43084 -26 27 24 -13 0
42415 -26 27 -24 13 0
43114 -26 27 -24 -13 0
44377 -26 -27 24 13 0
44448 -26 -27 24 -13 0
44381 -26 -27 -24 13 0
44451 -26 -27 -24 -13 0
33920 -33 0
