p wcnf 79 237 1000000
1000000 6 -11 0
1000000 11 -63 -10 0
1000000 9 -12 0
1000000 12 -60 -44 -56 -10 0
1000000 4 -13 0
1000000 13 -36 -59 -51 -54 0
1000000 6 -14 0
1000000 14 -54 -62 -40 -56 0
1000000 10 -15 0
1000000 15 -42 -55 -56 -48 0
1000000 8 -16 0
1000000 16 -58 -46 -48 -47 -10 0
1000000 1 -17 0
1000000 17 -45 -42 -56 0
1000000 2 -18 0
1000000 18 -56 -47 -8 0
1000000 8 -19 0
1000000 19 -60 -37 -59 -62 -48 0
1000000 5 -20 0
1000000 20 -56 -49 -55 -47 -53 0
1000000 2 -21 0
1000000 21 -62 -42 -53 -35 -52 0
1000000 8 -22 0
1000000 22 -50 -58 -56 -9 0
1000000 3 -23 0
1000000 23 -46 -49 -35 -4 0
1000000 3 -24 0
1000000 24 -61 -50 -35 -41 0
1000000 7 -25 0
1000000 25 -61 -38 -51 -40 -8 0
1000000 4 -26 0
1000000 26 -38 -54 -9 0
1000000 9 -27 0
1000000 27 -58 -38 0
1000000 8 -28 0
1000000 28 -60 -37 -44 -46 -36 0
1000000 1 -29 0
1000000 29 -62 -48 -63 -9 0
1000000 6 -30 0
1000000 30 -35 -39 -60 -59 -61 0
1000000 6 -31 0
1000000 31 -49 -57 -53 -42 -52 0
1000000 1 -32 0
1000000 32 -60 -41 -38 -42 0
1000000 9 -33 0
1000000 33 -54 -49 -45 -38 -10 0
1000000 9 -34 0
1000000 34 -51 -45 -10 0
1000000 -1 29 32 17 0
1000000 -2 18 21 0
1000000 -3 23 24 0
1000000 -4 26 13 0
1000000 -5 20 0
1000000 -6 11 30 31 14 0
1000000 -7 25 0
1000000 -8 28 16 19 22 0
1000000 -9 33 12 27 34 0
1000000 -10 15 0
1000000 35 69 0
1000000 36 70 0
1000000 37 74 0
1000000 38 70 0
1000000 39 75 0
1000000 40 73 0
1000000 41 66 0
1000000 42 73 0
1000000 43 70 0
1000000 44 74 0
1000000 45 78 0
1000000 46 65 0
1000000 47 79 0
1000000 48 78 0
1000000 49 71 0
1000000 50 66 0
1000000 51 74 0
1000000 52 76 0
1000000 53 72 0
1000000 54 79 0
1000000 55 67 0
1000000 56 75 0
1000000 57 67 0
1000000 58 69 0
1000000 59 68 0
1000000 60 72 0
1000000 61 77 0
1000000 62 69 0
1000000 63 78 0
1000000 64 72 0
1000000 -35 -69 0
1000000 -36 -70 0
1000000 -37 -74 0
1000000 -38 -70 0
1000000 -39 -75 0
1000000 -40 -73 0
1000000 -41 -66 0
1000000 -42 -73 0
1000000 -43 -70 0
1000000 -44 -74 0
1000000 -45 -78 0
1000000 -46 -65 0
1000000 -47 -79 0
1000000 -48 -78 0
1000000 -49 -71 0
1000000 -50 -66 0
1000000 -51 -74 0
1000000 -52 -76 0
1000000 -53 -72 0
1000000 -54 -79 0
1000000 -55 -67 0
1000000 -56 -75 0
1000000 -57 -67 0
1000000 -58 -69 0
1000000 -59 -68 0
1000000 -60 -72 0
1000000 -61 -77 0
1000000 -62 -69 0
1000000 -63 -78 0
1000000 -64 -72 0
9100 -65 0
7600 -66 0
6600 -67 0
7000 -68 0
9100 -69 0
9100 -70 0
9100 -71 0
7600 -72 0
7600 -73 0
9100 -74 0
7000 -75 0
7000 -76 0
7600 -77 0
6600 -78 0
7000 -79 0
1100 35 0
1100 36 0
1600 37 0
2000 38 0
2000 39 0
3100 40 0
1100 41 0
1200 42 0
3100 43 0
1600 44 0
2000 45 0
1200 46 0
3100 47 0
3100 48 0
2000 49 0
3100 50 0
1200 51 0
1100 52 0
1600 53 0
1100 54 0
3100 55 0
3100 56 0
1600 57 0
1600 58 0
1100 59 0
1200 60 0
1600 61 0
3100 62 0
1600 63 0
1200 64 0
4728 29 32 -17 0
14972 29 -32 17 0
17903 29 -32 -17 0
1970 -29 32 17 0
6462 -29 32 -17 0
16193 -29 -32 17 0
18978 -29 -32 -17 0
16880 18 -21 0
13715 -18 21 0
19623 -18 -21 0
20315 23 -24 0
7170 -23 24 0
21391 -23 -24 0
2520 26 -13 0
11340 -26 13 0
12726 -26 -13 0
17640 -20 0
3165 11 30 31 -14 0
12660 11 30 -31 14 0
13926 11 30 -31 -14 0
6330 11 -30 31 14 0
8546 11 -30 31 -14 0
15192 11 -30 -31 14 0
16078 11 -30 -31 -14 0
4220 -11 30 31 14 0
6752 -11 30 31 -14 0
14348 -11 30 -31 14 0
15361 -11 30 -31 -14 0
9284 -11 -30 31 14 0
11056 -11 -30 31 -14 0
16374 -11 -30 -31 14 0
17083 -11 -30 -31 -14 0
7880 -25 0
4650 28 16 19 -22 0
4960 28 16 -19 22 0
8122 28 16 -19 -22 0
14725 28 -16 19 22 0
14957 28 -16 19 -22 0
14973 28 -16 -19 22 0
15131 28 -16 -19 -22 0
11625 -28 16 19 22 0
12788 -28 16 19 -22 0
12865 -28 16 -19 22 0
13656 -28 16 -19 -22 0
15306 -28 -16 19 22 0
15364 -28 -16 19 -22 0
15368 -28 -16 -19 22 0
15408 -28 -16 -19 -22 0
14770 33 12 27 -34 0
9495 33 12 -27 34 0
17619 33 12 -27 -34 0
8018 33 -12 27 34 0
17175 33 -12 27 -34 0
13905 33 -12 -27 34 0
18941 33 -12 -27 -34 0
16880 -33 12 27 34 0
19834 -33 12 27 -34 0
18779 -33 12 -27 34 0
20404 -33 12 -27 -34 0
18484 -33 -12 27 34 0
20315 -33 -12 27 -34 0
19661 -33 -12 -27 34 0
20668 -33 -12 -27 -34 0
17640 -15 0
