p wcnf 79 251 1000000
1000000 9 -11 0
1000000 11 -41 -47 -38 0
1000000 9 -12 0
1000000 12 -42 -44 -52 0
1000000 6 -13 0
1000000 13 -49 -44 0
1000000 6 -14 0
1000000 14 -40 -55 -60 -59 0
1000000 5 -15 0
1000000 15 -57 -37 -45 -10 0
1000000 1 -16 0
1000000 16 -49 -42 -60 -53 0
1000000 6 -17 0
1000000 17 -55 -57 -40 -38 0
1000000 4 -18 0
1000000 18 -59 -58 -41 -39 -60 0
1000000 4 -19 0
1000000 19 -45 -40 0
1000000 9 -20 0
1000000 20 -42 -52 -49 -40 -48 0
1000000 1 -21 0
1000000 21 -56 -43 -49 -51 0
1000000 10 -22 0
1000000 22 -49 -35 -58 0
1000000 8 -23 0
1000000 23 -43 -57 -42 -39 -63 0
1000000 10 -24 0
1000000 24 -42 -64 -46 0
1000000 6 -25 0
1000000 25 -59 -45 -49 -55 0
1000000 10 -26 0
1000000 26 -45 -36 0
1000000 3 -27 0
1000000 27 -42 -55 -44 -38 0
1000000 6 -28 0
1000000 28 -52 -56 -42 -39 -36 0
1000000 9 -29 0
1000000 29 -44 -51 -46 0
1000000 4 -30 0
1000000 30 -58 -36 -57 0
1000000 4 -31 0
1000000 31 -55 -60 -52 -5 0
1000000 8 -32 0
1000000 32 -35 -61 -9 0
1000000 7 -33 0
1000000 33 -49 -55 0
1000000 2 -34 0
1000000 34 -38 -46 -62 -8 0
1000000 -1 16 21 0
1000000 -2 34 0
1000000 -3 27 0
1000000 -4 31 30 19 18 0
1000000 -5 15 0
1000000 -6 13 17 14 25 28 0
1000000 -7 33 0
1000000 -8 32 23 0
1000000 -9 20 29 12 11 0
1000000 -10 26 24 22 0
1000000 35 65 0
1000000 36 72 0
1000000 37 69 0
1000000 38 77 0
1000000 39 68 0
1000000 40 71 0
1000000 41 79 0
1000000 42 79 0
1000000 43 75 0
1000000 44 68 0
1000000 45 65 0
1000000 46 77 0
1000000 47 70 0
1000000 48 76 0
1000000 49 69 0
1000000 50 76 0
1000000 51 78 0
1000000 52 67 0
1000000 53 75 0
1000000 54 69 0
1000000 55 71 0
1000000 56 76 0
1000000 57 77 0
1000000 58 70 0
1000000 59 67 0
1000000 60 66 0
1000000 61 73 0
1000000 62 74 0
1000000 63 65 0
1000000 64 75 0
1000000 -35 -65 0
1000000 -36 -72 0
1000000 -37 -69 0
1000000 -38 -77 0
1000000 -39 -68 0
1000000 -40 -71 0
1000000 -41 -79 0
1000000 -42 -79 0
1000000 -43 -75 0
1000000 -44 -68 0
1000000 -45 -65 0
1000000 -46 -77 0
1000000 -47 -70 0
1000000 -48 -76 0
1000000 -49 -69 0
1000000 -50 -76 0
1000000 -51 -78 0
1000000 -52 -67 0
1000000 -53 -75 0
1000000 -54 -69 0
1000000 -55 -71 0
1000000 -56 -76 0
1000000 -57 -77 0
1000000 -58 -70 0
1000000 -59 -67 0
1000000 -60 -66 0
1000000 -61 -73 0
1000000 -62 -74 0
1000000 -63 -65 0
1000000 -64 -75 0
7600 -65 0
7500 -66 0
7500 -67 0
5200 -68 0
7600 -69 0
7600 -70 0
7600 -71 0
10000 -72 0
10000 -73 0
5200 -74 0
7500 -75 0
7600 -76 0
5200 -77 0
7600 -78 0
7600 -79 0
4200 35 0
3400 36 0
2600 37 0
2600 38 0
3100 39 0
3400 40 0
2600 41 0
2600 42 0
3400 43 0
3400 44 0
4600 45 0
4200 46 0
2600 47 0
3400 48 0
4200 49 0
2600 50 0
3400 51 0
3100 52 0
3400 53 0
4600 54 0
3100 55 0
4200 56 0
4200 57 0
2600 58 0
3400 59 0
3400 60 0
3100 61 0
4200 62 0
4600 63 0
3100 64 0
16100 16 -21 0
1150 -16 21 0
16445 -16 -21 0
2760 -34 0
26640 -27 0
8050 31 30 19 -18 0
2760 31 30 -19 18 0
9844 31 30 -19 -18 0
8050 31 -30 19 18 0
13282 31 -30 19 -18 0
9844 31 -30 -19 18 0
14449 31 -30 -19 -18 0
4600 -31 30 19 18 0
11040 -31 30 19 -18 0
6808 -31 30 -19 18 0
12475 -31 30 -19 -18 0
11040 -31 -30 19 18 0
15226 -31 -30 19 -18 0
12475 -31 -30 -19 18 0
16159 -31 -30 -19 -18 0
25650 -15 0
2050 13 17 14 25 -28 0
2460 13 17 14 -25 28 0
3895 13 17 14 -25 -28 0
2050 13 17 -14 25 28 0
3588 13 17 -14 25 -28 0
3895 13 17 -14 -25 28 0
4971 13 17 -14 -25 -28 0
1230 13 -17 14 25 28 0
2973 13 -17 14 25 -28 0
3321 13 -17 14 -25 28 0
4541 13 -17 14 -25 -28 0
2973 13 -17 -14 25 28 0
4279 13 -17 -14 25 -28 0
4541 13 -17 -14 -25 28 0
5456 13 -17 -14 -25 -28 0
1640 -13 17 14 25 28 0
3280 -13 17 14 25 -28 0
3608 -13 17 14 -25 28 0
4756 -13 17 14 -25 -28 0
3280 -13 17 -14 25 28 0
4510 -13 17 -14 25 -28 0
4756 -13 17 -14 -25 28 0
5617 -13 17 -14 -25 -28 0
2624 -13 -17 14 25 28 0
4018 -13 -17 14 25 -28 0
4297 -13 -17 14 -25 28 0
5273 -13 -17 14 -25 -28 0
4018 -13 -17 -14 25 28 0
5063 -13 -17 -14 25 -28 0
5273 -13 -17 -14 -25 28 0
6004 -13 -17 -14 -25 -28 0
26790 -33 0
4920 32 -23 0
4510 -32 23 0
6724 -32 -23 0
17550 20 29 12 -11 0
18900 20 29 -12 11 0
24165 20 29 -12 -11 0
24300 20 -29 12 11 0
26055 20 -29 12 -11 0
26190 20 -29 -12 11 0
26717 20 -29 -12 -11 0
10260 -20 29 12 11 0
21141 -20 29 12 -11 0
21978 -20 29 -12 11 0
25242 -20 29 -12 -11 0
25326 -20 -29 12 11 0
26414 -20 -29 12 -11 0
26498 -20 -29 -12 11 0
26824 -20 -29 -12 -11 0
10800 26 24 -22 0
17550 26 -24 22 0
21330 26 -24 -22 0
3240 -26 24 22 0
12744 -26 24 -22 0
18684 -26 -24 22 0
22010 -26 -24 -22 0
