p wcnf 79 225 1000000
1000000 3 -11 0
1000000 11 -49 -39 -47 -43 0
1000000 5 -12 0
1000000 12 -39 -56 -9 0
1000000 8 -13 0
1000000 13 -59 -45 0
1000000 5 -14 0
1000000 14 -45 -47 -42 -44 -10 0
1000000 7 -15 0
1000000 15 -49 -37 -8 0
1000000 4 -16 0
1000000 16 -45 -40 0
1000000 6 -17 0
1000000 17 -39 -37 -58 -38 -56 0
1000000 3 -18 0
1000000 18 -44 -50 -38 0
1000000 8 -19 0
1000000 19 -48 -54 -10 0
1000000 10 -20 0
1000000 20 -51 -45 -39 -48 0
1000000 7 -21 0
1000000 21 -41 -49 -44 -8 0
1000000 10 -22 0
1000000 22 -41 -46 -42 -37 -58 0
1000000 3 -23 0
1000000 23 -39 -37 -52 0
1000000 6 -24 0
1000000 24 -57 -60 -42 -45 -46 0
1000000 9 -25 0
1000000 25 -58 -56 -42 -40 -10 0
1000000 10 -26 0
1000000 26 -61 -59 -60 0
1000000 8 -27 0
1000000 27 -49 -51 -45 0
1000000 4 -28 0
1000000 28 -56 -62 -38 -47 0
1000000 9 -29 0
1000000 29 -37 -40 -47 0
1000000 2 -30 0
1000000 30 -56 -45 -60 -61 -44 0
1000000 8 -31 0
1000000 31 -49 -61 -64 -44 0
1000000 1 -32 0
1000000 32 -36 -40 -37 -45 -41 0
1000000 1 -33 0
1000000 33 -42 -38 0
1000000 5 -34 0
1000000 34 -56 -37 0
1000000 -1 32 33 0
1000000 -2 30 0
1000000 -3 11 23 18 0
1000000 -4 16 28 0
1000000 -5 12 14 34 0
1000000 -6 24 17 0
1000000 -7 15 21 0
1000000 -8 13 31 19 27 0
1000000 -9 29 25 0
1000000 -10 26 20 22 0
1000000 35 67 0
1000000 36 79 0
1000000 37 65 0
1000000 38 70 0
1000000 39 74 0
1000000 40 77 0
1000000 41 72 0
1000000 42 78 0
1000000 43 67 0
1000000 44 66 0
1000000 45 77 0
1000000 46 68 0
1000000 47 71 0
1000000 48 72 0
1000000 49 68 0
1000000 50 69 0
1000000 51 73 0
1000000 52 78 0
1000000 53 79 0
1000000 54 66 0
1000000 55 76 0
1000000 56 70 0
1000000 57 65 0
1000000 58 76 0
1000000 59 67 0
1000000 60 69 0
1000000 61 75 0
1000000 62 68 0
1000000 63 73 0
1000000 64 74 0
1000000 -35 -67 0
1000000 -36 -79 0
1000000 -37 -65 0
1000000 -38 -70 0
1000000 -39 -74 0
1000000 -40 -77 0
1000000 -41 -72 0
1000000 -42 -78 0
1000000 -43 -67 0
1000000 -44 -66 0
1000000 -45 -77 0
1000000 -46 -68 0
1000000 -47 -71 0
1000000 -48 -72 0
1000000 -49 -68 0
1000000 -50 -69 0
1000000 -51 -73 0
1000000 -52 -78 0
1000000 -53 -79 0
1000000 -54 -66 0
1000000 -55 -76 0
1000000 -56 -70 0
1000000 -57 -65 0
1000000 -58 -76 0
1000000 -59 -67 0
1000000 -60 -69 0
1000000 -61 -75 0
1000000 -62 -68 0
1000000 -63 -73 0
1000000 -64 -74 0
7700 -65 0
5400 -66 0
7700 -67 0
6900 -68 0
7700 -69 0
5100 -70 0
5100 -71 0
5100 -72 0
7700 -73 0
6500 -74 0
6500 -75 0
5400 -76 0
7700 -77 0
6900 -78 0
5400 -79 0
2700 35 0
3200 36 0
3200 37 0
2700 38 0
1100 39 0
4000 40 0
3200 41 0
3200 42 0
3200 43 0
4000 44 0
1100 45 0
2700 46 0
4500 47 0
2700 48 0
3200 49 0
1100 50 0
3200 51 0
1100 52 0
4500 53 0
1100 54 0
2700 55 0
1100 56 0
4000 57 0
3200 58 0
4000 59 0
4000 60 0
1100 61 0
2700 62 0
1100 63 0
1100 64 0
3840 32 -33 0
21120 -32 33 0
22848 -32 -33 0
930 -30 0
2470 11 23 -18 0
34580 11 -23 18 0
35321 11 -23 -18 0
41990 -11 23 18 0
42360 -11 23 -18 0
47177 -11 -23 18 0
47288 -11 -23 -18 0
6975 16 -28 0
41850 -16 28 0
42548 -16 -28 0
27900 12 14 -34 0
9300 12 -14 34 0
31620 12 -14 -34 0
13950 -12 14 34 0
33480 -12 14 -34 0
20460 -12 -14 34 0
36084 -12 -14 -34 0
130 24 -17 0
6175 -24 17 0
6181 -24 -17 0
1920 15 -21 0
7680 -15 21 0
9216 -15 -21 0
28800 13 31 19 -27 0
19200 13 31 -19 27 0
33600 13 31 -19 -27 0
6912 13 -31 19 27 0
30528 13 -31 19 -27 0
22656 13 -31 -19 27 0
34464 13 -31 -19 -27 0
32640 -13 31 19 27 0
36960 -13 31 19 -27 0
35520 -13 31 -19 27 0
37680 -13 31 -19 -27 0
33677 -13 -31 19 27 0
37219 -13 -31 19 -27 0
36038 -13 -31 -19 27 0
37810 -13 -31 -19 -27 0
14880 29 -25 0
6975 -29 25 0
19623 -29 -25 0
34560 26 20 -22 0
6912 26 -20 22 0
35251 26 -20 -22 0
23040 -26 20 22 0
36864 -26 20 -22 0
25805 -26 -20 22 0
37140 -26 -20 -22 0
