p wcnf 79 231 1000000
1000000 2 -11 0
1000000 11 -60 -53 -42 -43 0
1000000 8 -12 0
1000000 12 -54 -60 -52 -61 -38 0
1000000 4 -13 0
1000000 13 -49 -36 -63 -64 -58 0
1000000 3 -14 0
1000000 14 -39 -58 0
1000000 7 -15 0
1000000 15 -49 -36 -8 0
1000000 10 -16 0
1000000 16 -43 -58 -55 0
1000000 1 -17 0
1000000 17 -41 -62 -57 0
1000000 9 -18 0
1000000 18 -52 -50 -62 -42 0
1000000 6 -19 0
1000000 19 -54 -42 0
1000000 7 -20 0
1000000 20 -52 -64 -47 0
1000000 10 -21 0
1000000 21 -45 -46 -36 -52 -51 0
1000000 4 -22 0
1000000 22 -41 -42 -40 -43 -7 0
1000000 8 -23 0
1000000 23 -51 -41 -63 -44 0
1000000 3 -24 0
1000000 24 -40 -47 -61 -56 0
1000000 1 -25 0
1000000 25 -61 -38 -37 -2 0
1000000 3 -26 0
1000000 26 -52 -64 -56 -41 -60 0
1000000 5 -27 0
1000000 27 -55 -63 -44 -56 0
1000000 5 -28 0
1000000 28 -41 -39 0
1000000 8 -29 0
1000000 29 -59 -46 -55 0
1000000 9 -30 0
1000000 30 -58 -42 -40 -50 -10 0
1000000 4 -31 0
1000000 31 -60 -42 -50 -35 -38 0
1000000 3 -32 0
1000000 32 -36 -52 -61 0
1000000 8 -33 0
1000000 33 -51 -62 0
1000000 10 -34 0
1000000 34 -38 -46 -60 -42 0
1000000 -1 25 17 0
1000000 -2 11 0
1000000 -3 26 32 24 14 0
1000000 -4 31 22 13 0
1000000 -5 27 28 0
1000000 -6 19 0
1000000 -7 15 20 0
1000000 -8 23 33 29 12 0
1000000 -9 30 18 0
1000000 -10 34 16 21 0
1000000 35 78 0
1000000 36 66 0
1000000 37 70 0
1000000 38 72 0
1000000 39 74 0
1000000 40 78 0
1000000 41 65 0
1000000 42 66 0
1000000 43 72 0
1000000 44 79 0
1000000 45 69 0
1000000 46 77 0
1000000 47 75 0
1000000 48 69 0
1000000 49 71 0
1000000 50 65 0
1000000 51 74 0
1000000 52 73 0
1000000 53 73 0
1000000 54 77 0
1000000 55 75 0
1000000 56 66 0
1000000 57 71 0
1000000 58 72 0
1000000 59 79 0
1000000 60 68 0
1000000 61 76 0
1000000 62 71 0
1000000 63 77 0
1000000 64 67 0
1000000 -35 -78 0
1000000 -36 -66 0
1000000 -37 -70 0
1000000 -38 -72 0
1000000 -39 -74 0
1000000 -40 -78 0
1000000 -41 -65 0
1000000 -42 -66 0
1000000 -43 -72 0
1000000 -44 -79 0
1000000 -45 -69 0
1000000 -46 -77 0
1000000 -47 -75 0
1000000 -48 -69 0
1000000 -49 -71 0
1000000 -50 -65 0
1000000 -51 -74 0
1000000 -52 -73 0
1000000 -53 -73 0
1000000 -54 -77 0
1000000 -55 -75 0
1000000 -56 -66 0
1000000 -57 -71 0
1000000 -58 -72 0
1000000 -59 -79 0
1000000 -60 -68 0
1000000 -61 -76 0
1000000 -62 -71 0
1000000 -63 -77 0
1000000 -64 -67 0
5500 -65 0
6600 -66 0
6700 -67 0
6700 -68 0
6600 -69 0
5500 -70 0
8100 -71 0
8100 -72 0
6700 -73 0
6600 -74 0
8100 -75 0
6600 -76 0
6700 -77 0
8100 -78 0
5500 -79 0
4200 35 0
4200 36 0
3200 37 0
3200 38 0
1600 39 0
3200 40 0
4200 41 0
3000 42 0
4000 43 0
3000 44 0
3000 45 0
1600 46 0
4200 47 0
3200 48 0
3000 49 0
3200 50 0
4000 51 0
3200 52 0
3200 53 0
1600 54 0
1600 55 0
1600 56 0
4200 57 0
1600 58 0
3200 59 0
3200 60 0
3000 61 0
3000 62 0
1600 63 0
3200 64 0
2730 25 -17 0
21840 -25 17 0
22386 -25 -17 0
2820 -11 0
9800 26 32 24 -14 0
3360 26 32 -24 14 0
11984 26 32 -24 -14 0
7000 26 -32 24 14 0
14350 26 -32 24 -14 0
9520 26 -32 -24 14 0
15988 26 -32 -24 -14 0
14000 -26 32 24 14 0
18900 -26 32 24 -14 0
15680 -26 32 -24 14 0
19992 -26 32 -24 -14 0
17500 -26 -32 24 14 0
21175 -26 -32 24 -14 0
18760 -26 -32 -24 14 0
21994 -26 -32 -24 -14 0
2130 31 22 -13 0
4260 31 -22 13 0
5112 31 -22 -13 0
1420 -31 22 13 0
3124 -31 22 -13 0
4828 -31 -22 13 0
5510 -31 -22 -13 0
9024 27 -28 0
9024 -27 28 0
15160 -27 -28 0
4188 -19 0
11168 15 -20 0
6980 -15 20 0
15914 -15 -20 0
355 23 33 29 -12 0
4970 23 33 -29 12 0
5077 23 33 -29 -12 0
2840 23 -33 29 12 0
3053 23 -33 29 -12 0
5822 23 -33 -29 12 0
5886 23 -33 -29 -12 0
6035 -23 33 29 12 0
6088 -23 33 29 -12 0
6780 -23 33 -29 12 0
6796 -23 33 -29 -12 0
6461 -23 -33 29 12 0
6493 -23 -33 29 -12 0
6908 -23 -33 -29 12 0
6918 -23 -33 -29 -12 0
12690 30 -18 0
23970 -30 18 0
25874 -30 -18 0
2698 34 16 -21 0
355 34 -16 21 0
2918 34 -16 -21 0
5680 -34 16 21 0
6220 -34 16 -21 0
5751 -34 -16 21 0
6264 -34 -16 -21 0
