p wcnf 79 219 1000000
1000000 1 -11 0
1000000 11 -48 -62 -60 0
1000000 9 -12 0
1000000 12 -54 -35 -52 -10 0
1000000 6 -13 0
1000000 13 -42 -37 -43 -46 0
1000000 6 -14 0
1000000 14 -45 -36 -10 0
1000000 2 -15 0
1000000 15 -45 -3 0
1000000 8 -16 0
1000000 16 -45 -38 -52 -44 0
1000000 7 -17 0
1000000 17 -55 -50 -58 -8 0
1000000 2 -18 0
1000000 18 -44 -49 0
1000000 3 -19 0
1000000 19 -59 -56 -45 -53 0
1000000 7 -20 0
1000000 20 -42 -36 0
1000000 4 -21 0
1000000 21 -46 -49 -10 0
1000000 3 -22 0
1000000 22 -45 -46 0
1000000 5 -23 0
1000000 23 -62 -64 -47 -44 -35 0
1000000 10 -24 0
1000000 24 -64 -49 0
1000000 5 -25 0
1000000 25 -43 -53 0
1000000 2 -26 0
1000000 26 -49 -5 0
1000000 10 -27 0
1000000 27 -40 -53 -61 -56 -62 0
1000000 8 -28 0
1000000 28 -44 -57 0
1000000 9 -29 0
1000000 29 -50 -10 0
1000000 6 -30 0
1000000 30 -47 -53 -52 -50 -59 0
1000000 3 -31 0
1000000 31 -53 -7 0
1000000 8 -32 0
1000000 32 -64 -60 -38 -49 -10 0
1000000 4 -33 0
1000000 33 -57 -42 -39 -47 -50 0
1000000 1 -34 0
1000000 34 -58 -63 -42 -52 0
1000000 -1 34 11 0
1000000 -2 26 15 18 0
1000000 -3 31 19 22 0
1000000 -4 21 33 0
1000000 -5 23 25 0
1000000 -6 30 13 14 0
1000000 -7 20 17 0
1000000 -8 32 28 16 0
1000000 -9 29 12 0
1000000 -10 27 24 0
1000000 35 66 0
1000000 36 76 0
1000000 37 75 0
1000000 38 73 0
1000000 39 65 0
1000000 40 79 0
1000000 41 74 0
1000000 42 78 0
1000000 43 76 0
1000000 44 72 0
1000000 45 69 0
1000000 46 67 0
1000000 47 73 0
1000000 48 68 0
1000000 49 68 0
1000000 50 72 0
1000000 51 68 0
1000000 52 74 0
1000000 53 65 0
1000000 54 71 0
1000000 55 78 0
1000000 56 77 0
1000000 57 75 0
1000000 58 77 0
1000000 59 70 0
1000000 60 76 0
1000000 61 72 0
1000000 62 77 0
1000000 63 65 0
1000000 64 69 0
1000000 -35 -66 0
1000000 -36 -76 0
1000000 -37 -75 0
1000000 -38 -73 0
1000000 -39 -65 0
1000000 -40 -79 0
1000000 -41 -74 0
1000000 -42 -78 0
1000000 -43 -76 0
1000000 -44 -72 0
1000000 -45 -69 0
1000000 -46 -67 0
1000000 -47 -73 0
1000000 -48 -68 0
1000000 -49 -68 0
1000000 -50 -72 0
1000000 -51 -68 0
1000000 -52 -74 0
1000000 -53 -65 0
1000000 -54 -71 0
1000000 -55 -78 0
1000000 -56 -77 0
1000000 -57 -75 0
1000000 -58 -77 0
1000000 -59 -70 0
1000000 -60 -76 0
1000000 -61 -72 0
1000000 -62 -77 0
1000000 -63 -65 0
1000000 -64 -69 0
9300 -65 0
9600 -66 0
7400 -67 0
9400 -68 0
7400 -69 0
9400 -70 0
9300 -71 0
9600 -72 0
9600 -73 0
9600 -74 0
7400 -75 0
8300 -76 0
7400 -77 0
7400 -78 0
9300 -79 0
2500 35 0
2600 36 0
2500 37 0
2400 38 0
2400 39 0
2400 40 0
2500 41 0
1500 42 0
1500 43 0
2400 44 0
1500 45 0
2400 46 0
2500 47 0
1800 48 0
2600 49 0
2400 50 0
1500 51 0
1800 52 0
2500 53 0
2600 54 0
1500 55 0
2500 56 0
2400 57 0
2500 58 0
1500 59 0
1800 60 0
2600 61 0
1500 62 0
2500 63 0
1800 64 0
5640 34 -11 0
10575 -34 11 0
11985 -34 -11 0
5358 26 15 -18 0
282 26 -15 18 0
5533 26 -15 -18 0
705 -26 15 18 0
5795 -26 15 -18 0
973 -26 -15 18 0
5961 -26 -15 -18 0
21360 31 19 -22 0
23140 31 -19 22 0
30616 31 -19 -22 0
6408 -31 19 22 0
23923 -31 19 -22 0
25383 -31 -19 22 0
31513 -31 -19 -22 0
7050 21 -33 0
7050 -21 33 0
10575 -21 -33 0
7600 23 -25 0
3040 -23 25 0
9120 -23 -25 0
15860 30 13 -14 0
7320 30 -13 14 0
18422 30 -13 -14 0
21960 -30 13 14 0
23546 -30 13 -14 0
22692 -30 -13 14 0
23802 -30 -13 -14 0
4880 20 -17 0
2440 -20 17 0
6832 -20 -17 0
6840 32 28 -16 0
2280 32 -28 16 0
8094 32 -28 -16 0
14440 -32 28 16 0
14782 -32 28 -16 0
14554 -32 -28 16 0
14845 -32 -28 -16 0
705 29 -12 0
2820 -29 12 0
3384 -29 -12 0
19200 27 -24 0
9728 -27 24 0
21632 -27 -24 0
