p wcnf 79 229 1000000
1000000 9 -11 0
1000000 11 -46 -36 -38 0
1000000 4 -12 0
1000000 12 -46 -47 -35 -61 -58 0
1000000 6 -13 0
1000000 13 -64 -61 -59 0
1000000 10 -14 0
1000000 14 -54 -63 -57 -43 -51 0
1000000 2 -15 0
1000000 15 -54 -49 -53 -35 -50 0
1000000 5 -16 0
1000000 16 -56 -6 0
1000000 8 -17 0
1000000 17 -47 -9 0
1000000 6 -18 0
1000000 18 -43 -39 -54 -57 -42 0
1000000 7 -19 0
1000000 19 -50 -41 -57 -49 0
1000000 2 -20 0
1000000 20 -51 -54 -39 -63 0
1000000 1 -21 0
1000000 21 -48 -42 -53 -4 0
1000000 7 -22 0
1000000 22 -48 -43 0
1000000 8 -23 0
1000000 23 -58 -43 -42 -39 0
1000000 1 -24 0
1000000 24 -63 -52 -59 -48 0
1000000 2 -25 0
1000000 25 -52 -58 -46 -42 0
1000000 2 -26 0
1000000 26 -37 -51 -36 0
1000000 5 -27 0
1000000 27 -64 -43 0
1000000 7 -28 0
1000000 28 -61 -50 0
1000000 5 -29 0
1000000 29 -48 -36 -10 0
1000000 4 -30 0
1000000 30 -45 -46 -9 0
1000000 10 -31 0
1000000 31 -44 -43 -46 0
1000000 7 -32 0
1000000 32 -61 -59 -9 0
1000000 9 -33 0
1000000 33 -40 -50 0
1000000 3 -34 0
1000000 34 -45 -57 -4 0
1000000 -1 24 21 0
1000000 -2 26 20 25 15 0
1000000 -3 34 0
1000000 -4 30 12 0
1000000 -5 16 29 27 0
1000000 -6 18 13 0
1000000 -7 28 32 19 22 0
1000000 -8 23 17 0
1000000 -9 33 11 0
1000000 -10 14 31 0
1000000 35 77 0
1000000 36 75 0
1000000 37 70 0
1000000 38 73 0
1000000 39 67 0
1000000 40 69 0
1000000 41 66 0
1000000 42 72 0
1000000 43 76 0
1000000 44 65 0
1000000 45 67 0
1000000 46 77 0
1000000 47 68 0
1000000 48 71 0
1000000 49 70 0
1000000 50 78 0
1000000 51 69 0
1000000 52 74 0
1000000 53 74 0
1000000 54 69 0
1000000 55 68 0
1000000 56 77 0
1000000 57 71 0
1000000 58 72 0
1000000 59 75 0
1000000 60 78 0
1000000 61 79 0
1000000 62 72 0
1000000 63 78 0
1000000 64 76 0
1000000 -35 -77 0
1000000 -36 -75 0
1000000 -37 -70 0
1000000 -38 -73 0
1000000 -39 -67 0
1000000 -40 -69 0
1000000 -41 -66 0
1000000 -42 -72 0
1000000 -43 -76 0
1000000 -44 -65 0
1000000 -45 -67 0
1000000 -46 -77 0
1000000 -47 -68 0
1000000 -48 -71 0
1000000 -49 -70 0
1000000 -50 -78 0
1000000 -51 -69 0
1000000 -52 -74 0
1000000 -53 -74 0
1000000 -54 -69 0
1000000 -55 -68 0
1000000 -56 -77 0
1000000 -57 -71 0
1000000 -58 -72 0
1000000 -59 -75 0
1000000 -60 -78 0
1000000 -61 -79 0
1000000 -62 -72 0
1000000 -63 -78 0
1000000 -64 -76 0
7900 -65 0
7900 -66 0
5100 -67 0
5100 -68 0
7900 -69 0
7400 -70 0
8300 -71 0
7900 -72 0
6400 -73 0
6400 -74 0
7400 -75 0
8300 -76 0
5100 -77 0
5100 -78 0
6400 -79 0
3900 35 0
3300 36 0
3300 37 0
3900 38 0
2000 39 0
2000 40 0
3900 41 0
3300 42 0
3900 43 0
2900 44 0
3600 45 0
3300 46 0
2900 47 0
3300 48 0
2900 49 0
3300 50 0
3600 51 0
2900 52 0
2000 53 0
2900 54 0
2000 55 0
3300 56 0
3300 57 0
3900 58 0
3600 59 0
2900 60 0
2900 61 0
3300 62 0
2900 63 0
3600 64 0
16515 24 -21 0
11744 -24 21 0
22974 -24 -21 0
29410 26 20 25 -15 0
22490 26 20 -25 15 0
32783 26 20 -25 -15 0
27680 26 -20 25 15 0
33562 26 -20 25 -15 0
32178 26 -20 -25 15 0
34237 26 -20 -25 -15 0
15570 -26 20 25 15 0
31745 -26 20 25 -15 0
27939 -26 20 -25 15 0
33601 -26 20 -25 -15 0
30794 -26 -20 25 15 0
34029 -26 -20 25 -15 0
33268 -26 -20 -25 15 0
34400 -26 -20 -25 -15 0
11730 -34 0
3670 30 -12 0
27525 -30 12 0
28443 -30 -12 0
7140 16 29 -27 0
40460 16 -29 27 0
41531 16 -29 -27 0
30940 -16 29 27 0
33439 -16 29 -27 0
45101 -16 -29 27 0
45476 -16 -29 -27 0
9175 18 -13 0
734 -18 13 0
9726 -18 -13 0
22020 28 32 19 -22 0
11010 28 32 -19 22 0
26424 28 32 -19 -22 0
7340 28 -32 19 22 0
24956 28 -32 19 -22 0
16148 28 -32 -19 22 0
28479 28 -32 -19 -22 0
22020 -28 32 19 22 0
30828 -28 32 19 -22 0
26424 -28 32 -19 22 0
32590 -28 32 -19 -22 0
24956 -28 -32 19 22 0
32002 -28 -32 19 -22 0
28479 -28 -32 -19 22 0
33412 -28 -32 -19 -22 0
16280 23 -17 0
5328 -23 17 0
18678 -23 -17 0
952 33 -11 0
35700 -33 11 0
35938 -33 -11 0
3552 14 -31 0
8880 -14 31 0
11366 -14 -31 0
