p wcnf 9480 27692 1000000
1000000 213 -5555 -7359 -4818 -6194 -6882 0
1000000 1201 -5555 -7359 -4818 -6194 -6882 0
1000000 707 -6257 -5522 -5166 -4360 0
1000000 1202 -6257 -5522 -5166 -4360 0
1000000 186 -4834 -4619 -7609 0
1000000 1203 -4834 -4619 -7609 0
1000000 337 -4392 -4400 0
1000000 1204 -4392 -4400 0
1000000 383 -4172 -5092 0
1000000 1205 -4172 -5092 0
1000000 551 -6693 -5279 -7166 -5868 -5034 -662 0
1000000 1206 -6693 -5279 -7166 -5868 -5034 -662 0
1000000 203 -7605 -6522 -7502 -4738 0
1000000 1207 -7605 -6522 -7502 -4738 0
1000000 359 -6166 -4683 0
1000000 1208 -6166 -4683 0
1000000 181 -4391 -6166 -4547 -4668 -736 0
1000000 1209 -4391 -6166 -4547 -4668 -736 0
1000000 102 -5381 -4344 -6736 -5253 0
1000000 1210 -5381 -4344 -6736 -5253 0
1000000 784 -7340 -4350 -7005 -7198 -6609 -1128 0
1000000 1211 -7340 -4350 -7005 -7198 -6609 -1128 0
1000000 266 -4911 -6859 -7563 -6711 0
1000000 1212 -4911 -6859 -7563 -6711 0
1000000 348 -6485 -6598 -4688 0
1000000 1213 -6485 -6598 -4688 0
1000000 883 -5244 -7292 0
1000000 1214 -5244 -7292 0
1000000 1071 -4551 -6310 -6800 -6536 0
1000000 1215 -4551 -6310 -6800 -6536 0
1000000 468 -4987 -6243 -6651 -6710 -5645 0
1000000 1216 -4987 -6243 -6651 -6710 -5645 0
1000000 1014 -7427 -5746 -5011 -4652 0
1000000 1217 -7427 -5746 -5011 -4652 0
1000000 549 -6461 -5912 -6749 -731 0
1000000 1218 -6461 -5912 -6749 -731 0
1000000 390 -5257 -6958 -5774 -5222 -5492 -7442 0
1000000 1219 -5257 -6958 -5774 -5222 -5492 -7442 0
1000000 812 -6963 -5414 -5217 -7307 -6488 0
1000000 1220 -6963 -5414 -5217 -7307 -6488 0
1000000 998 -7189 -6834 -5474 -5120 -1045 0
1000000 1221 -7189 -6834 -5474 -5120 -1045 0
1000000 458 -5553 -5117 0
1000000 1222 -5553 -5117 0
1000000 344 -6121 -5419 -7417 -4430 -6477 -7015 0
1000000 1223 -6121 -5419 -7417 -4430 -6477 -7015 0
1000000 625 -6065 -7564 -5921 -5911 -4989 0
1000000 1224 -6065 -7564 -5921 -5911 -4989 0
1000000 410 -6908 -4116 -6769 0
1000000 1225 -6908 -4116 -6769 0
1000000 433 -4957 -4792 -6661 -6211 0
1000000 1226 -4957 -4792 -6661 -6211 0
1000000 738 -4716 -6712 -5741 -4257 -6020 -7319 0
1000000 1227 -4716 -6712 -5741 -4257 -6020 -7319 0
1000000 543 -7014 -5379 -6882 -6072 0
1000000 1228 -7014 -5379 -6882 -6072 0
1000000 160 -6159 -5216 -6203 0
1000000 1229 -6159 -5216 -6203 0
1000000 861 -4609 -5362 -7661 -4084 -4157 -1044 0
1000000 1230 -4609 -5362 -7661 -4084 -4157 -1044 0
1000000 337 -5358 -4558 -4643 -4987 0
1000000 1231 -5358 -4558 -4643 -4987 0
1000000 749 -5135 -5467 -5580 0
1000000 1232 -5135 -5467 -5580 0
1000000 288 -7367 -6859 -4731 0
1000000 1233 -7367 -6859 -4731 0
1000000 1025 -6751 -5668 -7036 -4327 0
1000000 1234 -6751 -5668 -7036 -4327 0
1000000 245 -6769 -4579 -5883 0
1000000 1235 -6769 -4579 -5883 0
1000000 852 -4377 -6153 -7551 -6460 -4296 0
1000000 1236 -4377 -6153 -7551 -6460 -4296 0
1000000 159 -7415 -4834 -4582 -7288 -4694 -4375 0
1000000 1237 -7415 -4834 -4582 -7288 -4694 -4375 0
1000000 1136 -4165 -4951 -6712 -6055 0
1000000 1238 -4165 -4951 -6712 -6055 0
1000000 603 -4229 -4147 -7559 -5929 0
1000000 1239 -4229 -4147 -7559 -5929 0
1000000 565 -4700 -5939 -6581 -4983 0
1000000 1240 -4700 -5939 -6581 -4983 0
1000000 455 -4791 -6789 -6579 -6797 0
1000000 1241 -4791 -6789 -6579 -6797 0
1000000 303 -4336 -7291 -5830 -5095 -5366 0
1000000 1242 -4336 -7291 -5830 -5095 -5366 0
1000000 833 -6910 -5208 -4554 -5233 -5824 0
1000000 1243 -6910 -5208 -4554 -5233 -5824 0
1000000 209 -6975 -6740 -4850 0
1000000 1244 -6975 -6740 -4850 0
1000000 692 -5461 -7306 -728 0
1000000 1245 -5461 -7306 -728 0
1000000 972 -4385 -7484 -4128 -6468 0
1000000 1246 -4385 -7484 -4128 -6468 0
1000000 694 -6783 -4850 -5235 -4985 0
1000000 1247 -6783 -4850 -5235 -4985 0
1000000 193 -5180 -4495 -4529 0
1000000 1248 -5180 -4495 -4529 0
1000000 927 -7560 -5112 -6183 -4123 0
1000000 1249 -7560 -5112 -6183 -4123 0
1000000 616 -5565 -7358 -7122 0
1000000 1250 -5565 -7358 -7122 0
1000000 654 -6579 -5837 -6653 -6332 -6975 -7561 0
1000000 1251 -6579 -5837 -6653 -6332 -6975 -7561 0
1000000 214 -4396 -7106 -4368 -6191 0
1000000 1252 -4396 -7106 -4368 -6191 0
1000000 186 -4670 -4128 -6080 -5896 -4323 -4179 0
1000000 1253 -4670 -4128 -6080 -5896 -4323 -4179 0
1000000 343 -7462 -7647 -4089 -4291 -7097 -5249 0
1000000 1254 -7462 -7647 -4089 -4291 -7097 -5249 0
1000000 1067 -5319 -7486 -5616 -5878 -6573 -4970 0
1000000 1255 -5319 -7486 -5616 -5878 -6573 -4970 0
1000000 439 -6907 -4462 -966 0
1000000 1256 -6907 -4462 -966 0
1000000 733 -7315 -6576 -5132 -7025 -6230 0
1000000 1257 -7315 -6576 -5132 -7025 -6230 0
1000000 477 -7664 -7030 -4900 -4269 -5300 0
1000000 1258 -7664 -7030 -4900 -4269 -5300 0
1000000 869 -4787 -5536 -6443 -4333 0
1000000 1259 -4787 -5536 -6443 -4333 0
1000000 95 -6784 -7289 -6657 -5927 0
1000000 1260 -6784 -7289 -6657 -5927 0
1000000 770 -5657 -6897 0
1000000 1261 -5657 -6897 0
1000000 671 -6680 -6926 -5890 -6967 -5800 -6091 0
1000000 1262 -6680 -6926 -5890 -6967 -5800 -6091 0
1000000 26 -4346 -4517 -4920 -5665 -5334 -6797 0
1000000 1263 -4346 -4517 -4920 -5665 -5334 -6797 0
1000000 309 -4481 -6247 -420 0
1000000 1264 -4481 -6247 -420 0
1000000 955 -5381 -983 0
1000000 1265 -5381 -983 0
1000000 70 -5727 -7446 -5205 -7466 -241 0
1000000 1266 -5727 -7446 -5205 -7466 -241 0
1000000 790 -5899 -6548 -5885 -6219 0
1000000 1267 -5899 -6548 -5885 -6219 0
1000000 240 -6258 -6269 0
1000000 1268 -6258 -6269 0
1000000 122 -7674 -5218 0
1000000 1269 -7674 -5218 0
1000000 1006 -7605 -4733 -5692 -4828 -6982 -5785 0
1000000 1270 -7605 -4733 -5692 -4828 -6982 -5785 0
1000000 1080 -7420 -5597 -6057 -7342 0
1000000 1271 -7420 -5597 -6057 -7342 0
1000000 341 -5520 -4955 -5866 -4366 0
1000000 1272 -5520 -4955 -5866 -4366 0
1000000 24 -6817 -5275 -4726 -4689 -5000 -5733 0
1000000 1273 -6817 -5275 -4726 -4689 -5000 -5733 0
1000000 508 -6869 -5649 -4548 -5834 -5903 -4321 0
1000000 1274 -6869 -5649 -4548 -5834 -5903 -4321 0
1000000 672 -5338 -4420 0
1000000 1275 -5338 -4420 0
1000000 1009 -6708 -4154 -7268 -4874 -7594 -5782 0
1000000 1276 -6708 -4154 -7268 -4874 -7594 -5782 0
1000000 280 -7678 -6839 -6593 -6722 -5177 -5526 0
1000000 1277 -7678 -6839 -6593 -6722 -5177 -5526 0
1000000 33 -6356 -4301 -6017 -5216 -6184 -6196 0
1000000 1278 -6356 -4301 -6017 -5216 -6184 -6196 0
1000000 1050 -4906 -4784 0
1000000 1279 -4906 -4784 0
1000000 229 -4146 -5375 -6915 -5116 -7183 -4281 0
1000000 1280 -4146 -5375 -6915 -5116 -7183 -4281 0
1000000 425 -4316 -831 0
1000000 1281 -4316 -831 0
1000000 187 -4999 -5827 0
1000000 1282 -4999 -5827 0
1000000 319 -7577 -7251 -5219 -5885 0
1000000 1283 -7577 -7251 -5219 -5885 0
1000000 983 -7496 -7515 -4682 -4794 -4841 0
1000000 1284 -7496 -7515 -4682 -4794 -4841 0
1000000 1192 -5069 -7391 0
1000000 1285 -5069 -7391 0
1000000 97 -5742 -6222 -4630 0
1000000 1286 -5742 -6222 -4630 0
1000000 981 -5479 -4348 -4499 -4289 -6999 -1122 0
1000000 1287 -5479 -4348 -4499 -4289 -6999 -1122 0
1000000 1010 -5901 -4780 -5156 -1184 0
1000000 1288 -5901 -4780 -5156 -1184 0
1000000 852 -4376 -6789 0
1000000 1289 -4376 -6789 0
1000000 1048 -5792 -7192 -6756 -6400 -7224 -4948 0
1000000 1290 -5792 -7192 -6756 -6400 -7224 -4948 0
1000000 391 -6139 -7634 -6814 -4987 -5544 -5369 0
1000000 1291 -6139 -7634 -6814 -4987 -5544 -5369 0
1000000 2 -4107 -6433 -523 0
1000000 1292 -4107 -6433 -523 0
1000000 400 -4261 -6873 -5915 0
1000000 1293 -4261 -6873 -5915 0
1000000 381 -4236 -4463 -6588 0
1000000 1294 -4236 -4463 -6588 0
1000000 141 -6456 -4198 -6727 -4431 0
1000000 1295 -6456 -4198 -6727 -4431 0
1000000 710 -6724 -6615 -5725 -6986 0
1000000 1296 -6724 -6615 -5725 -6986 0
1000000 68 -7225 -7357 -7389 0
1000000 1297 -7225 -7357 -7389 0
1000000 1032 -6788 -5605 -7456 0
1000000 1298 -6788 -5605 -7456 0
1000000 495 -6802 -4751 0
1000000 1299 -6802 -4751 0
1000000 644 -5405 -5069 -6268 -6808 -5897 0
1000000 1300 -5405 -5069 -6268 -6808 -5897 0
1000000 179 -5226 -4330 -7461 -223 0
1000000 1301 -5226 -4330 -7461 -223 0
1000000 1134 -7017 -5774 -6111 0
1000000 1302 -7017 -5774 -6111 0
1000000 281 -6665 -7649 0
1000000 1303 -6665 -7649 0
1000000 1183 -4769 -6655 -6463 -5050 -7110 -4114 0
1000000 1304 -4769 -6655 -6463 -5050 -7110 -4114 0
1000000 248 -5862 -6400 -7590 -4379 -6305 -6681 0
1000000 1305 -5862 -6400 -7590 -4379 -6305 -6681 0
1000000 526 -6838 -5136 -5525 -6332 -5397 -1093 0
1000000 1306 -6838 -5136 -5525 -6332 -5397 -1093 0
1000000 1085 -7192 -4905 -6745 -5654 -4206 -1175 0
1000000 1307 -7192 -4905 -6745 -5654 -4206 -1175 0
1000000 654 -7513 -7020 -6464 -5582 -4539 0
1000000 1308 -7513 -7020 -6464 -5582 -4539 0
1000000 855 -7222 -4523 -6305 -6185 -6417 0
1000000 1309 -7222 -4523 -6305 -6185 -6417 0
1000000 1065 -7195 -4729 -4266 -6690 -4994 -5512 0
1000000 1310 -7195 -4729 -4266 -6690 -4994 -5512 0
1000000 841 -7015 -7588 0
1000000 1311 -7015 -7588 0
1000000 422 -5020 -5418 -5747 -6667 -4281 -1147 0
1000000 1312 -5020 -5418 -5747 -6667 -4281 -1147 0
1000000 729 -6304 -6707 -5178 -6967 -6796 0
1000000 1313 -6304 -6707 -5178 -6967 -6796 0
1000000 639 -6315 -6097 -5995 -6074 0
1000000 1314 -6315 -6097 -5995 -6074 0
1000000 784 -5930 -4731 -7494 -7307 -5551 0
1000000 1315 -5930 -4731 -7494 -7307 -5551 0
1000000 1085 -6976 -4464 -7425 -6296 -4116 0
1000000 1316 -6976 -4464 -7425 -6296 -4116 0
1000000 1000 -6689 -7628 -4157 -1116 0
1000000 1317 -6689 -7628 -4157 -1116 0
1000000 661 -6324 -7646 -5231 -1120 0
1000000 1318 -6324 -7646 -5231 -1120 0
1000000 102 -5745 -6715 -4964 -6436 0
1000000 1319 -5745 -6715 -4964 -6436 0
1000000 428 -5092 -4169 -6349 -4538 -6146 0
1000000 1320 -5092 -4169 -6349 -4538 -6146 0
1000000 815 -5314 -6447 0
1000000 1321 -5314 -6447 0
1000000 585 -6382 -6261 -7105 -5164 -5668 -5286 0
1000000 1322 -6382 -6261 -7105 -5164 -5668 -5286 0
1000000 821 -6295 -4558 -5724 -4356 -7147 -4589 0
1000000 1323 -6295 -4558 -5724 -4356 -7147 -4589 0
1000000 19 -5810 -5157 -7485 -1070 0
1000000 1324 -5810 -5157 -7485 -1070 0
1000000 796 -6899 -4229 -4338 -910 0
1000000 1325 -6899 -4229 -4338 -910 0
1000000 803 -7454 -7128 -6532 -6051 -960 0
1000000 1326 -7454 -7128 -6532 -6051 -960 0
1000000 1184 -4865 -5222 -6691 -5710 0
1000000 1327 -4865 -5222 -6691 -5710 0
1000000 334 -5204 -6430 -6895 -4762 -7100 -906 0
1000000 1328 -5204 -6430 -6895 -4762 -7100 -906 0
1000000 100 -5104 -187 0
1000000 1329 -5104 -187 0
1000000 1001 -6252 -1103 0
1000000 1330 -6252 -1103 0
1000000 449 -4210 -6107 -538 0
1000000 1331 -4210 -6107 -538 0
1000000 515 -5817 -6716 -4471 -6922 -7261 -5526 0
1000000 1332 -5817 -6716 -4471 -6922 -7261 -5526 0
1000000 764 -4525 -4154 -6599 -4748 -6530 -852 0
1000000 1333 -4525 -4154 -6599 -4748 -6530 -852 0
1000000 1177 -5077 -6347 0
1000000 1334 -5077 -6347 0
1000000 202 -5299 -670 0
1000000 1335 -5299 -670 0
1000000 498 -5549 -6420 0
1000000 1336 -5549 -6420 0
1000000 973 -4548 -4684 -4838 -5576 -6482 -5609 0
1000000 1337 -4548 -4684 -4838 -5576 -6482 -5609 0
1000000 1127 -7642 -6827 0
1000000 1338 -7642 -6827 0
1000000 956 -6383 -6473 0
1000000 1339 -6383 -6473 0
1000000 1029 -5236 -5195 -4633 -4834 -5376 0
1000000 1340 -5236 -5195 -4633 -4834 -5376 0
1000000 645 -5475 -5238 -4186 -4181 -1037 0
1000000 1341 -5475 -5238 -4186 -4181 -1037 0
1000000 519 -4874 -5563 0
1000000 1342 -4874 -5563 0
1000000 1018 -7280 -6966 -4110 0
1000000 1343 -7280 -6966 -4110 0
1000000 562 -4865 -6008 -4354 -6841 -5425 -6133 0
1000000 1344 -4865 -6008 -4354 -6841 -5425 -6133 0
1000000 645 -4724 -7458 -6851 -6208 -7015 -6754 0
1000000 1345 -4724 -7458 -6851 -6208 -7015 -6754 0
1000000 377 -6355 -5291 -5935 0
1000000 1346 -6355 -5291 -5935 0
1000000 763 -5540 -6314 -5553 0
1000000 1347 -5540 -6314 -5553 0
1000000 356 -4335 -7006 -4122 0
1000000 1348 -4335 -7006 -4122 0
1000000 459 -6364 -4599 -7342 -4985 -1009 0
1000000 1349 -6364 -4599 -7342 -4985 -1009 0
1000000 101 -6724 -7371 -5014 -5691 -5171 0
1000000 1350 -6724 -7371 -5014 -5691 -5171 0
1000000 1143 -7459 -5641 -6012 -4884 -4490 -1192 0
1000000 1351 -7459 -5641 -6012 -4884 -4490 -1192 0
1000000 192 -4673 -5405 0
1000000 1352 -4673 -5405 0
1000000 564 -4747 -5518 -5199 -5747 -4842 -4843 0
1000000 1353 -4747 -5518 -5199 -5747 -4842 -4843 0
1000000 25 -5524 -5008 -4740 -5948 -6821 -1024 0
1000000 1354 -5524 -5008 -4740 -5948 -6821 -1024 0
1000000 179 -5002 -6698 0
1000000 1355 -5002 -6698 0
1000000 526 -6469 -6555 0
1000000 1356 -6469 -6555 0
1000000 1062 -5953 -6616 -1193 0
1000000 1357 -5953 -6616 -1193 0
1000000 1199 -4422 -6766 -6133 0
1000000 1358 -4422 -6766 -6133 0
1000000 816 -7661 -4669 -1078 0
1000000 1359 -7661 -4669 -1078 0
1000000 158 -4967 -4571 0
1000000 1360 -4967 -4571 0
1000000 66 -4929 -4984 -4117 -453 0
1000000 1361 -4929 -4984 -4117 -453 0
1000000 704 -4981 -804 0
1000000 1362 -4981 -804 0
1000000 243 -5735 -7619 0
1000000 1363 -5735 -7619 0
1000000 455 -4640 -7435 -6900 -4720 -4947 0
1000000 1364 -4640 -7435 -6900 -4720 -4947 0
1000000 926 -5708 -5553 -7459 0
1000000 1365 -5708 -5553 -7459 0
1000000 1063 -4728 -4107 -4596 0
1000000 1366 -4728 -4107 -4596 0
1000000 1153 -4568 -7576 -7434 -6250 0
1000000 1367 -4568 -7576 -7434 -6250 0
1000000 738 -7459 -4895 -5470 -6001 0
1000000 1368 -7459 -4895 -5470 -6001 0
1000000 344 -7267 -4897 0
1000000 1369 -7267 -4897 0
1000000 424 -6613 -4840 0
1000000 1370 -6613 -4840 0
1000000 882 -6236 -976 0
1000000 1371 -6236 -976 0
1000000 553 -4386 -4117 -6679 -5711 -5089 0
1000000 1372 -4386 -4117 -6679 -5711 -5089 0
1000000 1180 -5290 -4615 -5062 -6849 -6195 0
1000000 1373 -5290 -4615 -5062 -6849 -6195 0
1000000 883 -5529 -6678 -6016 -1182 0
1000000 1374 -5529 -6678 -6016 -1182 0
1000000 1118 -5682 -6635 0
1000000 1375 -5682 -6635 0
1000000 703 -4966 -6558 -4625 -7336 0
1000000 1376 -4966 -6558 -4625 -7336 0
1000000 799 -5516 -5886 -4350 -7343 -4463 0
1000000 1377 -5516 -5886 -4350 -7343 -4463 0
1000000 951 -5739 -5473 -7404 -5860 0
1000000 1378 -5739 -5473 -7404 -5860 0
1000000 780 -4743 -5497 -6840 -6060 -1191 0
1000000 1379 -4743 -5497 -6840 -6060 -1191 0
1000000 966 -7648 -4098 -6107 0
1000000 1380 -7648 -4098 -6107 0
1000000 817 -6083 -5446 -6078 -4964 -6060 -6669 0
1000000 1381 -6083 -5446 -6078 -4964 -6060 -6669 0
1000000 277 -5711 -5819 -5723 -5843 0
1000000 1382 -5711 -5819 -5723 -5843 0
1000000 6 -4314 -5510 -5553 0
1000000 1383 -4314 -5510 -5553 0
1000000 87 -6669 -7114 -7169 -6989 -5571 -346 0
1000000 1384 -6669 -7114 -7169 -6989 -5571 -346 0
1000000 548 -7044 -7409 -5166 -6430 0
1000000 1385 -7044 -7409 -5166 -6430 0
1000000 178 -5905 -4614 -4953 0
1000000 1386 -5905 -4614 -4953 0
1000000 1086 -6745 -6153 -7213 -7483 -6967 -1182 0
1000000 1387 -6745 -6153 -7213 -7483 -6967 -1182 0
1000000 1034 -4930 -4755 -4693 -4125 -5389 0
1000000 1388 -4930 -4755 -4693 -4125 -5389 0
1000000 313 -5759 -6900 -6086 -7157 -1142 0
1000000 1389 -5759 -6900 -6086 -7157 -1142 0
1000000 138 -6381 -5318 -5285 0
1000000 1390 -6381 -5318 -5285 0
1000000 853 -6782 -7631 -907 0
1000000 1391 -6782 -7631 -907 0
1000000 1140 -5281 -6430 0
1000000 1392 -5281 -6430 0
1000000 122 -6639 -6009 -6642 -7207 -5049 -7648 0
1000000 1393 -6639 -6009 -6642 -7207 -5049 -7648 0
1000000 1160 -4116 -6411 -7449 0
1000000 1394 -4116 -6411 -7449 0
1000000 621 -7148 -4674 -4260 -4584 -1027 0
1000000 1395 -7148 -4674 -4260 -4584 -1027 0
1000000 932 -6142 -6414 0
1000000 1396 -6142 -6414 0
1000000 335 -6160 -5863 -4227 -6821 -7226 -4452 0
1000000 1397 -6160 -5863 -4227 -6821 -7226 -4452 0
1000000 234 -4280 -7305 0
1000000 1398 -4280 -7305 0
1000000 507 -7383 -6603 -5673 -4319 -4224 -4920 0
1000000 1399 -7383 -6603 -5673 -4319 -4224 -4920 0
1000000 110 -4976 -6043 -4786 -6485 0
1000000 1400 -4976 -6043 -4786 -6485 0
1000000 69 -6785 -7231 -6405 -6311 0
1000000 1401 -6785 -7231 -6405 -6311 0
1000000 907 -6650 -5748 -7548 -5041 -6816 0
1000000 1402 -6650 -5748 -7548 -5041 -6816 0
1000000 796 -4616 -4200 -5194 0
1000000 1403 -4616 -4200 -5194 0
1000000 354 -6352 -6230 -6753 -5752 -7067 -6293 0
1000000 1404 -6352 -6230 -6753 -5752 -7067 -6293 0
1000000 965 -6446 -6033 -5056 -4347 0
1000000 1405 -6446 -6033 -5056 -4347 0
1000000 946 -6386 -5724 -6849 -970 0
1000000 1406 -6386 -5724 -6849 -970 0
1000000 949 -6746 -5441 -5688 -4251 -6546 -6903 0
1000000 1407 -6746 -5441 -5688 -4251 -6546 -6903 0
1000000 662 -5941 -6223 -748 0
1000000 1408 -5941 -6223 -748 0
1000000 769 -4760 -5461 -5672 0
1000000 1409 -4760 -5461 -5672 0
1000000 155 -5999 -7339 -6277 0
1000000 1410 -5999 -7339 -6277 0
1000000 1160 -5899 -5419 -5930 -6363 0
1000000 1411 -5899 -5419 -5930 -6363 0
1000000 1182 -5478 -4402 -4159 0
1000000 1412 -5478 -4402 -4159 0
1000000 686 -6579 -4980 0
1000000 1413 -6579 -4980 0
1000000 42 -5888 -5252 -4678 -5107 -7572 0
1000000 1414 -5888 -5252 -4678 -5107 -7572 0
1000000 1037 -6554 -6908 0
1000000 1415 -6554 -6908 0
1000000 689 -4894 -6544 0
1000000 1416 -4894 -6544 0
1000000 471 -5017 -868 0
1000000 1417 -5017 -868 0
1000000 9 -4302 -5239 -4210 -6215 0
1000000 1418 -4302 -5239 -4210 -6215 0
1000000 204 -4161 -4348 -6775 -4409 0
1000000 1419 -4161 -4348 -6775 -4409 0
1000000 1115 -6360 -7147 -7497 -5909 -4752 -4631 0
1000000 1420 -6360 -7147 -7497 -5909 -4752 -4631 0
1000000 619 -6102 -4576 -6246 -903 0
1000000 1421 -6102 -4576 -6246 -903 0
1000000 1082 -7104 -6720 -7043 -7249 0
1000000 1422 -7104 -6720 -7043 -7249 0
1000000 235 -7270 -4409 -6318 0
1000000 1423 -7270 -4409 -6318 0
1000000 968 -4498 -7001 0
1000000 1424 -4498 -7001 0
1000000 61 -7369 -6255 -7556 -5763 0
1000000 1425 -7369 -6255 -7556 -5763 0
1000000 1131 -5925 -6188 -6567 -5751 -6836 -4817 0
1000000 1426 -5925 -6188 -6567 -5751 -6836 -4817 0
1000000 453 -5758 -6341 -7558 -4921 -5480 0
1000000 1427 -5758 -6341 -7558 -4921 -5480 0
1000000 151 -6655 -5856 -216 0
1000000 1428 -6655 -5856 -216 0
1000000 333 -6386 -7321 0
1000000 1429 -6386 -7321 0
1000000 716 -4647 -6738 -5591 -5902 -7437 0
1000000 1430 -4647 -6738 -5591 -5902 -7437 0
1000000 725 -5400 -5468 -7415 -6036 -4221 -5537 0
1000000 1431 -5400 -5468 -7415 -6036 -4221 -5537 0
1000000 138 -6853 -7362 -4259 -4100 -4764 0
1000000 1432 -6853 -7362 -4259 -4100 -4764 0
1000000 310 -4458 -4916 0
1000000 1433 -4458 -4916 0
1000000 316 -4322 -5163 -4354 0
1000000 1434 -4322 -5163 -4354 0
1000000 295 -5338 -5669 -4652 -4328 -7069 0
1000000 1435 -5338 -5669 -4652 -4328 -7069 0
1000000 241 -4766 -4722 0
1000000 1436 -4766 -4722 0
1000000 268 -7594 -5046 0
1000000 1437 -7594 -5046 0
1000000 682 -6561 -6359 -5613 -5632 -6014 -5317 0
1000000 1438 -6561 -6359 -5613 -5632 -6014 -5317 0
1000000 1151 -7380 -7539 -5429 -5002 -6147 -4221 0
1000000 1439 -7380 -7539 -5429 -5002 -6147 -4221 0
1000000 685 -7385 -5426 -6390 -4164 -6076 -1196 0
1000000 1440 -7385 -5426 -6390 -4164 -6076 -1196 0
1000000 888 -7055 -6448 -6488 -6938 -5205 -6870 0
1000000 1441 -7055 -6448 -6488 -6938 -5205 -6870 0
1000000 41 -4184 -5560 -5475 -6344 -4429 -7530 0
1000000 1442 -4184 -5560 -5475 -6344 -4429 -7530 0
1000000 773 -6977 -5574 -4357 -4432 -6216 -5642 0
1000000 1443 -6977 -5574 -4357 -4432 -6216 -5642 0
1000000 412 -6742 -6371 -6184 -5131 -5393 0
1000000 1444 -6742 -6371 -6184 -5131 -5393 0
1000000 411 -4527 -7525 -6506 -575 0
1000000 1445 -4527 -7525 -6506 -575 0
1000000 156 -6621 -5456 -5542 -6798 0
1000000 1446 -6621 -5456 -5542 -6798 0
1000000 504 -5346 -558 0
1000000 1447 -5346 -558 0
1000000 651 -7010 -6424 -688 0
1000000 1448 -7010 -6424 -688 0
1000000 942 -5505 -5414 -4722 -4460 0
1000000 1449 -5505 -5414 -4722 -4460 0
1000000 371 -4834 -6754 -7317 -5744 -763 0
1000000 1450 -4834 -6754 -7317 -5744 -763 0
1000000 538 -4288 -4376 0
1000000 1451 -4288 -4376 0
1000000 191 -6391 -4404 0
1000000 1452 -6391 -4404 0
1000000 372 -7428 -6352 -7575 -6135 -4789 0
1000000 1453 -7428 -6352 -7575 -6135 -4789 0
1000000 1113 -6005 -5939 -7094 -4114 -1117 0
1000000 1454 -6005 -5939 -7094 -4114 -1117 0
1000000 512 -5280 -735 0
1000000 1455 -5280 -735 0
1000000 973 -4513 -4766 -7097 -7178 -7656 -1150 0
1000000 1456 -4513 -4766 -7097 -7178 -7656 -1150 0
1000000 720 -4449 -7458 -6777 -7258 -6763 0
1000000 1457 -4449 -7458 -6777 -7258 -6763 0
1000000 422 -5654 -7626 -4589 -4910 -476 0
1000000 1458 -5654 -7626 -4589 -4910 -476 0
1000000 816 -6024 -5228 -5454 -4971 -6401 -1143 0
1000000 1459 -6024 -5228 -5454 -4971 -6401 -1143 0
1000000 927 -6724 -4478 -5131 -6925 -5568 -7304 0
1000000 1460 -6724 -4478 -5131 -6925 -5568 -7304 0
1000000 559 -7496 -6782 -7458 -7034 0
1000000 1461 -7496 -6782 -7458 -7034 0
1000000 1142 -5084 -4823 0
1000000 1462 -5084 -4823 0
1000000 422 -5612 -634 0
1000000 1463 -5612 -634 0
1000000 187 -7208 -4406 -7228 -6961 -6029 -4427 0
1000000 1464 -7208 -4406 -7228 -6961 -6029 -4427 0
1000000 709 -7655 -5754 -5025 -4719 -4519 0
1000000 1465 -7655 -5754 -5025 -4719 -4519 0
1000000 177 -7444 -7311 -5036 -4819 -7095 0
1000000 1466 -7444 -7311 -5036 -4819 -7095 0
1000000 874 -6552 -4277 -7320 0
1000000 1467 -6552 -4277 -7320 0
1000000 984 -5478 -6289 -6741 -7383 -4858 -4148 0
1000000 1468 -5478 -6289 -6741 -7383 -4858 -4148 0
1000000 1134 -4549 -5517 0
1000000 1469 -4549 -5517 0
1000000 1054 -7210 -6553 -7427 0
1000000 1470 -7210 -6553 -7427 0
1000000 576 -5141 -5748 -5523 -4261 -7091 -5555 0
1000000 1471 -5141 -5748 -5523 -4261 -7091 -5555 0
1000000 1077 -7192 -6584 0
1000000 1472 -7192 -6584 0
1000000 510 -6336 -6386 -7092 -6044 -7631 -4493 0
1000000 1473 -6336 -6386 -7092 -6044 -7631 -4493 0
1000000 905 -4566 -4971 -4663 -7076 -5535 -6142 0
1000000 1474 -4566 -4971 -4663 -7076 -5535 -6142 0
1000000 287 -6997 -5918 -6780 -7331 -4967 0
1000000 1475 -6997 -5918 -6780 -7331 -4967 0
1000000 445 -5728 -5784 -6263 -4903 -4426 0
1000000 1476 -5728 -5784 -6263 -4903 -4426 0
1000000 99 -6175 -4233 -7628 -7305 -7202 0
1000000 1477 -6175 -4233 -7628 -7305 -7202 0
1000000 384 -5079 -6143 -6861 -7085 -694 0
1000000 1478 -5079 -6143 -6861 -7085 -694 0
1000000 247 -5943 -6567 -6697 -5271 0
1000000 1479 -5943 -6567 -6697 -5271 0
1000000 1048 -7073 -5688 -6847 -6216 0
1000000 1480 -7073 -5688 -6847 -6216 0
1000000 1094 -7410 -4996 -7278 -5229 -1114 0
1000000 1481 -7410 -4996 -7278 -5229 -1114 0
1000000 390 -5365 -4868 -468 0
1000000 1482 -5365 -4868 -468 0
1000000 679 -7413 -871 0
1000000 1483 -7413 -871 0
1000000 331 -6812 -5125 -4291 -5439 -4822 -4997 0
1000000 1484 -6812 -5125 -4291 -5439 -4822 -4997 0
1000000 38 -6555 -7394 -6510 -893 0
1000000 1485 -6555 -7394 -6510 -893 0
1000000 825 -6906 -4312 -4599 0
1000000 1486 -6906 -4312 -4599 0
1000000 42 -6431 -6650 0
1000000 1487 -6431 -6650 0
1000000 443 -5214 -6951 -5421 -7125 0
1000000 1488 -5214 -6951 -5421 -7125 0
1000000 714 -7240 -6158 -7330 -6492 0
1000000 1489 -7240 -6158 -7330 -6492 0
1000000 1152 -7148 -1174 0
1000000 1490 -7148 -1174 0
1000000 239 -4693 -6758 -5908 -5205 -4780 -4226 0
1000000 1491 -4693 -6758 -5908 -5205 -4780 -4226 0
1000000 251 -4194 -6137 -5640 0
1000000 1492 -4194 -6137 -5640 0
1000000 500 -4990 -6284 -6991 -693 0
1000000 1493 -4990 -6284 -6991 -693 0
1000000 977 -6165 -4711 -4930 -5476 -7178 0
1000000 1494 -6165 -4711 -4930 -5476 -7178 0
1000000 195 -5482 -6726 -7532 -5536 -5095 0
1000000 1495 -5482 -6726 -7532 -5536 -5095 0
1000000 1165 -4358 -4091 -4714 -6354 -4114 0
1000000 1496 -4358 -4091 -4714 -6354 -4114 0
1000000 323 -4662 -6484 -5900 -5005 0
1000000 1497 -4662 -6484 -5900 -5005 0
1000000 201 -6707 -4532 -1026 0
1000000 1498 -6707 -4532 -1026 0
1000000 304 -6118 -5593 -558 0
1000000 1499 -6118 -5593 -558 0
1000000 941 -6250 -5263 0
1000000 1500 -6250 -5263 0
1000000 617 -6771 -6935 -7178 0
1000000 1501 -6771 -6935 -7178 0
1000000 1073 -7252 -4253 -4803 -6118 -6255 -1199 0
1000000 1502 -7252 -4253 -4803 -6118 -6255 -1199 0
1000000 382 -6905 -5321 -775 0
1000000 1503 -6905 -5321 -775 0
1000000 40 -4126 -4739 -5808 -5955 -4943 -924 0
1000000 1504 -4126 -4739 -5808 -5955 -4943 -924 0
1000000 24 -7307 -5765 0
1000000 1505 -7307 -5765 0
1000000 52 -6383 -4561 -6520 -1028 0
1000000 1506 -6383 -4561 -6520 -1028 0
1000000 1039 -5552 -7170 -5194 -5307 -5054 0
1000000 1507 -5552 -7170 -5194 -5307 -5054 0
1000000 354 -5536 -6401 -5468 -5811 0
1000000 1508 -5536 -6401 -5468 -5811 0
1000000 9 -5523 -4992 -6362 -5595 0
1000000 1509 -5523 -4992 -6362 -5595 0
1000000 368 -4589 -5915 -4497 -7255 0
1000000 1510 -4589 -5915 -4497 -7255 0
1000000 713 -5629 -6100 -791 0
1000000 1511 -5629 -6100 -791 0
1000000 544 -6593 -5434 -6570 -5982 -4843 -7110 0
1000000 1512 -6593 -5434 -6570 -5982 -4843 -7110 0
1000000 430 -4646 -7229 -6723 -7177 -5857 -7616 0
1000000 1513 -4646 -7229 -6723 -7177 -5857 -7616 0
1000000 813 -6246 -5520 -7522 -5800 -6559 -7412 0
1000000 1514 -6246 -5520 -7522 -5800 -6559 -7412 0
1000000 161 -4250 -6447 -4402 -7528 -4607 -5887 0
1000000 1515 -4250 -6447 -4402 -7528 -4607 -5887 0
1000000 785 -5877 -6376 -7616 -4261 -6839 -5762 0
1000000 1516 -5877 -6376 -7616 -4261 -6839 -5762 0
1000000 740 -6550 -7440 -4378 -6495 0
1000000 1517 -6550 -7440 -4378 -6495 0
1000000 465 -4443 -4282 -1108 0
1000000 1518 -4443 -4282 -1108 0
1000000 179 -4528 -889 0
1000000 1519 -4528 -889 0
1000000 267 -4091 -588 0
1000000 1520 -4091 -588 0
1000000 661 -4883 -7154 -7009 -4498 -4695 -4375 0
1000000 1521 -4883 -7154 -7009 -4498 -4695 -4375 0
1000000 827 -4554 -4203 0
1000000 1522 -4554 -4203 0
1000000 189 -6451 -5067 -5329 -4369 -5894 0
1000000 1523 -6451 -5067 -5329 -4369 -5894 0
1000000 739 -6087 -5703 -7243 -751 0
1000000 1524 -6087 -5703 -7243 -751 0
1000000 245 -7362 -4888 -4841 -5208 -6270 0
1000000 1525 -7362 -4888 -4841 -5208 -6270 0
1000000 1171 -6300 -4193 -4893 -6196 -5369 0
1000000 1526 -6300 -4193 -4893 -6196 -5369 0
1000000 1036 -6732 -6881 -5139 -6505 -6549 -1128 0
1000000 1527 -6732 -6881 -5139 -6505 -6549 -1128 0
1000000 794 -7342 -1030 0
1000000 1528 -7342 -1030 0
1000000 854 -6716 -4285 -5168 -4407 -4987 -4083 0
1000000 1529 -6716 -4285 -5168 -4407 -4987 -4083 0
1000000 1191 -5929 -5031 -5004 0
1000000 1530 -5929 -5031 -5004 0
1000000 384 -4624 -6758 0
1000000 1531 -4624 -6758 0
1000000 1089 -7328 -6859 -6279 -5667 -5847 -1136 0
1000000 1532 -7328 -6859 -6279 -5667 -5847 -1136 0
1000000 564 -4186 -6190 -6788 -6521 -4097 0
1000000 1533 -4186 -6190 -6788 -6521 -4097 0
1000000 410 -5596 -6929 0
1000000 1534 -5596 -6929 0
1000000 413 -5207 -4935 -5655 -5485 0
1000000 1535 -5207 -4935 -5655 -5485 0
1000000 604 -7137 -4131 -4210 -7509 -5973 -4382 0
1000000 1536 -7137 -4131 -4210 -7509 -5973 -4382 0
1000000 286 -5805 -4960 0
1000000 1537 -5805 -4960 0
1000000 111 -7194 -6479 -7678 0
1000000 1538 -7194 -6479 -7678 0
1000000 241 -5112 -6653 -7098 -6516 -493 0
1000000 1539 -5112 -6653 -7098 -6516 -493 0
1000000 406 -4568 -843 0
1000000 1540 -4568 -843 0
1000000 337 -4349 -7521 -6321 -7022 -6948 0
1000000 1541 -4349 -7521 -6321 -7022 -6948 0
1000000 568 -6999 -5723 -4710 -7513 -5152 -4678 0
1000000 1542 -6999 -5723 -4710 -7513 -5152 -4678 0
1000000 432 -6084 -6302 -5212 0
1000000 1543 -6084 -6302 -5212 0
1000000 680 -7386 -5694 -6818 -5608 -6250 0
1000000 1544 -7386 -5694 -6818 -5608 -6250 0
1000000 975 -4583 -5088 -6985 -4972 0
1000000 1545 -4583 -5088 -6985 -4972 0
1000000 699 -5422 -7648 0
1000000 1546 -5422 -7648 0
1000000 969 -5673 -6766 -6993 -6764 -6689 -1096 0
1000000 1547 -5673 -6766 -6993 -6764 -6689 -1096 0
1000000 1075 -6741 -4926 -7037 -6652 0
1000000 1548 -6741 -4926 -7037 -6652 0
1000000 859 -6605 -6953 -5372 -5481 -5205 -4684 0
1000000 1549 -6605 -6953 -5372 -5481 -5205 -4684 0
1000000 318 -4990 -4415 -4842 -5687 -6138 -5832 0
1000000 1550 -4990 -4415 -4842 -5687 -6138 -5832 0
1000000 1133 -6175 -7608 0
1000000 1551 -6175 -7608 0
1000000 96 -6763 -729 0
1000000 1552 -6763 -729 0
1000000 742 -5983 -6492 -5649 -4453 -7295 -5845 0
1000000 1553 -5983 -6492 -5649 -4453 -7295 -5845 0
1000000 1178 -7556 -6298 -5985 0
1000000 1554 -7556 -6298 -5985 0
1000000 1152 -6384 -6568 0
1000000 1555 -6384 -6568 0
1000000 162 -4600 -5054 -1146 0
1000000 1556 -4600 -5054 -1146 0
1000000 703 -6474 -5406 0
1000000 1557 -6474 -5406 0
1000000 328 -6195 -7145 -6180 -4595 -5747 -945 0
1000000 1558 -6195 -7145 -6180 -4595 -5747 -945 0
1000000 279 -6405 -5644 -6244 0
1000000 1559 -6405 -5644 -6244 0
1000000 345 -7128 -7109 -5286 -5684 0
1000000 1560 -7128 -7109 -5286 -5684 0
1000000 971 -4954 -4652 -7012 0
1000000 1561 -4954 -4652 -7012 0
1000000 1017 -5308 -5388 -4296 -4920 -1086 0
1000000 1562 -5308 -5388 -4296 -4920 -1086 0
1000000 726 -4445 -5643 -5383 -4874 0
1000000 1563 -4445 -5643 -5383 -4874 0
1000000 59 -7003 -6355 -6150 -7370 -1046 0
1000000 1564 -7003 -6355 -6150 -7370 -1046 0
1000000 229 -4393 -628 0
1000000 1565 -4393 -628 0
1000000 987 -5655 -4511 -4974 -4748 -4378 -7184 0
1000000 1566 -5655 -4511 -4974 -4748 -4378 -7184 0
1000000 354 -5365 -7157 0
1000000 1567 -5365 -7157 0
1000000 423 -6611 -5700 -6604 -5128 0
1000000 1568 -6611 -5700 -6604 -5128 0
1000000 271 -5566 -5208 -5012 0
1000000 1569 -5566 -5208 -5012 0
1000000 617 -6125 -5313 -5569 -7576 -5011 -4965 0
1000000 1570 -6125 -5313 -5569 -7576 -5011 -4965 0
1000000 1113 -5991 -4519 -4978 -5348 -7081 0
1000000 1571 -5991 -4519 -4978 -5348 -7081 0
1000000 669 -6806 -6226 -6461 -6287 -6064 -735 0
1000000 1572 -6806 -6226 -6461 -6287 -6064 -735 0
1000000 330 -7083 -7175 -5615 0
1000000 1573 -7083 -7175 -5615 0
1000000 93 -6145 -5037 -6175 0
1000000 1574 -6145 -5037 -6175 0
1000000 603 -6815 -4677 -7497 -4696 -6089 -4636 0
1000000 1575 -6815 -4677 -7497 -4696 -6089 -4636 0
1000000 846 -4561 -7107 0
1000000 1576 -4561 -7107 0
1000000 920 -5775 -5446 -6205 -1157 0
1000000 1577 -5775 -5446 -6205 -1157 0
1000000 767 -6846 -5878 -4309 -6437 -6027 0
1000000 1578 -6846 -5878 -4309 -6437 -6027 0
1000000 1052 -5989 -7007 -4567 -6534 -5136 0
1000000 1579 -5989 -7007 -4567 -6534 -5136 0
1000000 1165 -5204 -6286 -5878 0
1000000 1580 -5204 -6286 -5878 0
1000000 836 -6439 -7465 -4755 -5338 0
1000000 1581 -6439 -7465 -4755 -5338 0
1000000 41 -6468 -7100 -6215 -5803 -7555 -5211 0
1000000 1582 -6468 -7100 -6215 -5803 -7555 -5211 0
1000000 410 -6953 -4705 -5706 -5198 -4809 -6024 0
1000000 1583 -6953 -4705 -5706 -5198 -4809 -6024 0
1000000 252 -4139 -6539 -7124 -6482 -7485 -5534 0
1000000 1584 -4139 -6539 -7124 -6482 -7485 -5534 0
1000000 1121 -7592 -6508 -4318 -4720 -6548 -4719 0
1000000 1585 -7592 -6508 -4318 -4720 -6548 -4719 0
1000000 1189 -6072 -6432 -6937 -1196 0
1000000 1586 -6072 -6432 -6937 -1196 0
1000000 387 -5707 -4564 -570 0
1000000 1587 -5707 -4564 -570 0
1000000 408 -4500 -6911 -7550 0
1000000 1588 -4500 -6911 -7550 0
1000000 1003 -5375 -6710 -1102 0
1000000 1589 -5375 -6710 -1102 0
1000000 826 -5654 -4201 -6599 -5509 0
1000000 1590 -5654 -4201 -6599 -5509 0
1000000 342 -6657 -5397 -5795 0
1000000 1591 -6657 -5397 -5795 0
1000000 214 -4921 -5783 -4826 -5175 -6644 -4602 0
1000000 1592 -4921 -5783 -4826 -5175 -6644 -4602 0
1000000 844 -5791 -4159 -4415 -7322 -4735 -5686 0
1000000 1593 -5791 -4159 -4415 -7322 -4735 -5686 0
1000000 1129 -4831 -6005 -6984 -4232 0
1000000 1594 -4831 -6005 -6984 -4232 0
1000000 486 -6175 -5050 -5023 -4350 -7328 -6070 0
1000000 1595 -6175 -5050 -5023 -4350 -7328 -6070 0
1000000 914 -5972 -6024 -5692 -5297 -5454 0
1000000 1596 -5972 -6024 -5692 -5297 -5454 0
1000000 947 -7103 -5593 0
1000000 1597 -7103 -5593 0
1000000 739 -6432 -5481 -6064 -7609 -6134 0
1000000 1598 -6432 -5481 -6064 -7609 -6134 0
1000000 328 -4877 -5141 0
1000000 1599 -4877 -5141 0
1000000 997 -6635 -6056 -6661 -6871 0
1000000 1600 -6635 -6056 -6661 -6871 0
1000000 221 -4508 -7670 -5352 -6056 -5121 -305 0
1000000 1601 -4508 -7670 -5352 -6056 -5121 -305 0
1000000 1096 -6904 -6227 0
1000000 1602 -6904 -6227 0
1000000 623 -6225 -987 0
1000000 1603 -6225 -987 0
1000000 1074 -5445 -4789 0
1000000 1604 -5445 -4789 0
1000000 765 -7678 -6496 -6631 -4359 -4491 0
1000000 1605 -7678 -6496 -6631 -4359 -4491 0
1000000 243 -5778 -6616 -5491 -845 0
1000000 1606 -5778 -6616 -5491 -845 0
1000000 71 -5483 -5466 -4625 0
1000000 1607 -5483 -5466 -4625 0
1000000 255 -4508 -6566 -6749 -4178 -4558 -7130 0
1000000 1608 -4508 -6566 -6749 -4178 -4558 -7130 0
1000000 1088 -5229 -4821 -1091 0
1000000 1609 -5229 -4821 -1091 0
1000000 350 -5776 -4388 0
1000000 1610 -5776 -4388 0
1000000 599 -4274 -4437 -6418 -4443 -5371 -6946 0
1000000 1611 -4274 -4437 -6418 -4443 -5371 -6946 0
1000000 115 -5014 -7255 -6642 -6704 0
1000000 1612 -5014 -7255 -6642 -6704 0
1000000 602 -4388 -6084 0
1000000 1613 -4388 -6084 0
1000000 933 -6764 -6266 0
1000000 1614 -6764 -6266 0
1000000 26 -4843 -6977 -6785 -5107 -7500 -6216 0
1000000 1615 -4843 -6977 -6785 -5107 -7500 -6216 0
1000000 865 -4792 -7133 -7100 0
1000000 1616 -4792 -7133 -7100 0
1000000 756 -7102 -6741 -6509 -5531 -6571 0
1000000 1617 -7102 -6741 -6509 -5531 -6571 0
1000000 916 -5160 -6104 -4722 -6818 -6122 -921 0
1000000 1618 -5160 -6104 -4722 -6818 -6122 -921 0
1000000 985 -6000 -7653 -5525 -5874 -5254 -1026 0
1000000 1619 -6000 -7653 -5525 -5874 -5254 -1026 0
1000000 98 -6406 -896 0
1000000 1620 -6406 -896 0
1000000 449 -4244 -4315 -5141 -6359 -7618 -5737 0
1000000 1621 -4244 -4315 -5141 -6359 -7618 -5737 0
1000000 102 -6231 -5417 -5585 -6020 -918 0
1000000 1622 -6231 -5417 -5585 -6020 -918 0
1000000 525 -6683 -6700 -6392 -4954 0
1000000 1623 -6683 -6700 -6392 -4954 0
1000000 446 -4818 -7422 -6721 -6403 -5135 0
1000000 1624 -4818 -7422 -6721 -6403 -5135 0
1000000 117 -7611 -5097 -6295 -1087 0
1000000 1625 -7611 -5097 -6295 -1087 0
1000000 668 -5239 -7295 -7583 -6366 -4359 -1112 0
1000000 1626 -5239 -7295 -7583 -6366 -4359 -1112 0
1000000 1014 -6117 -6030 -5955 -5807 -7052 0
1000000 1627 -6117 -6030 -5955 -5807 -7052 0
1000000 92 -4224 -6227 -4193 -7017 -5172 -5078 0
1000000 1628 -4224 -6227 -4193 -7017 -5172 -5078 0
1000000 639 -6771 -4692 -7114 -5589 0
1000000 1629 -6771 -4692 -7114 -5589 0
1000000 13 -7248 -4332 -4628 -5918 -1120 0
1000000 1630 -7248 -4332 -4628 -5918 -1120 0
1000000 90 -4112 -5041 -4829 -5565 -6567 -4610 0
1000000 1631 -4112 -5041 -4829 -5565 -6567 -4610 0
1000000 344 -5203 -7083 -7616 -4097 0
1000000 1632 -5203 -7083 -7616 -4097 0
1000000 652 -7276 -5893 -4865 -5558 -6812 -5453 0
1000000 1633 -7276 -5893 -4865 -5558 -6812 -5453 0
1000000 25 -6716 -5611 -5297 0
1000000 1634 -6716 -5611 -5297 0
1000000 668 -7291 -4750 -5111 -4314 -6705 0
1000000 1635 -7291 -4750 -5111 -4314 -6705 0
1000000 360 -7437 -7285 0
1000000 1636 -7437 -7285 0
1000000 356 -4263 -7608 -5257 0
1000000 1637 -4263 -7608 -5257 0
1000000 105 -6906 -6907 -6421 -7184 -7092 -6788 0
1000000 1638 -6906 -6907 -6421 -7184 -7092 -6788 0
1000000 387 -5878 -5807 0
1000000 1639 -5878 -5807 0
1000000 1020 -5232 -5352 -6836 -6137 -6985 -4574 0
1000000 1640 -5232 -5352 -6836 -6137 -6985 -4574 0
1000000 1193 -5836 -5119 0
1000000 1641 -5836 -5119 0
1000000 316 -4167 -7484 -6108 -5333 -6612 0
1000000 1642 -4167 -7484 -6108 -5333 -6612 0
1000000 63 -5448 -5421 -5627 0
1000000 1643 -5448 -5421 -5627 0
1000000 735 -6455 -4534 -6321 0
1000000 1644 -6455 -4534 -6321 0
1000000 997 -7323 -5203 -5855 0
1000000 1645 -7323 -5203 -5855 0
1000000 873 -7574 -7092 -4637 0
1000000 1646 -7574 -7092 -4637 0
1000000 288 -5247 -4485 -7211 -6806 -6340 -6849 0
1000000 1647 -5247 -4485 -7211 -6806 -6340 -6849 0
1000000 94 -6476 -6715 -7416 -5233 -4196 0
1000000 1648 -6476 -6715 -7416 -5233 -4196 0
1000000 570 -4187 -6288 -6792 0
1000000 1649 -4187 -6288 -6792 0
1000000 275 -5053 -6015 -4195 -751 0
1000000 1650 -5053 -6015 -4195 -751 0
1000000 915 -5217 -5456 -7071 -4940 -7656 -6912 0
1000000 1651 -5217 -5456 -7071 -4940 -7656 -6912 0
1000000 885 -5912 -5387 -7250 -7593 -6769 0
1000000 1652 -5912 -5387 -7250 -7593 -6769 0
1000000 282 -7065 -5676 -7638 -5798 0
1000000 1653 -7065 -5676 -7638 -5798 0
1000000 170 -4223 -4341 -7286 -6958 -538 0
1000000 1654 -4223 -4341 -7286 -6958 -538 0
1000000 1070 -5611 -7392 -6353 -6577 -6415 -7131 0
1000000 1655 -5611 -7392 -6353 -6577 -6415 -7131 0
1000000 797 -5694 -6795 -5807 -7082 -4765 0
1000000 1656 -5694 -6795 -5807 -7082 -4765 0
1000000 1039 -5697 -7470 -5069 -4123 -6396 0
1000000 1657 -5697 -7470 -5069 -4123 -6396 0
1000000 878 -6019 -6984 -5987 0
1000000 1658 -6019 -6984 -5987 0
1000000 184 -5923 -4516 -1077 0
1000000 1659 -5923 -4516 -1077 0
1000000 624 -5821 -4117 -915 0
1000000 1660 -5821 -4117 -915 0
1000000 509 -6537 -5904 -5394 -7115 0
1000000 1661 -6537 -5904 -5394 -7115 0
1000000 588 -6943 -5641 -4452 -5125 -6654 -4773 0
1000000 1662 -6943 -5641 -4452 -5125 -6654 -4773 0
1000000 922 -5459 -4753 -7535 -5636 0
1000000 1663 -5459 -4753 -7535 -5636 0
1000000 740 -4109 -4509 -4694 -6406 -4875 0
1000000 1664 -4109 -4509 -4694 -6406 -4875 0
1000000 673 -6714 -7087 -6541 -5380 -6422 0
1000000 1665 -6714 -7087 -6541 -5380 -6422 0
1000000 287 -6184 -6065 -4347 -4251 0
1000000 1666 -6184 -6065 -4347 -4251 0
1000000 125 -4701 -4353 -5550 0
1000000 1667 -4701 -4353 -5550 0
1000000 1117 -4307 -5114 0
1000000 1668 -4307 -5114 0
1000000 776 -6362 -5618 -5151 -4763 -6603 -4729 0
1000000 1669 -6362 -5618 -5151 -4763 -6603 -4729 0
1000000 552 -4431 -5378 -5519 0
1000000 1670 -4431 -5378 -5519 0
1000000 405 -7642 -4351 -4333 -6119 0
1000000 1671 -7642 -4351 -4333 -6119 0
1000000 671 -6058 -4193 -6812 -4589 -4146 0
1000000 1672 -6058 -4193 -6812 -4589 -4146 0
1000000 309 -6102 -5369 -6688 -7353 -6844 -7124 0
1000000 1673 -6102 -5369 -6688 -7353 -6844 -7124 0
1000000 857 -4721 -5709 -4928 -5833 -7374 -1105 0
1000000 1674 -4721 -5709 -4928 -5833 -7374 -1105 0
1000000 238 -7397 -7668 -5449 -1139 0
1000000 1675 -7397 -7668 -5449 -1139 0
1000000 438 -7617 -6988 -4476 -5914 0
1000000 1676 -7617 -6988 -4476 -5914 0
1000000 147 -4554 -4563 -6773 -6685 -615 0
1000000 1677 -4554 -4563 -6773 -6685 -615 0
1000000 811 -6107 -4167 -6725 -4170 0
1000000 1678 -6107 -4167 -6725 -4170 0
1000000 670 -7636 -6655 0
1000000 1679 -7636 -6655 0
1000000 1103 -5688 -5787 -5380 0
1000000 1680 -5688 -5787 -5380 0
1000000 880 -4376 -4886 -4733 0
1000000 1681 -4376 -4886 -4733 0
1000000 995 -4638 -7466 -5527 -5155 -5121 0
1000000 1682 -4638 -7466 -5527 -5155 -5121 0
1000000 1061 -4851 -1170 0
1000000 1683 -4851 -1170 0
1000000 174 -6025 -5539 -5808 -7313 0
1000000 1684 -6025 -5539 -5808 -7313 0
1000000 937 -6285 -7214 0
1000000 1685 -6285 -7214 0
1000000 785 -5164 -845 0
1000000 1686 -5164 -845 0
1000000 1107 -5417 -4864 -6677 0
1000000 1687 -5417 -4864 -6677 0
1000000 703 -6633 -5893 -5983 -5095 -4568 0
1000000 1688 -6633 -5893 -5983 -5095 -4568 0
1000000 1031 -4503 -5421 -6296 -4354 -6541 -5004 0
1000000 1689 -4503 -5421 -6296 -4354 -6541 -5004 0
1000000 485 -5982 -6714 -7032 -6881 0
1000000 1690 -5982 -6714 -7032 -6881 0
1000000 108 -6244 -5324 -5613 -6358 -6417 0
1000000 1691 -6244 -5324 -5613 -6358 -6417 0
1000000 975 -4970 -6882 -6630 -5952 -7011 0
1000000 1692 -4970 -6882 -6630 -5952 -7011 0
1000000 300 -6336 -6372 -5427 -492 0
1000000 1693 -6336 -6372 -5427 -492 0
1000000 464 -6860 -6617 -5531 0
1000000 1694 -6860 -6617 -5531 0
1000000 58 -4103 -5541 -4271 -7216 -5314 -6259 0
1000000 1695 -4103 -5541 -4271 -7216 -5314 -6259 0
1000000 871 -7448 -7568 -5607 -4949 -4196 0
1000000 1696 -7448 -7568 -5607 -4949 -4196 0
1000000 352 -5441 -5923 -5215 -4616 -5153 -6137 0
1000000 1697 -5441 -5923 -5215 -4616 -5153 -6137 0
1000000 812 -4497 -7645 -4483 -5276 -5061 -6319 0
1000000 1698 -4497 -7645 -4483 -5276 -5061 -6319 0
1000000 571 -6860 -4131 -7236 -6778 -7067 0
1000000 1699 -6860 -4131 -7236 -6778 -7067 0
1000000 1177 -5526 -5837 -4214 -4804 -1197 0
1000000 1700 -5526 -5837 -4214 -4804 -1197 0
1000000 210 -6379 -6966 0
1000000 1701 -6379 -6966 0
1000000 552 -6515 -6295 0
1000000 1702 -6515 -6295 0
1000000 805 -5791 -871 0
1000000 1703 -5791 -871 0
1000000 302 -6840 -4530 -5170 0
1000000 1704 -6840 -4530 -5170 0
1000000 462 -5577 -4145 -4293 -6843 -6492 -6306 0
1000000 1705 -5577 -4145 -4293 -6843 -6492 -6306 0
1000000 772 -5476 -7585 -7027 -4813 -4357 -6629 0
1000000 1706 -5476 -7585 -7027 -4813 -4357 -6629 0
1000000 613 -4645 -5108 -4172 -6016 -1029 0
1000000 1707 -4645 -5108 -4172 -6016 -1029 0
1000000 1176 -5284 -6268 -4812 -7110 0
1000000 1708 -5284 -6268 -4812 -7110 0
1000000 911 -7271 -6422 -5506 -6533 -4584 0
1000000 1709 -7271 -6422 -5506 -6533 -4584 0
1000000 909 -5818 -5240 -4423 -6585 -5232 0
1000000 1710 -5818 -5240 -4423 -6585 -5232 0
1000000 978 -6450 -4382 -7630 -4725 -1017 0
1000000 1711 -6450 -4382 -7630 -4725 -1017 0
1000000 1057 -5356 -4272 -5254 -5520 0
1000000 1712 -5356 -4272 -5254 -5520 0
1000000 323 -5633 -353 0
1000000 1713 -5633 -353 0
1000000 155 -4299 -4956 -6207 -6445 -6888 0
1000000 1714 -4299 -4956 -6207 -6445 -6888 0
1000000 734 -4940 -6465 -5150 -7377 0
1000000 1715 -4940 -6465 -5150 -7377 0
1000000 849 -6540 -7436 0
1000000 1716 -6540 -7436 0
1000000 421 -4970 -6093 -5331 -6962 -5800 0
1000000 1717 -4970 -6093 -5331 -6962 -5800 0
1000000 1120 -5539 -6498 -5987 -6375 0
1000000 1718 -5539 -6498 -5987 -6375 0
1000000 1198 -5291 -7623 -4476 -5852 -1199 0
1000000 1719 -5291 -7623 -4476 -5852 -1199 0
1000000 1002 -5952 -6202 -7186 -5996 -4984 -6855 0
1000000 1720 -5952 -6202 -7186 -5996 -4984 -6855 0
1000000 187 -5383 -4558 -5842 -6029 -5547 -5398 0
1000000 1721 -5383 -4558 -5842 -6029 -5547 -5398 0
1000000 566 -6948 -4247 -6532 -6091 -5938 0
1000000 1722 -6948 -4247 -6532 -6091 -5938 0
1000000 842 -6557 -6834 -4499 -5482 -4507 -4178 0
1000000 1723 -6557 -6834 -4499 -5482 -4507 -4178 0
1000000 669 -6264 -7498 -7191 -6821 0
1000000 1724 -6264 -7498 -7191 -6821 0
1000000 832 -7186 -4771 -5985 -7582 -5537 -6950 0
1000000 1725 -7186 -4771 -5985 -7582 -5537 -6950 0
1000000 738 -5912 -6167 -4937 -6166 0
1000000 1726 -5912 -6167 -4937 -6166 0
1000000 340 -6512 -5907 -5568 -4645 -5551 0
1000000 1727 -6512 -5907 -5568 -4645 -5551 0
1000000 941 -6642 -1063 0
1000000 1728 -6642 -1063 0
1000000 326 -6221 -4393 0
1000000 1729 -6221 -4393 0
1000000 743 -5934 -7380 -7048 -1104 0
1000000 1730 -5934 -7380 -7048 -1104 0
1000000 818 -5611 -6516 -6616 0
1000000 1731 -5611 -6516 -6616 0
1000000 906 -6040 -6825 0
1000000 1732 -6040 -6825 0
1000000 257 -6037 -5985 -7338 -5729 -6362 0
1000000 1733 -6037 -5985 -7338 -5729 -6362 0
1000000 4 -5853 -4684 -7319 -7198 -5353 -6652 0
1000000 1734 -5853 -4684 -7319 -7198 -5353 -6652 0
1000000 357 -5434 -4520 -5228 -7423 0
1000000 1735 -5434 -4520 -5228 -7423 0
1000000 960 -5820 -4320 -6865 0
1000000 1736 -5820 -4320 -6865 0
1000000 1151 -6564 -6280 -6136 -6448 -6243 0
1000000 1737 -6564 -6280 -6136 -6448 -6243 0
1000000 152 -7648 -4165 -6293 -282 0
1000000 1738 -7648 -4165 -6293 -282 0
1000000 1004 -5147 -4613 -6223 -5168 -1102 0
1000000 1739 -5147 -4613 -6223 -5168 -1102 0
1000000 270 -6824 -6501 -6708 -6679 -5995 -5974 0
1000000 1740 -6824 -6501 -6708 -6679 -5995 -5974 0
1000000 431 -6836 -7088 -5776 -7043 -5495 -5248 0
1000000 1741 -6836 -7088 -5776 -7043 -5495 -5248 0
1000000 45 -5871 -5410 -6906 -6546 -5646 -7307 0
1000000 1742 -5871 -5410 -6906 -6546 -5646 -7307 0
1000000 457 -7524 -5742 -4675 0
1000000 1743 -7524 -5742 -4675 0
1000000 138 -6695 -6205 -6453 -4097 -4249 0
1000000 1744 -6695 -6205 -6453 -4097 -4249 0
1000000 531 -6569 -7542 -7456 0
1000000 1745 -6569 -7542 -7456 0
1000000 553 -5284 -4486 -5098 -897 0
1000000 1746 -5284 -4486 -5098 -897 0
1000000 614 -6527 -4741 -6457 -4172 0
1000000 1747 -6527 -4741 -6457 -4172 0
1000000 61 -4447 -5167 -7663 -5073 -7070 -5494 0
1000000 1748 -4447 -5167 -7663 -5073 -7070 -5494 0
1000000 253 -4720 -952 0
1000000 1749 -4720 -952 0
1000000 609 -4439 -5394 -6061 0
1000000 1750 -4439 -5394 -6061 0
1000000 494 -6028 -7112 0
1000000 1751 -6028 -7112 0
1000000 337 -4599 -7265 -7043 -789 0
1000000 1752 -4599 -7265 -7043 -789 0
1000000 532 -6118 -5917 0
1000000 1753 -6118 -5917 0
1000000 315 -5880 -4353 0
1000000 1754 -5880 -4353 0
1000000 201 -5667 -7331 -5066 -4420 -7354 0
1000000 1755 -5667 -7331 -5066 -4420 -7354 0
1000000 110 -7175 -5478 -4900 0
1000000 1756 -7175 -5478 -4900 0
1000000 938 -7604 -4538 -7514 0
1000000 1757 -7604 -4538 -7514 0
1000000 533 -4641 -629 0
1000000 1758 -4641 -629 0
1000000 424 -6714 -6303 0
1000000 1759 -6714 -6303 0
1000000 91 -5960 -4402 -6049 -4573 -6648 -7326 0
1000000 1760 -5960 -4402 -6049 -4573 -6648 -7326 0
1000000 452 -7482 -6016 0
1000000 1761 -7482 -6016 0
1000000 94 -4201 -6896 -930 0
1000000 1762 -4201 -6896 -930 0
1000000 550 -5062 -6504 0
1000000 1763 -5062 -6504 0
1000000 217 -4385 -561 0
1000000 1764 -4385 -561 0
1000000 765 -4520 -4152 -5193 0
1000000 1765 -4520 -4152 -5193 0
1000000 158 -5147 -4362 -6395 -5859 -5777 -7400 0
1000000 1766 -5147 -4362 -6395 -5859 -5777 -7400 0
1000000 1000 -5450 -5142 -7513 0
1000000 1767 -5450 -5142 -7513 0
1000000 475 -6408 -4387 -5080 -5049 -793 0
1000000 1768 -6408 -4387 -5080 -5049 -793 0
1000000 473 -5805 -7349 -5828 -5674 0
1000000 1769 -5805 -7349 -5828 -5674 0
1000000 652 -4866 -5470 -6850 -5065 -7495 -7057 0
1000000 1770 -4866 -5470 -6850 -5065 -7495 -7057 0
1000000 506 -6338 -6682 -4287 0
1000000 1771 -6338 -6682 -4287 0
1000000 257 -6124 -5484 -5547 -723 0
1000000 1772 -6124 -5484 -5547 -723 0
1000000 375 -7362 -4857 -5118 -5017 -7183 0
1000000 1773 -7362 -4857 -5118 -5017 -7183 0
1000000 500 -6921 -5263 -6541 -6951 0
1000000 1774 -6921 -5263 -6541 -6951 0
1000000 212 -5167 -5745 -4686 -7125 -6377 -4325 0
1000000 1775 -5167 -5745 -4686 -7125 -6377 -4325 0
1000000 816 -6644 -7604 -6258 -4299 -1093 0
1000000 1776 -6644 -7604 -6258 -4299 -1093 0
1000000 485 -7448 -6619 -7672 -4743 -7044 -7557 0
1000000 1777 -7448 -6619 -7672 -4743 -7044 -7557 0
1000000 1094 -7582 -5482 -4648 -5712 -5785 -6789 0
1000000 1778 -7582 -5482 -4648 -5712 -5785 -6789 0
1000000 299 -5000 -5141 -6906 -492 0
1000000 1779 -5000 -5141 -6906 -492 0
1000000 260 -6710 -5859 -856 0
1000000 1780 -6710 -5859 -856 0
1000000 505 -7456 -6768 -6436 0
1000000 1781 -7456 -6768 -6436 0
1000000 1157 -4499 -4900 -7439 -4512 -6956 0
1000000 1782 -4499 -4900 -7439 -4512 -6956 0
1000000 83 -5659 -1029 0
1000000 1783 -5659 -1029 0
1000000 1105 -5964 -5722 -4260 -5970 0
1000000 1784 -5964 -5722 -4260 -5970 0
1000000 1015 -6504 -7535 -1190 0
1000000 1785 -6504 -7535 -1190 0
1000000 97 -6370 -6999 -7157 -6519 -6886 -5913 0
1000000 1786 -6370 -6999 -7157 -6519 -6886 -5913 0
1000000 191 -4385 -7555 -5873 0
1000000 1787 -4385 -7555 -5873 0
1000000 1200 -5710 -7049 -6891 0
1000000 1788 -5710 -7049 -6891 0
1000000 253 -4922 -5976 0
1000000 1789 -4922 -5976 0
1000000 671 -5935 -5342 -7034 -5921 -7485 -1184 0
1000000 1790 -5935 -5342 -7034 -5921 -7485 -1184 0
1000000 1066 -4816 -7388 -6747 -7306 -4731 0
1000000 1791 -4816 -7388 -6747 -7306 -4731 0
1000000 948 -4120 -4240 -6288 -4298 0
1000000 1792 -4120 -4240 -6288 -4298 0
1000000 813 -5534 -7313 -5850 0
1000000 1793 -5534 -7313 -5850 0
1000000 186 -7540 -1041 0
1000000 1794 -7540 -1041 0
1000000 705 -7064 -4293 -4595 0
1000000 1795 -7064 -4293 -4595 0
1000000 977 -6359 -7316 0
1000000 1796 -6359 -7316 0
1000000 451 -5254 -5745 -7418 -5710 -7657 0
1000000 1797 -5254 -5745 -7418 -5710 -7657 0
1000000 95 -5576 -6609 -1036 0
1000000 1798 -5576 -6609 -1036 0
1000000 340 -5003 -6449 -694 0
1000000 1799 -5003 -6449 -694 0
1000000 571 -7453 -6663 -4605 -7241 -5791 -5177 0
1000000 1800 -7453 -6663 -4605 -7241 -5791 -5177 0
1000000 281 -5179 -6191 -5598 0
1000000 1801 -5179 -6191 -5598 0
1000000 738 -5111 -5221 -7476 -5063 -5491 0
1000000 1802 -5111 -5221 -7476 -5063 -5491 0
1000000 601 -5540 -5218 -4598 -5485 0
1000000 1803 -5540 -5218 -4598 -5485 0
1000000 798 -5735 -5199 -6508 0
1000000 1804 -5735 -5199 -6508 0
1000000 435 -4366 -6119 -6113 -6236 -6425 0
1000000 1805 -4366 -6119 -6113 -6236 -6425 0
1000000 268 -6634 -6644 -6092 -5367 0
1000000 1806 -6634 -6644 -6092 -5367 0
1000000 42 -4103 -4772 -5299 -6706 -930 0
1000000 1807 -4103 -4772 -5299 -6706 -930 0
1000000 250 -6929 -4290 -5483 -4248 0
1000000 1808 -6929 -4290 -5483 -4248 0
1000000 382 -4350 -6440 -5741 -6704 -6643 0
1000000 1809 -4350 -6440 -5741 -6704 -6643 0
1000000 122 -4623 -5557 -6822 -6565 0
1000000 1810 -4623 -5557 -6822 -6565 0
1000000 460 -6421 -4425 -5338 -6157 -5005 -592 0
1000000 1811 -6421 -4425 -5338 -6157 -5005 -592 0
1000000 1078 -6553 -4396 0
1000000 1812 -6553 -4396 0
1000000 271 -6650 -5291 -6833 -5150 -6742 0
1000000 1813 -6650 -5291 -6833 -5150 -6742 0
1000000 1154 -4710 -1198 0
1000000 1814 -4710 -1198 0
1000000 426 -5701 -5936 -5833 -7332 -931 0
1000000 1815 -5701 -5936 -5833 -7332 -931 0
1000000 124 -4370 -7530 -5983 -7055 -6594 -1151 0
1000000 1816 -4370 -7530 -5983 -7055 -6594 -1151 0
1000000 1034 -5991 -5144 -5264 -6047 0
1000000 1817 -5991 -5144 -5264 -6047 0
1000000 784 -4291 -4352 -7120 -4607 -4182 0
1000000 1818 -4291 -4352 -7120 -4607 -4182 0
1000000 324 -5013 -6852 -5448 -5249 0
1000000 1819 -5013 -6852 -5448 -5249 0
1000000 841 -5840 -7637 -4258 -4677 -4244 0
1000000 1820 -5840 -7637 -4258 -4677 -4244 0
1000000 1098 -6007 -5974 -4331 -6671 0
1000000 1821 -6007 -5974 -4331 -6671 0
1000000 511 -5253 -5030 -5146 -4262 -5279 -958 0
1000000 1822 -5253 -5030 -5146 -4262 -5279 -958 0
1000000 928 -4992 -4379 -4470 -5195 -4203 0
1000000 1823 -4992 -4379 -4470 -5195 -4203 0
1000000 993 -4715 -7578 -4442 -5584 -4920 -5392 0
1000000 1824 -4715 -7578 -4442 -5584 -4920 -5392 0
1000000 208 -6411 -6903 0
1000000 1825 -6411 -6903 0
1000000 796 -6108 -878 0
1000000 1826 -6108 -878 0
1000000 234 -7267 -5293 -4594 -6651 -4232 -6459 0
1000000 1827 -7267 -5293 -4594 -6651 -4232 -6459 0
1000000 374 -5223 -7005 -7533 -5186 0
1000000 1828 -5223 -7005 -7533 -5186 0
1000000 80 -5877 -5278 -739 0
1000000 1829 -5877 -5278 -739 0
1000000 456 -7367 -7467 -4093 -4214 0
1000000 1830 -7367 -7467 -4093 -4214 0
1000000 640 -4709 -673 0
1000000 1831 -4709 -673 0
1000000 1200 -7404 -5302 -6188 -6809 -4162 0
1000000 1832 -7404 -5302 -6188 -6809 -4162 0
1000000 272 -6788 -4250 0
1000000 1833 -6788 -4250 0
1000000 186 -6001 -6497 -7220 -6742 0
1000000 1834 -6001 -6497 -7220 -6742 0
1000000 10 -7168 -4518 -7368 0
1000000 1835 -7168 -4518 -7368 0
1000000 170 -6727 -4948 -5637 -7487 0
1000000 1836 -6727 -4948 -5637 -7487 0
1000000 238 -6350 -5266 -6025 -7406 -6066 -405 0
1000000 1837 -6350 -5266 -6025 -7406 -6066 -405 0
1000000 252 -6014 -6864 0
1000000 1838 -6014 -6864 0
1000000 1050 -7562 -4673 -5869 -4356 -6164 -5012 0
1000000 1839 -7562 -4673 -5869 -4356 -6164 -5012 0
1000000 279 -4783 -4760 0
1000000 1840 -4783 -4760 0
1000000 286 -5233 -6876 -4264 0
1000000 1841 -5233 -6876 -4264 0
1000000 874 -6437 -4482 -6346 0
1000000 1842 -6437 -4482 -6346 0
1000000 682 -6410 -6159 -5406 -5032 -7247 -7082 0
1000000 1843 -6410 -6159 -5406 -5032 -7247 -7082 0
1000000 384 -7235 -4899 -4572 -6860 -5007 -7569 0
1000000 1844 -7235 -4899 -4572 -6860 -5007 -7569 0
1000000 283 -4588 -6692 -5453 -6508 0
1000000 1845 -4588 -6692 -5453 -6508 0
1000000 388 -7574 -5523 -6831 -7652 -4772 0
1000000 1846 -7574 -5523 -6831 -7652 -4772 0
1000000 834 -6779 -1038 0
1000000 1847 -6779 -1038 0
1000000 197 -7374 -7332 -5270 -5692 -493 0
1000000 1848 -7374 -7332 -5270 -5692 -493 0
1000000 55 -5478 -6204 -5798 -5229 0
1000000 1849 -5478 -6204 -5798 -5229 0
1000000 449 -4343 -6546 -5078 0
1000000 1850 -4343 -6546 -5078 0
1000000 993 -4556 -6991 -5893 0
1000000 1851 -4556 -6991 -5893 0
1000000 1138 -7347 -7454 0
1000000 1852 -7347 -7454 0
1000000 497 -4292 -4112 -5502 -6200 -4440 -7237 0
1000000 1853 -4292 -4112 -5502 -6200 -4440 -7237 0
1000000 710 -7543 -5146 -6297 -7122 0
1000000 1854 -7543 -5146 -6297 -7122 0
1000000 871 -5897 -5461 -5361 -5374 -5282 -6538 0
1000000 1855 -5897 -5461 -5361 -5374 -5282 -6538 0
1000000 873 -5452 -4508 0
1000000 1856 -5452 -4508 0
1000000 708 -5962 -5855 -5393 0
1000000 1857 -5962 -5855 -5393 0
1000000 808 -4684 -4785 -6996 0
1000000 1858 -4684 -4785 -6996 0
1000000 1188 -7152 -5408 0
1000000 1859 -7152 -5408 0
1000000 501 -5521 -6837 -6531 0
1000000 1860 -5521 -6837 -6531 0
1000000 83 -4176 -7146 -402 0
1000000 1861 -4176 -7146 -402 0
1000000 210 -7420 -5901 -6882 -731 0
1000000 1862 -7420 -5901 -6882 -731 0
1000000 213 -5513 -7083 -6817 0
1000000 1863 -5513 -7083 -6817 0
1000000 236 -4800 -6029 -5718 -7535 -4605 -4120 0
1000000 1864 -4800 -6029 -5718 -7535 -4605 -4120 0
1000000 293 -4479 -7615 0
1000000 1865 -4479 -7615 0
1000000 336 -5563 -7129 -4620 -5314 -4864 0
1000000 1866 -5563 -7129 -4620 -5314 -4864 0
1000000 839 -4475 -5490 -894 0
1000000 1867 -4475 -5490 -894 0
1000000 421 -6810 -5848 0
1000000 1868 -6810 -5848 0
1000000 361 -7166 -805 0
1000000 1869 -7166 -805 0
1000000 975 -4931 -6749 -4201 0
1000000 1870 -4931 -6749 -4201 0
1000000 99 -4400 -372 0
1000000 1871 -4400 -372 0
1000000 64 -5728 -6211 -7418 -6158 -5550 -6248 0
1000000 1872 -5728 -6211 -7418 -6158 -5550 -6248 0
1000000 803 -6646 -1150 0
1000000 1873 -6646 -1150 0
1000000 271 -7569 -4652 -6130 -4703 -5822 0
1000000 1874 -7569 -4652 -6130 -4703 -5822 0
1000000 897 -5927 -5221 -4921 -1072 0
1000000 1875 -5927 -5221 -4921 -1072 0
1000000 174 -5259 -4996 -4376 -7199 -556 0
1000000 1876 -5259 -4996 -4376 -7199 -556 0
1000000 541 -4413 -566 0
1000000 1877 -4413 -566 0
1000000 113 -5043 -726 0
1000000 1878 -5043 -726 0
1000000 176 -6646 -5061 -4199 -4756 0
1000000 1879 -6646 -5061 -4199 -4756 0
1000000 442 -4098 -7367 -7171 -6863 -6575 0
1000000 1880 -4098 -7367 -7171 -6863 -6575 0
1000000 634 -5627 -4273 -5442 -7171 0
1000000 1881 -5627 -4273 -5442 -7171 0
1000000 78 -5669 -6794 -4986 -162 0
1000000 1882 -5669 -6794 -4986 -162 0
1000000 154 -6372 -6685 -5112 0
1000000 1883 -6372 -6685 -5112 0
1000000 129 -5302 -4723 -5546 -142 0
1000000 1884 -5302 -4723 -5546 -142 0
1000000 1011 -5793 -5625 -7593 -7607 -7619 0
1000000 1885 -5793 -5625 -7593 -7607 -7619 0
1000000 1163 -4182 -6447 -5594 -1199 0
1000000 1886 -4182 -6447 -5594 -1199 0
1000000 1053 -5778 -7226 0
1000000 1887 -5778 -7226 0
1000000 899 -7320 -6300 -6347 -6508 -7659 0
1000000 1888 -7320 -6300 -6347 -6508 -7659 0
1000000 36 -7620 -7286 -7435 -5301 0
1000000 1889 -7620 -7286 -7435 -5301 0
1000000 1118 -4524 -6505 -6577 0
1000000 1890 -4524 -6505 -6577 0
1000000 541 -4530 -6880 -7598 -5645 -5306 0
1000000 1891 -4530 -6880 -7598 -5645 -5306 0
1000000 99 -7200 -6874 -638 0
1000000 1892 -7200 -6874 -638 0
1000000 1165 -6370 -5347 -1194 0
1000000 1893 -6370 -5347 -1194 0
1000000 494 -4895 -4389 -6474 0
1000000 1894 -4895 -4389 -6474 0
1000000 867 -4334 -4323 -4405 -6122 0
1000000 1895 -4334 -4323 -4405 -6122 0
1000000 863 -4870 -6522 -7011 -5279 -7477 -4506 0
1000000 1896 -4870 -6522 -7011 -5279 -7477 -4506 0
1000000 558 -4500 -6277 -4727 -5344 -5516 0
1000000 1897 -4500 -6277 -4727 -5344 -5516 0
1000000 79 -5075 -4307 0
1000000 1898 -5075 -4307 0
1000000 54 -7647 -4911 -4128 -4584 -6399 -5419 0
1000000 1899 -7647 -4911 -4128 -4584 -6399 -5419 0
1000000 1131 -6191 -6098 -6405 -6868 -7448 0
1000000 1900 -6191 -6098 -6405 -6868 -7448 0
1000000 156 -4972 -4454 -6598 0
1000000 1901 -4972 -4454 -6598 0
1000000 963 -4681 -6369 -1063 0
1000000 1902 -4681 -6369 -1063 0
1000000 509 -6958 -5245 -4478 -4594 0
1000000 1903 -6958 -5245 -4478 -4594 0
1000000 1181 -5169 -6025 -6078 -4389 -4728 0
1000000 1904 -5169 -6025 -6078 -4389 -4728 0
1000000 32 -6882 -5712 -7011 -5140 -7318 0
1000000 1905 -6882 -5712 -7011 -5140 -7318 0
1000000 77 -4936 -7353 -7036 -4143 -746 0
1000000 1906 -4936 -7353 -7036 -4143 -746 0
1000000 360 -5005 -7132 -5210 0
1000000 1907 -5005 -7132 -5210 0
1000000 326 -7441 -4247 -5310 -6425 -6010 -5981 0
1000000 1908 -7441 -4247 -5310 -6425 -6010 -5981 0
1000000 910 -7395 -4507 -6098 -5934 0
1000000 1909 -7395 -4507 -6098 -5934 0
1000000 387 -4825 -7063 -4529 -647 0
1000000 1910 -4825 -7063 -4529 -647 0
1000000 806 -6023 -6537 0
1000000 1911 -6023 -6537 0
1000000 725 -4589 -5554 0
1000000 1912 -4589 -5554 0
1000000 1176 -5395 -4894 -6776 -5892 -7402 -6359 0
1000000 1913 -5395 -4894 -6776 -5892 -7402 -6359 0
1000000 402 -6007 -5176 -4424 0
1000000 1914 -6007 -5176 -4424 0
1000000 169 -6607 -7278 -6459 -5831 -5526 -4639 0
1000000 1915 -6607 -7278 -6459 -5831 -5526 -4639 0
1000000 166 -6314 -5873 -5589 -6133 -6996 0
1000000 1916 -6314 -5873 -5589 -6133 -6996 0
1000000 1151 -6285 -7290 0
1000000 1917 -6285 -7290 0
1000000 220 -5986 -6015 -7211 -5788 -4303 -5604 0
1000000 1918 -5986 -6015 -7211 -5788 -4303 -5604 0
1000000 780 -6237 -5528 -5709 -6058 -5605 -4877 0
1000000 1919 -6237 -5528 -5709 -6058 -5605 -4877 0
1000000 615 -5743 -6450 -4695 -7486 -991 0
1000000 1920 -5743 -6450 -4695 -7486 -991 0
1000000 303 -5310 -5293 0
1000000 1921 -5310 -5293 0
1000000 4 -5827 -7619 -7392 -7080 -4883 0
1000000 1922 -5827 -7619 -7392 -7080 -4883 0
1000000 566 -6302 -5415 -4728 -4582 -596 0
1000000 1923 -6302 -5415 -4728 -4582 -596 0
1000000 499 -7270 -6957 -4925 -4107 -5649 -773 0
1000000 1924 -7270 -6957 -4925 -4107 -5649 -773 0
1000000 364 -5307 -6233 0
1000000 1925 -5307 -6233 0
1000000 708 -5314 -5816 0
1000000 1926 -5314 -5816 0
1000000 791 -4540 -7431 -7334 -4458 -5288 -4281 0
1000000 1927 -4540 -7431 -7334 -4458 -5288 -4281 0
1000000 331 -7416 -6959 -7481 -4355 -4864 -7335 0
1000000 1928 -7416 -6959 -7481 -4355 -4864 -7335 0
1000000 784 -4771 -6263 -5586 -6273 -7172 -6987 0
1000000 1929 -4771 -6263 -5586 -6273 -7172 -6987 0
1000000 43 -4494 -5349 -5898 -7469 -5368 0
1000000 1930 -4494 -5349 -5898 -7469 -5368 0
1000000 798 -4434 -6923 -5389 -5606 -943 0
1000000 1931 -4434 -6923 -5389 -5606 -943 0
1000000 598 -5277 -6692 -5790 -5813 0
1000000 1932 -5277 -6692 -5790 -5813 0
1000000 157 -5439 -6545 -5008 0
1000000 1933 -5439 -6545 -5008 0
1000000 224 -4368 -6823 -4305 -4165 -5498 -5860 0
1000000 1934 -4368 -6823 -4305 -4165 -5498 -5860 0
1000000 976 -5389 -4824 0
1000000 1935 -5389 -4824 0
1000000 994 -6478 -7584 -5666 -6985 -6417 0
1000000 1936 -6478 -7584 -5666 -6985 -6417 0
1000000 757 -4262 -4576 -6929 -5370 -7111 -1164 0
1000000 1937 -4262 -4576 -6929 -5370 -7111 -1164 0
1000000 246 -4404 -5063 -5948 -4847 -5356 -5882 0
1000000 1938 -4404 -5063 -5948 -4847 -5356 -5882 0
1000000 437 -7375 -7377 0
1000000 1939 -7375 -7377 0
1000000 717 -5750 -4147 0
1000000 1940 -5750 -4147 0
1000000 1012 -4636 -4251 -6428 0
1000000 1941 -4636 -4251 -6428 0
1000000 424 -4239 -7451 -4677 -5011 -4621 -6829 0
1000000 1942 -4239 -7451 -4677 -5011 -4621 -6829 0
1000000 610 -4821 -5731 -4924 -5984 -6023 0
1000000 1943 -4821 -5731 -4924 -5984 -6023 0
1000000 120 -5188 -7111 -585 0
1000000 1944 -5188 -7111 -585 0
1000000 892 -7310 -6994 -4961 -5087 -4523 -7373 0
1000000 1945 -7310 -6994 -4961 -5087 -4523 -7373 0
1000000 1170 -6049 -5192 -7558 -5445 0
1000000 1946 -6049 -5192 -7558 -5445 0
1000000 1108 -4451 -5506 -7015 0
1000000 1947 -4451 -5506 -7015 0
1000000 278 -5800 -5261 -7362 -4130 0
1000000 1948 -5800 -5261 -7362 -4130 0
1000000 207 -5506 -4985 -6825 -6849 0
1000000 1949 -5506 -4985 -6825 -6849 0
1000000 1168 -5939 -6568 -7402 -5157 -6371 -6643 0
1000000 1950 -5939 -6568 -7402 -5157 -6371 -6643 0
1000000 982 -5070 -7345 -7275 -6082 -4620 -997 0
1000000 1951 -5070 -7345 -7275 -6082 -4620 -997 0
1000000 642 -4916 -5821 -6578 -4245 -6128 0
1000000 1952 -4916 -5821 -6578 -4245 -6128 0
1000000 721 -7084 -4885 -4383 -6091 0
1000000 1953 -7084 -4885 -4383 -6091 0
1000000 1097 -5467 -7051 -4588 -4395 -4832 -4637 0
1000000 1954 -5467 -7051 -4588 -4395 -4832 -4637 0
1000000 234 -5727 -4084 -6345 -4542 0
1000000 1955 -5727 -4084 -6345 -4542 0
1000000 1030 -6004 -7188 0
1000000 1956 -6004 -7188 0
1000000 242 -4825 -7543 -6057 -7352 0
1000000 1957 -4825 -7543 -6057 -7352 0
1000000 836 -5915 -4976 -7309 -6317 -4993 -4775 0
1000000 1958 -5915 -4976 -7309 -6317 -4993 -4775 0
1000000 361 -7522 -5581 0
1000000 1959 -7522 -5581 0
1000000 1003 -5589 -6116 -5072 -7056 -6805 -7141 0
1000000 1960 -5589 -6116 -5072 -7056 -6805 -7141 0
1000000 345 -4652 -7629 0
1000000 1961 -4652 -7629 0
1000000 614 -4478 -7031 -4993 -5665 -5511 0
1000000 1962 -4478 -7031 -4993 -5665 -5511 0
1000000 544 -6056 -766 0
1000000 1963 -6056 -766 0
1000000 748 -5058 -6334 -6827 0
1000000 1964 -5058 -6334 -6827 0
1000000 740 -7571 -6246 -4146 -6131 -6908 0
1000000 1965 -7571 -6246 -4146 -6131 -6908 0
1000000 1062 -6997 -4511 -5941 0
1000000 1966 -6997 -4511 -5941 0
1000000 898 -6131 -4537 -7029 -7155 0
1000000 1967 -6131 -4537 -7029 -7155 0
1000000 753 -6221 -5951 0
1000000 1968 -6221 -5951 0
1000000 89 -6098 -6434 -4921 0
1000000 1969 -6098 -6434 -4921 0
1000000 503 -6858 -7204 0
1000000 1970 -6858 -7204 0
1000000 1136 -6468 -5248 -5031 -6068 0
1000000 1971 -6468 -5248 -5031 -6068 0
1000000 1144 -7147 -5535 0
1000000 1972 -7147 -5535 0
1000000 890 -5016 -5948 -4416 -4891 -5773 -1016 0
1000000 1973 -5016 -5948 -4416 -4891 -5773 -1016 0
1000000 492 -5244 -6239 -5758 -7472 -6273 0
1000000 1974 -5244 -6239 -5758 -7472 -6273 0
1000000 975 -7220 -5541 0
1000000 1975 -7220 -5541 0
1000000 434 -4845 -4793 -5935 0
1000000 1976 -4845 -4793 -5935 0
1000000 75 -5129 -6618 -5462 -5451 -6210 0
1000000 1977 -5129 -6618 -5462 -5451 -6210 0
1000000 119 -4634 -4885 -4819 -7042 -819 0
1000000 1978 -4634 -4885 -4819 -7042 -819 0
1000000 912 -4086 -5200 0
1000000 1979 -4086 -5200 0
1000000 339 -7550 -4514 0
1000000 1980 -7550 -4514 0
1000000 1102 -6303 -7040 -4616 0
1000000 1981 -6303 -7040 -4616 0
1000000 100 -7223 -4966 -225 0
1000000 1982 -7223 -4966 -225 0
1000000 122 -5870 -5362 -5892 -4638 -4123 -4490 0
1000000 1983 -5870 -5362 -5892 -4638 -4123 -4490 0
1000000 20 -6168 -4486 -4413 -5974 -7108 -4312 0
1000000 1984 -6168 -4486 -4413 -5974 -7108 -4312 0
1000000 344 -7312 -4147 -6092 -4586 0
1000000 1985 -7312 -4147 -6092 -4586 0
1000000 354 -4759 -5954 -7460 -7408 -6821 0
1000000 1986 -4759 -5954 -7460 -7408 -6821 0
1000000 642 -7283 -5914 -6610 -4989 -1162 0
1000000 1987 -7283 -5914 -6610 -4989 -1162 0
1000000 214 -4531 -5285 -7009 -5698 -5839 -811 0
1000000 1988 -4531 -5285 -7009 -5698 -5839 -811 0
1000000 735 -7067 -5953 -5834 -4628 0
1000000 1989 -7067 -5953 -5834 -4628 0
1000000 45 -5159 -7166 -5682 -6576 0
1000000 1990 -5159 -7166 -5682 -6576 0
1000000 1099 -6071 -6317 -7662 -4853 -4400 -4245 0
1000000 1991 -6071 -6317 -7662 -4853 -4400 -4245 0
1000000 512 -6040 -5027 0
1000000 1992 -6040 -5027 0
1000000 323 -6801 -7397 -4961 0
1000000 1993 -6801 -7397 -4961 0
1000000 1167 -6739 -7206 -7291 -6695 -5366 0
1000000 1994 -6739 -7206 -7291 -6695 -5366 0
1000000 953 -4431 -7088 -6594 -7416 -4730 -4381 0
1000000 1995 -4431 -7088 -6594 -7416 -4730 -4381 0
1000000 1094 -5551 -4445 -7520 -7589 -1179 0
1000000 1996 -5551 -4445 -7520 -7589 -1179 0
1000000 161 -6126 -6464 -7503 -4897 -4940 -4430 0
1000000 1997 -6126 -6464 -7503 -4897 -4940 -4430 0
1000000 964 -4150 -7217 -7655 -5818 -969 0
1000000 1998 -4150 -7217 -7655 -5818 -969 0
1000000 463 -5341 -5842 -7532 -4813 -1087 0
1000000 1999 -5341 -5842 -7532 -4813 -1087 0
1000000 928 -4871 -979 0
1000000 2000 -4871 -979 0
1000000 854 -5513 -5145 0
1000000 2001 -5513 -5145 0
1000000 444 -6249 -7183 -6940 -6066 -6942 -6796 0
1000000 2002 -6249 -7183 -6940 -6066 -6942 -6796 0
1000000 1149 -6143 -1200 0
1000000 2003 -6143 -1200 0
1000000 116 -7521 -4359 0
1000000 2004 -7521 -4359 0
1000000 474 -7115 -4810 -7252 0
1000000 2005 -7115 -4810 -7252 0
1000000 1001 -4109 -6927 -4744 -6713 -5752 -4819 0
1000000 2006 -4109 -6927 -4744 -6713 -5752 -4819 0
1000000 610 -6317 -4237 -1000 0
1000000 2007 -6317 -4237 -1000 0
1000000 638 -6770 -5970 -7057 0
1000000 2008 -6770 -5970 -7057 0
1000000 904 -5105 -5340 0
1000000 2009 -5105 -5340 0
1000000 769 -4409 -5526 0
1000000 2010 -4409 -5526 0
1000000 264 -5149 -5381 -7070 -7435 -4128 0
1000000 2011 -5149 -5381 -7070 -7435 -4128 0
1000000 1064 -7608 -5898 -4986 0
1000000 2012 -7608 -5898 -4986 0
1000000 430 -7342 -6076 -7585 -4818 -6018 -5301 0
1000000 2013 -7342 -6076 -7585 -4818 -6018 -5301 0
1000000 210 -6780 -4403 -6632 -6898 -5410 -5674 0
1000000 2014 -6780 -4403 -6632 -6898 -5410 -5674 0
1000000 1026 -4418 -5000 -6361 -5849 -1052 0
1000000 2015 -4418 -5000 -6361 -5849 -1052 0
1000000 1144 -6551 -6067 -7074 -7039 0
1000000 2016 -6551 -6067 -7074 -7039 0
1000000 1185 -7170 -1188 0
1000000 2017 -7170 -1188 0
1000000 757 -4400 -4897 0
1000000 2018 -4400 -4897 0
1000000 921 -6450 -5912 -5226 -6867 -6207 0
1000000 2019 -6450 -5912 -5226 -6867 -6207 0
1000000 34 -6409 -7128 -6125 0
1000000 2020 -6409 -7128 -6125 0
1000000 191 -6989 -6201 0
1000000 2021 -6989 -6201 0
1000000 771 -4383 -5811 -7104 0
1000000 2022 -4383 -5811 -7104 0
1000000 802 -6787 -4449 -5814 -6816 -5918 0
1000000 2023 -6787 -4449 -5814 -6816 -5918 0
1000000 244 -4508 -5088 -5063 0
1000000 2024 -4508 -5088 -5063 0
1000000 64 -5964 -6009 0
1000000 2025 -5964 -6009 0
1000000 194 -5112 -6900 -5695 -6662 0
1000000 2026 -5112 -6900 -5695 -6662 0
1000000 528 -6628 -5642 -7316 0
1000000 2027 -6628 -5642 -7316 0
1000000 3 -7042 -7623 -7066 0
1000000 2028 -7042 -7623 -7066 0
1000000 645 -7132 -5998 -4944 -7145 -7539 -960 0
1000000 2029 -7132 -5998 -4944 -7145 -7539 -960 0
1000000 1113 -7594 -6019 -7559 -5072 -4640 0
1000000 2030 -7594 -6019 -7559 -5072 -4640 0
1000000 957 -5098 -6562 -6780 -4528 -4827 -7279 0
1000000 2031 -5098 -6562 -6780 -4528 -4827 -7279 0
1000000 46 -4327 -4728 -6037 -4482 0
1000000 2032 -4327 -4728 -6037 -4482 0
1000000 308 -6810 -1144 0
1000000 2033 -6810 -1144 0
1000000 992 -5359 -7661 0
1000000 2034 -5359 -7661 0
1000000 939 -7196 -6912 -7033 -5025 0
1000000 2035 -7196 -6912 -7033 -5025 0
1000000 656 -5174 -6688 -6761 -5319 0
1000000 2036 -5174 -6688 -6761 -5319 0
1000000 731 -5966 -5905 0
1000000 2037 -5966 -5905 0
1000000 1166 -7274 -5611 -7396 -1172 0
1000000 2038 -7274 -5611 -7396 -1172 0
1000000 269 -5076 -7532 -6197 -5319 -5295 -867 0
1000000 2039 -5076 -7532 -6197 -5319 -5295 -867 0
1000000 793 -5150 -811 0
1000000 2040 -5150 -811 0
1000000 700 -6680 -4178 0
1000000 2041 -6680 -4178 0
1000000 417 -4756 -4685 -4833 -7654 0
1000000 2042 -4756 -4685 -4833 -7654 0
1000000 897 -7501 -5909 -5626 0
1000000 2043 -7501 -5909 -5626 0
1000000 940 -4294 -6049 -1077 0
1000000 2044 -4294 -6049 -1077 0
1000000 779 -5056 -6529 -6667 -7105 0
1000000 2045 -5056 -6529 -6667 -7105 0
1000000 829 -7192 -932 0
1000000 2046 -7192 -932 0
1000000 309 -4333 -6400 -5890 -6094 -7044 0
1000000 2047 -4333 -6400 -5890 -6094 -7044 0
1000000 168 -4422 -208 0
1000000 2048 -4422 -208 0
1000000 649 -5655 -7533 -4083 -690 0
1000000 2049 -5655 -7533 -4083 -690 0
1000000 1074 -5553 -6747 -5194 -6385 -6531 0
1000000 2050 -5553 -6747 -5194 -6385 -6531 0
1000000 6 -4259 -4864 0
1000000 2051 -4259 -4864 0
1000000 305 -4239 -5348 0
1000000 2052 -4239 -5348 0
1000000 244 -4145 -7659 -7154 -4310 -6325 0
1000000 2053 -4145 -7659 -7154 -4310 -6325 0
1000000 751 -7283 -7077 -7144 0
1000000 2054 -7283 -7077 -7144 0
1000000 364 -5802 -7408 -7233 -7524 0
1000000 2055 -5802 -7408 -7233 -7524 0
1000000 368 -6808 -4962 -6454 0
1000000 2056 -6808 -4962 -6454 0
1000000 405 -4569 -7511 0
1000000 2057 -4569 -7511 0
1000000 1090 -5468 -6093 -4687 0
1000000 2058 -5468 -6093 -4687 0
1000000 463 -6025 -6863 -4566 -6761 0
1000000 2059 -6025 -6863 -4566 -6761 0
1000000 725 -7578 -5326 -7026 0
1000000 2060 -7578 -5326 -7026 0
1000000 1176 -6830 -4891 -4380 0
1000000 2061 -6830 -4891 -4380 0
1000000 523 -5434 -6582 -6539 -4101 -5844 0
1000000 2062 -5434 -6582 -6539 -4101 -5844 0
1000000 691 -5645 -5591 -4259 -5165 -7027 -835 0
1000000 2063 -5645 -5591 -4259 -5165 -7027 -835 0
1000000 33 -4979 -7563 -6382 -4581 -7600 0
1000000 2064 -4979 -7563 -6382 -4581 -7600 0
1000000 700 -5712 -4711 -5444 -5052 0
1000000 2065 -5712 -4711 -5444 -5052 0
1000000 205 -6985 -5795 -4198 -6001 0
1000000 2066 -6985 -5795 -4198 -6001 0
1000000 694 -7450 -4840 -5807 -4852 -6286 -1053 0
1000000 2067 -7450 -4840 -5807 -4852 -6286 -1053 0
1000000 236 -4253 -7163 -5990 -7369 -6748 0
1000000 2068 -4253 -7163 -5990 -7369 -6748 0
1000000 766 -4575 -1113 0
1000000 2069 -4575 -1113 0
1000000 415 -4276 -5925 -6652 0
1000000 2070 -4276 -5925 -6652 0
1000000 1195 -5283 -7201 -7217 -1200 0
1000000 2071 -5283 -7201 -7217 -1200 0
1000000 716 -6142 -4909 -4475 0
1000000 2072 -6142 -4909 -4475 0
1000000 365 -4605 -7655 -7326 -7492 -7024 0
1000000 2073 -4605 -7655 -7326 -7492 -7024 0
1000000 738 -5865 -5573 -4894 0
1000000 2074 -5865 -5573 -4894 0
1000000 1023 -7591 -7447 -6511 -6319 0
1000000 2075 -7591 -7447 -6511 -6319 0
1000000 887 -5298 -6176 -5906 0
1000000 2076 -5298 -6176 -5906 0
1000000 1118 -5150 -1187 0
1000000 2077 -5150 -1187 0
1000000 348 -7097 -7075 -5763 -4404 -6334 -480 0
1000000 2078 -7097 -7075 -5763 -4404 -6334 -480 0
1000000 158 -5576 -6227 -4192 0
1000000 2079 -5576 -6227 -4192 0
1000000 425 -6436 -5285 -7391 -5240 -586 0
1000000 2080 -6436 -5285 -7391 -5240 -586 0
1000000 982 -4584 -5138 -6363 -4966 -1011 0
1000000 2081 -4584 -5138 -6363 -4966 -1011 0
1000000 943 -4451 -7318 -1077 0
1000000 2082 -4451 -7318 -1077 0
1000000 642 -4390 -6510 -6763 -4215 -884 0
1000000 2083 -4390 -6510 -6763 -4215 -884 0
1000000 758 -5832 -4252 -5190 -6873 -4349 0
1000000 2084 -5832 -4252 -5190 -6873 -4349 0
1000000 672 -5117 -6296 -4919 -4159 0
1000000 2085 -5117 -6296 -4919 -4159 0
1000000 810 -6622 -5234 -5224 -6645 0
1000000 2086 -6622 -5234 -5224 -6645 0
1000000 727 -5754 -5268 -6415 -903 0
1000000 2087 -5754 -5268 -6415 -903 0
1000000 216 -6615 -7412 -4435 -5809 -7151 -5151 0
1000000 2088 -6615 -7412 -4435 -5809 -7151 -5151 0
1000000 445 -6035 -4561 -5313 0
1000000 2089 -6035 -4561 -5313 0
1000000 636 -5888 -6630 -4699 -6420 -1048 0
1000000 2090 -5888 -6630 -4699 -6420 -1048 0
1000000 319 -4800 -4264 -5614 -7021 0
1000000 2091 -4800 -4264 -5614 -7021 0
1000000 364 -4401 -5370 -7365 -6014 -5026 -6757 0
1000000 2092 -4401 -5370 -7365 -6014 -5026 -6757 0
1000000 1011 -6784 -1043 0
1000000 2093 -6784 -1043 0
1000000 1155 -7341 -6438 -7481 -6239 -5019 -1190 0
1000000 2094 -7341 -6438 -7481 -6239 -5019 -1190 0
1000000 433 -7464 -6370 -4244 -5881 -4459 0
1000000 2095 -7464 -6370 -4244 -5881 -4459 0
1000000 391 -6471 -4836 -6066 -4576 -1104 0
1000000 2096 -6471 -4836 -6066 -4576 -1104 0
1000000 248 -5588 -1133 0
1000000 2097 -5588 -1133 0
1000000 637 -5681 -5180 -692 0
1000000 2098 -5681 -5180 -692 0
1000000 1178 -4283 -6352 -4260 0
1000000 2099 -4283 -6352 -4260 0
1000000 310 -7242 -647 0
1000000 2100 -7242 -647 0
1000000 882 -4586 -6482 -6537 -5523 0
1000000 2101 -4586 -6482 -6537 -5523 0
1000000 150 -5215 -5362 -6729 -5350 -6887 -5028 0
1000000 2102 -5215 -5362 -6729 -5350 -6887 -5028 0
1000000 779 -6162 -6048 -7390 -7462 -7511 -1088 0
1000000 2103 -6162 -6048 -7390 -7462 -7511 -1088 0
1000000 112 -6684 -7375 -7643 -6108 0
1000000 2104 -6684 -7375 -7643 -6108 0
1000000 562 -4186 -4913 0
1000000 2105 -4186 -4913 0
1000000 557 -4952 -4557 0
1000000 2106 -4952 -4557 0
1000000 234 -6955 -6590 -5788 -7213 -5262 -4882 0
1000000 2107 -6955 -6590 -5788 -7213 -5262 -4882 0
1000000 477 -6950 -5570 -7057 0
1000000 2108 -6950 -5570 -7057 0
1000000 902 -7215 -7044 -4441 0
1000000 2109 -7215 -7044 -4441 0
1000000 1106 -6995 -6221 -4889 -7542 -6869 -1158 0
1000000 2110 -6995 -6221 -4889 -7542 -6869 -1158 0
1000000 275 -6308 -5295 0
1000000 2111 -6308 -5295 0
1000000 955 -6638 -5428 -5365 -6468 -5618 -4198 0
1000000 2112 -6638 -5428 -5365 -6468 -5618 -4198 0
1000000 580 -4169 -4348 -5440 -6314 -5916 -1044 0
1000000 2113 -4169 -4348 -5440 -6314 -5916 -1044 0
1000000 939 -6881 -4213 0
1000000 2114 -6881 -4213 0
1000000 940 -6327 -6068 -7552 -6397 0
1000000 2115 -6327 -6068 -7552 -6397 0
1000000 199 -5209 -6011 -4413 -5730 -6746 0
1000000 2116 -5209 -6011 -4413 -5730 -6746 0
1000000 400 -4959 -4349 -6904 -4085 -7261 -777 0
1000000 2117 -4959 -4349 -6904 -4085 -7261 -777 0
1000000 28 -5570 -4931 -5679 -6761 -4666 0
1000000 2118 -5570 -4931 -5679 -6761 -4666 0
1000000 69 -5092 -4737 -4716 -7186 0
1000000 2119 -5092 -4737 -4716 -7186 0
1000000 305 -5990 -5217 0
1000000 2120 -5990 -5217 0
1000000 20 -5249 -4830 -6867 0
1000000 2121 -5249 -4830 -6867 0
1000000 1191 -5548 -6592 0
1000000 2122 -5548 -6592 0
1000000 1183 -4846 -5523 -5341 -5544 -7401 0
1000000 2123 -4846 -5523 -5341 -5544 -7401 0
1000000 1069 -6337 -4619 0
1000000 2124 -6337 -4619 0
1000000 180 -4741 -4242 -6778 0
1000000 2125 -4741 -4242 -6778 0
1000000 714 -4803 -772 0
1000000 2126 -4803 -772 0
1000000 343 -7267 -6136 -5389 -5940 0
1000000 2127 -7267 -6136 -5389 -5940 0
1000000 258 -5540 -4226 -4603 -6357 0
1000000 2128 -5540 -4226 -4603 -6357 0
1000000 316 -4367 -5855 -4291 -5548 0
1000000 2129 -4367 -5855 -4291 -5548 0
1000000 592 -5741 -6205 -7249 -6146 -6605 0
1000000 2130 -5741 -6205 -7249 -6146 -6605 0
1000000 807 -7451 -5565 -5115 -4746 -974 0
1000000 2131 -7451 -5565 -5115 -4746 -974 0
1000000 494 -6586 -504 0
1000000 2132 -6586 -504 0
1000000 104 -4484 -5475 -6963 -7121 -885 0
1000000 2133 -4484 -5475 -6963 -7121 -885 0
1000000 656 -6224 -6452 0
1000000 2134 -6224 -6452 0
1000000 261 -6472 -4703 0
1000000 2135 -6472 -4703 0
1000000 211 -4904 -6941 -5565 -6461 -6979 -5645 0
1000000 2136 -4904 -6941 -5565 -6461 -6979 -5645 0
1000000 1029 -6620 -6785 -5787 -7449 -5171 -4822 0
1000000 2137 -6620 -6785 -5787 -7449 -5171 -4822 0
1000000 223 -7353 -6072 -6643 -7268 -4919 -919 0
1000000 2138 -7353 -6072 -6643 -7268 -4919 -919 0
1000000 1000 -7219 -4359 -5878 -7334 -6764 -7237 0
1000000 2139 -7219 -4359 -5878 -7334 -6764 -7237 0
1000000 828 -7205 -6170 -4743 -4091 -6940 -1106 0
1000000 2140 -7205 -6170 -4743 -4091 -6940 -1106 0
1000000 655 -4701 -5920 -5464 -7479 0
1000000 2141 -4701 -5920 -5464 -7479 0
1000000 880 -6220 -5663 -7122 -4459 -5897 -1027 0
1000000 2142 -6220 -5663 -7122 -4459 -5897 -1027 0
1000000 255 -6062 -7156 -7630 -5666 -5935 -7282 0
1000000 2143 -6062 -7156 -7630 -5666 -5935 -7282 0
1000000 697 -6809 -5764 -6564 0
1000000 2144 -6809 -5764 -6564 0
1000000 721 -4093 -5961 -6868 -5723 -979 0
1000000 2145 -4093 -5961 -6868 -5723 -979 0
1000000 1134 -4470 -6849 -1191 0
1000000 2146 -4470 -6849 -1191 0
1000000 14 -7614 -6222 -6509 -5841 0
1000000 2147 -7614 -6222 -6509 -5841 0
1000000 762 -5520 -5371 0
1000000 2148 -5520 -5371 0
1000000 345 -6079 -6464 -7647 0
1000000 2149 -6079 -6464 -7647 0
1000000 894 -4552 -6935 -5359 0
1000000 2150 -4552 -6935 -5359 0
1000000 852 -6864 -7263 0
1000000 2151 -6864 -7263 0
1000000 621 -6412 -5942 -5420 -5527 -6221 -4728 0
1000000 2152 -6412 -5942 -5420 -5527 -6221 -4728 0
1000000 408 -4406 -6564 -548 0
1000000 2153 -4406 -6564 -548 0
1000000 183 -6298 -5846 -6935 -6468 -953 0
1000000 2154 -6298 -5846 -6935 -6468 -953 0
1000000 16 -5478 -5338 0
1000000 2155 -5478 -5338 0
1000000 802 -7440 -5883 -6430 -5163 -5836 0
1000000 2156 -7440 -5883 -6430 -5163 -5836 0
1000000 680 -7410 -4595 0
1000000 2157 -7410 -4595 0
1000000 737 -4088 -7308 -7586 -831 0
1000000 2158 -4088 -7308 -7586 -831 0
1000000 154 -5360 -6631 -6790 -5615 -7369 -7562 0
1000000 2159 -5360 -6631 -6790 -5615 -7369 -7562 0
1000000 1128 -6357 -5067 -5076 -6706 -6622 -6800 0
1000000 2160 -6357 -5067 -5076 -6706 -6622 -6800 0
1000000 957 -4362 -6889 -4111 -6466 -4161 -995 0
1000000 2161 -4362 -6889 -4111 -6466 -4161 -995 0
1000000 1082 -5311 -7326 0
1000000 2162 -5311 -7326 0
1000000 669 -5631 -6828 -5298 -7603 -7059 0
1000000 2163 -5631 -6828 -5298 -7603 -7059 0
1000000 1032 -7651 -5195 -5126 -5278 -4136 -1070 0
1000000 2164 -7651 -5195 -5126 -5278 -4136 -1070 0
1000000 57 -4227 -6851 -258 0
1000000 2165 -4227 -6851 -258 0
1000000 563 -7282 -7325 -5411 0
1000000 2166 -7282 -7325 -5411 0
1000000 482 -5576 -5689 -7501 -5640 -6351 -4399 0
1000000 2167 -5576 -5689 -7501 -5640 -6351 -4399 0
1000000 237 -4509 -6804 -5512 -619 0
1000000 2168 -4509 -6804 -5512 -619 0
1000000 1102 -5361 -5797 -6986 -4320 -5374 0
1000000 2169 -5361 -5797 -6986 -4320 -5374 0
1000000 531 -4326 -4149 -5397 -6256 -7157 0
1000000 2170 -4326 -4149 -5397 -6256 -7157 0
1000000 484 -7295 -7615 -5250 -614 0
1000000 2171 -7295 -7615 -5250 -614 0
1000000 56 -7294 -6493 -5470 -4735 -4527 0
1000000 2172 -7294 -6493 -5470 -4735 -4527 0
1000000 332 -7219 -5581 0
1000000 2173 -7219 -5581 0
1000000 127 -7066 -5654 -5731 -6856 -5450 -716 0
1000000 2174 -7066 -5654 -5731 -6856 -5450 -716 0
1000000 77 -4120 -4841 -6865 -6380 -6769 -256 0
1000000 2175 -4120 -4841 -6865 -6380 -6769 -256 0
1000000 990 -4362 -5818 -7187 0
1000000 2176 -4362 -5818 -7187 0
1000000 1005 -7284 -6772 -6360 -5514 0
1000000 2177 -7284 -6772 -6360 -5514 0
1000000 183 -5159 -6299 -4973 -4467 0
1000000 2178 -5159 -6299 -4973 -4467 0
1000000 483 -5931 -6062 -6217 -6374 -6833 0
1000000 2179 -5931 -6062 -6217 -6374 -6833 0
1000000 127 -5487 -5428 -924 0
1000000 2180 -5487 -5428 -924 0
1000000 483 -5228 -6655 -1171 0
1000000 2181 -5228 -6655 -1171 0
1000000 747 -5288 -7437 -4399 -6704 -5849 -6713 0
1000000 2182 -5288 -7437 -4399 -6704 -5849 -6713 0
1000000 440 -5516 -5594 0
1000000 2183 -5516 -5594 0
1000000 659 -6609 -6637 -6622 -7525 -5270 0
1000000 2184 -6609 -6637 -6622 -7525 -5270 0
1000000 413 -6245 -770 0
1000000 2185 -6245 -770 0
1000000 763 -6622 -6176 -5343 -6495 -4689 -4350 0
1000000 2186 -6622 -6176 -5343 -6495 -4689 -4350 0
1000000 995 -5756 -5223 -6264 -4599 0
1000000 2187 -5756 -5223 -6264 -4599 0
1000000 14 -5257 -94 0
1000000 2188 -5257 -94 0
1000000 364 -5883 -6041 -7219 0
1000000 2189 -5883 -6041 -7219 0
1000000 942 -5947 -1180 0
1000000 2190 -5947 -1180 0
1000000 581 -4162 -4768 -7270 0
1000000 2191 -4162 -4768 -7270 0
1000000 245 -6228 -6496 -6615 -4318 0
1000000 2192 -6228 -6496 -6615 -4318 0
1000000 142 -4724 -7417 0
1000000 2193 -4724 -7417 0
1000000 948 -4958 -4665 0
1000000 2194 -4958 -4665 0
1000000 24 -4692 -7052 -4972 -4619 -5895 -992 0
1000000 2195 -4692 -7052 -4972 -4619 -5895 -992 0
1000000 469 -6450 -6338 -675 0
1000000 2196 -6450 -6338 -675 0
1000000 185 -5992 -6833 0
1000000 2197 -5992 -6833 0
1000000 231 -5244 -7280 -6393 -6670 -5815 0
1000000 2198 -5244 -7280 -6393 -6670 -5815 0
1000000 999 -7204 -1123 0
1000000 2199 -7204 -1123 0
1000000 396 -6874 -5373 -4963 -5644 -5847 -7062 0
1000000 2200 -6874 -5373 -4963 -5644 -5847 -7062 0
1000000 1179 -7580 -5298 -5823 -5166 -6592 -6679 0
1000000 2201 -7580 -5298 -5823 -5166 -6592 -6679 0
1000000 1000 -4239 -4224 0
1000000 2202 -4239 -4224 0
1000000 1029 -6311 -5034 -1044 0
1000000 2203 -6311 -5034 -1044 0
1000000 954 -6309 -6530 -5453 -995 0
1000000 2204 -6309 -6530 -5453 -995 0
1000000 1179 -6685 -5263 -7448 -5136 -5884 -5066 0
1000000 2205 -6685 -5263 -7448 -5136 -5884 -5066 0
1000000 731 -5780 -792 0
1000000 2206 -5780 -792 0
1000000 770 -5054 -5643 0
1000000 2207 -5054 -5643 0
1000000 485 -4263 -5959 0
1000000 2208 -4263 -5959 0
1000000 1197 -5271 -7671 0
1000000 2209 -5271 -7671 0
1000000 42 -6973 -4148 -7578 -665 0
1000000 2210 -6973 -4148 -7578 -665 0
1000000 236 -7220 -5122 -4087 0
1000000 2211 -7220 -5122 -4087 0
1000000 1053 -7138 -4506 -5383 -7587 -5327 -5058 0
1000000 2212 -7138 -4506 -5383 -7587 -5327 -5058 0
1000000 707 -6826 -4631 0
1000000 2213 -6826 -4631 0
1000000 687 -6546 -6983 -4714 -4552 -5304 -1072 0
1000000 2214 -6546 -6983 -4714 -4552 -5304 -1072 0
1000000 846 -5442 -5865 -7451 -4712 -5947 0
1000000 2215 -5442 -5865 -7451 -4712 -5947 0
1000000 620 -7655 -7617 -6594 -7651 -800 0
1000000 2216 -7655 -7617 -6594 -7651 -800 0
1000000 1006 -5187 -4846 -5645 0
1000000 2217 -5187 -4846 -5645 0
1000000 939 -6768 -5136 -6329 -965 0
1000000 2218 -6768 -5136 -6329 -965 0
1000000 134 -5322 -5247 -4584 -6152 -6064 -7656 0
1000000 2219 -5322 -5247 -4584 -6152 -6064 -7656 0
1000000 272 -6575 -5140 -4489 -7186 -5436 0
1000000 2220 -6575 -5140 -4489 -7186 -5436 0
1000000 72 -5218 -4200 -5791 -5785 -7467 -4866 0
1000000 2221 -5218 -4200 -5791 -5785 -7467 -4866 0
1000000 662 -5560 -5394 -7412 -4083 -4883 -7517 0
1000000 2222 -5560 -5394 -7412 -4083 -4883 -7517 0
1000000 335 -6789 -5230 -5725 -5626 0
1000000 2223 -6789 -5230 -5725 -5626 0
1000000 511 -7641 -5724 -6922 -6914 -5936 0
1000000 2224 -7641 -5724 -6922 -6914 -5936 0
1000000 613 -5593 -6750 -6766 -6870 -5237 0
1000000 2225 -5593 -6750 -6766 -6870 -5237 0
1000000 667 -6056 -6629 -7292 -6863 0
1000000 2226 -6056 -6629 -7292 -6863 0
1000000 1186 -5157 -6001 -6083 -6145 -5625 -1192 0
1000000 2227 -5157 -6001 -6083 -6145 -5625 -1192 0
1000000 424 -4442 -4803 -7393 -6185 0
1000000 2228 -4442 -4803 -7393 -6185 0
1000000 1155 -5568 -5113 -4563 0
1000000 2229 -5568 -5113 -4563 0
1000000 706 -5073 -4418 0
1000000 2230 -5073 -4418 0
1000000 430 -7023 -4364 -6050 -6761 0
1000000 2231 -7023 -4364 -6050 -6761 0
1000000 291 -6364 -4204 -5821 0
1000000 2232 -6364 -4204 -5821 0
1000000 193 -4154 -7529 -5249 -5690 0
1000000 2233 -4154 -7529 -5249 -5690 0
1000000 701 -7124 -5066 -4366 -6003 -5354 -4269 0
1000000 2234 -7124 -5066 -4366 -6003 -5354 -4269 0
1000000 705 -7054 -4722 0
1000000 2235 -7054 -4722 0
1000000 1100 -6758 -1188 0
1000000 2236 -6758 -1188 0
1000000 1027 -6794 -5347 0
1000000 2237 -6794 -5347 0
1000000 476 -6531 -5808 -5687 -5012 -4606 0
1000000 2238 -6531 -5808 -5687 -5012 -4606 0
1000000 1197 -4607 -5266 -5175 -4165 -5591 -5962 0
1000000 2239 -4607 -5266 -5175 -4165 -5591 -5962 0
1000000 687 -5892 -7097 -6166 -7633 0
1000000 2240 -5892 -7097 -6166 -7633 0
1000000 1025 -4313 -4926 0
1000000 2241 -4313 -4926 0
1000000 1138 -5204 -4767 -7121 -1199 0
1000000 2242 -5204 -4767 -7121 -1199 0
1000000 501 -5239 -7181 -7180 0
1000000 2243 -5239 -7181 -7180 0
1000000 617 -6775 -4599 -7382 -5742 0
1000000 2244 -6775 -4599 -7382 -5742 0
1000000 192 -5842 -7063 -6207 -7616 0
1000000 2245 -5842 -7063 -6207 -7616 0
1000000 773 -5007 -6044 -7578 -6340 -6199 0
1000000 2246 -5007 -6044 -7578 -6340 -6199 0
1000000 39 -7031 -4839 -6221 0
1000000 2247 -7031 -4839 -6221 0
1000000 496 -6040 -4168 -5511 -7264 -7087 -6248 0
1000000 2248 -6040 -4168 -5511 -7264 -7087 -6248 0
1000000 832 -4100 -5169 0
1000000 2249 -4100 -5169 0
1000000 341 -4295 -7625 -7475 -4954 -4355 -4973 0
1000000 2250 -4295 -7625 -7475 -4954 -4355 -4973 0
1000000 872 -5407 -5559 -4874 0
1000000 2251 -5407 -5559 -4874 0
1000000 933 -7079 -6086 -4907 -6704 0
1000000 2252 -7079 -6086 -4907 -6704 0
1000000 545 -4321 -6924 -6061 -4811 -6568 -7058 0
1000000 2253 -4321 -6924 -6061 -4811 -6568 -7058 0
1000000 20 -6891 -4549 -4411 0
1000000 2254 -6891 -4549 -4411 0
1000000 866 -7618 -5208 -6551 -6823 -7074 0
1000000 2255 -7618 -5208 -6551 -6823 -7074 0
1000000 366 -4880 -4160 -4169 -5417 0
1000000 2256 -4880 -4160 -4169 -5417 0
1000000 1081 -4304 -5240 0
1000000 2257 -4304 -5240 0
1000000 861 -4173 -7264 -6828 -7345 -6597 0
1000000 2258 -4173 -7264 -6828 -7345 -6597 0
1000000 748 -7160 -5396 -4638 -795 0
1000000 2259 -7160 -5396 -4638 -795 0
1000000 978 -6155 -5628 -6852 -4646 0
1000000 2260 -6155 -5628 -6852 -4646 0
1000000 521 -5152 -4546 -577 0
1000000 2261 -5152 -4546 -577 0
1000000 1113 -7002 -5585 -1169 0
1000000 2262 -7002 -5585 -1169 0
1000000 153 -5700 -4860 -5996 -6381 -4604 -6767 0
1000000 2263 -5700 -4860 -5996 -6381 -4604 -6767 0
1000000 283 -7159 -4496 -7374 -6901 -4987 0
1000000 2264 -7159 -4496 -7374 -6901 -4987 0
1000000 448 -4938 -670 0
1000000 2265 -4938 -670 0
1000000 886 -6070 -5785 -7156 -4924 -5742 -6331 0
1000000 2266 -6070 -5785 -7156 -4924 -5742 -6331 0
1000000 379 -4706 -4936 -6490 -5399 0
1000000 2267 -4706 -4936 -6490 -5399 0
1000000 215 -6214 -6224 -6744 -6708 -6281 -368 0
1000000 2268 -6214 -6224 -6744 -6708 -6281 -368 0
1000000 459 -6529 -4307 -6882 0
1000000 2269 -6529 -4307 -6882 0
1000000 327 -5348 -726 0
1000000 2270 -5348 -726 0
1000000 1172 -7222 -6777 0
1000000 2271 -7222 -6777 0
1000000 325 -7327 -4324 -4252 -4657 -7449 -5984 0
1000000 2272 -7327 -4324 -4252 -4657 -7449 -5984 0
1000000 448 -6280 -5796 0
1000000 2273 -6280 -5796 0
1000000 679 -5031 -1071 0
1000000 2274 -5031 -1071 0
1000000 178 -6735 -6183 -6248 -5191 -579 0
1000000 2275 -6735 -6183 -6248 -5191 -579 0
1000000 895 -6451 -7294 -1187 0
1000000 2276 -6451 -7294 -1187 0
1000000 272 -7596 -5875 -7049 -7015 0
1000000 2277 -7596 -5875 -7049 -7015 0
1000000 354 -4555 -6015 -6569 -4801 -7174 -7086 0
1000000 2278 -4555 -6015 -6569 -4801 -7174 -7086 0
1000000 644 -7496 -5299 -681 0
1000000 2279 -7496 -5299 -681 0
1000000 779 -6290 -4432 -6218 -5671 -4909 0
1000000 2280 -6290 -4432 -6218 -5671 -4909 0
1000000 1091 -5887 -5351 0
1000000 2281 -5887 -5351 0
1000000 223 -6645 -6503 -5005 -7593 -4853 0
1000000 2282 -6645 -6503 -5005 -7593 -4853 0
1000000 273 -7266 -5023 -4663 -6250 -5757 0
1000000 2283 -7266 -5023 -4663 -6250 -5757 0
1000000 709 -6933 -4945 -4768 -7392 -1179 0
1000000 2284 -6933 -4945 -4768 -7392 -1179 0
1000000 916 -7261 -6310 -5250 -4503 -4499 -4940 0
1000000 2285 -7261 -6310 -5250 -4503 -4499 -4940 0
1000000 412 -6606 -5247 -6010 -5422 -6337 -7374 0
1000000 2286 -6606 -5247 -6010 -5422 -6337 -7374 0
1000000 326 -5851 -5319 -4171 -5280 -920 0
1000000 2287 -5851 -5319 -4171 -5280 -920 0
1000000 691 -5654 -6228 -4668 0
1000000 2288 -5654 -6228 -4668 0
1000000 362 -5258 -5370 -7351 -5607 -6617 -4332 0
1000000 2289 -5258 -5370 -7351 -5607 -6617 -4332 0
1000000 684 -7668 -4424 -4995 -6006 -1063 0
1000000 2290 -7668 -4424 -4995 -6006 -1063 0
1000000 161 -4596 -690 0
1000000 2291 -4596 -690 0
1000000 839 -6669 -7465 0
1000000 2292 -6669 -7465 0
1000000 737 -6601 -4758 -4963 -4308 -5408 -4670 0
1000000 2293 -6601 -4758 -4963 -4308 -5408 -4670 0
1000000 106 -6664 -4486 -6665 -4723 0
1000000 2294 -6664 -4486 -6665 -4723 0
1000000 804 -4453 -4392 -4950 -5598 -4946 0
1000000 2295 -4453 -4392 -4950 -5598 -4946 0
1000000 285 -5686 -6467 -7577 0
1000000 2296 -5686 -6467 -7577 0
1000000 1085 -4778 -4374 -4659 -5376 -4695 0
1000000 2297 -4778 -4374 -4659 -5376 -4695 0
1000000 209 -4797 -4252 -5349 -7350 0
1000000 2298 -4797 -4252 -5349 -7350 0
1000000 752 -5561 -7102 0
1000000 2299 -5561 -7102 0
1000000 360 -4844 -5052 -873 0
1000000 2300 -4844 -5052 -873 0
1000000 645 -6695 -6828 -5172 -799 0
1000000 2301 -6695 -6828 -5172 -799 0
1000000 698 -4997 -4977 -5767 -7679 -7431 0
1000000 2302 -4997 -4977 -5767 -7679 -7431 0
1000000 279 -7133 -4527 -6055 -660 0
1000000 2303 -7133 -4527 -6055 -660 0
1000000 26 -6852 -5777 -6223 -5502 -4515 -5273 0
1000000 2304 -6852 -5777 -6223 -5502 -4515 -5273 0
1000000 719 -5795 -6520 -969 0
1000000 2305 -5795 -6520 -969 0
1000000 25 -5857 -6456 -5393 -4983 -7066 -975 0
1000000 2306 -5857 -6456 -5393 -4983 -7066 -975 0
1000000 261 -6389 -4899 -6602 -6074 -4209 0
1000000 2307 -6389 -4899 -6602 -6074 -4209 0
1000000 591 -4324 -4793 -5372 -7132 -921 0
1000000 2308 -4324 -4793 -5372 -7132 -921 0
1000000 568 -6632 -6408 -6070 -6107 -7112 0
1000000 2309 -6632 -6408 -6070 -6107 -7112 0
1000000 292 -5356 -4181 -6084 -7030 -7240 0
1000000 2310 -5356 -4181 -6084 -7030 -7240 0
1000000 450 -7072 -6921 -7116 -4212 -5996 0
1000000 2311 -7072 -6921 -7116 -4212 -5996 0
1000000 840 -4886 -7263 -6986 -5846 -4134 0
1000000 2312 -4886 -7263 -6986 -5846 -4134 0
1000000 905 -7200 -6225 -4440 -6330 -917 0
1000000 2313 -7200 -6225 -4440 -6330 -917 0
1000000 517 -7654 -5772 -7346 -6037 -6419 0
1000000 2314 -7654 -5772 -7346 -6037 -6419 0
1000000 627 -6265 -5763 -6206 0
1000000 2315 -6265 -5763 -6206 0
1000000 569 -5735 -6483 -7491 -5505 -6846 -4628 0
1000000 2316 -5735 -6483 -7491 -5505 -6846 -4628 0
1000000 814 -7074 -1071 0
1000000 2317 -7074 -1071 0
1000000 1129 -4761 -6813 0
1000000 2318 -4761 -6813 0
1000000 160 -6404 -4974 -4518 -5958 0
1000000 2319 -6404 -4974 -4518 -5958 0
1000000 513 -6088 -5497 -6917 -4742 0
1000000 2320 -6088 -5497 -6917 -4742 0
1000000 18 -5913 -6684 -6098 -6572 -6017 -7478 0
1000000 2321 -5913 -6684 -6098 -6572 -6017 -7478 0
1000000 606 -4897 -6271 0
1000000 2322 -4897 -6271 0
1000000 350 -7120 -5545 -4392 -4254 -6374 -4924 0
1000000 2323 -7120 -5545 -4392 -4254 -6374 -4924 0
1000000 733 -7007 -5160 -5908 0
1000000 2324 -7007 -5160 -5908 0
1000000 1160 -7281 -6366 -6187 -4858 0
1000000 2325 -7281 -6366 -6187 -4858 0
1000000 942 -6802 -6510 -7051 -4689 -1152 0
1000000 2326 -6802 -6510 -7051 -4689 -1152 0
1000000 1050 -6325 -6914 -5458 0
1000000 2327 -6325 -6914 -5458 0
1000000 88 -4864 -5528 -5452 -6260 0
1000000 2328 -4864 -5528 -5452 -6260 0
1000000 1172 -7006 -6111 -4669 -7381 -6874 -6569 0
1000000 2329 -7006 -6111 -4669 -7381 -6874 -6569 0
1000000 821 -5613 -7486 -5336 -4553 -4532 -850 0
1000000 2330 -5613 -7486 -5336 -4553 -4532 -850 0
1000000 113 -6773 -5929 0
1000000 2331 -6773 -5929 0
1000000 291 -5392 -7445 -7415 0
1000000 2332 -5392 -7445 -7415 0
1000000 1181 -5797 -6187 -1191 0
1000000 2333 -5797 -6187 -1191 0
1000000 211 -5369 -7602 -4557 0
1000000 2334 -5369 -7602 -4557 0
1000000 394 -6156 -5594 -862 0
1000000 2335 -6156 -5594 -862 0
1000000 176 -5393 -4780 0
1000000 2336 -5393 -4780 0
1000000 223 -4824 -5840 -4545 -7008 0
1000000 2337 -4824 -5840 -4545 -7008 0
1000000 140 -6327 -207 0
1000000 2338 -6327 -207 0
1000000 203 -5959 -6209 -5046 -5058 0
1000000 2339 -5959 -6209 -5046 -5058 0
1000000 606 -6975 -7232 0
1000000 2340 -6975 -7232 0
1000000 754 -6781 -6841 -5061 -6727 0
1000000 2341 -6781 -6841 -5061 -6727 0
1000000 396 -5597 -4348 -4214 0
1000000 2342 -5597 -4348 -4214 0
1000000 357 -5496 -7034 -5981 0
1000000 2343 -5496 -7034 -5981 0
1000000 60 -5614 -7396 -5854 -5225 -7541 -4289 0
1000000 2344 -5614 -7396 -5854 -5225 -7541 -4289 0
1000000 680 -7573 -6135 0
1000000 2345 -7573 -6135 0
1000000 228 -6503 -6509 -6118 -7125 -6067 0
1000000 2346 -6503 -6509 -6118 -7125 -6067 0
1000000 167 -5743 -4843 -5112 -5700 -7493 -6089 0
1000000 2347 -5743 -4843 -5112 -5700 -7493 -6089 0
1000000 145 -5048 -6118 -5274 0
1000000 2348 -5048 -6118 -5274 0
1000000 992 -5794 -7377 -6400 0
1000000 2349 -5794 -7377 -6400 0
1000000 452 -6958 -7613 -5251 -7600 -4253 0
1000000 2350 -6958 -7613 -5251 -7600 -4253 0
1000000 497 -6786 -6585 -6798 -6843 0
1000000 2351 -6786 -6585 -6798 -6843 0
1000000 174 -6005 -6541 -6385 -6944 0
1000000 2352 -6005 -6541 -6385 -6944 0
1000000 559 -7348 -7274 -1059 0
1000000 2353 -7348 -7274 -1059 0
1000000 626 -6289 -4527 -5270 -7031 -6949 0
1000000 2354 -6289 -4527 -5270 -7031 -6949 0
1000000 667 -5381 -6666 -5314 -4955 -5457 0
1000000 2355 -5381 -6666 -5314 -4955 -5457 0
1000000 589 -5668 -7666 -4834 0
1000000 2356 -5668 -7666 -4834 0
1000000 440 -4123 -7658 -5307 -739 0
1000000 2357 -4123 -7658 -5307 -739 0
1000000 123 -6804 -4804 -6368 0
1000000 2358 -6804 -4804 -6368 0
1000000 946 -4457 -6414 -4809 -6852 -6403 -4375 0
1000000 2359 -4457 -6414 -4809 -6852 -6403 -4375 0
1000000 450 -5750 -7382 -4083 -7420 -6069 -6938 0
1000000 2360 -5750 -7382 -4083 -7420 -6069 -6938 0
1000000 480 -5370 -6184 -5127 -5408 -7421 -885 0
1000000 2361 -5370 -6184 -5127 -5408 -7421 -885 0
1000000 144 -5482 -4136 -4305 -6210 -6825 0
1000000 2362 -5482 -4136 -4305 -6210 -6825 0
1000000 26 -6394 -7504 0
1000000 2363 -6394 -7504 0
1000000 240 -5721 -6435 0
1000000 2364 -5721 -6435 0
1000000 54 -6164 -5381 -5494 -6912 -6138 -887 0
1000000 2365 -6164 -5381 -5494 -6912 -6138 -887 0
1000000 287 -4332 -7042 -4527 -6964 0
1000000 2366 -4332 -7042 -4527 -6964 0
1000000 813 -4494 -7356 -4575 0
1000000 2367 -4494 -7356 -4575 0
1000000 801 -4281 -6878 -4912 -4298 -7414 0
1000000 2368 -4281 -6878 -4912 -4298 -7414 0
1000000 347 -4606 -4951 0
1000000 2369 -4606 -4951 0
1000000 647 -4591 -4959 -6485 -4402 -7285 -4986 0
1000000 2370 -4591 -4959 -6485 -4402 -7285 -4986 0
1000000 541 -4434 -4410 0
1000000 2371 -4434 -4410 0
1000000 136 -5969 -4827 -5567 -6289 -7459 -5364 0
1000000 2372 -5969 -4827 -5567 -6289 -7459 -5364 0
1000000 148 -5408 -5365 0
1000000 2373 -5408 -5365 0
1000000 721 -4838 -4461 -6262 -5486 0
1000000 2374 -4838 -4461 -6262 -5486 0
1000000 33 -4273 -5623 -7223 0
1000000 2375 -4273 -5623 -7223 0
1000000 587 -6559 -5363 -5453 -6215 -4923 -6564 0
1000000 2376 -6559 -5363 -5453 -6215 -4923 -6564 0
1000000 900 -4487 -5951 -4816 -7665 -7358 -4887 0
1000000 2377 -4487 -5951 -4816 -7665 -7358 -4887 0
1000000 1160 -4998 -5472 -5109 -5284 -6334 -1198 0
1000000 2378 -4998 -5472 -5109 -5284 -6334 -1198 0
1000000 734 -5887 -6733 -4419 -4312 -6134 -6800 0
1000000 2379 -5887 -6733 -4419 -4312 -6134 -6800 0
1000000 296 -6875 -6121 0
1000000 2380 -6875 -6121 0
1000000 104 -6003 -7345 -7155 -4994 -7382 -4734 0
1000000 2381 -6003 -7345 -7155 -4994 -7382 -4734 0
1000000 425 -6740 -6460 -6850 -6253 -559 0
1000000 2382 -6740 -6460 -6850 -6253 -559 0
1000000 508 -4090 -6313 -5665 -7373 0
1000000 2383 -4090 -6313 -5665 -7373 0
1000000 902 -7112 -5646 -4584 -5495 -6748 -7618 0
1000000 2384 -7112 -5646 -4584 -5495 -6748 -7618 0
1000000 380 -6140 -7314 -5863 -7489 -5105 -5647 0
1000000 2385 -6140 -7314 -5863 -7489 -5105 -5647 0
1000000 931 -4204 -980 0
1000000 2386 -4204 -980 0
1000000 843 -4302 -5532 -5173 -6133 -6783 -4218 0
1000000 2387 -4302 -5532 -5173 -6133 -6783 -4218 0
1000000 1072 -4525 -6439 -6133 0
1000000 2388 -4525 -6439 -6133 0
1000000 1194 -6515 -5776 -4692 -4810 0
1000000 2389 -6515 -5776 -4692 -4810 0
1000000 158 -5566 -4982 0
1000000 2390 -5566 -4982 0
1000000 732 -5513 -5586 -4612 0
1000000 2391 -5513 -5586 -4612 0
1000000 903 -6339 -6325 -4094 -1131 0
1000000 2392 -6339 -6325 -4094 -1131 0
1000000 889 -7586 -6013 -4752 -5487 0
1000000 2393 -7586 -6013 -4752 -5487 0
1000000 515 -6887 -5465 -6873 -7187 -6207 -1090 0
1000000 2394 -6887 -5465 -6873 -7187 -6207 -1090 0
1000000 160 -4589 -4751 -5260 -6375 -7524 -5195 0
1000000 2395 -4589 -4751 -5260 -6375 -7524 -5195 0
1000000 91 -4809 -5699 -4315 -7218 0
1000000 2396 -4809 -5699 -4315 -7218 0
1000000 120 -5336 -4229 -6939 -4474 0
1000000 2397 -5336 -4229 -6939 -4474 0
1000000 1015 -6291 -4520 0
1000000 2398 -6291 -4520 0
1000000 805 -6670 -6977 -4136 -6948 -6277 0
1000000 2399 -6670 -6977 -4136 -6948 -6277 0
1000000 1049 -5855 -5941 -5969 0
1000000 2400 -5855 -5941 -5969 0
1000000 1140 -7279 -5516 -6242 -1196 0
1000000 2401 -7279 -5516 -6242 -1196 0
1000000 668 -6505 -4322 0
1000000 2402 -6505 -4322 0
1000000 21 -5818 -6653 -7251 -6064 -6832 -4975 0
1000000 2403 -5818 -6653 -7251 -6064 -6832 -4975 0
1000000 619 -7514 -6825 -1136 0
1000000 2404 -7514 -6825 -1136 0
1000000 1095 -6079 -7432 -4273 -1168 0
1000000 2405 -6079 -7432 -4273 -1168 0
1000000 449 -6415 -6237 -5024 -4287 -5693 -4183 0
1000000 2406 -6415 -6237 -5024 -4287 -5693 -4183 0
1000000 196 -5735 -4840 -4862 -626 0
1000000 2407 -5735 -4840 -4862 -626 0
1000000 1122 -6945 -7325 -5864 -4178 0
1000000 2408 -6945 -7325 -5864 -4178 0
1000000 82 -6300 -6558 -7597 -7577 -7563 0
1000000 2409 -6300 -6558 -7597 -7577 -7563 0
1000000 489 -6491 -5283 -5041 -4398 -5995 0
1000000 2410 -6491 -5283 -5041 -4398 -5995 0
1000000 514 -6843 -7386 -5550 0
1000000 2411 -6843 -7386 -5550 0
1000000 296 -5413 -6994 -6469 0
1000000 2412 -5413 -6994 -6469 0
1000000 723 -7601 -6590 -6812 -5540 -5114 -6040 0
1000000 2413 -7601 -6590 -6812 -5540 -5114 -6040 0
1000000 546 -6488 -6468 -7620 0
1000000 2414 -6488 -6468 -7620 0
1000000 605 -6569 -6975 0
1000000 2415 -6569 -6975 0
1000000 644 -7338 -6120 0
1000000 2416 -7338 -6120 0
1000000 678 -6500 -4322 -5655 0
1000000 2417 -6500 -4322 -5655 0
1000000 844 -4315 -6655 0
1000000 2418 -4315 -6655 0
1000000 127 -6885 -6066 -6395 -5134 -5987 0
1000000 2419 -6885 -6066 -6395 -5134 -5987 0
1000000 40 -6572 -7450 0
1000000 2420 -6572 -7450 0
1000000 378 -4202 -5666 -6347 -4097 -1031 0
1000000 2421 -4202 -5666 -6347 -4097 -1031 0
1000000 920 -7088 -4627 -6675 -6432 -934 0
1000000 2422 -7088 -4627 -6675 -6432 -934 0
1000000 104 -4382 -5033 -6225 -5416 -4144 -4256 0
1000000 2423 -4382 -5033 -6225 -5416 -4144 -4256 0
1000000 605 -4969 -7368 -6749 -7259 -4618 0
1000000 2424 -4969 -7368 -6749 -7259 -4618 0
1000000 509 -5969 -5173 -887 0
1000000 2425 -5969 -5173 -887 0
1000000 54 -4855 -5913 0
1000000 2426 -4855 -5913 0
1000000 833 -7635 -6953 -4350 0
1000000 2427 -7635 -6953 -4350 0
1000000 1162 -7112 -4978 -6557 0
1000000 2428 -7112 -4978 -6557 0
1000000 531 -6622 -4778 -7431 -6765 0
1000000 2429 -6622 -4778 -7431 -6765 0
1000000 616 -4926 -5544 -4467 -4675 -5331 -4753 0
1000000 2430 -4926 -5544 -4467 -4675 -5331 -4753 0
1000000 101 -5155 -5796 -7020 -6272 0
1000000 2431 -5155 -5796 -7020 -6272 0
1000000 1052 -6750 -4455 -7546 -7522 -6439 0
1000000 2432 -6750 -4455 -7546 -7522 -6439 0
1000000 787 -5920 -6260 -4286 -820 0
1000000 2433 -5920 -6260 -4286 -820 0
1000000 481 -6233 -7251 0
1000000 2434 -6233 -7251 0
1000000 888 -5627 -5633 0
1000000 2435 -5627 -5633 0
1000000 688 -7650 -5932 -6532 0
1000000 2436 -7650 -5932 -6532 0
1000000 624 -6450 -4921 0
1000000 2437 -6450 -4921 0
1000000 1098 -6830 -5722 -7514 -6697 -7035 -5863 0
1000000 2438 -6830 -5722 -7514 -6697 -7035 -5863 0
1000000 327 -4475 -1162 0
1000000 2439 -4475 -1162 0
1000000 607 -5908 -6081 0
1000000 2440 -5908 -6081 0
1000000 540 -5707 -5340 -6960 -5740 -6702 0
1000000 2441 -5707 -5340 -6960 -5740 -6702 0
1000000 130 -6648 -4860 -5596 -4788 -711 0
1000000 2442 -6648 -4860 -5596 -4788 -711 0
1000000 730 -5454 -4372 -777 0
1000000 2443 -5454 -4372 -777 0
1000000 1000 -5344 -6274 -6368 -6400 0
1000000 2444 -5344 -6274 -6368 -6400 0
1000000 1101 -5276 -4390 -6478 -5613 -1199 0
1000000 2445 -5276 -4390 -6478 -5613 -1199 0
1000000 455 -4549 -4274 -6063 -4850 0
1000000 2446 -4549 -4274 -6063 -4850 0
1000000 458 -7580 -5662 -4920 -4507 0
1000000 2447 -7580 -5662 -4920 -4507 0
1000000 130 -7230 -6697 -6799 -5346 0
1000000 2448 -7230 -6697 -6799 -5346 0
1000000 17 -6476 -4834 -6057 -6314 -6289 0
1000000 2449 -6476 -4834 -6057 -6314 -6289 0
1000000 1158 -4139 -6408 -6050 -5984 -5422 -1172 0
1000000 2450 -4139 -6408 -6050 -5984 -5422 -1172 0
1000000 741 -6900 -1070 0
1000000 2451 -6900 -1070 0
1000000 904 -6171 -6362 -4572 -5941 -7240 0
1000000 2452 -6171 -6362 -4572 -5941 -7240 0
1000000 535 -5747 -6939 -7348 -998 0
1000000 2453 -5747 -6939 -7348 -998 0
1000000 375 -6115 -4612 -832 0
1000000 2454 -6115 -4612 -832 0
1000000 78 -4394 -5724 -4840 0
1000000 2455 -4394 -5724 -4840 0
1000000 1156 -4411 -4350 -4083 -4349 -5995 -5145 0
1000000 2456 -4411 -4350 -4083 -4349 -5995 -5145 0
1000000 863 -5465 -4867 -4954 -7586 -6752 0
1000000 2457 -5465 -4867 -4954 -7586 -6752 0
1000000 163 -6982 -4696 -5597 -7232 -1046 0
1000000 2458 -6982 -4696 -5597 -7232 -1046 0
1000000 1137 -6341 -4828 -6921 -6090 -6420 0
1000000 2459 -6341 -4828 -6921 -6090 -6420 0
1000000 6 -6198 -6406 0
1000000 2460 -6198 -6406 0
1000000 290 -4733 -4565 -6381 0
1000000 2461 -4733 -4565 -6381 0
1000000 826 -4409 -6877 -933 0
1000000 2462 -4409 -6877 -933 0
1000000 425 -5313 -6419 -5299 0
1000000 2463 -5313 -6419 -5299 0
1000000 95 -5493 -6912 -5699 -6763 -5589 0
1000000 2464 -5493 -6912 -5699 -6763 -5589 0
1000000 287 -7656 -804 0
1000000 2465 -7656 -804 0
1000000 210 -7152 -6437 0
1000000 2466 -7152 -6437 0
1000000 681 -5894 -6912 -4275 -6663 -7086 0
1000000 2467 -5894 -6912 -4275 -6663 -7086 0
1000000 307 -4810 -6886 -4524 -4822 -5269 -4333 0
1000000 2468 -4810 -6886 -4524 -4822 -5269 -4333 0
1000000 599 -7027 -5496 -5812 -6365 -4871 -6111 0
1000000 2469 -7027 -5496 -5812 -6365 -4871 -6111 0
1000000 912 -6174 -5182 -7229 -4587 -6766 -5652 0
1000000 2470 -6174 -5182 -7229 -4587 -6766 -5652 0
1000000 707 -7301 -4731 -941 0
1000000 2471 -7301 -4731 -941 0
1000000 1135 -5295 -5173 -6693 -7262 0
1000000 2472 -5295 -5173 -6693 -7262 0
1000000 316 -5645 -5193 -5314 0
1000000 2473 -5645 -5193 -5314 0
1000000 614 -7009 -4939 -4627 0
1000000 2474 -7009 -4939 -4627 0
1000000 3 -6702 -5180 -6675 0
1000000 2475 -6702 -5180 -6675 0
1000000 755 -5564 -4545 -5204 -5767 -5101 0
1000000 2476 -5564 -4545 -5204 -5767 -5101 0
1000000 1058 -7330 -5172 -5755 -5605 -6116 -4417 0
1000000 2477 -7330 -5172 -5755 -5605 -6116 -4417 0
1000000 718 -6306 -7486 -4927 0
1000000 2478 -6306 -7486 -4927 0
1000000 882 -5076 -7498 -6572 -5987 0
1000000 2479 -5076 -7498 -6572 -5987 0
1000000 404 -7037 -4307 -5474 -7474 -4786 -6261 0
1000000 2480 -7037 -4307 -5474 -7474 -4786 -6261 0
1000000 623 -7108 -7638 -5669 -7457 0
1000000 2481 -7108 -7638 -5669 -7457 0
1000000 842 -4518 -5900 -4729 -6077 0
1000000 2482 -4518 -5900 -4729 -6077 0
1000000 457 -6853 -5562 -4697 -5856 -963 0
1000000 2483 -6853 -5562 -4697 -5856 -963 0
1000000 584 -5365 -6710 0
1000000 2484 -5365 -6710 0
1000000 650 -6623 -6703 -6733 0
1000000 2485 -6623 -6703 -6733 0
1000000 552 -5410 -6847 -5652 -7494 -5713 -7100 0
1000000 2486 -5410 -6847 -5652 -7494 -5713 -7100 0
1000000 457 -7384 -7204 -7486 -4412 -7453 0
1000000 2487 -7384 -7204 -7486 -4412 -7453 0
1000000 130 -6266 -5530 -6540 -6425 -4192 -4689 0
1000000 2488 -6266 -5530 -6540 -6425 -4192 -4689 0
1000000 1172 -6715 -4454 -4644 -5802 -5177 0
1000000 2489 -6715 -4454 -4644 -5802 -5177 0
1000000 153 -5196 -5951 -6335 -5513 -4957 -835 0
1000000 2490 -5196 -5951 -6335 -5513 -4957 -835 0
1000000 1058 -6502 -7286 -4347 -4866 -5409 0
1000000 2491 -6502 -7286 -4347 -4866 -5409 0
1000000 925 -6976 -4172 -6307 -5765 -4473 -7170 0
1000000 2492 -6976 -4172 -6307 -5765 -4473 -7170 0
1000000 900 -4319 -4955 -4228 -4296 -5833 -5881 0
1000000 2493 -4319 -4955 -4228 -4296 -5833 -5881 0
1000000 414 -6647 -4499 -6086 -6383 0
1000000 2494 -6647 -4499 -6086 -6383 0
1000000 1127 -6726 -6812 -5223 -6044 0
1000000 2495 -6726 -6812 -5223 -6044 0
1000000 631 -5440 -4193 -5283 -7006 -4781 0
1000000 2496 -5440 -4193 -5283 -7006 -4781 0
1000000 680 -4348 -6837 -7679 0
1000000 2497 -4348 -6837 -7679 0
1000000 311 -6760 -7297 -4684 -5496 -4647 -879 0
1000000 2498 -6760 -7297 -4684 -5496 -4647 -879 0
1000000 476 -5668 -4479 -6767 -6461 0
1000000 2499 -5668 -4479 -6767 -6461 0
1000000 977 -4889 -5353 -5599 -6402 -4588 0
1000000 2500 -4889 -5353 -5599 -6402 -4588 0
1000000 535 -5771 -5769 0
1000000 2501 -5771 -5769 0
1000000 910 -7192 -5144 -7639 -7395 0
1000000 2502 -7192 -5144 -7639 -7395 0
1000000 529 -6772 -6112 -6390 -5771 0
1000000 2503 -6772 -6112 -6390 -5771 0
1000000 1056 -4204 -6660 -6751 -6608 -1150 0
1000000 2504 -4204 -6660 -6751 -6608 -1150 0
1000000 96 -7266 -5409 0
1000000 2505 -7266 -5409 0
1000000 824 -6964 -4138 0
1000000 2506 -6964 -4138 0
1000000 195 -4305 -5244 0
1000000 2507 -4305 -5244 0
1000000 937 -4412 -4834 0
1000000 2508 -4412 -4834 0
1000000 415 -6387 -4688 -5455 -4649 -5747 0
1000000 2509 -6387 -4688 -5455 -4649 -5747 0
1000000 92 -4332 -4495 -6928 -4572 -6822 -6654 0
1000000 2510 -4332 -4495 -6928 -4572 -6822 -6654 0
1000000 358 -5213 -5289 -7414 0
1000000 2511 -5213 -5289 -7414 0
1000000 881 -7509 -5603 -6958 -5681 -7343 -6763 0
1000000 2512 -7509 -5603 -6958 -5681 -7343 -6763 0
1000000 777 -7570 -5141 -7369 -7422 -6561 0
1000000 2513 -7570 -5141 -7369 -7422 -6561 0
1000000 833 -7445 -4426 0
1000000 2514 -7445 -4426 0
1000000 750 -7235 -5003 -4762 0
1000000 2515 -7235 -5003 -4762 0
1000000 970 -5908 -4751 -7222 -1090 0
1000000 2516 -5908 -4751 -7222 -1090 0
1000000 566 -4935 -6776 -5579 0
1000000 2517 -4935 -6776 -5579 0
1000000 707 -5506 -7534 -4694 -6512 -4233 0
1000000 2518 -5506 -7534 -4694 -6512 -4233 0
1000000 556 -6967 -4178 -6843 -6029 -6574 0
1000000 2519 -6967 -4178 -6843 -6029 -6574 0
1000000 207 -7101 -5344 -6703 -4315 -5700 -6143 0
1000000 2520 -7101 -5344 -6703 -4315 -5700 -6143 0
1000000 458 -5226 -5853 -4709 0
1000000 2521 -5226 -5853 -4709 0
1000000 945 -5472 -5851 -5076 -6340 -7486 -4111 0
1000000 2522 -5472 -5851 -5076 -6340 -7486 -4111 0
1000000 1003 -5558 -5474 -6100 0
1000000 2523 -5558 -5474 -6100 0
1000000 300 -4508 -5459 -415 0
1000000 2524 -4508 -5459 -415 0
1000000 55 -5040 -350 0
1000000 2525 -5040 -350 0
1000000 542 -4455 -4985 -6751 0
1000000 2526 -4455 -4985 -6751 0
1000000 367 -4528 -766 0
1000000 2527 -4528 -766 0
1000000 1022 -6672 -5164 -6900 -4413 -5171 0
1000000 2528 -6672 -5164 -6900 -4413 -5171 0
1000000 801 -4376 -4451 0
1000000 2529 -4376 -4451 0
1000000 1014 -4180 -5447 -4867 -7631 -4227 0
1000000 2530 -4180 -5447 -4867 -7631 -4227 0
1000000 491 -5276 -7026 -5469 -6247 -4741 -7132 0
1000000 2531 -5276 -7026 -5469 -6247 -4741 -7132 0
1000000 690 -7027 -4119 0
1000000 2532 -7027 -4119 0
1000000 524 -7515 -4368 -6017 -1004 0
1000000 2533 -7515 -4368 -6017 -1004 0
1000000 1095 -6472 -6696 -6837 -5365 -7360 -1153 0
1000000 2534 -6472 -6696 -6837 -5365 -7360 -1153 0
1000000 479 -5938 -5187 -5845 -4368 -7590 -1077 0
1000000 2535 -5938 -5187 -5845 -4368 -7590 -1077 0
1000000 851 -7617 -5518 -7640 -6530 -4295 0
1000000 2536 -7617 -5518 -7640 -6530 -4295 0
1000000 80 -7127 -5470 -5784 0
1000000 2537 -7127 -5470 -5784 0
1000000 456 -7426 -904 0
1000000 2538 -7426 -904 0
1000000 1122 -7633 -5046 -5453 0
1000000 2539 -7633 -5046 -5453 0
1000000 427 -6857 -4121 0
1000000 2540 -6857 -4121 0
1000000 991 -6573 -6860 -5471 0
1000000 2541 -6573 -6860 -5471 0
1000000 857 -5865 -7650 -5773 -882 0
1000000 2542 -5865 -7650 -5773 -882 0
1000000 1071 -7540 -6600 -6414 -6979 0
1000000 2543 -7540 -6600 -6414 -6979 0
1000000 471 -4121 -4815 -4275 -7002 -6318 -5754 0
1000000 2544 -4121 -4815 -4275 -7002 -6318 -5754 0
1000000 413 -4293 -4325 -6029 -6284 -7496 0
1000000 2545 -4293 -4325 -6029 -6284 -7496 0
1000000 722 -4193 -4545 -7175 -6167 -7457 -4637 0
1000000 2546 -4193 -4545 -7175 -6167 -7457 -4637 0
1000000 478 -6856 -4300 -6235 -6000 0
1000000 2547 -6856 -4300 -6235 -6000 0
1000000 299 -4897 -4588 0
1000000 2548 -4897 -4588 0
1000000 581 -5009 -858 0
1000000 2549 -5009 -858 0
1000000 606 -6609 -7032 -5872 0
1000000 2550 -6609 -7032 -5872 0
1000000 1183 -5721 -4089 0
1000000 2551 -5721 -4089 0
1000000 711 -5586 -7283 -6430 -4825 0
1000000 2552 -5586 -7283 -6430 -4825 0
1000000 765 -4945 -6252 -4702 -6872 -6115 -887 0
1000000 2553 -4945 -6252 -4702 -6872 -6115 -887 0
1000000 1104 -6084 -6100 -7225 -5330 -6935 -5100 0
1000000 2554 -6084 -6100 -7225 -5330 -6935 -5100 0
1000000 1010 -5404 -7135 -7519 -7159 -5463 -7124 0
1000000 2555 -5404 -7135 -7519 -7159 -5463 -7124 0
1000000 968 -7272 -4979 -4344 0
1000000 2556 -7272 -4979 -4344 0
1000000 1042 -5236 -5530 -6818 -5485 -4413 -4820 0
1000000 2557 -5236 -5530 -6818 -5485 -4413 -4820 0
1000000 404 -4174 -7322 -4138 -458 0
1000000 2558 -4174 -7322 -4138 -458 0
1000000 281 -7195 -7574 -5290 -4838 -395 0
1000000 2559 -7195 -7574 -5290 -4838 -395 0
1000000 169 -7456 -6592 -5489 -4975 -7046 -5541 0
1000000 2560 -7456 -6592 -5489 -4975 -7046 -5541 0
1000000 365 -6088 -6388 -6799 -4714 -6843 -657 0
1000000 2561 -6088 -6388 -6799 -4714 -6843 -657 0
1000000 1130 -5072 -1176 0
1000000 2562 -5072 -1176 0
1000000 142 -4253 -7352 0
1000000 2563 -4253 -7352 0
1000000 1120 -6003 -5406 -1194 0
1000000 2564 -6003 -5406 -1194 0
1000000 422 -5214 -6325 -4468 -6270 0
1000000 2565 -5214 -6325 -4468 -6270 0
1000000 626 -4640 -4972 0
1000000 2566 -4640 -4972 0
1000000 620 -4256 -6102 0
1000000 2567 -4256 -6102 0
1000000 649 -5903 -4181 -4132 -4542 -5041 -5899 0
1000000 2568 -5903 -4181 -4132 -4542 -5041 -5899 0
1000000 239 -6921 -4540 -7150 -6210 0
1000000 2569 -6921 -4540 -7150 -6210 0
1000000 1128 -6033 -5364 -1187 0
1000000 2570 -6033 -5364 -1187 0
1000000 156 -4254 -4198 -7578 -7022 -841 0
1000000 2571 -4254 -4198 -7578 -7022 -841 0
1000000 278 -6961 -6447 -5749 -7227 -4500 0
1000000 2572 -6961 -6447 -5749 -7227 -4500 0
1000000 1069 -6785 -4472 -7393 -4975 -5657 -5335 0
1000000 2573 -6785 -4472 -7393 -4975 -5657 -5335 0
1000000 342 -5487 -7269 -4556 0
1000000 2574 -5487 -7269 -4556 0
1000000 1013 -7294 -4500 -6859 -6703 -5155 0
1000000 2575 -7294 -4500 -6859 -6703 -5155 0
1000000 541 -6338 -7600 0
1000000 2576 -6338 -7600 0
1000000 488 -5459 -6630 -7511 -6998 -6580 -6287 0
1000000 2577 -5459 -6630 -7511 -6998 -6580 -6287 0
1000000 280 -6855 -5471 -6921 -4242 -7503 0
1000000 2578 -6855 -5471 -6921 -4242 -7503 0
1000000 755 -5724 -7340 -6918 -6494 -4588 0
1000000 2579 -5724 -7340 -6918 -6494 -4588 0
1000000 885 -5676 -7627 -6308 -7279 -7276 -4605 0
1000000 2580 -5676 -7627 -6308 -7279 -7276 -4605 0
1000000 632 -4957 -6682 -6850 -7234 -7678 -4217 0
1000000 2581 -4957 -6682 -6850 -7234 -7678 -4217 0
1000000 1044 -7046 -4518 -1167 0
1000000 2582 -7046 -4518 -1167 0
1000000 154 -6597 -6691 -4843 -5801 0
1000000 2583 -6597 -6691 -4843 -5801 0
1000000 493 -7234 -4565 -5886 0
1000000 2584 -7234 -4565 -5886 0
1000000 315 -7157 -5498 -5893 -7671 -4675 -6641 0
1000000 2585 -7157 -5498 -5893 -7671 -4675 -6641 0
1000000 67 -4442 -7572 0
1000000 2586 -4442 -7572 0
1000000 701 -7659 -6264 -7275 -4485 0
1000000 2587 -7659 -6264 -7275 -4485 0
1000000 169 -4442 -6173 0
1000000 2588 -4442 -6173 0
1000000 926 -6057 -5071 -4763 -7087 -6819 0
1000000 2589 -6057 -5071 -4763 -7087 -6819 0
1000000 612 -6921 -7184 -6791 -6294 -4915 0
1000000 2590 -6921 -7184 -6791 -6294 -4915 0
1000000 1038 -5374 -6407 -4268 -6028 -5657 -4259 0
1000000 2591 -5374 -6407 -4268 -6028 -5657 -4259 0
1000000 20 -5399 -4675 -5948 -178 0
1000000 2592 -5399 -4675 -5948 -178 0
1000000 62 -4236 -5517 -6700 -6175 -6824 0
1000000 2593 -4236 -5517 -6700 -6175 -6824 0
1000000 462 -5445 -6254 -1080 0
1000000 2594 -5445 -6254 -1080 0
1000000 1079 -5226 -4410 0
1000000 2595 -5226 -4410 0
1000000 659 -7260 -4885 -5549 -6312 0
1000000 2596 -7260 -4885 -5549 -6312 0
1000000 146 -4861 -5783 -4254 0
1000000 2597 -4861 -5783 -4254 0
1000000 1018 -5771 -4601 -4121 -1023 0
1000000 2598 -5771 -4601 -4121 -1023 0
1000000 1180 -5609 -4733 -6800 -4710 -4382 -6057 0
1000000 2599 -5609 -4733 -6800 -4710 -4382 -6057 0
1000000 1064 -7245 -6257 0
1000000 2600 -7245 -6257 0
1000000 435 -7003 -6384 0
1000000 2601 -7003 -6384 0
1000000 787 -6646 -7421 -5355 0
1000000 2602 -6646 -7421 -5355 0
1000000 812 -6514 -5608 -4299 -4423 -7601 -7148 0
1000000 2603 -6514 -5608 -4299 -4423 -7601 -7148 0
1000000 1169 -5120 -5876 -4316 -7206 0
1000000 2604 -5120 -5876 -4316 -7206 0
1000000 131 -6774 -5140 0
1000000 2605 -6774 -5140 0
1000000 913 -4262 -1094 0
1000000 2606 -4262 -1094 0
1000000 946 -7566 -7273 -7616 -5829 -4787 0
1000000 2607 -7566 -7273 -7616 -5829 -4787 0
1000000 537 -5483 -4662 0
1000000 2608 -5483 -4662 0
1000000 114 -7347 -6296 -7428 -4751 -5642 -5778 0
1000000 2609 -7347 -6296 -7428 -4751 -5642 -5778 0
1000000 605 -4562 -5902 -6706 -7077 -4394 -1176 0
1000000 2610 -4562 -5902 -6706 -7077 -4394 -1176 0
1000000 1140 -5819 -4314 -5387 -5266 -4243 -1170 0
1000000 2611 -5819 -4314 -5387 -5266 -4243 -1170 0
1000000 820 -5099 -6330 -5748 -989 0
1000000 2612 -5099 -6330 -5748 -989 0
1000000 497 -6104 -5444 -5528 -4339 -5961 -727 0
1000000 2613 -6104 -5444 -5528 -4339 -5961 -727 0
1000000 2 -7623 -6327 -5152 -6686 -4133 -682 0
1000000 2614 -7623 -6327 -5152 -6686 -4133 -682 0
1000000 38 -4098 -6050 -7051 -5831 0
1000000 2615 -4098 -6050 -7051 -5831 0
1000000 434 -5655 -6771 -7052 -7079 0
1000000 2616 -5655 -6771 -7052 -7079 0
1000000 714 -6034 -5526 -7339 -4275 0
1000000 2617 -6034 -5526 -7339 -4275 0
1000000 617 -5917 -4600 -6096 -4728 -7381 -7360 0
1000000 2618 -5917 -4600 -6096 -4728 -7381 -7360 0
1000000 791 -7568 -5758 -4984 -4587 0
1000000 2619 -7568 -5758 -4984 -4587 0
1000000 633 -7084 -5405 -6067 -720 0
1000000 2620 -7084 -5405 -6067 -720 0
1000000 763 -5810 -7175 -4194 -5635 -5860 0
1000000 2621 -5810 -7175 -4194 -5635 -5860 0
1000000 18 -7552 -4254 -6657 -4702 -4286 0
1000000 2622 -7552 -4254 -6657 -4702 -4286 0
1000000 655 -5653 -660 0
1000000 2623 -5653 -660 0
1000000 855 -6456 -4085 -6026 -6145 -4459 -7539 0
1000000 2624 -6456 -4085 -6026 -6145 -4459 -7539 0
1000000 107 -6166 -4305 0
1000000 2625 -6166 -4305 0
1000000 565 -4259 -5021 -4145 -4465 0
1000000 2626 -4259 -5021 -4145 -4465 0
1000000 355 -4657 -415 0
1000000 2627 -4657 -415 0
1000000 169 -6058 -7048 -5601 -4113 -7395 -304 0
1000000 2628 -6058 -7048 -5601 -4113 -7395 -304 0
1000000 896 -7328 -4933 -4181 0
1000000 2629 -7328 -4933 -4181 0
1000000 706 -5292 -5233 -4083 -919 0
1000000 2630 -5292 -5233 -4083 -919 0
1000000 954 -4432 -5544 -5720 -6774 -7306 0
1000000 2631 -4432 -5544 -5720 -6774 -7306 0
1000000 899 -6905 -5815 -7420 -4164 -7659 -7391 0
1000000 2632 -6905 -5815 -7420 -4164 -7659 -7391 0
1000000 409 -5830 -6321 -4340 -4891 0
1000000 2633 -5830 -6321 -4340 -4891 0
1000000 604 -5412 -6344 -5351 -6736 -6058 0
1000000 2634 -5412 -6344 -5351 -6736 -6058 0
1000000 201 -4202 -643 0
1000000 2635 -4202 -643 0
1000000 1008 -5890 -7048 -4104 0
1000000 2636 -5890 -7048 -4104 0
1000000 692 -5341 -4896 -6823 -7249 -5565 0
1000000 2637 -5341 -4896 -6823 -7249 -5565 0
1000000 184 -5082 -7634 -7556 -5728 -6817 -435 0
1000000 2638 -5082 -7634 -7556 -5728 -6817 -435 0
1000000 1169 -7410 -5215 -6924 0
1000000 2639 -7410 -5215 -6924 0
1000000 665 -6458 -4405 -7429 0
1000000 2640 -6458 -4405 -7429 0
1000000 987 -7447 -4929 -5230 -5044 0
1000000 2641 -7447 -4929 -5230 -5044 0
1000000 386 -4842 -4921 -6828 -4736 -6735 -4999 0
1000000 2642 -4842 -4921 -6828 -4736 -6735 -4999 0
1000000 153 -6148 -6565 -6124 -5347 0
1000000 2643 -6148 -6565 -6124 -5347 0
1000000 314 -6476 -7587 0
1000000 2644 -6476 -7587 0
1000000 26 -5179 -6148 -6829 0
1000000 2645 -5179 -6148 -6829 0
1000000 598 -4105 -5185 0
1000000 2646 -4105 -5185 0
1000000 1022 -4717 -4694 -6161 -5689 -1145 0
1000000 2647 -4717 -4694 -6161 -5689 -1145 0
1000000 789 -7176 -7489 -4150 -4467 0
1000000 2648 -7176 -7489 -4150 -4467 0
1000000 794 -6675 -7414 -5933 -5787 -5485 0
1000000 2649 -6675 -7414 -5933 -5787 -5485 0
1000000 1162 -6748 -7340 -1194 0
1000000 2650 -6748 -7340 -1194 0
1000000 173 -4553 -709 0
1000000 2651 -4553 -709 0
1000000 705 -7553 -6649 -949 0
1000000 2652 -7553 -6649 -949 0
1000000 652 -4988 -5235 -5984 -5007 -6274 0
1000000 2653 -4988 -5235 -5984 -5007 -6274 0
1000000 149 -5499 -7166 -4561 -4823 -1180 0
1000000 2654 -5499 -7166 -4561 -4823 -1180 0
1000000 15 -6987 -7373 -5999 -4103 -7181 -711 0
1000000 2655 -6987 -7373 -5999 -4103 -7181 -711 0
1000000 1142 -7115 -6630 -5827 0
1000000 2656 -7115 -6630 -5827 0
1000000 389 -4812 -7160 -4199 0
1000000 2657 -4812 -7160 -4199 0
1000000 278 -7459 -6256 -6344 0
1000000 2658 -7459 -6256 -6344 0
1000000 539 -7152 -7396 -4170 -4353 -7104 -4759 0
1000000 2659 -7152 -7396 -4170 -4353 -7104 -4759 0
1000000 712 -4392 -993 0
1000000 2660 -4392 -993 0
1000000 5 -7652 -6921 -6226 -5222 0
1000000 2661 -7652 -6921 -6226 -5222 0
1000000 265 -4153 -5334 -6888 -5480 -5602 0
1000000 2662 -4153 -5334 -6888 -5480 -5602 0
1000000 776 -7336 -6648 -4793 -6557 -6864 -4693 0
1000000 2663 -7336 -6648 -4793 -6557 -6864 -4693 0
1000000 520 -5473 -7157 0
1000000 2664 -5473 -7157 0
1000000 588 -5420 -4923 -5123 -6448 -6493 0
1000000 2665 -5420 -4923 -5123 -6448 -6493 0
1000000 440 -6007 -5196 -7095 -5823 -6920 -4883 0
1000000 2666 -6007 -5196 -7095 -5823 -6920 -4883 0
1000000 923 -6529 -5979 -7356 -1012 0
1000000 2667 -6529 -5979 -7356 -1012 0
1000000 968 -5626 -5367 0
1000000 2668 -5626 -5367 0
1000000 212 -6432 -5078 -4089 -5495 -7216 -808 0
1000000 2669 -6432 -5078 -4089 -5495 -7216 -808 0
1000000 762 -5455 -4570 0
1000000 2670 -5455 -4570 0
1000000 464 -6519 -6729 -4776 -6727 -7352 0
1000000 2671 -6519 -6729 -4776 -6727 -7352 0
1000000 1134 -7006 -5639 -4461 0
1000000 2672 -7006 -5639 -4461 0
1000000 237 -4799 -7464 -6490 0
1000000 2673 -4799 -7464 -6490 0
1000000 14 -4470 -5952 0
1000000 2674 -4470 -5952 0
1000000 228 -7143 -7147 -7214 -277 0
1000000 2675 -7143 -7147 -7214 -277 0
1000000 85 -4784 -5445 -6967 -5876 -5272 0
1000000 2676 -4784 -5445 -6967 -5876 -5272 0
1000000 849 -7106 -4422 -6315 0
1000000 2677 -7106 -4422 -6315 0
1000000 974 -5112 -5679 -7061 -7160 0
1000000 2678 -5112 -5679 -7061 -7160 0
1000000 508 -7024 -6282 -7080 -4259 -725 0
1000000 2679 -7024 -6282 -7080 -4259 -725 0
1000000 862 -4367 -6922 -7468 -4887 -5951 0
1000000 2680 -4367 -6922 -7468 -4887 -5951 0
1000000 264 -5936 -4086 -5097 -6299 -532 0
1000000 2681 -5936 -4086 -5097 -6299 -532 0
1000000 859 -4768 -7390 -4414 -6472 -5742 -6087 0
1000000 2682 -4768 -7390 -4414 -6472 -5742 -6087 0
1000000 909 -4263 -6387 -6846 -6292 -1200 0
1000000 2683 -4263 -6387 -6846 -6292 -1200 0
1000000 67 -4901 -6663 -6882 -7430 -4733 0
1000000 2684 -4901 -6663 -6882 -7430 -4733 0
1000000 990 -6987 -6700 0
1000000 2685 -6987 -6700 0
1000000 384 -7559 -4888 -7198 -679 0
1000000 2686 -7559 -4888 -7198 -679 0
1000000 28 -6787 -7269 -4734 0
1000000 2687 -6787 -7269 -4734 0
1000000 442 -7044 -7589 -5830 -5545 -5626 -7115 0
1000000 2688 -7044 -7589 -5830 -5545 -5626 -7115 0
1000000 786 -5700 -804 0
1000000 2689 -5700 -804 0
1000000 502 -4848 -7633 -946 0
1000000 2690 -4848 -7633 -946 0
1000000 1150 -6878 -5247 -6765 -6326 0
1000000 2691 -6878 -5247 -6765 -6326 0
1000000 622 -5310 -7583 -4141 -4993 -5292 -4356 0
1000000 2692 -5310 -7583 -4141 -4993 -5292 -4356 0
1000000 954 -7018 -6180 -6009 -4738 -5108 0
1000000 2693 -7018 -6180 -6009 -4738 -5108 0
1000000 463 -4154 -6697 -4587 -6611 -4787 -5062 0
1000000 2694 -4154 -6697 -4587 -6611 -4787 -5062 0
1000000 488 -6357 -4488 -4566 -5673 0
1000000 2695 -6357 -4488 -4566 -5673 0
1000000 598 -7384 -6589 -7217 -7193 -4913 0
1000000 2696 -7384 -6589 -7217 -7193 -4913 0
1000000 41 -4647 -5775 -7231 -1089 0
1000000 2697 -4647 -5775 -7231 -1089 0
1000000 108 -6782 -5141 0
1000000 2698 -6782 -5141 0
1000000 208 -5771 -7548 0
1000000 2699 -5771 -7548 0
1000000 196 -4090 -6751 -4771 -6826 -7285 -1181 0
1000000 2700 -4090 -6751 -4771 -6826 -7285 -1181 0
1000000 1035 -4421 -4804 -4141 -5683 -5242 -6409 0
1000000 2701 -4421 -4804 -4141 -5683 -5242 -6409 0
1000000 805 -4480 -7580 -6379 -5966 0
1000000 2702 -4480 -7580 -6379 -5966 0
1000000 680 -6627 -7333 0
1000000 2703 -6627 -7333 0
1000000 999 -5331 -4900 -4826 -6904 -1028 0
1000000 2704 -5331 -4900 -4826 -6904 -1028 0
1000000 441 -4699 -6576 -1167 0
1000000 2705 -4699 -6576 -1167 0
1000000 1104 -6990 -5402 0
1000000 2706 -6990 -5402 0
1000000 463 -4703 -4899 -966 0
1000000 2707 -4703 -4899 -966 0
1000000 1143 -5634 -4803 -6714 -7673 -1190 0
1000000 2708 -5634 -4803 -6714 -7673 -1190 0
1000000 745 -6364 -5248 -4932 -7075 0
1000000 2709 -6364 -5248 -4932 -7075 0
1000000 84 -5694 -7055 -7165 -7232 -7405 0
1000000 2710 -5694 -7055 -7165 -7232 -7405 0
1000000 860 -6511 -4504 -7616 -6238 -4327 -5613 0
1000000 2711 -6511 -4504 -7616 -6238 -4327 -5613 0
1000000 1006 -5379 -6842 -7381 -6937 -6506 -6372 0
1000000 2712 -5379 -6842 -7381 -6937 -6506 -6372 0
1000000 272 -6194 -5234 -6522 0
1000000 2713 -6194 -5234 -6522 0
1000000 73 -6782 -4153 -4475 -6799 -5606 0
1000000 2714 -6782 -4153 -4475 -6799 -5606 0
1000000 754 -7283 -5009 -4728 -6999 -4429 0
1000000 2715 -7283 -5009 -4728 -6999 -4429 0
1000000 1074 -4390 -4535 -4958 -5962 0
1000000 2716 -4390 -4535 -4958 -5962 0
1000000 788 -7423 -5708 0
1000000 2717 -7423 -5708 0
1000000 160 -5824 -4414 -4954 0
1000000 2718 -5824 -4414 -4954 0
1000000 793 -7486 -5901 0
1000000 2719 -7486 -5901 0
1000000 447 -5769 -5985 -5012 -7586 -7240 0
1000000 2720 -5769 -5985 -5012 -7586 -7240 0
1000000 867 -4676 -4910 -5537 -5049 -999 0
1000000 2721 -4676 -4910 -5537 -5049 -999 0
1000000 1137 -6140 -5842 0
1000000 2722 -6140 -5842 0
1000000 1037 -4201 -6475 -5969 -6104 -1179 0
1000000 2723 -4201 -6475 -5969 -6104 -1179 0
1000000 1040 -4879 -6776 -5914 0
1000000 2724 -4879 -6776 -5914 0
1000000 901 -4342 -7226 0
1000000 2725 -4342 -7226 0
1000000 635 -6702 -5813 -6933 -6937 -6284 0
1000000 2726 -6702 -5813 -6933 -6937 -6284 0
1000000 734 -5214 -5530 -4365 -4863 -4991 -5774 0
1000000 2727 -5214 -5530 -4365 -4863 -4991 -5774 0
1000000 531 -5838 -4701 -4251 -7205 -4100 0
1000000 2728 -5838 -4701 -4251 -7205 -4100 0
1000000 114 -4894 -7265 -4824 -4223 -153 0
1000000 2729 -4894 -7265 -4824 -4223 -153 0
1000000 283 -6927 -4606 -6543 -6020 -6787 -6866 0
1000000 2730 -6927 -4606 -6543 -6020 -6787 -6866 0
1000000 600 -5339 -7174 -5245 -772 0
1000000 2731 -5339 -7174 -5245 -772 0
1000000 527 -7204 -5837 -5607 0
1000000 2732 -7204 -5837 -5607 0
1000000 1025 -4617 -6627 -5692 0
1000000 2733 -4617 -6627 -5692 0
1000000 25 -4737 -7147 -4228 -6271 -777 0
1000000 2734 -4737 -7147 -4228 -6271 -777 0
1000000 202 -5094 -4516 -5472 -4110 -7134 -7391 0
1000000 2735 -5094 -4516 -5472 -4110 -7134 -7391 0
1000000 934 -6629 -6144 -7507 0
1000000 2736 -6629 -6144 -7507 0
1000000 401 -6012 -5202 0
1000000 2737 -6012 -5202 0
1000000 139 -4463 -6924 -4700 -5537 0
1000000 2738 -4463 -6924 -4700 -5537 0
1000000 1114 -7493 -6327 -4801 -1197 0
1000000 2739 -7493 -6327 -4801 -1197 0
1000000 1135 -4832 -4203 0
1000000 2740 -4832 -4203 0
1000000 499 -6618 -6408 -7621 -6591 -4459 0
1000000 2741 -6618 -6408 -7621 -6591 -4459 0
1000000 918 -5790 -6259 0
1000000 2742 -5790 -6259 0
1000000 1189 -4224 -5656 -6558 -7299 -6852 -6293 0
1000000 2743 -4224 -5656 -6558 -7299 -6852 -6293 0
1000000 504 -6607 -5890 -5975 -865 0
1000000 2744 -6607 -5890 -5975 -865 0
1000000 539 -4856 -4399 -6819 -6294 -7398 -1040 0
1000000 2745 -4856 -4399 -6819 -6294 -7398 -1040 0
1000000 548 -4092 -6355 -4720 -5117 -5863 -1012 0
1000000 2746 -4092 -6355 -4720 -5117 -5863 -1012 0
1000000 761 -6272 -6592 -4277 0
1000000 2747 -6272 -6592 -4277 0
1000000 769 -6137 -6073 -5569 -882 0
1000000 2748 -6137 -6073 -5569 -882 0
1000000 1199 -4677 -6287 -5326 0
1000000 2749 -4677 -6287 -5326 0
1000000 952 -5460 -7065 0
1000000 2750 -5460 -7065 0
1000000 632 -5836 -4342 -7475 -749 0
1000000 2751 -5836 -4342 -7475 -749 0
1000000 1054 -6889 -5165 -6672 0
1000000 2752 -6889 -5165 -6672 0
1000000 267 -6159 -6301 0
1000000 2753 -6159 -6301 0
1000000 1066 -4947 -6714 -4562 -6076 -1148 0
1000000 2754 -4947 -6714 -4562 -6076 -1148 0
1000000 327 -4797 -4284 -6461 0
1000000 2755 -4797 -4284 -6461 0
1000000 509 -6886 -4502 0
1000000 2756 -6886 -4502 0
1000000 690 -7507 -6468 0
1000000 2757 -7507 -6468 0
1000000 292 -6616 -4149 -6330 -4553 0
1000000 2758 -6616 -4149 -6330 -4553 0
1000000 53 -5559 -5496 -5052 -5838 -4095 -7527 0
1000000 2759 -5559 -5496 -5052 -5838 -4095 -7527 0
1000000 1147 -6626 -5469 -5269 0
1000000 2760 -6626 -5469 -5269 0
1000000 460 -6950 -4197 0
1000000 2761 -6950 -4197 0
1000000 786 -5888 -6197 -4885 -6195 -6460 -4691 0
1000000 2762 -5888 -6197 -4885 -6195 -6460 -4691 0
1000000 224 -4279 -5397 -7070 0
1000000 2763 -4279 -5397 -7070 0
1000000 829 -5154 -4678 -7195 0
1000000 2764 -5154 -4678 -7195 0
1000000 175 -6186 -6221 -547 0
1000000 2765 -6186 -6221 -547 0
1000000 393 -5524 -6814 -6984 -6483 -7364 0
1000000 2766 -5524 -6814 -6984 -6483 -7364 0
1000000 255 -5946 -5009 -6698 -4602 -7155 0
1000000 2767 -5946 -5009 -6698 -4602 -7155 0
1000000 516 -6789 -5645 0
1000000 2768 -6789 -5645 0
1000000 380 -4515 -6261 -6416 -6630 -4573 0
1000000 2769 -4515 -6261 -6416 -6630 -4573 0
1000000 595 -4925 -4740 -6574 -7367 -5679 -5778 0
1000000 2770 -4925 -4740 -6574 -7367 -5679 -5778 0
1000000 192 -4557 -5008 0
1000000 2771 -4557 -5008 0
1000000 551 -5856 -6799 0
1000000 2772 -5856 -6799 0
1000000 871 -4566 -5956 -4113 -7059 -5969 0
1000000 2773 -4566 -5956 -4113 -7059 -5969 0
1000000 868 -7067 -5198 -7297 -6040 -922 0
1000000 2774 -7067 -5198 -7297 -6040 -922 0
1000000 624 -4419 -7625 -6307 -6967 -5572 -4305 0
1000000 2775 -4419 -7625 -6307 -6967 -5572 -4305 0
1000000 586 -4676 -6668 -6750 -5899 -6089 -591 0
1000000 2776 -4676 -6668 -6750 -5899 -6089 -591 0
1000000 945 -5992 -5229 0
1000000 2777 -5992 -5229 0
1000000 553 -4870 -6718 -7050 -6335 -4230 -1137 0
1000000 2778 -4870 -6718 -7050 -6335 -4230 -1137 0
1000000 1147 -5056 -4918 -4931 -7028 0
1000000 2779 -5056 -4918 -4931 -7028 0
1000000 224 -4466 -6058 -5352 -4313 0
1000000 2780 -4466 -6058 -5352 -4313 0
1000000 225 -4628 -6826 -6340 -7627 0
1000000 2781 -4628 -6826 -6340 -7627 0
1000000 1079 -6276 -5019 -4492 -6103 -6548 0
1000000 2782 -6276 -5019 -4492 -6103 -6548 0
1000000 771 -5931 -4397 -5562 -4748 -4427 0
1000000 2783 -5931 -4397 -5562 -4748 -4427 0
1000000 851 -7565 -4363 -7043 -7037 -5037 -7369 0
1000000 2784 -7565 -4363 -7043 -7037 -5037 -7369 0
1000000 291 -6802 -6506 0
1000000 2785 -6802 -6506 0
1000000 238 -7356 -5070 -5651 0
1000000 2786 -7356 -5070 -5651 0
1000000 785 -5862 -4103 -5420 -6050 -7278 -4818 0
1000000 2787 -5862 -4103 -5420 -6050 -7278 -4818 0
1000000 698 -5709 -6889 -7573 -6240 -4939 -4855 0
1000000 2788 -5709 -6889 -7573 -6240 -4939 -4855 0
1000000 319 -5857 -5492 -6792 -7500 -7502 -6907 0
1000000 2789 -5857 -5492 -6792 -7500 -7502 -6907 0
1000000 1111 -4538 -5862 -7645 -5831 -1151 0
1000000 2790 -4538 -5862 -7645 -5831 -1151 0
1000000 643 -5731 -6300 -4451 -6525 -5436 -1177 0
1000000 2791 -5731 -6300 -4451 -6525 -5436 -1177 0
1000000 133 -6876 -999 0
1000000 2792 -6876 -999 0
1000000 198 -4368 -4665 0
1000000 2793 -4368 -4665 0
1000000 447 -4711 -5187 -4818 -7031 0
1000000 2794 -4711 -5187 -4818 -7031 0
1000000 453 -4336 -7029 -4669 -7521 -7157 0
1000000 2795 -4336 -7029 -4669 -7521 -7157 0
1000000 351 -6042 -6648 -7084 -6017 -7503 -4434 0
1000000 2796 -6042 -6648 -7084 -6017 -7503 -4434 0
1000000 441 -7516 -6890 -5436 -5446 -7045 0
1000000 2797 -7516 -6890 -5436 -5446 -7045 0
1000000 180 -5080 -6439 -4868 -526 0
1000000 2798 -5080 -6439 -4868 -526 0
1000000 896 -4294 -4528 -5999 -7190 0
1000000 2799 -4294 -4528 -5999 -7190 0
1000000 1011 -5054 -7292 -6480 -6386 -6437 0
1000000 2800 -5054 -7292 -6480 -6386 -6437 0
1000000 146 -6086 -7592 -151 0
1000000 2801 -6086 -7592 -151 0
1000000 884 -6606 -6250 -5610 -7602 0
1000000 2802 -6606 -6250 -5610 -7602 0
1000000 1057 -4970 -5501 0
1000000 2803 -4970 -5501 0
1000000 187 -6326 -4591 -444 0
1000000 2804 -6326 -4591 -444 0
1000000 234 -4843 -377 0
1000000 2805 -4843 -377 0
1000000 646 -6764 -4602 -4473 0
1000000 2806 -6764 -4602 -4473 0
1000000 1046 -7141 -5422 -4598 0
1000000 2807 -7141 -5422 -4598 0
1000000 419 -5305 -5833 -6623 -7016 0
1000000 2808 -5305 -5833 -6623 -7016 0
1000000 275 -6879 -5901 -4518 -5661 -4454 -5890 0
1000000 2809 -6879 -5901 -4518 -5661 -4454 -5890 0
1000000 21 -7656 -6371 0
1000000 2810 -7656 -6371 0
1000000 1091 -4246 -5352 -4674 -7216 -6672 0
1000000 2811 -4246 -5352 -4674 -7216 -6672 0
1000000 715 -4335 -5431 0
1000000 2812 -4335 -5431 0
1000000 277 -6992 -6745 -7455 -6195 -4250 -6140 0
1000000 2813 -6992 -6745 -7455 -6195 -4250 -6140 0
1000000 391 -4535 -5424 -7163 -5766 0
1000000 2814 -4535 -5424 -7163 -5766 0
1000000 262 -7255 -6289 -5390 -6467 -1163 0
1000000 2815 -7255 -6289 -5390 -6467 -1163 0
1000000 260 -7273 -4329 -7680 -6733 -4416 -1088 0
1000000 2816 -7273 -4329 -7680 -6733 -4416 -1088 0
1000000 35 -7462 -7507 -4950 -7083 -4622 0
1000000 2817 -7462 -7507 -4950 -7083 -4622 0
1000000 539 -7638 -4687 -7003 -4560 -4121 -989 0
1000000 2818 -7638 -4687 -7003 -4560 -4121 -989 0
1000000 475 -6146 -7560 0
1000000 2819 -6146 -7560 0
1000000 614 -5118 -6489 0
1000000 2820 -5118 -6489 0
1000000 650 -5930 -5834 -4787 -6688 0
1000000 2821 -5930 -5834 -4787 -6688 0
1000000 376 -5387 -7148 -4778 -6894 -4661 -664 0
1000000 2822 -5387 -7148 -4778 -6894 -4661 -664 0
1000000 824 -6023 -6740 -7286 -5211 -5756 0
1000000 2823 -6023 -6740 -7286 -5211 -5756 0
1000000 268 -6496 -7217 -581 0
1000000 2824 -6496 -7217 -581 0
1000000 512 -4471 -7108 -6445 0
1000000 2825 -4471 -7108 -6445 0
1000000 220 -4928 -6825 -4341 0
1000000 2826 -4928 -6825 -4341 0
1000000 930 -6978 -7425 0
1000000 2827 -6978 -7425 0
1000000 211 -5575 -4219 0
1000000 2828 -5575 -4219 0
1000000 10 -5798 -7238 -4834 0
1000000 2829 -5798 -7238 -4834 0
1000000 1076 -6218 -6907 -6815 0
1000000 2830 -6218 -6907 -6815 0
1000000 273 -4533 -5376 -6186 -5808 -4330 -4726 0
1000000 2831 -4533 -5376 -6186 -5808 -4330 -4726 0
1000000 658 -7651 -5404 -7341 -5777 -6217 0
1000000 2832 -7651 -5404 -7341 -5777 -6217 0
1000000 119 -7503 -5016 -6308 -6861 -5043 0
1000000 2833 -7503 -5016 -6308 -6861 -5043 0
1000000 1079 -7186 -4268 -6112 -5082 -5303 0
1000000 2834 -7186 -4268 -6112 -5082 -5303 0
1000000 217 -7600 -6304 -4412 -5858 -6089 -4216 0
1000000 2835 -7600 -6304 -4412 -5858 -6089 -4216 0
1000000 375 -6642 -6572 -6293 -7377 -6234 -4126 0
1000000 2836 -6642 -6572 -6293 -7377 -6234 -4126 0
1000000 260 -7473 -6533 -6623 -4134 -511 0
1000000 2837 -7473 -6533 -6623 -4134 -511 0
1000000 279 -6373 -7494 -5802 0
1000000 2838 -6373 -7494 -5802 0
1000000 965 -7209 -4277 0
1000000 2839 -7209 -4277 0
1000000 311 -5821 -5601 -1159 0
1000000 2840 -5821 -5601 -1159 0
1000000 119 -7289 -6685 -4252 -6957 -4299 -5589 0
1000000 2841 -7289 -6685 -4252 -6957 -4299 -5589 0
1000000 736 -6694 -5958 -5162 -5797 -6102 -6570 0
1000000 2842 -6694 -5958 -5162 -5797 -6102 -6570 0
1000000 834 -7073 -6474 -4716 -7275 0
1000000 2843 -7073 -6474 -4716 -7275 0
1000000 199 -6543 -6149 -5626 -7517 -7220 0
1000000 2844 -6543 -6149 -5626 -7517 -7220 0
1000000 522 -6609 -6205 -6496 -821 0
1000000 2845 -6609 -6205 -6496 -821 0
1000000 679 -5597 -7398 -4392 0
1000000 2846 -5597 -7398 -4392 0
1000000 494 -4818 -6686 -6738 -4806 -7640 0
1000000 2847 -4818 -6686 -6738 -4806 -7640 0
1000000 107 -5445 -5082 0
1000000 2848 -5445 -5082 0
1000000 826 -4336 -5633 0
1000000 2849 -4336 -5633 0
1000000 597 -7145 -5116 -6700 -5493 -7281 -950 0
1000000 2850 -7145 -5116 -6700 -5493 -7281 -950 0
1000000 285 -6320 -6692 -6262 -5404 -4124 0
1000000 2851 -6320 -6692 -6262 -5404 -4124 0
1000000 1177 -5696 -4312 -7533 0
1000000 2852 -5696 -4312 -7533 0
1000000 1059 -5921 -6967 0
1000000 2853 -5921 -6967 0
1000000 400 -7356 -7147 -7533 -5636 0
1000000 2854 -7356 -7147 -7533 -5636 0
1000000 146 -5043 -6996 -4184 -6398 -1024 0
1000000 2855 -5043 -6996 -4184 -6398 -1024 0
1000000 879 -6725 -7147 -7553 -7668 -7487 -6167 0
1000000 2856 -6725 -7147 -7553 -7668 -7487 -6167 0
1000000 611 -7332 -5199 -6217 0
1000000 2857 -7332 -5199 -6217 0
1000000 676 -4661 -7481 0
1000000 2858 -4661 -7481 0
1000000 470 -5879 -5437 0
1000000 2859 -5879 -5437 0
1000000 230 -6902 -6781 0
1000000 2860 -6902 -6781 0
1000000 1074 -6494 -1114 0
1000000 2861 -6494 -1114 0
1000000 313 -6441 -6560 0
1000000 2862 -6441 -6560 0
1000000 505 -5840 -6738 -5622 -7079 -5184 -6185 0
1000000 2863 -5840 -6738 -5622 -7079 -5184 -6185 0
1000000 542 -4700 -6422 -7371 -1190 0
1000000 2864 -4700 -6422 -7371 -1190 0
1000000 10 -6776 -6623 -5705 -7495 -6789 -7537 0
1000000 2865 -6776 -6623 -5705 -7495 -6789 -7537 0
1000000 536 -6186 -7646 -6164 -4433 -6475 -745 0
1000000 2866 -6186 -7646 -6164 -4433 -6475 -745 0
1000000 574 -7168 -6037 -4322 -697 0
1000000 2867 -7168 -6037 -4322 -697 0
1000000 834 -6615 -4261 -5251 -4178 0
1000000 2868 -6615 -4261 -5251 -4178 0
1000000 381 -6386 -6296 -7249 -4407 -531 0
1000000 2869 -6386 -6296 -7249 -4407 -531 0
1000000 1005 -5445 -4925 -5001 -7282 -1156 0
1000000 2870 -5445 -4925 -5001 -7282 -1156 0
1000000 219 -4257 -6592 -6714 0
1000000 2871 -4257 -6592 -6714 0
1000000 287 -4105 -520 0
1000000 2872 -4105 -520 0
1000000 814 -7672 -942 0
1000000 2873 -7672 -942 0
1000000 61 -4863 -5004 -7217 -6277 -6340 -6404 0
1000000 2874 -4863 -5004 -7217 -6277 -6340 -6404 0
1000000 768 -4394 -6859 -6343 -6749 0
1000000 2875 -4394 -6859 -6343 -6749 0
1000000 874 -4662 -4275 -6362 -6069 -5265 -5713 0
1000000 2876 -4662 -4275 -6362 -6069 -5265 -5713 0
1000000 789 -4774 -4789 -5672 -6517 0
1000000 2877 -4774 -4789 -5672 -6517 0
1000000 175 -4975 -6656 -7083 -6969 0
1000000 2878 -4975 -6656 -7083 -6969 0
1000000 219 -5900 -4102 -7124 -5456 0
1000000 2879 -5900 -4102 -7124 -5456 0
1000000 1133 -7607 -5640 -6819 -1188 0
1000000 2880 -7607 -5640 -6819 -1188 0
1000000 242 -6823 -4905 -6364 -6651 -6025 -5257 0
1000000 2881 -6823 -4905 -6364 -6651 -6025 -5257 0
1000000 938 -5874 -6716 -5240 -5214 -4138 0
1000000 2882 -5874 -6716 -5240 -5214 -4138 0
1000000 922 -5595 -7226 -7668 0
1000000 2883 -5595 -7226 -7668 0
1000000 897 -7678 -5574 -7588 -7077 -932 0
1000000 2884 -7678 -5574 -7588 -7077 -932 0
1000000 563 -5659 -5743 -6987 -6405 -4530 -1125 0
1000000 2885 -5659 -5743 -6987 -6405 -4530 -1125 0
1000000 1024 -5429 -5914 -5376 -1126 0
1000000 2886 -5429 -5914 -5376 -1126 0
1000000 918 -7527 -6262 -5520 -6533 0
1000000 2887 -7527 -6262 -5520 -6533 0
1000000 994 -6890 -6550 -5525 0
1000000 2888 -6890 -6550 -5525 0
1000000 719 -5041 -949 0
1000000 2889 -5041 -949 0
1000000 710 -6438 -870 0
1000000 2890 -6438 -870 0
1000000 1124 -7263 -6045 -4696 -5064 -5848 0
1000000 2891 -7263 -6045 -4696 -5064 -5848 0
1000000 984 -5365 -1103 0
1000000 2892 -5365 -1103 0
1000000 1194 -7359 -6670 0
1000000 2893 -7359 -6670 0
1000000 135 -5653 -6145 0
1000000 2894 -5653 -6145 0
1000000 834 -4104 -4644 0
1000000 2895 -4104 -4644 0
1000000 567 -7137 -4456 -4173 -4404 0
1000000 2896 -7137 -4456 -4173 -4404 0
1000000 349 -7477 -4141 -472 0
1000000 2897 -7477 -4141 -472 0
1000000 896 -4701 -5399 -4283 -5749 -6514 0
1000000 2898 -4701 -5399 -4283 -5749 -6514 0
1000000 1196 -6256 -6284 -6201 -4513 -6479 -1200 0
1000000 2899 -6256 -6284 -6201 -4513 -6479 -1200 0
1000000 544 -4824 -5153 -1092 0
1000000 2900 -4824 -5153 -1092 0
1000000 838 -6041 -6386 0
1000000 2901 -6041 -6386 0
1000000 63 -7289 -5757 -5807 -4299 -7220 0
1000000 2902 -7289 -5757 -5807 -4299 -7220 0
1000000 1086 -4748 -6035 -5735 0
1000000 2903 -4748 -6035 -5735 0
1000000 238 -7154 -6567 -7159 -6447 -7290 -6983 0
1000000 2904 -7154 -6567 -7159 -6447 -7290 -6983 0
1000000 573 -4147 -4521 -5506 -5912 -6757 0
1000000 2905 -4147 -4521 -5506 -5912 -6757 0
1000000 843 -5518 -4390 -5985 -6540 -918 0
1000000 2906 -5518 -4390 -5985 -6540 -918 0
1000000 56 -6336 -5461 -5718 -4091 -5650 0
1000000 2907 -6336 -5461 -5718 -4091 -5650 0
1000000 149 -4714 -4887 -6746 -6786 -4838 -4715 0
1000000 2908 -4714 -4887 -6746 -6786 -4838 -4715 0
1000000 693 -7619 -5095 -5087 -5797 -861 0
1000000 2909 -7619 -5095 -5087 -5797 -861 0
1000000 1044 -4458 -7040 -5308 -7036 -5539 -1136 0
1000000 2910 -4458 -7040 -5308 -7036 -5539 -1136 0
1000000 843 -5252 -4088 -1200 0
1000000 2911 -5252 -4088 -1200 0
1000000 943 -6051 -6846 -4087 -5024 0
1000000 2912 -6051 -6846 -4087 -5024 0
1000000 927 -5481 -5020 -4187 -939 0
1000000 2913 -5481 -5020 -4187 -939 0
1000000 67 -7261 -6275 0
1000000 2914 -7261 -6275 0
1000000 657 -7077 -6081 -6086 -4862 0
1000000 2915 -7077 -6081 -6086 -4862 0
1000000 531 -6110 -5007 -4143 -5292 0
1000000 2916 -6110 -5007 -4143 -5292 0
1000000 878 -4590 -5676 0
1000000 2917 -4590 -5676 0
1000000 535 -6302 -4619 -599 0
1000000 2918 -6302 -4619 -599 0
1000000 221 -6594 -6194 -5092 -7078 0
1000000 2919 -6594 -6194 -5092 -7078 0
1000000 597 -5002 -7553 -4798 -7643 -4209 0
1000000 2920 -5002 -7553 -4798 -7643 -4209 0
1000000 599 -4346 -6961 -5323 -6130 -813 0
1000000 2921 -4346 -6961 -5323 -6130 -813 0
1000000 778 -7051 -5752 -7067 -6924 -5334 -6561 0
1000000 2922 -7051 -5752 -7067 -6924 -5334 -6561 0
1000000 77 -7583 -4188 -5846 -5699 -5749 -6454 0
1000000 2923 -7583 -4188 -5846 -5699 -5749 -6454 0
1000000 660 -5774 -7078 -5944 0
1000000 2924 -5774 -7078 -5944 0
1000000 962 -6429 -5993 -7393 -7356 0
1000000 2925 -6429 -5993 -7393 -7356 0
1000000 1172 -6758 -7404 -4751 -7221 -7094 0
1000000 2926 -6758 -7404 -4751 -7221 -7094 0
1000000 349 -6559 -7390 -5146 -5616 -5962 -810 0
1000000 2927 -6559 -7390 -5146 -5616 -5962 -810 0
1000000 418 -5840 -7395 -6386 -482 0
1000000 2928 -5840 -7395 -6386 -482 0
1000000 954 -6075 -4437 -5222 -6949 -4587 -7283 0
1000000 2929 -6075 -4437 -5222 -6949 -4587 -7283 0
1000000 990 -6332 -4492 -6140 0
1000000 2930 -6332 -4492 -6140 0
1000000 35 -6594 -4492 -6750 -6230 -7480 0
1000000 2931 -6594 -4492 -6750 -6230 -7480 0
1000000 5 -4952 -6157 -6662 -4550 -780 0
1000000 2932 -4952 -6157 -6662 -4550 -780 0
1000000 430 -4347 -6684 -6847 -4795 -6371 -4632 0
1000000 2933 -4347 -6684 -6847 -4795 -6371 -4632 0
1000000 220 -7085 -4612 -363 0
1000000 2934 -7085 -4612 -363 0
1000000 276 -7676 -6761 -4407 -7244 0
1000000 2935 -7676 -6761 -4407 -7244 0
1000000 664 -5850 -5740 -6583 -6229 -6917 -6175 0
1000000 2936 -5850 -5740 -6583 -6229 -6917 -6175 0
1000000 255 -5185 -5095 -6256 -5733 -7428 0
1000000 2937 -5185 -5095 -6256 -5733 -7428 0
1000000 600 -6835 -4714 -6596 -4116 -6906 0
1000000 2938 -6835 -4714 -6596 -4116 -6906 0
1000000 1161 -5510 -5926 -5043 0
1000000 2939 -5510 -5926 -5043 0
1000000 434 -5669 -1128 0
1000000 2940 -5669 -1128 0
1000000 353 -5947 -6640 -4242 0
1000000 2941 -5947 -6640 -4242 0
1000000 924 -6528 -5563 -5797 0
1000000 2942 -6528 -5563 -5797 0
1000000 1112 -5705 -5980 -1133 0
1000000 2943 -5705 -5980 -1133 0
1000000 1021 -4916 -6242 0
1000000 2944 -4916 -6242 0
1000000 606 -7224 -7598 -5421 -6272 -6962 0
1000000 2945 -7224 -7598 -5421 -6272 -6962 0
1000000 387 -5808 -6073 -6865 -7291 -4963 0
1000000 2946 -5808 -6073 -6865 -7291 -4963 0
1000000 804 -4098 -5946 -5887 -7462 -992 0
1000000 2947 -4098 -5946 -5887 -7462 -992 0
1000000 1075 -7113 -4709 -7064 -6832 0
1000000 2948 -7113 -4709 -7064 -6832 0
1000000 236 -5216 -4335 0
1000000 2949 -5216 -4335 0
1000000 131 -7176 -4560 -4162 0
1000000 2950 -7176 -4560 -4162 0
1000000 1137 -5447 -5577 -4397 -6471 -5254 0
1000000 2951 -5447 -5577 -4397 -6471 -5254 0
1000000 774 -5001 -7474 0
1000000 2952 -5001 -7474 0
1000000 550 -5003 -6739 -4378 0
1000000 2953 -5003 -6739 -4378 0
1000000 1099 -6913 -5018 -6985 -5285 -5154 0
1000000 2954 -6913 -5018 -6985 -5285 -5154 0
1000000 740 -5323 -4764 -5441 -6238 -6160 0
1000000 2955 -5323 -4764 -5441 -6238 -6160 0
1000000 209 -5968 -7502 -5588 -5082 -6119 0
1000000 2956 -5968 -7502 -5588 -5082 -6119 0
1000000 1023 -4107 -6570 -4735 -5069 0
1000000 2957 -4107 -6570 -4735 -5069 0
1000000 775 -6020 -4758 -5702 -6256 -973 0
1000000 2958 -6020 -4758 -5702 -6256 -973 0
1000000 596 -6894 -6309 -6001 -6949 -5806 0
1000000 2959 -6894 -6309 -6001 -6949 -5806 0
1000000 1061 -5248 -6835 -4600 -7083 0
1000000 2960 -5248 -6835 -4600 -7083 0
1000000 1056 -5822 -7035 -5419 -1078 0
1000000 2961 -5822 -7035 -5419 -1078 0
1000000 719 -5021 -6638 -6391 0
1000000 2962 -5021 -6638 -6391 0
1000000 426 -7497 -4570 -7035 -6382 0
1000000 2963 -7497 -4570 -7035 -6382 0
1000000 295 -5365 -7135 -1176 0
1000000 2964 -5365 -7135 -1176 0
1000000 115 -5352 -4950 -7161 0
1000000 2965 -5352 -4950 -7161 0
1000000 1012 -5265 -4820 -7502 0
1000000 2966 -5265 -4820 -7502 0
1000000 694 -5552 -6739 -6044 -5847 -6157 0
1000000 2967 -5552 -6739 -6044 -5847 -6157 0
1000000 938 -5579 -6915 -7556 0
1000000 2968 -5579 -6915 -7556 0
1000000 68 -6905 -5127 0
1000000 2969 -6905 -5127 0
1000000 934 -5142 -4088 -4966 -7253 -5133 -4365 0
1000000 2970 -5142 -4088 -4966 -7253 -5133 -4365 0
1000000 797 -4552 -4557 -5956 0
1000000 2971 -4552 -4557 -5956 0
1000000 687 -7316 -5405 -7379 -7156 -5116 -6399 0
1000000 2972 -7316 -5405 -7379 -7156 -5116 -6399 0
1000000 336 -4663 -4410 0
1000000 2973 -4663 -4410 0
1000000 72 -7068 -4951 -4391 -6579 -4155 0
1000000 2974 -7068 -4951 -4391 -6579 -4155 0
1000000 555 -7408 -7033 -901 0
1000000 2975 -7408 -7033 -901 0
1000000 373 -5875 -5693 -5319 0
1000000 2976 -5875 -5693 -5319 0
1000000 20 -6994 -5398 -5641 -7036 -4085 -4444 0
1000000 2977 -6994 -5398 -5641 -7036 -4085 -4444 0
1000000 168 -7024 -6569 -4331 -4191 -4661 0
1000000 2978 -7024 -6569 -4331 -4191 -4661 0
1000000 17 -5039 -5436 -6603 -4226 0
1000000 2979 -5039 -5436 -6603 -4226 0
1000000 837 -4661 -4406 -4371 -7244 0
1000000 2980 -4661 -4406 -4371 -7244 0
1000000 95 -5673 -6133 -4999 0
1000000 2981 -5673 -6133 -4999 0
1000000 537 -7565 -4790 -5464 0
1000000 2982 -7565 -4790 -5464 0
1000000 507 -5132 -4846 -5193 -5897 -6252 -4701 0
1000000 2983 -5132 -4846 -5193 -5897 -6252 -4701 0
1000000 1175 -6192 -6286 0
1000000 2984 -6192 -6286 0
1000000 775 -4383 -6312 -6713 -5308 0
1000000 2985 -4383 -6312 -6713 -5308 0
1000000 1174 -7242 -4776 0
1000000 2986 -7242 -4776 0
1000000 468 -4364 -5528 -5649 -5705 -6279 0
1000000 2987 -4364 -5528 -5649 -5705 -6279 0
1000000 386 -7040 -7451 -1143 0
1000000 2988 -7040 -7451 -1143 0
1000000 334 -7178 -4302 -4643 -1057 0
1000000 2989 -7178 -4302 -4643 -1057 0
1000000 838 -7366 -7089 -5779 -7489 -875 0
1000000 2990 -7366 -7089 -5779 -7489 -875 0
1000000 139 -6747 -4892 -6080 -6693 0
1000000 2991 -6747 -4892 -6080 -6693 0
1000000 486 -4470 -6353 -4513 -5359 0
1000000 2992 -4470 -6353 -4513 -5359 0
1000000 830 -5908 -5783 -5831 -6667 -7284 -4111 0
1000000 2993 -5908 -5783 -5831 -6667 -7284 -4111 0
1000000 81 -7547 -6265 -6534 -598 0
1000000 2994 -7547 -6265 -6534 -598 0
1000000 555 -5595 -6200 -5682 -7459 -4343 -569 0
1000000 2995 -5595 -6200 -5682 -7459 -4343 -569 0
1000000 181 -6588 -4616 -5094 -5249 -5290 0
1000000 2996 -6588 -4616 -5094 -5249 -5290 0
1000000 1178 -4827 -1181 0
1000000 2997 -4827 -1181 0
1000000 1038 -7063 -5111 -4744 -5063 -5908 -1090 0
1000000 2998 -7063 -5111 -4744 -5063 -5908 -1090 0
1000000 1058 -7228 -5203 -1067 0
1000000 2999 -7228 -5203 -1067 0
1000000 704 -7526 -5982 -4908 -4989 -6223 -6998 0
1000000 3000 -7526 -5982 -4908 -4989 -6223 -6998 0
1000000 738 -4917 -6313 -812 0
1000000 3001 -4917 -6313 -812 0
1000000 552 -5628 -5645 -4538 -6585 -5015 0
1000000 3002 -5628 -5645 -4538 -6585 -5015 0
1000000 858 -7091 -5448 -5440 -7077 -1048 0
1000000 3003 -7091 -5448 -5440 -7077 -1048 0
1000000 579 -7670 -6894 -4995 -4536 -4265 -4114 0
1000000 3004 -7670 -6894 -4995 -4536 -4265 -4114 0
1000000 796 -4839 -7680 0
1000000 3005 -4839 -7680 0
1000000 946 -5874 -4902 -5505 0
1000000 3006 -5874 -4902 -5505 0
1000000 876 -6870 -5362 -4987 0
1000000 3007 -6870 -5362 -4987 0
1000000 835 -5492 -4659 0
1000000 3008 -5492 -4659 0
1000000 106 -4957 -4757 0
1000000 3009 -4957 -4757 0
1000000 945 -4712 -5233 -5210 -6756 -6229 0
1000000 3010 -4712 -5233 -5210 -6756 -6229 0
1000000 310 -6447 -5627 -4515 0
1000000 3011 -6447 -5627 -4515 0
1000000 305 -7126 -5969 -6177 -1103 0
1000000 3012 -7126 -5969 -6177 -1103 0
1000000 1101 -5351 -5518 -7416 -6571 -1191 0
1000000 3013 -5351 -5518 -7416 -6571 -1191 0
1000000 1129 -6894 -6541 -1144 0
1000000 3014 -6894 -6541 -1144 0
1000000 22 -7490 -5902 -4776 -5538 -5244 0
1000000 3015 -7490 -5902 -4776 -5538 -5244 0
1000000 37 -5311 -5840 -5984 -7266 -6283 0
1000000 3016 -5311 -5840 -5984 -7266 -6283 0
1000000 136 -5181 -5164 -4309 -159 0
1000000 3017 -5181 -5164 -4309 -159 0
1000000 729 -6322 -4921 -7395 -811 0
1000000 3018 -6322 -4921 -7395 -811 0
1000000 272 -6211 -7037 -7276 -6706 0
1000000 3019 -6211 -7037 -7276 -6706 0
1000000 25 -4391 -4605 -4190 -7488 -863 0
1000000 3020 -4391 -4605 -4190 -7488 -863 0
1000000 1016 -4651 -6059 -4538 -6782 -5771 0
1000000 3021 -4651 -6059 -4538 -6782 -5771 0
1000000 304 -7001 -6573 -4090 -6585 0
1000000 3022 -7001 -6573 -4090 -6585 0
1000000 1060 -5895 -4414 -5598 -6280 -1103 0
1000000 3023 -5895 -4414 -5598 -6280 -1103 0
1000000 1159 -6175 -6197 -6578 -6994 -6719 0
1000000 3024 -6175 -6197 -6578 -6994 -6719 0
1000000 454 -5191 -7229 -7669 -7622 -7472 -7542 0
1000000 3025 -5191 -7229 -7669 -7622 -7472 -7542 0
1000000 840 -4300 -4108 -4308 -5389 -6247 -7216 0
1000000 3026 -4300 -4108 -4308 -5389 -6247 -7216 0
1000000 125 -6114 -7289 -7374 -7578 -7060 0
1000000 3027 -6114 -7289 -7374 -7578 -7060 0
1000000 815 -4581 -6246 -7473 -5137 -7609 0
1000000 3028 -4581 -6246 -7473 -5137 -7609 0
1000000 560 -7336 -6857 -5459 0
1000000 3029 -7336 -6857 -5459 0
1000000 1110 -5093 -4716 0
1000000 3030 -5093 -4716 0
1000000 816 -4871 -4590 0
1000000 3031 -4871 -4590 0
1000000 6 -6824 -6225 0
1000000 3032 -6824 -6225 0
1000000 293 -4421 -4462 -4598 0
1000000 3033 -4421 -4462 -4598 0
1000000 461 -6844 -6916 0
1000000 3034 -6844 -6916 0
1000000 670 -4484 -5034 -4883 -6717 -996 0
1000000 3035 -4484 -5034 -4883 -6717 -996 0
1000000 980 -4940 -6236 -6585 -7373 -6137 0
1000000 3036 -4940 -6236 -6585 -7373 -6137 0
1000000 1101 -5550 -1200 0
1000000 3037 -5550 -1200 0
1000000 792 -4432 -7337 -7586 -4657 0
1000000 3038 -4432 -7337 -7586 -4657 0
1000000 360 -6470 -4169 -6548 -6474 -1054 0
1000000 3039 -6470 -4169 -6548 -6474 -1054 0
1000000 1087 -7388 -5479 -5437 -5928 -7329 -6650 0
1000000 3040 -7388 -5479 -5437 -5928 -7329 -6650 0
1000000 1046 -5548 -5660 -4200 0
1000000 3041 -5548 -5660 -4200 0
1000000 305 -4406 -6363 -5790 -7636 -6362 0
1000000 3042 -4406 -6363 -5790 -7636 -6362 0
1000000 143 -5105 -6836 0
1000000 3043 -5105 -6836 0
1000000 851 -7501 -5681 -5264 -4870 0
1000000 3044 -7501 -5681 -5264 -4870 0
1000000 976 -7220 -4986 0
1000000 3045 -7220 -4986 0
1000000 983 -7528 -6486 -1167 0
1000000 3046 -7528 -6486 -1167 0
1000000 650 -4778 -6131 -7274 -6003 -4554 -5468 0
1000000 3047 -4778 -6131 -7274 -6003 -4554 -5468 0
1000000 549 -4598 -5937 0
1000000 3048 -4598 -5937 0
1000000 817 -7659 -6461 -4725 -6399 -1017 0
1000000 3049 -7659 -6461 -4725 -6399 -1017 0
1000000 209 -5979 -6338 -4745 -4762 -518 0
1000000 3050 -5979 -6338 -4745 -4762 -518 0
1000000 669 -7537 -5479 -5695 -4136 0
1000000 3051 -7537 -5479 -5695 -4136 0
1000000 674 -6826 -5728 0
1000000 3052 -6826 -5728 0
1000000 249 -5338 -6913 -4802 -7651 0
1000000 3053 -5338 -6913 -4802 -7651 0
1000000 1047 -5025 -4084 -4248 0
1000000 3054 -5025 -4084 -4248 0
1000000 594 -6175 -6339 -4702 -5594 -6379 0
1000000 3055 -6175 -6339 -4702 -5594 -6379 0
1000000 967 -5937 -5039 -6110 0
1000000 3056 -5937 -5039 -6110 0
1000000 381 -4969 -4701 -7216 0
1000000 3057 -4969 -4701 -7216 0
1000000 956 -4350 -6211 0
1000000 3058 -4350 -6211 0
1000000 240 -5244 -5293 -4111 -4306 -650 0
1000000 3059 -5244 -5293 -4111 -4306 -650 0
1000000 88 -4231 -7116 -4803 -6873 0
1000000 3060 -4231 -7116 -4803 -6873 0
1000000 154 -6145 -4716 -6572 -4925 -6742 0
1000000 3061 -6145 -4716 -6572 -4925 -6742 0
1000000 830 -4918 -5512 -6452 0
1000000 3062 -4918 -5512 -6452 0
1000000 191 -4956 -4232 -4463 -7531 -7057 -4924 0
1000000 3063 -4956 -4232 -4463 -7531 -7057 -4924 0
1000000 1190 -6309 -6696 -6557 0
1000000 3064 -6309 -6696 -6557 0
1000000 675 -7490 -4306 0
1000000 3065 -7490 -4306 0
1000000 415 -6728 -4522 -6653 -6775 -6841 0
1000000 3066 -6728 -4522 -6653 -6775 -6841 0
1000000 744 -5424 -5274 -4308 0
1000000 3067 -5424 -5274 -4308 0
1000000 283 -4957 -5427 -4559 -6176 -7213 0
1000000 3068 -4957 -5427 -4559 -6176 -7213 0
1000000 750 -5761 -7450 -4504 -5821 -4991 0
1000000 3069 -5761 -7450 -4504 -5821 -4991 0
1000000 162 -7387 -6912 -7259 -908 0
1000000 3070 -7387 -6912 -7259 -908 0
1000000 407 -6839 -5821 -903 0
1000000 3071 -6839 -5821 -903 0
1000000 1081 -4420 -4878 0
1000000 3072 -4420 -4878 0
1000000 264 -5244 -5013 -6617 -4330 -4602 0
1000000 3073 -5244 -5013 -6617 -4330 -4602 0
1000000 924 -7134 -5604 -6469 -6871 -4684 -6375 0
1000000 3074 -7134 -5604 -6469 -6871 -4684 -6375 0
1000000 923 -6746 -4130 -4992 -7027 -1039 0
1000000 3075 -6746 -4130 -4992 -7027 -1039 0
1000000 592 -6968 -4562 -4139 0
1000000 3076 -6968 -4562 -4139 0
1000000 929 -5452 -4323 -4372 -6759 -1148 0
1000000 3077 -5452 -4323 -4372 -6759 -1148 0
1000000 372 -5454 -6646 -6719 0
1000000 3078 -5454 -6646 -6719 0
1000000 1133 -6739 -5537 -4585 -5597 -6224 -5072 0
1000000 3079 -6739 -5537 -4585 -5597 -6224 -5072 0
1000000 132 -5819 -6195 -5845 -4557 -6308 0
1000000 3080 -5819 -6195 -5845 -4557 -6308 0
1000000 22 -4511 -7565 -4825 -4963 0
1000000 3081 -4511 -7565 -4825 -4963 0
1000000 430 -5613 -6823 -4665 -5314 -5141 -5734 0
1000000 3082 -5613 -6823 -4665 -5314 -5141 -5734 0
1000000 641 -6054 -4529 0
1000000 3083 -6054 -4529 0
1000000 1164 -4407 -5680 -5153 -6263 0
1000000 3084 -4407 -5680 -5153 -6263 0
1000000 461 -4389 -5944 -702 0
1000000 3085 -4389 -5944 -702 0
1000000 563 -6732 -5667 -6458 -5424 -5015 0
1000000 3086 -6732 -5667 -6458 -5424 -5015 0
1000000 209 -5896 -6636 -6745 -5464 0
1000000 3087 -5896 -6636 -6745 -5464 0
1000000 648 -5359 -5776 -6110 -7026 -4577 -1008 0
1000000 3088 -5359 -5776 -6110 -7026 -4577 -1008 0
1000000 663 -7636 -7623 -7174 -6474 -4586 -736 0
1000000 3089 -7636 -7623 -7174 -6474 -4586 -736 0
1000000 551 -5519 -6995 -6355 0
1000000 3090 -5519 -6995 -6355 0
1000000 569 -4357 -5055 -5367 -5336 -1079 0
1000000 3091 -4357 -5055 -5367 -5336 -1079 0
1000000 323 -6079 -7578 -4783 -4698 -6503 0
1000000 3092 -6079 -7578 -4783 -4698 -6503 0
1000000 618 -4283 -4223 -4884 0
1000000 3093 -4283 -4223 -4884 0
1000000 1049 -5901 -5813 0
1000000 3094 -5901 -5813 0
1000000 465 -7160 -5021 -4109 -7116 -4968 0
1000000 3095 -7160 -5021 -4109 -7116 -4968 0
1000000 1115 -5821 -7443 -6786 -4986 -7652 -5868 0
1000000 3096 -5821 -7443 -6786 -4986 -7652 -5868 0
1000000 11 -7094 -5176 -1170 0
1000000 3097 -7094 -5176 -1170 0
1000000 343 -4794 -4572 -6600 -5249 0
1000000 3098 -4794 -4572 -6600 -5249 0
1000000 164 -6511 -6572 -6343 -7557 -4934 -5464 0
1000000 3099 -6511 -6572 -6343 -7557 -4934 -5464 0
1000000 177 -7489 -5240 -5441 -6208 -5835 -633 0
1000000 3100 -7489 -5240 -5441 -6208 -5835 -633 0
1000000 976 -4207 -5353 0
1000000 3101 -4207 -5353 0
1000000 800 -5948 -7062 0
1000000 3102 -5948 -7062 0
1000000 1063 -5331 -7281 -5212 -7556 -7245 -6853 0
1000000 3103 -5331 -7281 -5212 -7556 -7245 -6853 0
1000000 980 -6004 -5111 -6149 -4112 0
1000000 3104 -6004 -5111 -6149 -4112 0
1000000 1198 -5096 -7269 0
1000000 3105 -5096 -7269 0
1000000 765 -5551 -6390 -5948 -6615 -6526 0
1000000 3106 -5551 -6390 -5948 -6615 -6526 0
1000000 172 -5989 -7465 0
1000000 3107 -5989 -7465 0
1000000 86 -4962 -7217 -6999 -5750 -5544 -6598 0
1000000 3108 -4962 -7217 -6999 -5750 -5544 -6598 0
1000000 633 -6037 -4438 -6116 -644 0
1000000 3109 -6037 -4438 -6116 -644 0
1000000 632 -6163 -6087 -6712 0
1000000 3110 -6163 -6087 -6712 0
1000000 749 -5244 -7008 -4329 -5066 0
1000000 3111 -5244 -7008 -4329 -5066 0
1000000 727 -7051 -7268 0
1000000 3112 -7051 -7268 0
1000000 695 -6147 -7234 -1129 0
1000000 3113 -6147 -7234 -1129 0
1000000 1192 -4489 -4483 -7435 -7490 -5241 0
1000000 3114 -4489 -4483 -7435 -7490 -5241 0
1000000 545 -5279 -4640 -4639 -5674 0
1000000 3115 -5279 -4640 -4639 -5674 0
1000000 478 -5359 -5289 0
1000000 3116 -5359 -5289 0
1000000 1087 -6295 -5118 0
1000000 3117 -6295 -5118 0
1000000 236 -7231 -6560 0
1000000 3118 -7231 -6560 0
1000000 718 -4871 -6356 -7529 -7496 -7094 0
1000000 3119 -4871 -6356 -7529 -7496 -7094 0
1000000 527 -6716 -4912 0
1000000 3120 -6716 -4912 0
1000000 904 -4865 -5304 -5001 -990 0
1000000 3121 -4865 -5304 -5001 -990 0
1000000 204 -4326 -6445 -7268 -6404 -7627 0
1000000 3122 -4326 -6445 -7268 -6404 -7627 0
1000000 369 -6006 -6915 -7514 0
1000000 3123 -6006 -6915 -7514 0
1000000 1090 -7244 -5149 -5387 0
1000000 3124 -7244 -5149 -5387 0
1000000 809 -4116 -4869 -6309 -6582 -5232 0
1000000 3125 -4116 -4869 -6309 -6582 -5232 0
1000000 132 -7009 -4119 -6555 -5791 -5228 -5270 0
1000000 3126 -7009 -4119 -6555 -5791 -5228 -5270 0
1000000 215 -6930 -489 0
1000000 3127 -6930 -489 0
1000000 1039 -5203 -5694 -7305 -4298 -4805 -6413 0
1000000 3128 -5203 -5694 -7305 -4298 -4805 -6413 0
1000000 412 -6489 -6645 -4803 -5173 -7390 -5542 0
1000000 3129 -6489 -6645 -4803 -5173 -7390 -5542 0
1000000 877 -4678 -4327 -6800 -6830 -4660 -7159 0
1000000 3130 -4678 -4327 -6800 -6830 -4660 -7159 0
1000000 357 -4685 -935 0
1000000 3131 -4685 -935 0
1000000 1145 -5690 -4226 -5368 -6942 0
1000000 3132 -5690 -4226 -5368 -6942 0
1000000 746 -4775 -5037 -5303 -6526 -6593 0
1000000 3133 -4775 -5037 -5303 -6526 -6593 0
1000000 27 -6513 -6501 -6724 -6299 0
1000000 3134 -6513 -6501 -6724 -6299 0
1000000 436 -5576 -4576 -1048 0
1000000 3135 -5576 -4576 -1048 0
1000000 90 -7067 -5923 -6875 -5298 0
1000000 3136 -7067 -5923 -6875 -5298 0
1000000 461 -6888 -4556 -4406 0
1000000 3137 -6888 -4556 -4406 0
1000000 40 -7601 -5865 -7226 -673 0
1000000 3138 -7601 -5865 -7226 -673 0
1000000 232 -6668 -5642 -6677 -6438 -300 0
1000000 3139 -6668 -5642 -6677 -6438 -300 0
1000000 720 -7366 -5212 -7068 -6377 -7350 -783 0
1000000 3140 -7366 -5212 -7068 -6377 -7350 -783 0
1000000 870 -5344 -6991 -7667 -6669 0
1000000 3141 -5344 -6991 -7667 -6669 0
1000000 924 -6790 -4918 -6774 -6942 -5187 -4485 0
1000000 3142 -6790 -4918 -6774 -6942 -5187 -4485 0
1000000 119 -6116 -7287 -4588 -7617 -6101 -5160 0
1000000 3143 -6116 -7287 -4588 -7617 -6101 -5160 0
1000000 1146 -6330 -4460 -1196 0
1000000 3144 -6330 -4460 -1196 0
1000000 467 -6768 -6390 -7256 -5982 -4823 0
1000000 3145 -6768 -6390 -7256 -5982 -4823 0
1000000 363 -4787 -6212 -6957 -7107 -5683 0
1000000 3146 -4787 -6212 -6957 -7107 -5683 0
1000000 416 -4670 -6493 -6806 -661 0
1000000 3147 -4670 -6493 -6806 -661 0
1000000 248 -4493 -7543 -4616 0
1000000 3148 -4493 -7543 -4616 0
1000000 759 -4779 -7055 -6012 -4630 -7495 -4674 0
1000000 3149 -4779 -7055 -6012 -4630 -7495 -4674 0
1000000 1182 -5529 -7501 -7063 -4219 -7343 -6259 0
1000000 3150 -5529 -7501 -7063 -4219 -7343 -6259 0
1000000 680 -5972 -4279 -5203 0
1000000 3151 -5972 -4279 -5203 0
1000000 933 -7063 -4302 -6155 -4856 -5316 -6535 0
1000000 3152 -7063 -4302 -6155 -4856 -5316 -6535 0
1000000 846 -5133 -6542 -4188 -5608 -6892 -1185 0
1000000 3153 -5133 -6542 -4188 -5608 -6892 -1185 0
1000000 200 -5554 -4240 -4476 0
1000000 3154 -5554 -4240 -4476 0
1000000 1161 -6494 -4322 -5171 0
1000000 3155 -6494 -4322 -5171 0
1000000 549 -7248 -7193 -6411 -4391 0
1000000 3156 -7248 -7193 -6411 -4391 0
1000000 994 -6672 -5240 -7311 -6644 -7284 -7139 0
1000000 3157 -6672 -5240 -7311 -6644 -7284 -7139 0
1000000 1051 -4644 -5450 -5926 -6198 -5568 -5813 0
1000000 3158 -4644 -5450 -5926 -6198 -5568 -5813 0
1000000 844 -6176 -4264 0
1000000 3159 -6176 -4264 0
1000000 86 -6969 -4520 0
1000000 3160 -6969 -4520 0
1000000 554 -7329 -6341 -4410 -5272 -7483 -755 0
1000000 3161 -7329 -6341 -4410 -5272 -7483 -755 0
1000000 584 -4870 -6624 0
1000000 3162 -4870 -6624 0
1000000 798 -5884 -1194 0
1000000 3163 -5884 -1194 0
1000000 1036 -5886 -5000 -7540 -4636 -7047 0
1000000 3164 -5886 -5000 -7540 -4636 -7047 0
1000000 587 -4751 -4660 0
1000000 3165 -4751 -4660 0
1000000 170 -4339 -6544 -6044 -4874 -6750 -7491 0
1000000 3166 -4339 -6544 -6044 -4874 -6750 -7491 0
1000000 785 -4741 -798 0
1000000 3167 -4741 -798 0
1000000 1006 -4861 -6693 -4274 0
1000000 3168 -4861 -6693 -4274 0
1000000 501 -6402 -6239 -5773 -4214 0
1000000 3169 -6402 -6239 -5773 -4214 0
1000000 950 -6798 -1174 0
1000000 3170 -6798 -1174 0
1000000 134 -7627 -5809 -5352 0
1000000 3171 -7627 -5809 -5352 0
1000000 986 -7183 -7239 -4262 0
1000000 3172 -7183 -7239 -4262 0
1000000 748 -4751 -7427 -7122 -4110 -6119 -6362 0
1000000 3173 -4751 -7427 -7122 -4110 -6119 -6362 0
1000000 115 -6001 -5162 -5198 -863 0
1000000 3174 -6001 -5162 -5198 -863 0
1000000 1036 -5598 -5643 -5645 0
1000000 3175 -5598 -5643 -5645 0
1000000 961 -6428 -7551 -6821 -7564 -6573 0
1000000 3176 -6428 -7551 -6821 -7564 -6573 0
1000000 304 -6954 -5816 0
1000000 3177 -6954 -5816 0
1000000 369 -4708 -6957 -4562 0
1000000 3178 -4708 -6957 -4562 0
1000000 769 -5935 -5663 -6363 0
1000000 3179 -5935 -5663 -6363 0
1000000 853 -7139 -6511 -4641 -4824 -4387 0
1000000 3180 -7139 -6511 -4641 -4824 -4387 0
1000000 604 -4467 -6369 -7273 -4172 -7134 -4712 0
1000000 3181 -4467 -6369 -7273 -4172 -7134 -4712 0
1000000 1082 -4956 -4594 -5001 -5563 -6305 -4989 0
1000000 3182 -4956 -4594 -5001 -5563 -6305 -4989 0
1000000 819 -6425 -6699 -5996 -6906 0
1000000 3183 -6425 -6699 -5996 -6906 0
1000000 796 -6834 -4997 -5501 -1067 0
1000000 3184 -6834 -4997 -5501 -1067 0
1000000 311 -5419 -1152 0
1000000 3185 -5419 -1152 0
1000000 430 -4574 -4915 -6634 -6104 -5539 -6168 0
1000000 3186 -4574 -4915 -6634 -6104 -5539 -6168 0
1000000 1156 -6092 -6493 -6322 -5261 -1170 0
1000000 3187 -6092 -6493 -6322 -5261 -1170 0
1000000 227 -7624 -256 0
1000000 3188 -7624 -256 0
1000000 254 -5562 -7096 0
1000000 3189 -5562 -7096 0
1000000 792 -5461 -4370 -863 0
1000000 3190 -5461 -4370 -863 0
1000000 82 -6186 -4312 -4355 0
1000000 3191 -6186 -4312 -4355 0
1000000 356 -5945 -7558 -5406 -6186 0
1000000 3192 -5945 -7558 -5406 -6186 0
1000000 929 -5732 -4334 0
1000000 3193 -5732 -4334 0
1000000 934 -4887 -5634 0
1000000 3194 -4887 -5634 0
1000000 320 -5479 -5347 -4456 -5534 -5431 -4901 0
1000000 3195 -5479 -5347 -4456 -5534 -5431 -4901 0
1000000 420 -5790 -7499 -5975 -4410 0
1000000 3196 -5790 -7499 -5975 -4410 0
1000000 498 -4402 -5392 -4536 0
1000000 3197 -4402 -5392 -4536 0
1000000 811 -7570 -4955 -4207 0
1000000 3198 -7570 -4955 -4207 0
1000000 247 -6609 -5285 -5215 -4117 0
1000000 3199 -6609 -5285 -5215 -4117 0
1000000 316 -7075 -6108 -4897 0
1000000 3200 -7075 -6108 -4897 0
1000000 182 -5277 -5035 -5252 -4138 -6812 -5129 0
1000000 3201 -5277 -5035 -5252 -4138 -6812 -5129 0
1000000 1187 -6690 -4510 -5735 -4381 -6244 -4603 0
1000000 3202 -6690 -4510 -5735 -4381 -6244 -4603 0
1000000 898 -6554 -4673 0
1000000 3203 -6554 -4673 0
1000000 367 -4832 -7433 -5609 -4454 -1065 0
1000000 3204 -4832 -7433 -5609 -4454 -1065 0
1000000 597 -5638 -7259 -4614 -6476 -7064 -7403 0
1000000 3205 -5638 -7259 -4614 -6476 -7064 -7403 0
1000000 760 -6360 -6985 0
1000000 3206 -6360 -6985 0
1000000 642 -7243 -7410 -4250 -4139 -7011 -1175 0
1000000 3207 -7243 -7410 -4250 -4139 -7011 -1175 0
1000000 453 -5234 -5618 -6639 0
1000000 3208 -5234 -5618 -6639 0
1000000 938 -7466 -5064 -4803 0
1000000 3209 -7466 -5064 -4803 0
1000000 1057 -4687 -4634 -1095 0
1000000 3210 -4687 -4634 -1095 0
1000000 2 -4313 -5336 -6187 0
1000000 3211 -4313 -5336 -6187 0
1000000 1068 -5998 -7654 -6454 0
1000000 3212 -5998 -7654 -6454 0
1000000 847 -6459 -6340 -5647 -7026 -6895 0
1000000 3213 -6459 -6340 -5647 -7026 -6895 0
1000000 327 -4865 -7626 -5961 -6709 -7142 -5003 0
1000000 3214 -4865 -7626 -5961 -6709 -7142 -5003 0
1000000 784 -7613 -5868 -7605 -5441 0
1000000 3215 -7613 -5868 -7605 -5441 0
1000000 58 -6849 -4431 0
1000000 3216 -6849 -4431 0
1000000 891 -4884 -7314 0
1000000 3217 -4884 -7314 0
1000000 76 -4246 -4187 -7288 0
1000000 3218 -4246 -4187 -7288 0
1000000 112 -5719 -6280 0
1000000 3219 -5719 -6280 0
1000000 1175 -5118 -1198 0
1000000 3220 -5118 -1198 0
1000000 517 -5413 -4859 -6190 -6886 -1115 0
1000000 3221 -5413 -4859 -6190 -6886 -1115 0
1000000 215 -4713 -5769 0
1000000 3222 -4713 -5769 0
1000000 787 -6275 -7466 0
1000000 3223 -6275 -7466 0
1000000 911 -4182 -4419 -7012 -7021 -4134 0
1000000 3224 -4182 -4419 -7012 -7021 -4134 0
1000000 88 -4152 -6915 -4247 -6854 -6288 0
1000000 3225 -4152 -6915 -4247 -6854 -6288 0
1000000 491 -6898 -5615 -5302 -4191 -4549 -5820 0
1000000 3226 -6898 -5615 -5302 -4191 -4549 -5820 0
1000000 576 -4197 -6134 -4713 -4960 -5457 -4789 0
1000000 3227 -4197 -6134 -4713 -4960 -5457 -4789 0
1000000 856 -6698 -5507 0
1000000 3228 -6698 -5507 0
1000000 401 -6578 -5177 -7084 -7496 0
1000000 3229 -6578 -5177 -7084 -7496 0
1000000 900 -5568 -6453 -4815 -4415 -7445 0
1000000 3230 -5568 -6453 -4815 -4415 -7445 0
1000000 638 -5463 -6512 -890 0
1000000 3231 -5463 -6512 -890 0
1000000 1174 -6682 -5236 -4663 -6265 -7134 -1181 0
1000000 3232 -6682 -5236 -4663 -6265 -7134 -1181 0
1000000 635 -4145 -4176 -7232 -6627 0
1000000 3233 -4145 -4176 -7232 -6627 0
1000000 629 -4775 -5548 -6704 -655 0
1000000 3234 -4775 -5548 -6704 -655 0
1000000 746 -6774 -5292 -4509 0
1000000 3235 -6774 -5292 -4509 0
1000000 1173 -7599 -4622 -5197 -1192 0
1000000 3236 -7599 -4622 -5197 -1192 0
1000000 232 -7034 -7009 -4456 -6970 0
1000000 3237 -7034 -7009 -4456 -6970 0
1000000 577 -4931 -5500 -7671 -5641 -5186 -7270 0
1000000 3238 -4931 -5500 -7671 -5641 -5186 -7270 0
1000000 1018 -5627 -4914 -7189 -6445 0
1000000 3239 -5627 -4914 -7189 -6445 0
1000000 979 -6148 -7098 -1074 0
1000000 3240 -6148 -7098 -1074 0
1000000 1112 -5289 -6156 -5326 0
1000000 3241 -5289 -6156 -5326 0
1000000 771 -6322 -816 0
1000000 3242 -6322 -816 0
1000000 857 -6648 -6037 -1115 0
1000000 3243 -6648 -6037 -1115 0
1000000 215 -6985 -5564 -4574 -5686 -6776 0
1000000 3244 -6985 -5564 -4574 -5686 -6776 0
1000000 27 -5390 -5694 -852 0
1000000 3245 -5390 -5694 -852 0
1000000 121 -5191 -6854 -5420 0
1000000 3246 -5191 -6854 -5420 0
1000000 1168 -4297 -6874 0
1000000 3247 -4297 -6874 0
1000000 68 -4943 -4208 -5650 -4188 0
1000000 3248 -4943 -4208 -5650 -4188 0
1000000 1075 -4415 -7461 -4765 -5571 -7290 0
1000000 3249 -4415 -7461 -4765 -5571 -7290 0
1000000 512 -4426 -4484 -4145 -1000 0
1000000 3250 -4426 -4484 -4145 -1000 0
1000000 742 -5290 -7626 -905 0
1000000 3251 -5290 -7626 -905 0
1000000 662 -4730 -5441 -6438 -7623 0
1000000 3252 -4730 -5441 -6438 -7623 0
1000000 48 -4107 -5364 -5071 -5121 -6527 -4570 0
1000000 3253 -4107 -5364 -5071 -5121 -6527 -4570 0
1000000 569 -4939 -4316 0
1000000 3254 -4939 -4316 0
1000000 173 -4532 -6371 0
1000000 3255 -4532 -6371 0
1000000 438 -6476 -7089 -6218 -4619 -6623 -627 0
1000000 3256 -6476 -7089 -6218 -4619 -6623 -627 0
1000000 981 -6873 -4562 -5346 0
1000000 3257 -6873 -4562 -5346 0
1000000 217 -6727 -5280 -7367 0
1000000 3258 -6727 -5280 -7367 0
1000000 30 -4195 -1013 0
1000000 3259 -4195 -1013 0
1000000 705 -4472 -7419 -6171 -4179 -6320 -1038 0
1000000 3260 -4472 -7419 -6171 -4179 -6320 -1038 0
1000000 951 -6086 -4815 0
1000000 3261 -6086 -4815 0
1000000 1117 -4782 -7508 -5720 -6069 -7368 0
1000000 3262 -4782 -7508 -5720 -6069 -7368 0
1000000 71 -4255 -6438 -4353 -6331 0
1000000 3263 -4255 -6438 -4353 -6331 0
1000000 561 -4473 -4133 -6164 -4476 0
1000000 3264 -4473 -4133 -6164 -4476 0
1000000 1044 -4800 -6740 -5060 -4256 -4679 0
1000000 3265 -4800 -6740 -5060 -4256 -4679 0
1000000 816 -4087 -969 0
1000000 3266 -4087 -969 0
1000000 1155 -5959 -6358 -7613 -4515 -6349 -1162 0
1000000 3267 -5959 -6358 -7613 -4515 -6349 -1162 0
1000000 861 -6812 -5056 0
1000000 3268 -6812 -5056 0
1000000 620 -6039 -6130 -4615 0
1000000 3269 -6039 -6130 -4615 0
1000000 529 -6954 -5003 -6033 -7183 -4925 0
1000000 3270 -6954 -5003 -6033 -7183 -4925 0
1000000 613 -5014 -6843 -5068 -5911 -5034 -7378 0
1000000 3271 -5014 -6843 -5068 -5911 -5034 -7378 0
1000000 189 -7347 -4935 -7234 -6772 -6631 -1194 0
1000000 3272 -7347 -4935 -7234 -6772 -6631 -1194 0
1000000 981 -4711 -1000 0
1000000 3273 -4711 -1000 0
1000000 496 -5394 -6332 -835 0
1000000 3274 -5394 -6332 -835 0
1000000 166 -6660 -4232 -5785 -4749 -6998 -6943 0
1000000 3275 -6660 -4232 -5785 -4749 -6998 -6943 0
1000000 1016 -7488 -5747 -6963 0
1000000 3276 -7488 -5747 -6963 0
1000000 1173 -7559 -5046 -6138 -5129 -7061 0
1000000 3277 -7559 -5046 -6138 -5129 -7061 0
1000000 488 -5870 -4195 -4286 -4178 -6698 0
1000000 3278 -5870 -4195 -4286 -4178 -6698 0
1000000 397 -6570 -4343 -4741 -7406 0
1000000 3279 -6570 -4343 -4741 -7406 0
1000000 82 -4517 -5985 -6995 -4736 -4395 -7208 0
1000000 3280 -4517 -5985 -6995 -4736 -4395 -7208 0
1000000 111 -5548 -7496 -7359 -1035 0
1000000 3281 -5548 -7496 -7359 -1035 0
1000000 637 -4587 -6671 -7205 -4841 -7640 -5411 0
1000000 3282 -4587 -6671 -7205 -4841 -7640 -5411 0
1000000 920 -7064 -7392 -1094 0
1000000 3283 -7064 -7392 -1094 0
1000000 308 -5549 -6770 -4329 -7171 -4571 -5325 0
1000000 3284 -5549 -6770 -4329 -7171 -4571 -5325 0
1000000 95 -4397 -4535 -4645 0
1000000 3285 -4397 -4535 -4645 0
1000000 875 -6734 -4564 -6427 -1173 0
1000000 3286 -6734 -4564 -6427 -1173 0
1000000 1078 -6305 -6604 -4167 -5582 0
1000000 3287 -6305 -6604 -4167 -5582 0
1000000 863 -7472 -5997 -1168 0
1000000 3288 -7472 -5997 -1168 0
1000000 342 -7194 -6862 -6737 -517 0
1000000 3289 -7194 -6862 -6737 -517 0
1000000 663 -4867 -1053 0
1000000 3290 -4867 -1053 0
1000000 809 -7399 -1197 0
1000000 3291 -7399 -1197 0
1000000 530 -5355 -5302 -6450 -5375 -5396 -6073 0
1000000 3292 -5355 -5302 -6450 -5375 -5396 -6073 0
1000000 1155 -5227 -5756 0
1000000 3293 -5227 -5756 0
1000000 852 -5215 -6387 0
1000000 3294 -5215 -6387 0
1000000 183 -5765 -4721 -5175 -4293 0
1000000 3295 -5765 -4721 -5175 -4293 0
1000000 152 -4384 -7324 -5757 -4269 -6234 0
1000000 3296 -4384 -7324 -5757 -4269 -6234 0
1000000 1038 -5430 -4990 -5423 -6913 -7521 0
1000000 3297 -5430 -4990 -5423 -6913 -7521 0
1000000 550 -4274 -5402 -4682 0
1000000 3298 -4274 -5402 -4682 0
1000000 1158 -6958 -7491 -6449 -5916 -5345 -6815 0
1000000 3299 -6958 -7491 -6449 -5916 -5345 -6815 0
1000000 990 -7118 -4692 -6456 -5680 -6136 0
1000000 3300 -7118 -4692 -6456 -5680 -6136 0
1000000 1155 -6840 -4222 -6722 -5952 -4557 0
1000000 3301 -6840 -4222 -6722 -5952 -4557 0
1000000 200 -5066 -5455 -7651 0
1000000 3302 -5066 -5455 -7651 0
1000000 174 -6061 -6394 -6788 -5377 0
1000000 3303 -6061 -6394 -6788 -5377 0
1000000 762 -7429 -7471 -5523 -5985 -4826 -5052 0
1000000 3304 -7429 -7471 -5523 -5985 -4826 -5052 0
1000000 336 -7413 -4377 0
1000000 3305 -7413 -4377 0
1000000 774 -6889 -7031 -6524 -5429 0
1000000 3306 -6889 -7031 -6524 -5429 0
1000000 10 -6445 -6712 -7216 -830 0
1000000 3307 -6445 -6712 -7216 -830 0
1000000 935 -5942 -4624 -5670 -7232 0
1000000 3308 -5942 -4624 -5670 -7232 0
1000000 622 -5334 -4233 0
1000000 3309 -5334 -4233 0
1000000 557 -6520 -6947 -6951 -7182 0
1000000 3310 -6520 -6947 -6951 -7182 0
1000000 639 -7625 -7506 -5025 0
1000000 3311 -7625 -7506 -5025 0
1000000 943 -6069 -7094 -5044 -4877 -4371 -1128 0
1000000 3312 -6069 -7094 -5044 -4877 -4371 -1128 0
1000000 1154 -7579 -4755 -4614 -4681 0
1000000 3313 -7579 -4755 -4614 -4681 0
1000000 128 -5638 -6875 -7531 -7658 -4970 0
1000000 3314 -5638 -6875 -7531 -7658 -4970 0
1000000 1056 -4311 -4717 -5257 0
1000000 3315 -4311 -4717 -5257 0
1000000 150 -7636 -4199 -4560 0
1000000 3316 -7636 -4199 -4560 0
1000000 45 -5310 -6100 -6935 -6294 -6413 -993 0
1000000 3317 -5310 -6100 -6935 -6294 -6413 -993 0
1000000 1045 -5759 -6704 -7566 -5940 -1073 0
1000000 3318 -5759 -6704 -7566 -5940 -1073 0
1000000 860 -6212 -6506 -6283 0
1000000 3319 -6212 -6506 -6283 0
1000000 1076 -4913 -1118 0
1000000 3320 -4913 -1118 0
1000000 288 -5711 -4888 0
1000000 3321 -5711 -4888 0
1000000 1175 -4394 -6945 -4389 -6867 0
1000000 3322 -4394 -6945 -4389 -6867 0
1000000 469 -6396 -4682 -598 0
1000000 3323 -6396 -4682 -598 0
1000000 1007 -6983 -7506 -1038 0
1000000 3324 -6983 -7506 -1038 0
1000000 1068 -5767 -6624 -1078 0
1000000 3325 -5767 -6624 -1078 0
1000000 926 -6604 -7072 -6341 -7475 0
1000000 3326 -6604 -7072 -6341 -7475 0
1000000 801 -5722 -5450 -951 0
1000000 3327 -5722 -5450 -951 0
1000000 489 -4141 -4446 -5815 -6041 -552 0
1000000 3328 -4141 -4446 -5815 -6041 -552 0
1000000 636 -6455 -4174 -4496 -5044 -6636 -6248 0
1000000 3329 -6455 -4174 -4496 -5044 -6636 -6248 0
1000000 1011 -6697 -5875 -7414 -4412 0
1000000 3330 -6697 -5875 -7414 -4412 0
1000000 587 -7634 -6116 -6590 -6472 0
1000000 3331 -7634 -6116 -6590 -6472 0
1000000 677 -7295 -4667 -7490 -5407 -4173 0
1000000 3332 -7295 -4667 -7490 -5407 -4173 0
1000000 3 -6264 -7235 -5144 -7401 -5635 -398 0
1000000 3333 -6264 -7235 -5144 -7401 -5635 -398 0
1000000 1092 -4964 -4372 -6113 0
1000000 3334 -4964 -4372 -6113 0
1000000 259 -6252 -5354 -370 0
1000000 3335 -6252 -5354 -370 0
1000000 200 -4982 -5503 -6683 0
1000000 3336 -4982 -5503 -6683 0
1000000 612 -4246 -4199 -5127 -6164 -5719 0
1000000 3337 -4246 -4199 -5127 -6164 -5719 0
1000000 364 -5383 -5796 -4370 -5848 0
1000000 3338 -5383 -5796 -4370 -5848 0
1000000 351 -4869 -6435 -6950 -4572 -544 0
1000000 3339 -4869 -6435 -6950 -4572 -544 0
1000000 139 -6697 -5161 0
1000000 3340 -6697 -5161 0
1000000 958 -6321 -6328 0
1000000 3341 -6321 -6328 0
1000000 867 -4326 -4138 -7372 -4975 -5452 0
1000000 3342 -4326 -4138 -7372 -4975 -5452 0
1000000 8 -6547 -5072 -6818 -5149 -5720 -6791 0
1000000 3343 -6547 -5072 -6818 -5149 -5720 -6791 0
1000000 151 -7292 -4264 -4490 0
1000000 3344 -7292 -4264 -4490 0
1000000 176 -5215 -5229 -6955 -5006 0
1000000 3345 -5215 -5229 -6955 -5006 0
1000000 290 -4269 -4472 -5346 -6078 0
1000000 3346 -4269 -4472 -5346 -6078 0
1000000 632 -6122 -5570 -5583 -6314 -6973 -7062 0
1000000 3347 -6122 -5570 -5583 -6314 -6973 -7062 0
1000000 47 -7459 -4633 -6463 -5961 0
1000000 3348 -7459 -4633 -6463 -5961 0
1000000 184 -5625 -4402 -7417 -5068 -4702 0
1000000 3349 -5625 -4402 -7417 -5068 -4702 0
1000000 440 -5465 -6416 -7447 -7127 -5011 0
1000000 3350 -5465 -6416 -7447 -7127 -5011 0
1000000 704 -7250 -7582 -5603 -7038 0
1000000 3351 -7250 -7582 -5603 -7038 0
1000000 61 -4813 -7211 -6134 -5996 -6677 -5606 0
1000000 3352 -4813 -7211 -6134 -5996 -6677 -5606 0
1000000 736 -5016 -4494 0
1000000 3353 -5016 -4494 0
1000000 1084 -4778 -7046 -7106 -5937 0
1000000 3354 -4778 -7046 -7106 -5937 0
1000000 1060 -6431 -4772 0
1000000 3355 -6431 -4772 0
1000000 232 -6557 -6483 -4725 0
1000000 3356 -6557 -6483 -4725 0
1000000 468 -4395 -5341 -5498 -7211 -4699 0
1000000 3357 -4395 -5341 -5498 -7211 -4699 0
1000000 198 -4572 -7657 -6348 -987 0
1000000 3358 -4572 -7657 -6348 -987 0
1000000 1093 -5725 -5928 -6302 -5216 -6888 -6039 0
1000000 3359 -5725 -5928 -6302 -5216 -6888 -6039 0
1000000 613 -5213 -4165 -6644 -5438 0
1000000 3360 -5213 -4165 -6644 -5438 0
1000000 572 -7392 -7154 -6569 -7071 0
1000000 3361 -7392 -7154 -6569 -7071 0
1000000 409 -4340 -5386 -7371 -4230 -5223 -6745 0
1000000 3362 -4340 -5386 -7371 -4230 -5223 -6745 0
1000000 14 -5118 -7655 -6837 -5064 -6859 0
1000000 3363 -5118 -7655 -6837 -5064 -6859 0
1000000 292 -5733 -4855 -7443 -5243 -6129 0
1000000 3364 -5733 -4855 -7443 -5243 -6129 0
1000000 347 -6108 -5318 0
1000000 3365 -6108 -5318 0
1000000 1030 -6413 -1148 0
1000000 3366 -6413 -1148 0
1000000 53 -6037 -216 0
1000000 3367 -6037 -216 0
1000000 377 -5710 -4630 -5853 -6464 -4677 -6290 0
1000000 3368 -5710 -4630 -5853 -6464 -4677 -6290 0
1000000 902 -5980 -6486 -7204 -4921 -920 0
1000000 3369 -5980 -6486 -7204 -4921 -920 0
1000000 467 -5862 -6799 -5602 -5550 -5408 0
1000000 3370 -5862 -6799 -5602 -5550 -5408 0
1000000 739 -6347 -7283 -5721 -5894 -5898 -831 0
1000000 3371 -6347 -7283 -5721 -5894 -5898 -831 0
1000000 200 -6908 -5733 0
1000000 3372 -6908 -5733 0
1000000 1058 -5859 -7409 -5944 0
1000000 3373 -5859 -7409 -5944 0
1000000 831 -7536 -7450 -7159 -1058 0
1000000 3374 -7536 -7450 -7159 -1058 0
1000000 838 -4456 -6779 -4810 -7307 -4805 0
1000000 3375 -4456 -6779 -4810 -7307 -4805 0
1000000 412 -5106 -6160 0
1000000 3376 -5106 -6160 0
1000000 1012 -7143 -4246 -4410 -5120 -6052 -7195 0
1000000 3377 -7143 -4246 -4410 -5120 -6052 -7195 0
1000000 1159 -4963 -5980 -6718 -5589 -5612 0
1000000 3378 -4963 -5980 -6718 -5589 -5612 0
1000000 724 -7200 -7409 -5365 -7553 -5934 -4432 0
1000000 3379 -7200 -7409 -5365 -7553 -5934 -4432 0
1000000 985 -4187 -6144 -6916 -4119 -7013 -4797 0
1000000 3380 -4187 -6144 -6916 -4119 -7013 -4797 0
1000000 234 -7380 -5025 -5514 -6864 -6192 -5058 0
1000000 3381 -7380 -5025 -5514 -6864 -6192 -5058 0
1000000 607 -6452 -6770 0
1000000 3382 -6452 -6770 0
1000000 711 -7196 -7497 -7666 -5596 -6010 0
1000000 3383 -7196 -7497 -7666 -5596 -6010 0
1000000 410 -5063 -580 0
1000000 3384 -5063 -580 0
1000000 887 -7290 -5753 -6831 -6002 -4426 0
1000000 3385 -7290 -5753 -6831 -6002 -4426 0
1000000 1101 -7139 -1127 0
1000000 3386 -7139 -1127 0
1000000 437 -4708 -7600 -6111 -4893 -7187 -7390 0
1000000 3387 -4708 -7600 -6111 -4893 -7187 -7390 0
1000000 344 -4651 -4657 0
1000000 3388 -4651 -4657 0
1000000 271 -5015 -5497 -5184 -6628 -910 0
1000000 3389 -5015 -5497 -5184 -6628 -910 0
1000000 808 -4541 -4591 -5459 0
1000000 3390 -4541 -4591 -5459 0
1000000 1119 -6856 -4629 -5630 -5111 -5636 0
1000000 3391 -6856 -4629 -5630 -5111 -5636 0
1000000 610 -6751 -4162 0
1000000 3392 -6751 -4162 0
1000000 533 -5901 -7079 -4246 0
1000000 3393 -5901 -7079 -4246 0
1000000 560 -7485 -1011 0
1000000 3394 -7485 -1011 0
1000000 952 -6940 -6610 0
1000000 3395 -6940 -6610 0
1000000 613 -7349 -5592 -7386 0
1000000 3396 -7349 -5592 -7386 0
1000000 1168 -5406 -6829 -4615 -7653 -6330 0
1000000 3397 -5406 -6829 -4615 -7653 -6330 0
1000000 511 -7125 -1065 0
1000000 3398 -7125 -1065 0
1000000 675 -4953 -5957 0
1000000 3399 -4953 -5957 0
1000000 907 -7585 -7209 0
1000000 3400 -7585 -7209 0
1000000 88 -5954 -4215 -4556 -372 0
1000000 3401 -5954 -4215 -4556 -372 0
1000000 907 -5601 -7671 -1022 0
1000000 3402 -5601 -7671 -1022 0
1000000 1045 -5129 -6982 -1105 0
1000000 3403 -5129 -6982 -1105 0
1000000 226 -6510 -7102 -6421 -4953 0
1000000 3404 -6510 -7102 -6421 -4953 0
1000000 8 -5194 -6752 -7200 -4880 -7285 -1112 0
1000000 3405 -5194 -6752 -7200 -4880 -7285 -1112 0
1000000 576 -4228 -7646 -4313 0
1000000 3406 -4228 -7646 -4313 0
1000000 217 -5057 -4781 -5828 -4826 -4758 -5328 0
1000000 3407 -5057 -4781 -5828 -4826 -4758 -5328 0
1000000 1003 -4797 -4562 -5989 0
1000000 3408 -4797 -4562 -5989 0
1000000 581 -6276 -6060 -6239 -4674 -1154 0
1000000 3409 -6276 -6060 -6239 -4674 -1154 0
1000000 155 -4969 -7087 -7508 0
1000000 3410 -4969 -7087 -7508 0
1000000 351 -5045 -5315 0
1000000 3411 -5045 -5315 0
1000000 654 -6029 -7358 -4538 -5481 -6767 0
1000000 3412 -6029 -7358 -4538 -5481 -6767 0
1000000 917 -4568 -5028 -4529 0
1000000 3413 -4568 -5028 -4529 0
1000000 373 -4645 -7256 -5663 0
1000000 3414 -4645 -7256 -5663 0
1000000 29 -4622 -6140 -4373 -4337 0
1000000 3415 -4622 -6140 -4373 -4337 0
1000000 60 -5975 -6926 -4303 -5937 -5161 0
1000000 3416 -5975 -6926 -4303 -5937 -5161 0
1000000 1042 -4345 -5154 -1047 0
1000000 3417 -4345 -5154 -1047 0
1000000 188 -6770 -5463 -5854 0
1000000 3418 -6770 -5463 -5854 0
1000000 399 -4551 -885 0
1000000 3419 -4551 -885 0
1000000 867 -5758 -4443 0
1000000 3420 -5758 -4443 0
1000000 166 -6437 -641 0
1000000 3421 -6437 -641 0
1000000 779 -5528 -7416 -6569 -5430 -4087 -950 0
1000000 3422 -5528 -7416 -6569 -5430 -4087 -950 0
1000000 817 -5007 -5794 0
1000000 3423 -5007 -5794 0
1000000 646 -6221 -7405 -7180 -1093 0
1000000 3424 -6221 -7405 -7180 -1093 0
1000000 543 -6503 -7154 -5457 -6528 0
1000000 3425 -6503 -7154 -5457 -6528 0
1000000 533 -6149 -5668 0
1000000 3426 -6149 -5668 0
1000000 576 -4231 -6077 -4817 -6801 -6459 -720 0
1000000 3427 -4231 -6077 -4817 -6801 -6459 -720 0
1000000 783 -7131 -6483 -5474 -5871 -4231 0
1000000 3428 -7131 -6483 -5474 -5871 -4231 0
1000000 260 -5464 -7196 -4980 -5136 -4596 -5705 0
1000000 3429 -5464 -7196 -4980 -5136 -4596 -5705 0
1000000 695 -6596 -6671 -7085 -5880 -5276 -6257 0
1000000 3430 -6596 -6671 -7085 -5880 -5276 -6257 0
1000000 518 -4745 -7240 -5087 -7599 -7265 -1115 0
1000000 3431 -4745 -7240 -5087 -7599 -7265 -1115 0
1000000 912 -5501 -6042 -4276 -4146 -4524 0
1000000 3432 -5501 -6042 -4276 -4146 -4524 0
1000000 96 -6838 -6323 -4741 0
1000000 3433 -6838 -6323 -4741 0
1000000 224 -5341 -7378 -4782 0
1000000 3434 -5341 -7378 -4782 0
1000000 18 -5211 -5067 0
1000000 3435 -5211 -5067 0
1000000 1068 -6513 -5751 -4973 -5483 -7367 -1121 0
1000000 3436 -6513 -5751 -4973 -5483 -7367 -1121 0
1000000 741 -7604 -7592 -5139 -5951 0
1000000 3437 -7604 -7592 -5139 -5951 0
1000000 392 -6144 -6449 -5127 -541 0
1000000 3438 -6144 -6449 -5127 -541 0
1000000 1027 -5791 -4641 -5798 0
1000000 3439 -5791 -4641 -5798 0
1000000 49 -6407 -4803 -5424 -7421 -861 0
1000000 3440 -6407 -4803 -5424 -7421 -861 0
1000000 711 -6070 -6764 -4948 -770 0
1000000 3441 -6070 -6764 -4948 -770 0
1000000 890 -7407 -6771 -6407 -1070 0
1000000 3442 -7407 -6771 -6407 -1070 0
1000000 1179 -6901 -5365 -5822 -4565 -5207 -1185 0
1000000 3443 -6901 -5365 -5822 -4565 -5207 -1185 0
1000000 346 -4785 -5293 0
1000000 3444 -4785 -5293 0
1000000 845 -5486 -6434 -6086 -4614 0
1000000 3445 -5486 -6434 -6086 -4614 0
1000000 323 -5399 -6133 -4757 0
1000000 3446 -5399 -6133 -4757 0
1000000 1102 -7241 -1186 0
1000000 3447 -7241 -1186 0
1000000 1030 -6192 -5082 -4681 -4919 -6784 0
1000000 3448 -6192 -5082 -4681 -4919 -6784 0
1000000 868 -7564 -4949 -5498 0
1000000 3449 -7564 -4949 -5498 0
1000000 982 -5300 -4138 0
1000000 3450 -5300 -4138 0
1000000 649 -6541 -7531 -7574 -7678 -5205 -959 0
1000000 3451 -6541 -7531 -7574 -7678 -5205 -959 0
1000000 1082 -6697 -6480 -5461 -5838 0
1000000 3452 -6697 -6480 -5461 -5838 0
1000000 371 -5270 -5456 -4986 -7399 -6512 -4420 0
1000000 3453 -5270 -5456 -4986 -7399 -6512 -4420 0
1000000 29 -7501 -6533 -5116 -7172 -4337 -5210 0
1000000 3454 -7501 -6533 -5116 -7172 -4337 -5210 0
1000000 392 -5655 -6617 0
1000000 3455 -5655 -6617 0
1000000 479 -5133 -4595 0
1000000 3456 -5133 -4595 0
1000000 788 -4541 -6583 -5809 -7276 -4876 -4571 0
1000000 3457 -4541 -6583 -5809 -7276 -4876 -4571 0
1000000 974 -7325 -4762 -6717 0
1000000 3458 -7325 -4762 -6717 0
1000000 196 -6162 -4443 0
1000000 3459 -6162 -4443 0
1000000 717 -5001 -4432 0
1000000 3460 -5001 -4432 0
1000000 880 -5896 -7020 -5698 -7180 0
1000000 3461 -5896 -7020 -5698 -7180 0
1000000 1 -4851 -7377 0
1000000 3462 -4851 -7377 0
1000000 756 -5068 -4463 -4855 -6560 -4681 -4763 0
1000000 3463 -5068 -4463 -4855 -6560 -4681 -4763 0
1000000 19 -6146 -1194 0
1000000 3464 -6146 -1194 0
1000000 860 -6505 -6273 -4956 -6732 0
1000000 3465 -6505 -6273 -4956 -6732 0
1000000 889 -4614 -4836 -5959 -4260 -5971 -5942 0
1000000 3466 -4614 -4836 -5959 -4260 -5971 -5942 0
1000000 770 -4196 -7230 -7153 -4873 -6219 -965 0
1000000 3467 -4196 -7230 -7153 -4873 -6219 -965 0
1000000 956 -4375 -5513 0
1000000 3468 -4375 -5513 0
1000000 1130 -5040 -1175 0
1000000 3469 -5040 -1175 0
1000000 398 -7679 -5173 -6992 -4981 0
1000000 3470 -7679 -5173 -6992 -4981 0
1000000 829 -5403 -6171 -6597 -6108 -1015 0
1000000 3471 -5403 -6171 -6597 -6108 -1015 0
1000000 657 -7636 -6634 -4493 -5243 -4195 0
1000000 3472 -7636 -6634 -4493 -5243 -4195 0
1000000 141 -7571 -5180 -6853 -5865 -7473 0
1000000 3473 -7571 -5180 -6853 -5865 -7473 0
1000000 368 -5168 -5078 -5429 0
1000000 3474 -5168 -5078 -5429 0
1000000 575 -6030 -7179 -6597 -5003 0
1000000 3475 -6030 -7179 -6597 -5003 0
1000000 862 -6365 -6458 0
1000000 3476 -6365 -6458 0
1000000 562 -5615 -7003 -7642 -4431 -5326 -5890 0
1000000 3477 -5615 -7003 -7642 -4431 -5326 -5890 0
1000000 728 -6932 -5384 0
1000000 3478 -6932 -5384 0
1000000 850 -4668 -5932 -6109 -4573 -5962 -1146 0
1000000 3479 -4668 -5932 -6109 -4573 -5962 -1146 0
1000000 341 -7578 -4390 -858 0
1000000 3480 -7578 -4390 -858 0
1000000 728 -7666 -792 0
1000000 3481 -7666 -792 0
1000000 1158 -6016 -6571 -5558 -4560 -1169 0
1000000 3482 -6016 -6571 -5558 -4560 -1169 0
1000000 110 -6750 -4721 -4232 -5353 -6870 -1145 0
1000000 3483 -6750 -4721 -4232 -5353 -6870 -1145 0
1000000 1033 -7490 -5297 -1142 0
1000000 3484 -7490 -5297 -1142 0
1000000 125 -6776 -6069 -4801 -6861 -5120 -5825 0
1000000 3485 -6776 -6069 -4801 -6861 -5120 -5825 0
1000000 512 -4352 -6129 -4406 -5245 -6230 0
1000000 3486 -4352 -6129 -4406 -5245 -6230 0
1000000 1083 -4245 -7195 0
1000000 3487 -4245 -7195 0
1000000 1160 -6445 -4814 -5849 -6698 -6399 -7275 0
1000000 3488 -6445 -4814 -5849 -6698 -6399 -7275 0
1000000 773 -4704 -5689 -7538 -7142 -7675 -1101 0
1000000 3489 -4704 -5689 -7538 -7142 -7675 -1101 0
1000000 1177 -4856 -5763 0
1000000 3490 -4856 -5763 0
1000000 626 -4682 -6019 -5756 -7445 -6309 -6068 0
1000000 3491 -4682 -6019 -5756 -7445 -6309 -6068 0
1000000 523 -4670 -5489 -7197 -6421 0
1000000 3492 -4670 -5489 -7197 -6421 0
1000000 629 -7108 -4592 -4965 -6971 0
1000000 3493 -7108 -4592 -4965 -6971 0
1000000 57 -6771 -4854 -7062 0
1000000 3494 -6771 -4854 -7062 0
1000000 1119 -5367 -5886 -6670 -6024 -4925 -1150 0
1000000 3495 -5367 -5886 -6670 -6024 -4925 -1150 0
1000000 940 -6189 -6955 -6476 -5223 0
1000000 3496 -6189 -6955 -6476 -5223 0
1000000 348 -5314 -6590 0
1000000 3497 -5314 -6590 0
1000000 871 -6151 -5580 -6911 -7096 -6609 -908 0
1000000 3498 -6151 -5580 -6911 -7096 -6609 -908 0
1000000 293 -5987 -5281 -4238 -5419 -5910 -4242 0
1000000 3499 -5987 -5281 -4238 -5419 -5910 -4242 0
1000000 1013 -4870 -4210 0
1000000 3500 -4870 -4210 0
1000000 1195 -5933 -7248 -4443 -1196 0
1000000 3501 -5933 -7248 -4443 -1196 0
1000000 989 -6605 -4217 -6979 -5465 0
1000000 3502 -6605 -4217 -6979 -5465 0
1000000 593 -6707 -4501 -7346 -7325 -6149 -4879 0
1000000 3503 -6707 -4501 -7346 -7325 -6149 -4879 0
1000000 726 -4123 -5931 -4387 0
1000000 3504 -4123 -5931 -4387 0
1000000 73 -6202 -7242 -6711 -5116 -159 0
1000000 3505 -6202 -7242 -6711 -5116 -159 0
1000000 383 -5853 -4730 -6296 -6300 -4808 0
1000000 3506 -5853 -4730 -6296 -6300 -4808 0
1000000 1150 -7473 -1188 0
1000000 3507 -7473 -1188 0
1000000 238 -7335 -4623 -4116 -4265 -4610 0
1000000 3508 -7335 -4623 -4116 -4265 -4610 0
1000000 36 -6949 -7490 -661 0
1000000 3509 -6949 -7490 -661 0
1000000 1190 -7281 -4138 -7056 -7366 -4265 -4770 0
1000000 3510 -7281 -4138 -7056 -7366 -4265 -4770 0
1000000 1126 -7237 -6499 -4438 -7525 0
1000000 3511 -7237 -6499 -4438 -7525 0
1000000 464 -4304 -809 0
1000000 3512 -4304 -809 0
1000000 937 -7140 -6197 -6497 -7494 0
1000000 3513 -7140 -6197 -6497 -7494 0
1000000 583 -7645 -7588 -782 0
1000000 3514 -7645 -7588 -782 0
1000000 294 -7623 -6402 -5556 -7621 -6097 -951 0
1000000 3515 -7623 -6402 -5556 -7621 -6097 -951 0
1000000 682 -7229 -1156 0
1000000 3516 -7229 -1156 0
1000000 880 -4237 -927 0
1000000 3517 -4237 -927 0
1000000 462 -7050 -524 0
1000000 3518 -7050 -524 0
1000000 401 -6229 -5996 -4503 -5692 0
1000000 3519 -6229 -5996 -4503 -5692 0
1000000 845 -6516 -4552 0
1000000 3520 -6516 -4552 0
1000000 417 -4287 -5415 -4476 -5597 0
1000000 3521 -4287 -5415 -4476 -5597 0
1000000 162 -5920 -5942 0
1000000 3522 -5920 -5942 0
1000000 506 -6727 -4201 -5775 -6927 -1181 0
1000000 3523 -6727 -4201 -5775 -6927 -1181 0
1000000 464 -7573 -5691 -7244 -5465 -5600 0
1000000 3524 -7573 -5691 -7244 -5465 -5600 0
1000000 578 -6163 -6190 -6926 -4903 0
1000000 3525 -6163 -6190 -6926 -4903 0
1000000 563 -7244 -7608 -7153 -7207 -5806 -574 0
1000000 3526 -7244 -7608 -7153 -7207 -5806 -574 0
1000000 811 -6263 -7602 0
1000000 3527 -6263 -7602 0
1000000 546 -4131 -5103 0
1000000 3528 -4131 -5103 0
1000000 1080 -5170 -6773 -4909 -4336 -1154 0
1000000 3529 -5170 -6773 -4909 -4336 -1154 0
1000000 1008 -4090 -7235 -7627 0
1000000 3530 -4090 -7235 -7627 0
1000000 896 -4922 -6290 -5827 -5973 -1137 0
1000000 3531 -4922 -6290 -5827 -5973 -1137 0
1000000 999 -6873 -7350 -6979 -4658 -4326 -7140 0
1000000 3532 -6873 -7350 -6979 -4658 -4326 -7140 0
1000000 460 -4936 -7080 -4999 -6072 -4653 -6706 0
1000000 3533 -4936 -7080 -4999 -6072 -4653 -6706 0
1000000 146 -4264 -5923 -5322 -7587 -4375 -6171 0
1000000 3534 -4264 -5923 -5322 -7587 -4375 -6171 0
1000000 497 -4864 -7294 0
1000000 3535 -4864 -7294 0
1000000 100 -4752 -4578 -6989 -391 0
1000000 3536 -4752 -4578 -6989 -391 0
1000000 339 -4518 -6527 -709 0
1000000 3537 -4518 -6527 -709 0
1000000 23 -4124 -7401 -5957 -6310 0
1000000 3538 -4124 -7401 -5957 -6310 0
1000000 434 -6487 -4540 -5531 -6809 -6269 -489 0
1000000 3539 -6487 -4540 -5531 -6809 -6269 -489 0
1000000 882 -5455 -6491 -5050 -7205 -6314 0
1000000 3540 -5455 -6491 -5050 -7205 -6314 0
1000000 812 -7292 -5790 0
1000000 3541 -7292 -5790 0
1000000 910 -7209 -6102 -6241 -6450 -5378 0
1000000 3542 -7209 -6102 -6241 -6450 -5378 0
1000000 883 -4280 -4119 -5808 -7026 -6456 0
1000000 3543 -4280 -4119 -5808 -7026 -6456 0
1000000 3 -7558 -6222 0
1000000 3544 -7558 -6222 0
1000000 1121 -4135 -4130 -5558 0
1000000 3545 -4135 -4130 -5558 0
1000000 173 -4649 -6892 -7582 -6475 -7231 -577 0
1000000 3546 -4649 -6892 -7582 -6475 -7231 -577 0
1000000 368 -4739 -4761 -5301 0
1000000 3547 -4739 -4761 -5301 0
1000000 619 -4125 -6874 -4404 -6314 0
1000000 3548 -4125 -6874 -4404 -6314 0
1000000 112 -6034 -6783 -7470 -6331 -5219 0
1000000 3549 -6034 -6783 -7470 -6331 -5219 0
1000000 292 -6495 -6388 0
1000000 3550 -6495 -6388 0
1000000 936 -7598 -7008 -4285 -7439 0
1000000 3551 -7598 -7008 -4285 -7439 0
1000000 1161 -6186 -4923 -4205 -1194 0
1000000 3552 -6186 -4923 -4205 -1194 0
1000000 212 -6109 -7585 -6103 -6311 -7026 -655 0
1000000 3553 -6109 -7585 -6103 -6311 -7026 -655 0
1000000 465 -7669 -6552 -972 0
1000000 3554 -7669 -6552 -972 0
1000000 1017 -5046 -6049 -6342 -6918 0
1000000 3555 -5046 -6049 -6342 -6918 0
1000000 117 -4386 -6091 0
1000000 3556 -4386 -6091 0
1000000 1095 -4112 -4751 -6473 0
1000000 3557 -4112 -4751 -6473 0
1000000 224 -7450 -4536 -6503 -6556 -4942 -7424 0
1000000 3558 -7450 -4536 -6503 -6556 -4942 -7424 0
1000000 642 -4353 -860 0
1000000 3559 -4353 -860 0
1000000 133 -4932 -5063 -4573 -4518 -831 0
1000000 3560 -4932 -5063 -4573 -4518 -831 0
1000000 270 -6027 -6445 -5849 -4865 -6880 -537 0
1000000 3561 -6027 -6445 -5849 -4865 -6880 -537 0
1000000 659 -6923 -6492 -7466 0
1000000 3562 -6923 -6492 -7466 0
1000000 991 -6747 -5696 -1173 0
1000000 3563 -6747 -5696 -1173 0
1000000 274 -6217 -5192 -7359 -5990 0
1000000 3564 -6217 -5192 -7359 -5990 0
1000000 841 -6092 -7321 0
1000000 3565 -6092 -7321 0
1000000 1141 -4220 -7442 -5112 -4907 -7504 0
1000000 3566 -4220 -7442 -5112 -4907 -7504 0
1000000 913 -5478 -4562 -5494 -5080 -6330 -1153 0
1000000 3567 -5478 -4562 -5494 -5080 -6330 -1153 0
1000000 348 -4279 -5076 0
1000000 3568 -4279 -5076 0
1000000 360 -5604 -4385 -6102 -7453 -6175 -6965 0
1000000 3569 -5604 -4385 -6102 -7453 -6175 -6965 0
1000000 719 -5429 -6070 -7519 -5768 -941 0
1000000 3570 -5429 -6070 -7519 -5768 -941 0
1000000 650 -6661 -6527 -5725 -5670 -7284 0
1000000 3571 -6661 -6527 -5725 -5670 -7284 0
1000000 110 -7154 -6450 -4381 -4512 -7284 0
1000000 3572 -7154 -6450 -4381 -4512 -7284 0
1000000 1007 -5951 -4098 -7440 -1047 0
1000000 3573 -5951 -4098 -7440 -1047 0
1000000 848 -4297 -4905 -4800 -1078 0
1000000 3574 -4297 -4905 -4800 -1078 0
1000000 611 -5590 -4511 0
1000000 3575 -5590 -4511 0
1000000 218 -4669 -6273 -4725 -7263 -5973 0
1000000 3576 -4669 -6273 -4725 -7263 -5973 0
1000000 1119 -4192 -4474 -5887 -4327 0
1000000 3577 -4192 -4474 -5887 -4327 0
1000000 490 -6993 -6681 -6995 -4335 -6270 0
1000000 3578 -6993 -6681 -6995 -4335 -6270 0
1000000 116 -5809 -5881 -7315 -6786 0
1000000 3579 -5809 -5881 -7315 -6786 0
1000000 409 -7533 -7446 -7379 0
1000000 3580 -7533 -7446 -7379 0
1000000 1019 -7462 -5538 -7603 -6618 -1073 0
1000000 3581 -7462 -5538 -7603 -6618 -1073 0
1000000 795 -5468 -5217 -6193 -7233 0
1000000 3582 -5468 -5217 -6193 -7233 0
1000000 678 -5576 -6962 -5401 0
1000000 3583 -5576 -6962 -5401 0
1000000 1082 -4575 -5851 -6425 -1156 0
1000000 3584 -4575 -5851 -6425 -1156 0
1000000 17 -7424 -6107 -5178 -5648 -4603 -571 0
1000000 3585 -7424 -6107 -5178 -5648 -4603 -571 0
1000000 975 -5523 -7173 0
1000000 3586 -5523 -7173 0
1000000 64 -5744 -7095 -5468 -6965 -1181 0
1000000 3587 -5744 -7095 -5468 -6965 -1181 0
1000000 324 -6730 -5506 0
1000000 3588 -6730 -5506 0
1000000 754 -5139 -5131 -5679 -4841 0
1000000 3589 -5139 -5131 -5679 -4841 0
1000000 575 -6902 -591 0
1000000 3590 -6902 -591 0
1000000 786 -6026 -6828 -6695 -6155 -1099 0
1000000 3591 -6026 -6828 -6695 -6155 -1099 0
1000000 284 -5644 -4701 -7475 -5831 -7007 -6917 0
1000000 3592 -5644 -4701 -7475 -5831 -7007 -6917 0
1000000 1176 -5000 -7392 -4413 -4426 -4568 0
1000000 3593 -5000 -7392 -4413 -4426 -4568 0
1000000 795 -4663 -6874 -7487 -1116 0
1000000 3594 -4663 -6874 -7487 -1116 0
1000000 61 -6512 -5517 -4433 -7270 -5718 0
1000000 3595 -6512 -5517 -4433 -7270 -5718 0
1000000 558 -6474 -7232 0
1000000 3596 -6474 -7232 0
1000000 196 -5098 -4713 -4266 -6106 -5910 -484 0
1000000 3597 -5098 -4713 -4266 -6106 -5910 -484 0
1000000 1041 -5836 -7341 -4596 -5667 0
1000000 3598 -5836 -7341 -4596 -5667 0
1000000 631 -6117 -5987 -5418 -7639 -7552 0
1000000 3599 -6117 -5987 -5418 -7639 -7552 0
1000000 660 -6421 -4129 -7093 -4877 -5698 -6578 0
1000000 3600 -6421 -4129 -7093 -4877 -5698 -6578 0
1000000 179 -6165 -6557 -6724 -4972 -6829 -7063 0
1000000 3601 -6165 -6557 -6724 -4972 -6829 -7063 0
1000000 787 -6404 -4396 -4558 -5701 -4621 0
1000000 3602 -6404 -4396 -4558 -5701 -4621 0
1000000 752 -5433 -1105 0
1000000 3603 -5433 -1105 0
1000000 142 -5915 -5277 -4290 -5318 0
1000000 3604 -5915 -5277 -4290 -5318 0
1000000 986 -4777 -7357 -4602 -1065 0
1000000 3605 -4777 -7357 -4602 -1065 0
1000000 1024 -6377 -4327 -4352 -4944 -6832 -1198 0
1000000 3606 -6377 -4327 -4352 -4944 -6832 -1198 0
1000000 720 -7267 -6950 -4091 -4356 -1014 0
1000000 3607 -7267 -6950 -4091 -4356 -1014 0
1000000 109 -7594 -6087 -4117 -5229 -6239 -7101 0
1000000 3608 -7594 -6087 -4117 -5229 -6239 -7101 0
1000000 406 -5058 -5533 -4489 -4800 -6773 0
1000000 3609 -5058 -5533 -4489 -4800 -6773 0
1000000 519 -5289 -6377 0
1000000 3610 -5289 -6377 0
1000000 784 -7476 -7520 -6886 -6408 0
1000000 3611 -7476 -7520 -6886 -6408 0
1000000 618 -4843 -7104 -6903 -6534 -6508 -1103 0
1000000 3612 -4843 -7104 -6903 -6534 -6508 -1103 0
1000000 892 -5015 -4259 -5679 -1078 0
1000000 3613 -5015 -4259 -5679 -1078 0
1000000 1139 -5258 -7340 -4336 -4502 0
1000000 3614 -5258 -7340 -4336 -4502 0
1000000 289 -6009 -5544 -6682 -6832 0
1000000 3615 -6009 -5544 -6682 -6832 0
1000000 203 -5690 -5091 -4749 -6754 -5130 -7062 0
1000000 3616 -5690 -5091 -4749 -6754 -5130 -7062 0
1000000 345 -4288 -5671 -5601 -7364 -4499 -6512 0
1000000 3617 -4288 -5671 -5601 -7364 -4499 -6512 0
1000000 395 -4554 -6397 -5206 -5701 0
1000000 3618 -4554 -6397 -5206 -5701 0
1000000 397 -5110 -6547 -4923 -4395 -1079 0
1000000 3619 -5110 -6547 -4923 -4395 -1079 0
1000000 1026 -6221 -7244 -7507 0
1000000 3620 -6221 -7244 -7507 0
1000000 242 -4895 -5643 0
1000000 3621 -4895 -5643 0
1000000 1132 -5350 -1140 0
1000000 3622 -5350 -1140 0
1000000 183 -6363 -5058 -4534 -5661 -4759 -896 0
1000000 3623 -6363 -5058 -4534 -5661 -4759 -896 0
1000000 516 -7113 -4157 -1108 0
1000000 3624 -7113 -4157 -1108 0
1000000 338 -7088 -7488 -4557 0
1000000 3625 -7088 -7488 -4557 0
1000000 880 -4374 -4726 -4800 -5920 0
1000000 3626 -4374 -4726 -4800 -5920 0
1000000 104 -6128 -5405 -7636 -4250 -4469 0
1000000 3627 -6128 -5405 -7636 -4250 -4469 0
1000000 312 -6389 -5331 -4248 0
1000000 3628 -6389 -5331 -4248 0
1000000 475 -4701 -7215 -4668 -7675 0
1000000 3629 -4701 -7215 -4668 -7675 0
1000000 67 -4680 -6998 -4723 -5749 0
1000000 3630 -4680 -6998 -4723 -5749 0
1000000 110 -4601 -6321 0
1000000 3631 -4601 -6321 0
1000000 865 -6500 -7175 0
1000000 3632 -6500 -7175 0
1000000 296 -5868 -5934 -5955 -5227 -7033 0
1000000 3633 -5868 -5934 -5955 -5227 -7033 0
1000000 1116 -4413 -6238 -5652 0
1000000 3634 -4413 -6238 -5652 0
1000000 1047 -6680 -4594 0
1000000 3635 -6680 -4594 0
1000000 971 -6130 -4969 0
1000000 3636 -6130 -4969 0
1000000 811 -6686 -6760 -4923 -7414 -5340 0
1000000 3637 -6686 -6760 -4923 -7414 -5340 0
1000000 787 -5502 -7364 -6587 -5600 0
1000000 3638 -5502 -7364 -6587 -5600 0
1000000 1158 -6662 -5847 -5507 -7064 0
1000000 3639 -6662 -5847 -5507 -7064 0
1000000 233 -7603 -6867 -4815 -7562 -6318 -5096 0
1000000 3640 -7603 -6867 -4815 -7562 -6318 -5096 0
1000000 830 -5931 -6714 -1024 0
1000000 3641 -5931 -6714 -1024 0
1000000 177 -7455 -7221 -7214 -5423 -4778 0
1000000 3642 -7455 -7221 -7214 -5423 -4778 0
1000000 799 -6141 -5736 -6724 -4748 -5350 -7447 0
1000000 3643 -6141 -5736 -6724 -4748 -5350 -7447 0
1000000 1184 -5006 -4833 0
1000000 3644 -5006 -4833 0
1000000 1048 -5603 -4370 0
1000000 3645 -5603 -4370 0
1000000 731 -4098 -4616 0
1000000 3646 -4098 -4616 0
1000000 306 -6507 -5560 -6341 -4646 0
1000000 3647 -6507 -5560 -6341 -4646 0
1000000 60 -4550 -6713 -305 0
1000000 3648 -4550 -6713 -305 0
1000000 1125 -7577 -7398 -4304 0
1000000 3649 -7577 -7398 -4304 0
1000000 644 -5950 -5584 -6541 -7147 -4362 -793 0
1000000 3650 -5950 -5584 -6541 -7147 -4362 -793 0
1000000 222 -5776 -6705 -5337 -4199 -4612 0
1000000 3651 -5776 -6705 -5337 -4199 -4612 0
1000000 1055 -6202 -7354 -4597 -7029 -5303 -5670 0
1000000 3652 -6202 -7354 -4597 -7029 -5303 -5670 0
1000000 421 -7066 -6529 -4549 -7319 -6325 -6859 0
1000000 3653 -7066 -6529 -4549 -7319 -6325 -6859 0
1000000 308 -4466 -693 0
1000000 3654 -4466 -693 0
1000000 774 -5615 -5025 0
1000000 3655 -5615 -5025 0
1000000 1159 -7165 -6493 -5181 -4155 -1190 0
1000000 3656 -7165 -6493 -5181 -4155 -1190 0
1000000 206 -4905 -5723 -1135 0
1000000 3657 -4905 -5723 -1135 0
1000000 553 -5812 -6624 0
1000000 3658 -5812 -6624 0
1000000 249 -4441 -5886 -6718 0
1000000 3659 -4441 -5886 -6718 0
1000000 1108 -5902 -4218 -6162 -6721 -4305 0
1000000 3660 -5902 -4218 -6162 -6721 -4305 0
1000000 91 -6958 -460 0
1000000 3661 -6958 -460 0
1000000 429 -6987 -4990 0
1000000 3662 -6987 -4990 0
1000000 1100 -6695 -4882 -6297 -6253 -5651 0
1000000 3663 -6695 -4882 -6297 -6253 -5651 0
1000000 698 -4505 -6132 0
1000000 3664 -4505 -6132 0
1000000 1134 -4303 -6195 -4676 -7362 0
1000000 3665 -4303 -6195 -4676 -7362 0
1000000 223 -7402 -5357 -4551 -624 0
1000000 3666 -7402 -5357 -4551 -624 0
1000000 303 -4998 -5924 -7021 -4378 -6130 -966 0
1000000 3667 -4998 -5924 -7021 -4378 -6130 -966 0
1000000 12 -4717 -7529 -4571 -6306 0
1000000 3668 -4717 -7529 -4571 -6306 0
1000000 208 -4339 -4765 -4872 0
1000000 3669 -4339 -4765 -4872 0
1000000 65 -6387 -4846 -5037 -6422 0
1000000 3670 -6387 -4846 -5037 -6422 0
1000000 859 -6054 -6247 -6025 -4185 -5343 0
1000000 3671 -6054 -6247 -6025 -4185 -5343 0
1000000 403 -4665 -7290 0
1000000 3672 -4665 -7290 0
1000000 755 -5698 -5714 -6319 0
1000000 3673 -5698 -5714 -6319 0
1000000 1078 -4605 -7375 -6481 0
1000000 3674 -4605 -7375 -6481 0
1000000 1110 -4387 -6264 -6465 0
1000000 3675 -4387 -6264 -6465 0
1000000 1157 -4856 -5879 -4747 -7463 -7492 0
1000000 3676 -4856 -5879 -4747 -7463 -7492 0
1000000 706 -6847 -4861 -5292 -6166 -6087 -1022 0
1000000 3677 -6847 -4861 -5292 -6166 -6087 -1022 0
1000000 568 -6757 -4269 -6693 0
1000000 3678 -6757 -4269 -6693 0
1000000 128 -4491 -4675 -4947 -4983 0
1000000 3679 -4491 -4675 -4947 -4983 0
1000000 1193 -6004 -7460 -1197 0
1000000 3680 -6004 -7460 -1197 0
1000000 797 -6010 -5409 -5353 0
1000000 3681 -6010 -5409 -5353 0
1000000 61 -4740 -5238 -904 0
1000000 3682 -4740 -5238 -904 0
1000000 45 -7626 -4695 -6932 -6396 -6051 -6595 0
1000000 3683 -7626 -4695 -6932 -6396 -6051 -6595 0
1000000 1185 -6144 -5218 -4770 0
1000000 3684 -6144 -5218 -4770 0
1000000 1030 -5256 -7174 -1133 0
1000000 3685 -5256 -7174 -1133 0
1000000 570 -6811 -7656 -4259 -7327 -4572 -757 0
1000000 3686 -6811 -7656 -4259 -7327 -4572 -757 0
1000000 37 -4887 -553 0
1000000 3687 -4887 -553 0
1000000 342 -5161 -6264 -6841 0
1000000 3688 -5161 -6264 -6841 0
1000000 503 -5732 -5959 -4611 -4939 -6615 0
1000000 3689 -5732 -5959 -4611 -4939 -6615 0
1000000 1165 -6737 -7484 -7381 -7661 0
1000000 3690 -6737 -7484 -7381 -7661 0
1000000 198 -6611 -4564 -5028 -7175 -7373 0
1000000 3691 -6611 -4564 -5028 -7175 -7373 0
1000000 254 -5279 -7374 -4336 -6353 -6731 -365 0
1000000 3692 -5279 -7374 -4336 -6353 -6731 -365 0
1000000 47 -6822 -6019 -5392 -6635 -71 0
1000000 3693 -6822 -6019 -5392 -6635 -71 0
1000000 180 -5549 -4517 -6686 -6777 0
1000000 3694 -5549 -4517 -6686 -6777 0
1000000 609 -6257 -6956 -6028 -4518 -4191 -1185 0
1000000 3695 -6257 -6956 -6028 -4518 -4191 -1185 0
1000000 664 -6216 -7037 -4974 0
1000000 3696 -6216 -7037 -4974 0
1000000 686 -5268 -6580 -5082 -5528 -5974 0
1000000 3697 -5268 -6580 -5082 -5528 -5974 0
1000000 1 -5226 -6272 0
1000000 3698 -5226 -6272 0
1000000 396 -5133 -7353 -7047 -6483 0
1000000 3699 -5133 -7353 -7047 -6483 0
1000000 665 -4995 -5685 -7121 0
1000000 3700 -4995 -5685 -7121 0
1000000 124 -4842 -6002 -6804 -6741 0
1000000 3701 -4842 -6002 -6804 -6741 0
1000000 268 -4693 -4247 -5802 -4919 -5993 0
1000000 3702 -4693 -4247 -5802 -4919 -5993 0
1000000 1114 -6529 -4118 -5907 -7205 -6595 0
1000000 3703 -6529 -4118 -5907 -7205 -6595 0
1000000 103 -7469 -6310 -6552 0
1000000 3704 -7469 -6310 -6552 0
1000000 968 -4434 -5922 -4249 -6325 -6523 0
1000000 3705 -4434 -5922 -4249 -6325 -6523 0
1000000 1025 -4937 -4448 0
1000000 3706 -4937 -4448 0
1000000 898 -5181 -4476 -6598 -5750 -5671 0
1000000 3707 -5181 -4476 -6598 -5750 -5671 0
1000000 480 -6786 -853 0
1000000 3708 -6786 -853 0
1000000 394 -6188 -6273 -6257 0
1000000 3709 -6188 -6273 -6257 0
1000000 713 -4803 -4605 -7350 -6026 -5180 0
1000000 3710 -4803 -4605 -7350 -6026 -5180 0
1000000 764 -5413 -7304 -6094 -4739 -5667 -7108 0
1000000 3711 -5413 -7304 -6094 -4739 -5667 -7108 0
1000000 116 -5207 -5005 -4484 -7389 0
1000000 3712 -5207 -5005 -4484 -7389 0
1000000 1132 -7536 -6740 -5609 0
1000000 3713 -7536 -6740 -5609 0
1000000 135 -7027 -6108 -5013 -6413 0
1000000 3714 -7027 -6108 -5013 -6413 0
1000000 574 -6870 -4212 -6411 -685 0
1000000 3715 -6870 -4212 -6411 -685 0
1000000 274 -5014 -7110 -5498 0
1000000 3716 -5014 -7110 -5498 0
1000000 921 -6753 -6056 -7255 0
1000000 3717 -6753 -6056 -7255 0
1000000 330 -5954 -775 0
1000000 3718 -5954 -775 0
1000000 929 -5497 -4132 -7268 -7672 -7401 -6727 0
1000000 3719 -5497 -4132 -7268 -7672 -7401 -6727 0
1000000 92 -5089 -6270 -6026 -4784 0
1000000 3720 -5089 -6270 -6026 -4784 0
1000000 877 -5769 -5122 -7366 -1021 0
1000000 3721 -5769 -5122 -7366 -1021 0
1000000 880 -5471 -5913 -6388 -6802 -6211 0
1000000 3722 -5471 -5913 -6388 -6802 -6211 0
1000000 737 -7513 -6065 -7344 -5853 -4904 0
1000000 3723 -7513 -6065 -7344 -5853 -4904 0
1000000 634 -6144 -4292 -5285 -7267 0
1000000 3724 -6144 -4292 -5285 -7267 0
1000000 666 -5946 -5319 -5949 -5175 -4331 0
1000000 3725 -5946 -5319 -5949 -5175 -4331 0
1000000 959 -5665 -5740 -4577 0
1000000 3726 -5665 -5740 -4577 0
1000000 64 -5633 -6361 -4653 -6220 -5417 -1130 0
1000000 3727 -5633 -6361 -4653 -6220 -5417 -1130 0
1000000 831 -5607 -4209 -4526 -6694 -6034 -6646 0
1000000 3728 -5607 -4209 -4526 -6694 -6034 -6646 0
1000000 309 -6410 -7297 -7527 -4691 -5637 0
1000000 3729 -6410 -7297 -7527 -4691 -5637 0
1000000 151 -5170 -6078 -5384 -5206 -6956 0
1000000 3730 -5170 -6078 -5384 -5206 -6956 0
1000000 681 -7609 -5608 -5469 -6265 -6951 -6357 0
1000000 3731 -7609 -5608 -5469 -6265 -6951 -6357 0
1000000 1024 -5912 -4735 -7169 -5851 -7079 -5869 0
1000000 3732 -5912 -4735 -7169 -5851 -7079 -5869 0
1000000 509 -4400 -6045 -4951 -7595 -7557 0
1000000 3733 -4400 -6045 -4951 -7595 -7557 0
1000000 76 -4716 -4186 -4154 -702 0
1000000 3734 -4716 -4186 -4154 -702 0
1000000 767 -5755 -5250 -6820 -6961 -7511 -770 0
1000000 3735 -5755 -5250 -6820 -6961 -7511 -770 0
1000000 886 -5053 -4937 0
1000000 3736 -5053 -4937 0
1000000 957 -4152 -7613 -6302 -7038 -7547 0
1000000 3737 -4152 -7613 -6302 -7038 -7547 0
1000000 917 -5084 -6667 -6113 -6401 -7604 -5614 0
1000000 3738 -5084 -6667 -6113 -6401 -7604 -5614 0
1000000 782 -6481 -5346 -964 0
1000000 3739 -6481 -5346 -964 0
1000000 206 -6407 -6762 -6799 -7226 -254 0
1000000 3740 -6407 -6762 -6799 -7226 -254 0
1000000 333 -4291 -7312 -6245 -5366 -5339 -4081 0
1000000 3741 -4291 -7312 -6245 -5366 -5339 -4081 0
1000000 787 -6747 -6914 0
1000000 3742 -6747 -6914 0
1000000 185 -7042 -6794 0
1000000 3743 -7042 -6794 0
1000000 795 -6070 -6867 -7063 -6391 0
1000000 3744 -6070 -6867 -7063 -6391 0
1000000 792 -6345 -4401 -4953 -898 0
1000000 3745 -6345 -4401 -4953 -898 0
1000000 1126 -6364 -7662 0
1000000 3746 -6364 -7662 0
1000000 756 -4714 -4713 -7093 -5455 0
1000000 3747 -4714 -4713 -7093 -5455 0
1000000 768 -7610 -4332 -5787 0
1000000 3748 -7610 -4332 -5787 0
1000000 769 -5605 -5365 0
1000000 3749 -5605 -5365 0
1000000 805 -6058 -6359 -5871 -5064 -6540 -4462 0
1000000 3750 -6058 -6359 -5871 -5064 -6540 -4462 0
1000000 1164 -7664 -6183 -4539 -6346 -1166 0
1000000 3751 -7664 -6183 -4539 -6346 -1166 0
1000000 547 -5205 -4986 -6919 -7175 -6553 0
1000000 3752 -5205 -4986 -6919 -7175 -6553 0
1000000 971 -7564 -4277 -1026 0
1000000 3753 -7564 -4277 -1026 0
1000000 301 -4968 -4363 0
1000000 3754 -4968 -4363 0
1000000 796 -6973 -4701 -7477 -4651 -5942 -5269 0
1000000 3755 -6973 -4701 -7477 -4651 -5942 -5269 0
1000000 848 -4687 -5603 -6912 -6056 -4278 -4370 0
1000000 3756 -4687 -5603 -6912 -6056 -4278 -4370 0
1000000 530 -7273 -4855 -4150 -4643 -4200 -654 0
1000000 3757 -7273 -4855 -4150 -4643 -4200 -654 0
1000000 152 -6815 -6209 -6586 -5624 -4104 0
1000000 3758 -6815 -6209 -6586 -5624 -4104 0
1000000 950 -4746 -6742 -4184 -6932 -5619 -4437 0
1000000 3759 -4746 -6742 -4184 -6932 -5619 -4437 0
1000000 1043 -6587 -7239 -5834 0
1000000 3760 -6587 -7239 -5834 0
1000000 871 -5520 -6098 -6216 -6669 -4431 0
1000000 3761 -5520 -6098 -6216 -6669 -4431 0
1000000 207 -7064 -473 0
1000000 3762 -7064 -473 0
1000000 20 -7100 -6041 -7633 -5947 0
1000000 3763 -7100 -6041 -7633 -5947 0
1000000 218 -6621 -6557 -5392 -6772 0
1000000 3764 -6621 -6557 -5392 -6772 0
1000000 538 -4562 -6527 0
1000000 3765 -4562 -6527 0
1000000 1148 -7538 -5987 -4553 -7515 -4215 0
1000000 3766 -7538 -5987 -4553 -7515 -4215 0
1000000 416 -4315 -5847 -7033 -4597 -6698 0
1000000 3767 -4315 -5847 -7033 -4597 -6698 0
1000000 468 -6197 -4190 -4860 0
1000000 3768 -6197 -4190 -4860 0
1000000 448 -5818 -4888 -5469 -5593 -5915 -7548 0
1000000 3769 -5818 -4888 -5469 -5593 -5915 -7548 0
1000000 1003 -6653 -5848 -4760 -7578 -4847 -4433 0
1000000 3770 -6653 -5848 -4760 -7578 -4847 -4433 0
1000000 344 -5393 -4582 -6424 -5623 -4675 0
1000000 3771 -5393 -4582 -6424 -5623 -4675 0
1000000 1077 -4815 -5091 -6500 -4889 -6198 0
1000000 3772 -4815 -5091 -6500 -4889 -6198 0
1000000 1018 -4844 -1136 0
1000000 3773 -4844 -1136 0
1000000 859 -4348 -6688 -7358 -5667 -6475 0
1000000 3774 -4348 -6688 -7358 -5667 -6475 0
1000000 1158 -6415 -6699 -4997 -7495 0
1000000 3775 -6415 -6699 -4997 -7495 0
1000000 484 -6013 -4413 -6485 -7583 -6909 -6737 0
1000000 3776 -6013 -4413 -6485 -7583 -6909 -6737 0
1000000 657 -5587 -6635 -7634 -6493 0
1000000 3777 -5587 -6635 -7634 -6493 0
1000000 1156 -6600 -4452 0
1000000 3778 -6600 -4452 0
1000000 1096 -4787 -4883 -5333 -6637 0
1000000 3779 -4787 -4883 -5333 -6637 0
1000000 1174 -6041 -5036 -6493 -6448 -1181 0
1000000 3780 -6041 -5036 -6493 -6448 -1181 0
1000000 857 -5887 -4593 -6678 -4703 0
1000000 3781 -5887 -4593 -6678 -4703 0
1000000 909 -5413 -6247 -4347 0
1000000 3782 -5413 -6247 -4347 0
1000000 1033 -7550 -5293 0
1000000 3783 -7550 -5293 0
1000000 494 -5112 -540 0
1000000 3784 -5112 -540 0
1000000 99 -5941 -7629 -6622 -5361 0
1000000 3785 -5941 -7629 -6622 -5361 0
1000000 369 -5898 -4085 -7156 -5177 -4975 -4475 0
1000000 3786 -5898 -4085 -7156 -5177 -4975 -4475 0
1000000 280 -5706 -4590 -7061 -5940 -7590 0
1000000 3787 -5706 -4590 -7061 -5940 -7590 0
1000000 703 -4631 -5428 -4968 -4829 -6133 -4427 0
1000000 3788 -4631 -5428 -4968 -4829 -6133 -4427 0
1000000 488 -5371 -5127 -4600 -583 0
1000000 3789 -5371 -5127 -4600 -583 0
1000000 1146 -7591 -4759 -6683 -6007 -5055 -4191 0
1000000 3790 -7591 -4759 -6683 -6007 -5055 -4191 0
1000000 162 -5030 -5812 -6951 -6068 -7111 0
1000000 3791 -5030 -5812 -6951 -6068 -7111 0
1000000 829 -7442 -4852 0
1000000 3792 -7442 -4852 0
1000000 947 -4487 -5501 -5129 -6506 -965 0
1000000 3793 -4487 -5501 -5129 -6506 -965 0
1000000 736 -6196 -5925 -5931 -6809 -7658 0
1000000 3794 -6196 -5925 -5931 -6809 -7658 0
1000000 1010 -5767 -4638 -7310 -5062 0
1000000 3795 -5767 -4638 -7310 -5062 0
1000000 1101 -6436 -5138 -6839 -6413 0
1000000 3796 -6436 -5138 -6839 -6413 0
1000000 1009 -6530 -5287 -7630 -7443 -7475 -4911 0
1000000 3797 -6530 -5287 -7630 -7443 -7475 -4911 0
1000000 608 -6457 -6142 -7337 -906 0
1000000 3798 -6457 -6142 -7337 -906 0
1000000 973 -6937 -5349 -4263 -6416 -7280 -4913 0
1000000 3799 -6937 -5349 -4263 -6416 -7280 -4913 0
1000000 702 -6738 -5739 -5876 -5012 0
1000000 3800 -6738 -5739 -5876 -5012 0
1000000 1021 -5128 -4635 -6484 -4911 -4094 0
1000000 3801 -5128 -4635 -6484 -4911 -4094 0
1000000 932 -5461 -7313 0
1000000 3802 -5461 -7313 0
1000000 308 -7378 -508 0
1000000 3803 -7378 -508 0
1000000 164 -4597 -6073 -4790 -5911 -7336 0
1000000 3804 -4597 -6073 -4790 -5911 -7336 0
1000000 807 -5231 -6562 -5603 -4777 -6806 0
1000000 3805 -5231 -6562 -5603 -4777 -6806 0
1000000 585 -4458 -5836 -6726 -6188 -6796 -5384 0
1000000 3806 -4458 -5836 -6726 -6188 -6796 -5384 0
1000000 615 -4515 -6965 -4168 -6389 -5148 0
1000000 3807 -4515 -6965 -4168 -6389 -5148 0
1000000 172 -4163 -6896 -5444 0
1000000 3808 -4163 -6896 -5444 0
1000000 567 -4265 -5115 -7411 -4572 -5869 0
1000000 3809 -4265 -5115 -7411 -4572 -5869 0
1000000 322 -5602 -6169 -7210 0
1000000 3810 -5602 -6169 -7210 0
1000000 411 -5799 -6034 -7362 0
1000000 3811 -5799 -6034 -7362 0
1000000 1123 -4458 -4145 -6147 -5447 -5109 0
1000000 3812 -4458 -4145 -6147 -5447 -5109 0
1000000 384 -5633 -4944 -811 0
1000000 3813 -5633 -4944 -811 0
1000000 207 -4778 -559 0
1000000 3814 -4778 -559 0
1000000 801 -6373 -7604 -4671 -7289 -6960 0
1000000 3815 -6373 -7604 -4671 -7289 -6960 0
1000000 518 -6726 -6243 -4950 0
1000000 3816 -6726 -6243 -4950 0
1000000 1026 -5981 -5517 -7329 -5097 0
1000000 3817 -5981 -5517 -7329 -5097 0
1000000 961 -5338 -5205 0
1000000 3818 -5338 -5205 0
1000000 891 -6404 -4776 -6254 -6164 -6229 -4450 0
1000000 3819 -6404 -4776 -6254 -6164 -6229 -4450 0
1000000 9 -4783 -4208 -5875 -925 0
1000000 3820 -4783 -4208 -5875 -925 0
1000000 210 -7475 -7030 -4410 -4684 0
1000000 3821 -7475 -7030 -4410 -4684 0
1000000 114 -5109 -6880 -7610 -6947 -5255 -7457 0
1000000 3822 -5109 -6880 -7610 -6947 -5255 -7457 0
1000000 191 -4622 -6098 0
1000000 3823 -4622 -6098 0
1000000 830 -5417 -4384 -4568 -6905 -5248 -6202 0
1000000 3824 -5417 -4384 -4568 -6905 -5248 -6202 0
1000000 477 -6492 -4111 -6341 -5453 -684 0
1000000 3825 -6492 -4111 -6341 -5453 -684 0
1000000 677 -5292 -6974 -6119 0
1000000 3826 -5292 -6974 -6119 0
1000000 896 -7552 -6028 -5713 -4761 -6315 -6742 0
1000000 3827 -7552 -6028 -5713 -4761 -6315 -6742 0
1000000 919 -6807 -5722 -5182 -6700 0
1000000 3828 -6807 -5722 -5182 -6700 0
1000000 892 -4703 -5316 -7138 0
1000000 3829 -4703 -5316 -7138 0
1000000 129 -6197 -7605 -5314 -4374 -7091 -5721 0
1000000 3830 -6197 -7605 -5314 -4374 -7091 -5721 0
1000000 822 -6595 -7304 -6446 0
1000000 3831 -6595 -7304 -6446 0
1000000 582 -4949 -5335 -5884 -7063 -4297 0
1000000 3832 -4949 -5335 -5884 -7063 -4297 0
1000000 592 -6288 -6221 -5527 -7318 -6916 -5648 0
1000000 3833 -6288 -6221 -5527 -7318 -6916 -5648 0
1000000 541 -5562 -4859 -4728 -4912 -739 0
1000000 3834 -5562 -4859 -4728 -4912 -739 0
1000000 988 -6764 -4729 -4174 -6838 -5590 0
1000000 3835 -6764 -4729 -4174 -6838 -5590 0
1000000 16 -7402 -6976 -7507 -6341 -6495 0
1000000 3836 -7402 -6976 -7507 -6341 -6495 0
1000000 31 -4427 -5404 -153 0
1000000 3837 -4427 -5404 -153 0
1000000 385 -4937 -4458 -7293 -4908 0
1000000 3838 -4937 -4458 -7293 -4908 0
1000000 65 -4495 -4490 -5985 0
1000000 3839 -4495 -4490 -5985 0
1000000 489 -6542 -4719 -6247 0
1000000 3840 -6542 -4719 -6247 0
1000000 629 -5105 -7244 -5799 -5650 -5267 0
1000000 3841 -5105 -7244 -5799 -5650 -5267 0
1000000 598 -4998 -6426 0
1000000 3842 -4998 -6426 0
1000000 50 -6861 -4229 -5750 0
1000000 3843 -6861 -4229 -5750 0
1000000 1130 -7013 -5779 -4746 -4430 -4653 -7144 0
1000000 3844 -7013 -5779 -4746 -4430 -4653 -7144 0
1000000 989 -4223 -7203 -5143 -5933 0
1000000 3845 -4223 -7203 -5143 -5933 0
1000000 191 -7067 -4176 -4137 -476 0
1000000 3846 -7067 -4176 -4137 -476 0
1000000 1104 -4375 -6047 -5130 -7274 0
1000000 3847 -4375 -6047 -5130 -7274 0
1000000 1111 -4714 -6783 -7662 0
1000000 3848 -4714 -6783 -7662 0
1000000 188 -4597 -6551 -6204 -405 0
1000000 3849 -4597 -6551 -6204 -405 0
1000000 44 -4972 -5327 -5628 0
1000000 3850 -4972 -5327 -5628 0
1000000 472 -7321 -518 0
1000000 3851 -7321 -518 0
1000000 709 -6577 -5478 -4343 -861 0
1000000 3852 -6577 -5478 -4343 -861 0
1000000 1187 -7411 -5944 -7116 0
1000000 3853 -7411 -5944 -7116 0
1000000 82 -5656 -4271 -6430 -7150 -7357 -7390 0
1000000 3854 -5656 -4271 -6430 -7150 -7357 -7390 0
1000000 686 -6221 -4125 -5675 -5994 0
1000000 3855 -6221 -4125 -5675 -5994 0
1000000 358 -5728 -4555 -676 0
1000000 3856 -5728 -4555 -676 0
1000000 1028 -5051 -4210 -7479 -4733 0
1000000 3857 -5051 -4210 -7479 -4733 0
1000000 98 -5226 -5016 0
1000000 3858 -5226 -5016 0
1000000 551 -5734 -4271 -4126 0
1000000 3859 -5734 -4271 -4126 0
1000000 849 -6256 -5800 -4114 -4433 -6016 0
1000000 3860 -6256 -5800 -4114 -4433 -6016 0
1000000 720 -5913 -6689 -7648 -6653 -6508 -1132 0
1000000 3861 -5913 -6689 -7648 -6653 -6508 -1132 0
1000000 342 -6778 -7108 -5839 -5874 -7403 -4366 0
1000000 3862 -6778 -7108 -5839 -5874 -7403 -4366 0
1000000 696 -6390 -6913 -6593 -7346 0
1000000 3863 -6390 -6913 -6593 -7346 0
1000000 568 -5093 -4876 -6913 -717 0
1000000 3864 -5093 -4876 -6913 -717 0
1000000 118 -4203 -6691 -5790 0
1000000 3865 -4203 -6691 -5790 0
1000000 556 -6044 -4681 -4965 0
1000000 3866 -6044 -4681 -4965 0
1000000 766 -5236 -4784 -6674 -5181 0
1000000 3867 -5236 -4784 -6674 -5181 0
1000000 507 -5364 -7056 -6089 -4206 0
1000000 3868 -5364 -7056 -6089 -4206 0
1000000 493 -5307 -4816 -4134 -5060 -6959 0
1000000 3869 -5307 -4816 -4134 -5060 -6959 0
1000000 518 -4996 -7243 -4511 -6989 -6458 0
1000000 3870 -4996 -7243 -4511 -6989 -6458 0
1000000 272 -4232 -4611 -6930 -6183 -4865 -425 0
1000000 3871 -4232 -4611 -6930 -6183 -4865 -425 0
1000000 817 -6113 -5088 -5684 -5369 -5762 -4863 0
1000000 3872 -6113 -5088 -5684 -5369 -5762 -4863 0
1000000 983 -6294 -5853 -4598 -4875 -4919 -6435 0
1000000 3873 -6294 -5853 -4598 -4875 -4919 -6435 0
1000000 182 -6489 -5346 0
1000000 3874 -6489 -5346 0
1000000 908 -5074 -6149 -4503 -4124 -6890 0
1000000 3875 -5074 -6149 -4503 -4124 -6890 0
1000000 1099 -5718 -7485 -5048 -1188 0
1000000 3876 -5718 -7485 -5048 -1188 0
1000000 863 -6601 -6256 -5521 -4440 0
1000000 3877 -6601 -6256 -5521 -4440 0
1000000 206 -4341 -270 0
1000000 3878 -4341 -270 0
1000000 525 -5406 -7492 -5660 0
1000000 3879 -5406 -7492 -5660 0
1000000 1198 -6511 -4417 -4640 0
1000000 3880 -6511 -4417 -4640 0
1000000 231 -6120 -5041 -5014 0
1000000 3881 -6120 -5041 -5014 0
1000000 222 -5585 -5071 -5365 -5393 -5001 0
1000000 3882 -5585 -5071 -5365 -5393 -5001 0
1000000 1042 -4570 -4799 -4437 0
1000000 3883 -4570 -4799 -4437 0
1000000 1139 -6947 -7486 -5862 -7108 -4507 0
1000000 3884 -6947 -7486 -5862 -7108 -4507 0
1000000 1088 -6124 -5067 0
1000000 3885 -6124 -5067 0
1000000 466 -6363 -7550 0
1000000 3886 -6363 -7550 0
1000000 556 -4739 -6590 -7254 -4797 -804 0
1000000 3887 -4739 -6590 -7254 -4797 -804 0
1000000 573 -6816 -4335 -4658 -5313 -4390 -1022 0
1000000 3888 -6816 -4335 -4658 -5313 -4390 -1022 0
1000000 578 -5016 -6334 -6790 -4575 -6793 0
1000000 3889 -5016 -6334 -6790 -4575 -6793 0
1000000 330 -4375 -4102 -7352 -5878 0
1000000 3890 -4375 -4102 -7352 -5878 0
1000000 530 -5044 -5801 -6175 -6251 0
1000000 3891 -5044 -5801 -6175 -6251 0
1000000 863 -6192 -4324 -6088 -4140 -7098 -1168 0
1000000 3892 -6192 -4324 -6088 -4140 -7098 -1168 0
1000000 487 -7676 -7091 0
1000000 3893 -7676 -7091 0
1000000 11 -5148 -6208 -5245 -5261 -5070 -5438 0
1000000 3894 -5148 -6208 -5245 -5261 -5070 -5438 0
1000000 1087 -5856 -5188 -1175 0
1000000 3895 -5856 -5188 -1175 0
1000000 247 -6383 -6898 -1157 0
1000000 3896 -6383 -6898 -1157 0
1000000 663 -6337 -5893 -5664 -6382 -6836 -4766 0
1000000 3897 -6337 -5893 -5664 -6382 -6836 -4766 0
1000000 212 -4550 -6714 0
1000000 3898 -4550 -6714 0
1000000 575 -6575 -6289 -4762 -751 0
1000000 3899 -6575 -6289 -4762 -751 0
1000000 877 -7062 -4910 -4785 -4988 -5799 -7092 0
1000000 3900 -7062 -4910 -4785 -4988 -5799 -7092 0
1000000 630 -6125 -5736 -7334 -7667 -5172 0
1000000 3901 -6125 -5736 -7334 -7667 -5172 0
1000000 949 -6449 -7048 -4880 -985 0
1000000 3902 -6449 -7048 -4880 -985 0
1000000 176 -4754 -5388 -883 0
1000000 3903 -4754 -5388 -883 0
1000000 762 -7284 -4384 0
1000000 3904 -7284 -4384 0
1000000 627 -7609 -6111 -7126 -6345 -7540 -7078 0
1000000 3905 -7609 -6111 -7126 -6345 -7540 -7078 0
1000000 535 -6834 -6314 -7324 -949 0
1000000 3906 -6834 -6314 -7324 -949 0
1000000 580 -6973 -829 0
1000000 3907 -6973 -829 0
1000000 165 -7384 -5312 -4458 0
1000000 3908 -7384 -5312 -4458 0
1000000 248 -7441 -4619 -5612 -6754 0
1000000 3909 -7441 -4619 -5612 -6754 0
1000000 1111 -4758 -4838 -6481 0
1000000 3910 -4758 -4838 -6481 0
1000000 1173 -7158 -7304 0
1000000 3911 -7158 -7304 0
1000000 653 -7159 -6548 -4770 -4574 0
1000000 3912 -7159 -6548 -4770 -4574 0
1000000 518 -5352 -6658 -4164 0
1000000 3913 -5352 -6658 -4164 0
1000000 654 -5533 -4884 -5294 -6415 -969 0
1000000 3914 -5533 -4884 -5294 -6415 -969 0
1000000 802 -6880 -7299 -7492 -6033 -6646 -1006 0
1000000 3915 -6880 -7299 -7492 -6033 -6646 -1006 0
1000000 1014 -7449 -5828 -7126 0
1000000 3916 -7449 -5828 -7126 0
1000000 171 -4126 -4929 -4872 -6236 -7104 0
1000000 3917 -4126 -4929 -4872 -6236 -7104 0
1000000 1063 -5050 -4092 -7199 0
1000000 3918 -5050 -4092 -7199 0
1000000 329 -4966 -4945 -5992 -6257 -4590 0
1000000 3919 -4966 -4945 -5992 -6257 -4590 0
1000000 1100 -7205 -4723 -6664 -7566 -5968 -7052 0
1000000 3920 -7205 -4723 -6664 -7566 -5968 -7052 0
1000000 276 -4967 -4886 -4649 -7476 0
1000000 3921 -4967 -4886 -4649 -7476 0
1000000 779 -5371 -7065 0
1000000 3922 -5371 -7065 0
1000000 543 -6933 -5734 -4614 -4237 -4453 0
1000000 3923 -6933 -5734 -4614 -4237 -4453 0
1000000 1060 -5504 -5196 -5229 -6564 -5869 -4888 0
1000000 3924 -5504 -5196 -5229 -6564 -5869 -4888 0
1000000 122 -4678 -6270 -6502 -6046 0
1000000 3925 -4678 -6270 -6502 -6046 0
1000000 1141 -7378 -7218 -6474 -7125 -6744 -4421 0
1000000 3926 -7378 -7218 -6474 -7125 -6744 -4421 0
1000000 7 -6543 -6676 -5455 -5078 -4987 -1006 0
1000000 3927 -6543 -6676 -5455 -5078 -4987 -1006 0
1000000 1155 -6203 -4956 0
1000000 3928 -6203 -4956 0
1000000 220 -5352 -859 0
1000000 3929 -5352 -859 0
1000000 49 -5629 -5636 -6151 -7125 -6438 -7129 0
1000000 3930 -5629 -5636 -6151 -7125 -6438 -7129 0
1000000 1099 -4988 -6443 0
1000000 3931 -4988 -6443 0
1000000 886 -6237 -5384 -937 0
1000000 3932 -6237 -5384 -937 0
1000000 1109 -4938 -6992 -6712 -7507 -5469 -6364 0
1000000 3933 -4938 -6992 -6712 -7507 -5469 -6364 0
1000000 356 -7654 -5870 -6131 -5123 -565 0
1000000 3934 -7654 -5870 -6131 -5123 -565 0
1000000 765 -6939 -4671 0
1000000 3935 -6939 -4671 0
1000000 190 -6983 -5460 -1151 0
1000000 3936 -6983 -5460 -1151 0
1000000 791 -4846 -5949 -4267 -4715 -1128 0
1000000 3937 -4846 -5949 -4267 -4715 -1128 0
1000000 137 -7381 -5916 -5444 -4850 -6400 0
1000000 3938 -7381 -5916 -5444 -4850 -6400 0
1000000 613 -4809 -7318 -6977 -6268 -832 0
1000000 3939 -4809 -7318 -6977 -6268 -832 0
1000000 1164 -6036 -4527 -6082 -5264 -5156 0
1000000 3940 -6036 -4527 -6082 -5264 -5156 0
1000000 1047 -6982 -7530 -6778 -7291 -4509 -1162 0
1000000 3941 -6982 -7530 -6778 -7291 -4509 -1162 0
1000000 534 -5333 -7302 -7054 -4172 -7161 -584 0
1000000 3942 -5333 -7302 -7054 -4172 -7161 -584 0
1000000 590 -6239 -4531 -6237 -6362 0
1000000 3943 -6239 -4531 -6237 -6362 0
1000000 114 -5665 -6087 -7199 -912 0
1000000 3944 -5665 -6087 -7199 -912 0
1000000 321 -4625 -6890 -6912 0
1000000 3945 -4625 -6890 -6912 0
1000000 1053 -6260 -4785 -7439 -6323 0
1000000 3946 -6260 -4785 -7439 -6323 0
1000000 605 -7564 -7363 -4760 -1170 0
1000000 3947 -7564 -7363 -4760 -1170 0
1000000 823 -6740 -5173 -7288 -4247 0
1000000 3948 -6740 -5173 -7288 -4247 0
1000000 739 -5763 -807 0
1000000 3949 -5763 -807 0
1000000 916 -7503 -5562 -5585 -4583 0
1000000 3950 -7503 -5562 -5585 -4583 0
1000000 476 -6318 -4292 -6936 -4267 0
1000000 3951 -6318 -4292 -6936 -4267 0
1000000 189 -5601 -4401 -5331 -6923 -6558 0
1000000 3952 -5601 -4401 -5331 -6923 -6558 0
1000000 183 -4575 -6803 0
1000000 3953 -4575 -6803 0
1000000 864 -6606 -5264 -5425 -7562 -4563 0
1000000 3954 -6606 -5264 -5425 -7562 -4563 0
1000000 1121 -7509 -6627 -6082 0
1000000 3955 -7509 -6627 -6082 0
1000000 1154 -4451 -6075 -6405 -6046 0
1000000 3956 -4451 -6075 -6405 -6046 0
1000000 759 -4284 -6385 -1129 0
1000000 3957 -4284 -6385 -1129 0
1000000 1009 -7430 -4260 -1044 0
1000000 3958 -7430 -4260 -1044 0
1000000 378 -4251 -5424 -7519 0
1000000 3959 -4251 -5424 -7519 0
1000000 604 -4642 -4094 -4628 -888 0
1000000 3960 -4642 -4094 -4628 -888 0
1000000 765 -5665 -6829 -5262 -835 0
1000000 3961 -5665 -6829 -5262 -835 0
1000000 488 -5193 -6295 0
1000000 3962 -5193 -6295 0
1000000 574 -4425 -6450 -4592 -5287 0
1000000 3963 -4425 -6450 -4592 -5287 0
1000000 893 -4392 -5323 0
1000000 3964 -4392 -5323 0
1000000 197 -4880 -4692 -6252 0
1000000 3965 -4880 -4692 -6252 0
1000000 78 -7242 -4465 -4212 -4955 0
1000000 3966 -7242 -4465 -4212 -4955 0
1000000 630 -6105 -5125 -5748 -5256 0
1000000 3967 -6105 -5125 -5748 -5256 0
1000000 579 -6316 -5299 -6143 0
1000000 3968 -6316 -5299 -6143 0
1000000 979 -5566 -7079 -5108 -7544 -7153 0
1000000 3969 -5566 -7079 -5108 -7544 -7153 0
1000000 688 -4953 -7660 -7608 -7517 -1132 0
1000000 3970 -4953 -7660 -7608 -7517 -1132 0
1000000 35 -4889 -5487 -6568 -5747 0
1000000 3971 -4889 -5487 -6568 -5747 0
1000000 865 -5904 -1075 0
1000000 3972 -5904 -1075 0
1000000 548 -5445 -7449 -6267 -5248 -7575 0
1000000 3973 -5445 -7449 -6267 -5248 -7575 0
1000000 1023 -7665 -4188 -5366 -6764 0
1000000 3974 -7665 -4188 -5366 -6764 0
1000000 889 -5245 -5362 -5918 -7592 -4326 0
1000000 3975 -5245 -5362 -5918 -7592 -4326 0
1000000 685 -4546 -5897 -5633 0
1000000 3976 -4546 -5897 -5633 0
1000000 263 -5039 -6746 -4885 -895 0
1000000 3977 -5039 -6746 -4885 -895 0
1000000 428 -6969 -6890 0
1000000 3978 -6969 -6890 0
1000000 915 -4580 -5060 0
1000000 3979 -4580 -5060 0
1000000 691 -4370 -5081 -5343 -5043 0
1000000 3980 -4370 -5081 -5343 -5043 0
1000000 821 -6517 -6343 -1137 0
1000000 3981 -6517 -6343 -1137 0
1000000 500 -7193 -5459 -6615 0
1000000 3982 -7193 -5459 -6615 0
1000000 652 -5513 -6602 -6180 -6193 -5807 0
1000000 3983 -5513 -6602 -6180 -6193 -5807 0
1000000 741 -4662 -4849 -7453 -4797 0
1000000 3984 -4662 -4849 -7453 -4797 0
1000000 51 -4942 -6116 -6606 -6039 0
1000000 3985 -4942 -6116 -6606 -6039 0
1000000 777 -6388 -6292 0
1000000 3986 -6388 -6292 0
1000000 1164 -6080 -7081 -1173 0
1000000 3987 -6080 -7081 -1173 0
1000000 194 -4862 -7646 -4495 0
1000000 3988 -4862 -7646 -4495 0
1000000 935 -5611 -7228 -7533 -6187 0
1000000 3989 -5611 -7228 -7533 -6187 0
1000000 554 -4673 -6671 -7016 -5989 -4760 0
1000000 3990 -4673 -6671 -7016 -5989 -4760 0
1000000 101 -6723 -5865 -4800 -5728 0
1000000 3991 -6723 -5865 -4800 -5728 0
1000000 681 -7609 -6857 -4866 -716 0
1000000 3992 -7609 -6857 -4866 -716 0
1000000 416 -6436 -6577 -7092 -5605 -7312 0
1000000 3993 -6436 -6577 -7092 -5605 -7312 0
1000000 593 -5438 -1032 0
1000000 3994 -5438 -1032 0
1000000 656 -6685 -4758 -964 0
1000000 3995 -6685 -4758 -964 0
1000000 1138 -6524 -6305 -5856 -4879 -6666 -4575 0
1000000 3996 -6524 -6305 -5856 -4879 -6666 -4575 0
1000000 628 -4504 -5110 -4155 0
1000000 3997 -4504 -5110 -4155 0
1000000 73 -7661 -7505 0
1000000 3998 -7661 -7505 0
1000000 488 -4201 -4357 -4740 -5424 -7186 -4427 0
1000000 3999 -4201 -4357 -4740 -5424 -7186 -4427 0
1000000 576 -7300 -4673 0
1000000 4000 -7300 -4673 0
1000000 848 -6353 -6018 -6814 -4398 0
1000000 4001 -6353 -6018 -6814 -4398 0
1000000 931 -7099 -5403 -5666 0
1000000 4002 -7099 -5403 -5666 0
1000000 1102 -4567 -4082 -5574 -5364 -4562 -7584 0
1000000 4003 -4567 -4082 -5574 -5364 -4562 -7584 0
1000000 51 -5879 -4684 -5232 0
1000000 4004 -5879 -4684 -5232 0
1000000 997 -5651 -7247 0
1000000 4005 -5651 -7247 0
1000000 683 -4639 -7642 -6121 -5627 -795 0
1000000 4006 -4639 -7642 -6121 -5627 -795 0
1000000 317 -7609 -6545 -5140 0
1000000 4007 -7609 -6545 -5140 0
1000000 690 -7409 -4454 -4608 -4109 -6932 0
1000000 4008 -7409 -4454 -4608 -4109 -6932 0
1000000 298 -6130 -6268 -685 0
1000000 4009 -6130 -6268 -685 0
1000000 597 -5074 -4706 0
1000000 4010 -5074 -4706 0
1000000 355 -4605 -4337 -7212 -4083 -6562 -708 0
1000000 4011 -4605 -4337 -7212 -4083 -6562 -708 0
1000000 286 -6142 -4407 0
1000000 4012 -6142 -4407 0
1000000 598 -4836 -5505 -7672 -4521 -7103 -5211 0
1000000 4013 -4836 -5505 -7672 -4521 -7103 -5211 0
1000000 131 -6276 -7019 -6069 -6623 -6875 -5986 0
1000000 4014 -6276 -7019 -6069 -6623 -6875 -5986 0
1000000 709 -5388 -6448 -5689 -6241 0
1000000 4015 -5388 -6448 -5689 -6241 0
1000000 660 -5335 -5026 0
1000000 4016 -5335 -5026 0
1000000 74 -7612 -6642 -7423 0
1000000 4017 -7612 -6642 -7423 0
1000000 469 -6549 -5757 -5084 -940 0
1000000 4018 -6549 -5757 -5084 -940 0
1000000 282 -7634 -7422 -6362 -6482 -6143 -958 0
1000000 4019 -7634 -7422 -6362 -6482 -6143 -958 0
1000000 246 -6644 -4372 -4141 -5932 -4897 -5805 0
1000000 4020 -6644 -4372 -4141 -5932 -4897 -5805 0
1000000 357 -7221 -5170 -7095 -4784 0
1000000 4021 -7221 -5170 -7095 -4784 0
1000000 34 -4541 -7464 -4377 -5936 -6800 -6430 0
1000000 4022 -4541 -7464 -4377 -5936 -6800 -6430 0
1000000 268 -5377 -6227 -6122 -4174 0
1000000 4023 -5377 -6227 -6122 -4174 0
1000000 376 -5134 -4416 0
1000000 4024 -5134 -4416 0
1000000 289 -5920 -5580 -5858 -4926 -6412 0
1000000 4025 -5920 -5580 -5858 -4926 -6412 0
1000000 1087 -5796 -4338 -5858 -4631 0
1000000 4026 -5796 -4338 -5858 -4631 0
1000000 405 -6810 -7519 -4760 -1033 0
1000000 4027 -6810 -7519 -4760 -1033 0
1000000 607 -5505 -6434 -5975 -7492 -4685 0
1000000 4028 -5505 -6434 -5975 -7492 -4685 0
1000000 1027 -5177 -5286 -7582 -7270 -5040 -6646 0
1000000 4029 -5177 -5286 -7582 -7270 -5040 -6646 0
1000000 256 -4641 -6447 0
1000000 4030 -4641 -6447 0
1000000 819 -7629 -6078 -6072 -989 0
1000000 4031 -7629 -6078 -6072 -989 0
1000000 1039 -7216 -6850 -7337 -4396 -1183 0
1000000 4032 -7216 -6850 -7337 -4396 -1183 0
1000000 947 -7398 -4960 0
1000000 4033 -7398 -4960 0
1000000 513 -5950 -5171 -6542 -4203 -6636 -6095 0
1000000 4034 -5950 -5171 -6542 -4203 -6636 -6095 0
1000000 1066 -4742 -6325 -6882 -1091 0
1000000 4035 -4742 -6325 -6882 -1091 0
1000000 944 -4896 -7342 -5963 -5159 -991 0
1000000 4036 -4896 -7342 -5963 -5159 -991 0
1000000 633 -5800 -4801 -6432 -5314 -7544 -7197 0
1000000 4037 -5800 -4801 -6432 -5314 -7544 -7197 0
1000000 251 -6290 -4183 -940 0
1000000 4038 -6290 -4183 -940 0
1000000 992 -5645 -6586 -4884 -7580 -6971 -5350 0
1000000 4039 -5645 -6586 -4884 -7580 -6971 -5350 0
1000000 1190 -5128 -4401 -6232 -6090 -4695 -1192 0
1000000 4040 -5128 -4401 -6232 -6090 -4695 -1192 0
1000000 837 -6247 -4998 0
1000000 4041 -6247 -4998 0
1000000 1005 -5567 -7030 0
1000000 4042 -5567 -7030 0
1000000 53 -4832 -6430 0
1000000 4043 -4832 -6430 0
1000000 76 -4227 -4715 -4087 0
1000000 4044 -4227 -4715 -4087 0
1000000 536 -6520 -7256 -6820 -6196 -5568 0
1000000 4045 -6520 -7256 -6820 -6196 -5568 0
1000000 925 -4705 -6897 -4646 -6376 -7065 -7372 0
1000000 4046 -4705 -6897 -4646 -6376 -7065 -7372 0
1000000 352 -7256 -4776 -7259 -7335 -4097 0
1000000 4047 -7256 -4776 -7259 -7335 -4097 0
1000000 29 -7671 -5030 -921 0
1000000 4048 -7671 -5030 -921 0
1000000 781 -6384 -4337 -7643 0
1000000 4049 -6384 -4337 -7643 0
1000000 822 -7272 -6277 -5757 -5079 -4582 -939 0
1000000 4050 -7272 -6277 -5757 -5079 -4582 -939 0
1000000 769 -5667 -6111 -5492 0
1000000 4051 -5667 -6111 -5492 0
1000000 656 -5868 -4803 -1090 0
1000000 4052 -5868 -4803 -1090 0
1000000 339 -7650 -4291 -6095 -6268 -6894 0
1000000 4053 -7650 -4291 -6095 -6268 -6894 0
1000000 918 -6826 -4138 -7442 -7323 0
1000000 4054 -6826 -4138 -7442 -7323 0
1000000 996 -4459 -5232 -5115 -4225 -6431 -5154 0
1000000 4055 -4459 -5232 -5115 -4225 -6431 -5154 0
1000000 922 -5630 -6104 -4911 -4891 -4406 -1066 0
1000000 4056 -5630 -6104 -4911 -4891 -4406 -1066 0
1000000 867 -5444 -4960 0
1000000 4057 -5444 -4960 0
1000000 946 -6927 -6172 -7508 0
1000000 4058 -6927 -6172 -7508 0
1000000 126 -7028 -6122 -7584 -5799 0
1000000 4059 -7028 -6122 -7584 -5799 0
1000000 653 -5416 -5190 -7397 -6993 0
1000000 4060 -5416 -5190 -7397 -6993 0
1000000 370 -5944 -5634 -5512 -6628 0
1000000 4061 -5944 -5634 -5512 -6628 0
1000000 980 -6247 -5358 -1024 0
1000000 4062 -6247 -5358 -1024 0
1000000 339 -6796 -4772 -5389 0
1000000 4063 -6796 -4772 -5389 0
1000000 1072 -4634 -6990 -4687 -4876 -7594 0
1000000 4064 -4634 -6990 -4687 -4876 -7594 0
1000000 386 -6900 -7104 -6596 -510 0
1000000 4065 -6900 -7104 -6596 -510 0
1000000 821 -7076 -966 0
1000000 4066 -7076 -966 0
1000000 714 -7098 -4481 -5061 0
1000000 4067 -7098 -4481 -5061 0
1000000 266 -4377 -5357 -5921 -7537 -5441 0
1000000 4068 -4377 -5357 -5921 -7537 -5441 0
1000000 644 -7050 -4698 -4081 -5821 0
1000000 4069 -7050 -4698 -4081 -5821 0
1000000 615 -4967 -4795 -5054 -1197 0
1000000 4070 -4967 -4795 -5054 -1197 0
1000000 729 -6184 -5449 -7610 -5463 -7001 0
1000000 4071 -6184 -5449 -7610 -5463 -7001 0
1000000 960 -4777 -4639 -5859 -6764 -1079 0
1000000 4072 -4777 -4639 -5859 -6764 -1079 0
1000000 753 -4123 -4788 -6795 -6968 -4443 -4333 0
1000000 4073 -4123 -4788 -6795 -6968 -4443 -4333 0
1000000 855 -6011 -5023 -5683 -995 0
1000000 4074 -6011 -5023 -5683 -995 0
1000000 282 -7420 -5391 -6085 -5692 -6420 -712 0
1000000 4075 -7420 -5391 -6085 -5692 -6420 -712 0
1000000 755 -7447 -5466 -5430 -7152 -5902 -4329 0
1000000 4076 -7447 -5466 -5430 -7152 -5902 -4329 0
1000000 123 -4803 -6189 -6909 -6083 -6065 -5070 0
1000000 4077 -4803 -6189 -6909 -6083 -6065 -5070 0
1000000 409 -6498 -5602 -6527 -4855 -6372 -5082 0
1000000 4078 -6498 -5602 -6527 -4855 -6372 -5082 0
1000000 286 -5037 -6582 -4081 -6612 -5860 0
1000000 4079 -5037 -6582 -4081 -6612 -5860 0
1000000 297 -5723 -7315 -5444 0
1000000 4080 -5723 -7315 -5444 0
1000000 4081 7839 0
1000000 4082 8571 0
1000000 4083 9404 0
1000000 4084 9088 0
1000000 4085 7879 0
1000000 4086 8288 0
1000000 4087 8886 0
1000000 4088 8968 0
1000000 4089 9236 0
1000000 4090 8875 0
1000000 4091 7940 0
1000000 4092 8512 0
1000000 4093 8216 0
1000000 4094 9002 0
1000000 4095 8308 0
1000000 4096 8993 0
1000000 4097 8825 0
1000000 4098 8212 0
1000000 4099 8749 0
1000000 4100 8443 0
1000000 4101 8077 0
1000000 4102 8534 0
1000000 4103 9081 0
1000000 4104 7746 0
1000000 4105 8534 0
1000000 4106 9447 0
1000000 4107 8956 0
1000000 4108 9148 0
1000000 4109 8827 0
1000000 4110 9156 0
1000000 4111 7786 0
1000000 4112 8190 0
1000000 4113 9377 0
1000000 4114 8436 0
1000000 4115 7927 0
1000000 4116 8559 0
1000000 4117 8104 0
1000000 4118 9340 0
1000000 4119 7841 0
1000000 4120 8655 0
1000000 4121 8960 0
1000000 4122 7849 0
1000000 4123 8790 0
1000000 4124 8336 0
1000000 4125 8174 0
1000000 4126 8600 0
1000000 4127 8806 0
1000000 4128 8507 0
1000000 4129 8356 0
1000000 4130 9032 0
1000000 4131 9326 0
1000000 4132 9382 0
1000000 4133 7699 0
1000000 4134 8669 0
1000000 4135 9089 0
1000000 4136 8923 0
1000000 4137 8820 0
1000000 4138 7731 0
1000000 4139 8220 0
1000000 4140 7886 0
1000000 4141 9135 0
1000000 4142 8171 0
1000000 4143 8101 0
1000000 4144 8597 0
1000000 4145 8769 0
1000000 4146 9049 0
1000000 4147 9029 0
1000000 4148 8685 0
1000000 4149 7802 0
1000000 4150 9066 0
1000000 4151 9393 0
1000000 4152 8159 0
1000000 4153 8516 0
1000000 4154 8247 0
1000000 4155 9229 0
1000000 4156 9163 0
1000000 4157 8354 0
1000000 4158 8050 0
1000000 4159 8064 0
1000000 4160 7727 0
1000000 4161 9341 0
1000000 4162 9142 0
1000000 4163 8999 0
1000000 4164 8178 0
1000000 4165 7959 0
1000000 4166 8230 0
1000000 4167 8546 0
1000000 4168 8080 0
1000000 4169 8211 0
1000000 4170 8925 0
1000000 4171 9070 0
1000000 4172 8271 0
1000000 4173 7892 0
1000000 4174 9186 0
1000000 4175 8295 0
1000000 4176 8693 0
1000000 4177 8792 0
1000000 4178 7815 0
1000000 4179 8329 0
1000000 4180 9042 0
1000000 4181 8840 0
1000000 4182 8443 0
1000000 4183 8989 0
1000000 4184 8681 0
1000000 4185 7779 0
1000000 4186 9275 0
1000000 4187 7725 0
1000000 4188 7901 0
1000000 4189 8333 0
1000000 4190 8135 0
1000000 4191 7841 0
1000000 4192 9096 0
1000000 4193 8433 0
1000000 4194 8007 0
1000000 4195 8856 0
1000000 4196 8162 0
1000000 4197 8604 0
1000000 4198 8859 0
1000000 4199 7817 0
1000000 4200 8482 0
1000000 4201 9172 0
1000000 4202 9060 0
1000000 4203 8290 0
1000000 4204 8187 0
1000000 4205 7689 0
1000000 4206 8239 0
1000000 4207 8051 0
1000000 4208 9439 0
1000000 4209 8518 0
1000000 4210 8773 0
1000000 4211 8346 0
1000000 4212 8759 0
1000000 4213 9381 0
1000000 4214 9282 0
1000000 4215 9033 0
1000000 4216 8729 0
1000000 4217 8578 0
1000000 4218 8653 0
1000000 4219 9409 0
1000000 4220 8670 0
1000000 4221 8365 0
1000000 4222 9198 0
1000000 4223 8675 0
1000000 4224 8311 0
1000000 4225 8734 0
1000000 4226 8207 0
1000000 4227 9191 0
1000000 4228 7800 0
1000000 4229 9293 0
1000000 4230 8482 0
1000000 4231 8659 0
1000000 4232 8470 0
1000000 4233 8458 0
1000000 4234 8717 0
1000000 4235 7831 0
1000000 4236 8203 0
1000000 4237 8351 0
1000000 4238 8556 0
1000000 4239 8091 0
1000000 4240 7811 0
1000000 4241 8498 0
1000000 4242 9434 0
1000000 4243 7897 0
1000000 4244 8848 0
1000000 4245 9130 0
1000000 4246 9343 0
1000000 4247 9394 0
1000000 4248 9338 0
1000000 4249 8464 0
1000000 4250 8117 0
1000000 4251 7980 0
1000000 4252 8933 0
1000000 4253 8964 0
1000000 4254 8973 0
1000000 4255 8801 0
1000000 4256 8061 0
1000000 4257 9379 0
1000000 4258 8132 0
1000000 4259 7971 0
1000000 4260 8382 0
1000000 4261 8130 0
1000000 4262 8830 0
1000000 4263 8490 0
1000000 4264 8921 0
1000000 4265 8635 0
1000000 4266 8666 0
1000000 4267 8923 0
1000000 4268 9074 0
1000000 4269 9257 0
1000000 4270 8491 0
1000000 4271 8449 0
1000000 4272 8564 0
1000000 4273 9370 0
1000000 4274 8293 0
1000000 4275 7919 0
1000000 4276 7973 0
1000000 4277 8551 0
1000000 4278 7824 0
1000000 4279 8357 0
1000000 4280 9150 0
1000000 4281 8041 0
1000000 4282 9369 0
1000000 4283 9140 0
1000000 4284 8106 0
1000000 4285 8404 0
1000000 4286 9343 0
1000000 4287 8267 0
1000000 4288 8521 0
1000000 4289 8421 0
1000000 4290 8516 0
1000000 4291 7776 0
1000000 4292 8499 0
1000000 4293 7905 0
1000000 4294 8809 0
1000000 4295 7933 0
1000000 4296 9093 0
1000000 4297 7960 0
1000000 4298 7940 0
1000000 4299 8227 0
1000000 4300 8979 0
1000000 4301 7955 0
1000000 4302 9314 0
1000000 4303 8746 0
1000000 4304 8142 0
1000000 4305 8116 0
1000000 4306 8740 0
1000000 4307 8639 0
1000000 4308 8345 0
1000000 4309 8505 0
1000000 4310 8899 0
1000000 4311 8143 0
1000000 4312 7728 0
1000000 4313 8559 0
1000000 4314 8967 0
1000000 4315 9196 0
1000000 4316 7781 0
1000000 4317 8278 0
1000000 4318 8831 0
1000000 4319 9188 0
1000000 4320 8280 0
1000000 4321 8061 0
1000000 4322 8776 0
1000000 4323 8670 0
1000000 4324 7981 0
1000000 4325 8880 0
1000000 4326 9375 0
1000000 4327 9463 0
1000000 4328 9322 0
1000000 4329 8599 0
1000000 4330 8238 0
1000000 4331 8692 0
1000000 4332 8294 0
1000000 4333 8757 0
1000000 4334 7958 0
1000000 4335 8331 0
1000000 4336 8709 0
1000000 4337 9453 0
1000000 4338 9444 0
1000000 4339 9240 0
1000000 4340 8539 0
1000000 4341 8083 0
1000000 4342 7962 0
1000000 4343 7707 0
1000000 4344 9078 0
1000000 4345 8032 0
1000000 4346 9218 0
1000000 4347 8479 0
1000000 4348 9398 0
1000000 4349 8019 0
1000000 4350 8582 0
1000000 4351 9260 0
1000000 4352 7800 0
1000000 4353 8911 0
1000000 4354 8931 0
1000000 4355 8047 0
1000000 4356 8248 0
1000000 4357 8371 0
1000000 4358 9348 0
1000000 4359 9263 0
1000000 4360 9144 0
1000000 4361 8656 0
1000000 4362 8239 0
1000000 4363 8167 0
1000000 4364 8854 0
1000000 4365 8732 0
1000000 4366 8592 0
1000000 4367 8878 0
1000000 4368 8614 0
1000000 4369 8289 0
1000000 4370 9117 0
1000000 4371 9091 0
1000000 4372 8819 0
1000000 4373 8293 0
1000000 4374 7874 0
1000000 4375 9478 0
1000000 4376 8195 0
1000000 4377 8537 0
1000000 4378 8730 0
1000000 4379 8514 0
1000000 4380 7754 0
1000000 4381 8558 0
1000000 4382 8775 0
1000000 4383 9141 0
1000000 4384 8733 0
1000000 4385 8793 0
1000000 4386 7767 0
1000000 4387 8275 0
1000000 4388 8614 0
1000000 4389 8700 0
1000000 4390 9387 0
1000000 4391 9186 0
1000000 4392 9224 0
1000000 4393 8722 0
1000000 4394 9257 0
1000000 4395 8738 0
1000000 4396 8914 0
1000000 4397 8489 0
1000000 4398 8860 0
1000000 4399 7904 0
1000000 4400 9159 0
1000000 4401 7797 0
1000000 4402 9010 0
1000000 4403 8829 0
1000000 4404 8791 0
1000000 4405 8965 0
1000000 4406 9436 0
1000000 4407 8465 0
1000000 4408 8789 0
1000000 4409 9462 0
1000000 4410 9366 0
1000000 4411 9371 0
1000000 4412 8162 0
1000000 4413 8699 0
1000000 4414 8677 0
1000000 4415 8477 0
1000000 4416 8433 0
1000000 4417 8326 0
1000000 4418 9273 0
1000000 4419 8337 0
1000000 4420 8748 0
1000000 4421 7851 0
1000000 4422 8306 0
1000000 4423 9475 0
1000000 4424 8817 0
1000000 4425 8724 0
1000000 4426 7992 0
1000000 4427 9052 0
1000000 4428 8850 0
1000000 4429 8483 0
1000000 4430 9439 0
1000000 4431 9070 0
1000000 4432 9193 0
1000000 4433 7856 0
1000000 4434 8150 0
1000000 4435 8826 0
1000000 4436 8684 0
1000000 4437 8842 0
1000000 4438 8550 0
1000000 4439 8100 0
1000000 4440 8208 0
1000000 4441 9401 0
1000000 4442 9254 0
1000000 4443 9352 0
1000000 4444 8366 0
1000000 4445 8124 0
1000000 4446 8895 0
1000000 4447 8597 0
1000000 4448 8906 0
1000000 4449 7811 0
1000000 4450 7911 0
1000000 4451 8280 0
1000000 4452 8067 0
1000000 4453 8855 0
1000000 4454 8421 0
1000000 4455 9403 0
1000000 4456 9381 0
1000000 4457 7844 0
1000000 4458 9448 0
1000000 4459 8014 0
1000000 4460 8754 0
1000000 4461 9412 0
1000000 4462 8977 0
1000000 4463 8877 0
1000000 4464 9426 0
1000000 4465 8106 0
1000000 4466 8931 0
1000000 4467 8436 0
1000000 4468 7995 0
1000000 4469 8004 0
1000000 4470 9225 0
1000000 4471 9307 0
1000000 4472 7902 0
1000000 4473 8147 0
1000000 4474 7932 0
1000000 4475 8302 0
1000000 4476 8942 0
1000000 4477 9327 0
1000000 4478 9462 0
1000000 4479 7707 0
1000000 4480 9011 0
1000000 4481 8943 0
1000000 4482 9222 0
1000000 4483 9225 0
1000000 4484 9188 0
1000000 4485 9080 0
1000000 4486 8040 0
1000000 4487 8803 0
1000000 4488 8537 0
1000000 4489 9112 0
1000000 4490 8414 0
1000000 4491 9425 0
1000000 4492 7948 0
1000000 4493 8230 0
1000000 4494 7713 0
1000000 4495 8469 0
1000000 4496 8264 0
1000000 4497 8920 0
1000000 4498 9111 0
1000000 4499 9341 0
1000000 4500 8802 0
1000000 4501 8448 0
1000000 4502 8828 0
1000000 4503 8147 0
1000000 4504 9125 0
1000000 4505 9241 0
1000000 4506 8398 0
1000000 4507 7762 0
1000000 4508 9326 0
1000000 4509 8632 0
1000000 4510 8505 0
1000000 4511 8284 0
1000000 4512 8924 0
1000000 4513 8950 0
1000000 4514 8471 0
1000000 4515 9367 0
1000000 4516 9333 0
1000000 4517 7860 0
1000000 4518 9468 0
1000000 4519 8159 0
1000000 4520 8324 0
1000000 4521 9318 0
1000000 4522 9045 0
1000000 4523 8101 0
1000000 4524 7827 0
1000000 4525 9437 0
1000000 4526 8780 0
1000000 4527 7801 0
1000000 4528 7735 0
1000000 4529 8186 0
1000000 4530 8445 0
1000000 4531 8540 0
1000000 4532 8164 0
1000000 4533 9165 0
1000000 4534 9079 0
1000000 4535 8376 0
1000000 4536 8490 0
1000000 4537 7719 0
1000000 4538 8312 0
1000000 4539 8495 0
1000000 4540 7848 0
1000000 4541 9421 0
1000000 4542 9363 0
1000000 4543 8934 0
1000000 4544 9467 0
1000000 4545 9217 0
1000000 4546 9146 0
1000000 4547 8178 0
1000000 4548 9464 0
1000000 4549 8598 0
1000000 4550 7777 0
1000000 4551 7847 0
1000000 4552 8497 0
1000000 4553 8830 0
1000000 4554 8818 0
1000000 4555 9383 0
1000000 4556 8644 0
1000000 4557 8260 0
1000000 4558 8960 0
1000000 4559 8918 0
1000000 4560 7855 0
1000000 4561 9194 0
1000000 4562 8553 0
1000000 4563 9177 0
1000000 4564 8852 0
1000000 4565 8655 0
1000000 4566 8992 0
1000000 4567 7795 0
1000000 4568 8718 0
1000000 4569 8170 0
1000000 4570 8267 0
1000000 4571 7729 0
1000000 4572 7852 0
1000000 4573 8880 0
1000000 4574 8801 0
1000000 4575 8900 0
1000000 4576 9160 0
1000000 4577 9225 0
1000000 4578 8562 0
1000000 4579 8596 0
1000000 4580 8861 0
1000000 4581 8722 0
1000000 4582 7880 0
1000000 4583 7836 0
1000000 4584 8348 0
1000000 4585 8468 0
1000000 4586 8936 0
1000000 4587 8500 0
1000000 4588 8005 0
1000000 4589 9298 0
1000000 4590 8997 0
1000000 4591 8235 0
1000000 4592 9231 0
1000000 4593 7757 0
1000000 4594 7781 0
1000000 4595 9001 0
1000000 4596 9062 0
1000000 4597 9280 0
1000000 4598 8574 0
1000000 4599 8628 0
1000000 4600 7778 0
1000000 4601 8652 0
1000000 4602 8439 0
1000000 4603 7986 0
1000000 4604 8107 0
1000000 4605 9009 0
1000000 4606 8881 0
1000000 4607 7870 0
1000000 4608 8162 0
1000000 4609 8772 0
1000000 4610 9270 0
1000000 4611 8653 0
1000000 4612 8348 0
1000000 4613 8345 0
1000000 4614 7806 0
1000000 4615 8154 0
1000000 4616 8279 0
1000000 4617 8618 0
1000000 4618 7799 0
1000000 4619 8111 0
1000000 4620 9022 0
1000000 4621 9457 0
1000000 4622 9098 0
1000000 4623 8373 0
1000000 4624 9266 0
1000000 4625 7710 0
1000000 4626 8880 0
1000000 4627 9010 0
1000000 4628 8944 0
1000000 4629 8262 0
1000000 4630 8619 0
1000000 4631 9050 0
1000000 4632 8567 0
1000000 4633 8340 0
1000000 4634 9011 0
1000000 4635 8378 0
1000000 4636 9031 0
1000000 4637 9057 0
1000000 4638 8778 0
1000000 4639 7828 0
1000000 4640 9055 0
1000000 4641 8799 0
1000000 4642 7893 0
1000000 4643 8275 0
1000000 4644 8316 0
1000000 4645 7862 0
1000000 4646 9449 0
1000000 4647 8682 0
1000000 4648 8434 0
1000000 4649 8004 0
1000000 4650 9166 0
1000000 4651 8378 0
1000000 4652 8753 0
1000000 4653 7908 0
1000000 4654 9097 0
1000000 4655 7734 0
1000000 4656 8324 0
1000000 4657 8379 0
1000000 4658 9155 0
1000000 4659 9052 0
1000000 4660 7991 0
1000000 4661 9238 0
1000000 4662 8624 0
1000000 4663 9096 0
1000000 4664 8831 0
1000000 4665 8798 0
1000000 4666 9325 0
1000000 4667 8055 0
1000000 4668 8986 0
1000000 4669 8202 0
1000000 4670 9314 0
1000000 4671 7755 0
1000000 4672 8197 0
1000000 4673 8863 0
1000000 4674 9056 0
1000000 4675 8034 0
1000000 4676 9459 0
1000000 4677 8762 0
1000000 4678 7867 0
1000000 4679 9191 0
1000000 4680 8094 0
1000000 4681 8415 0
1000000 4682 9088 0
1000000 4683 9015 0
1000000 4684 8363 0
1000000 4685 7875 0
1000000 4686 8716 0
1000000 4687 8462 0
1000000 4688 9385 0
1000000 4689 7872 0
1000000 4690 7768 0
1000000 4691 7925 0
1000000 4692 8981 0
1000000 4693 9308 0
1000000 4694 9307 0
1000000 4695 9250 0
1000000 4696 8490 0
1000000 4697 9316 0
1000000 4698 9372 0
1000000 4699 8986 0
1000000 4700 8513 0
1000000 4701 8813 0
1000000 4702 8498 0
1000000 4703 8805 0
1000000 4704 8329 0
1000000 4705 7785 0
1000000 4706 9095 0
1000000 4707 8446 0
1000000 4708 8137 0
1000000 4709 8104 0
1000000 4710 9052 0
1000000 4711 8408 0
1000000 4712 8223 0
1000000 4713 9175 0
1000000 4714 8724 0
1000000 4715 8585 0
1000000 4716 8438 0
1000000 4717 8190 0
1000000 4718 9183 0
1000000 4719 8722 0
1000000 4720 8591 0
1000000 4721 8234 0
1000000 4722 8266 0
1000000 4723 9137 0
1000000 4724 8913 0
1000000 4725 7991 0
1000000 4726 8970 0
1000000 4727 9303 0
1000000 4728 7848 0
1000000 4729 8686 0
1000000 4730 8725 0
1000000 4731 9247 0
1000000 4732 8023 0
1000000 4733 8120 0
1000000 4734 8927 0
1000000 4735 9153 0
1000000 4736 8955 0
1000000 4737 8966 0
1000000 4738 9401 0
1000000 4739 9262 0
1000000 4740 8982 0
1000000 4741 8736 0
1000000 4742 7727 0
1000000 4743 7826 0
1000000 4744 9380 0
1000000 4745 8295 0
1000000 4746 9106 0
1000000 4747 8728 0
1000000 4748 9235 0
1000000 4749 8571 0
1000000 4750 7868 0
1000000 4751 9216 0
1000000 4752 8504 0
1000000 4753 8932 0
1000000 4754 8367 0
1000000 4755 7831 0
1000000 4756 8217 0
1000000 4757 8219 0
1000000 4758 7939 0
1000000 4759 8322 0
1000000 4760 8688 0
1000000 4761 7693 0
1000000 4762 8167 0
1000000 4763 8538 0
1000000 4764 8895 0
1000000 4765 9258 0
1000000 4766 8878 0
1000000 4767 8656 0
1000000 4768 9383 0
1000000 4769 8596 0
1000000 4770 7798 0
1000000 4771 7926 0
1000000 4772 9024 0
1000000 4773 8905 0
1000000 4774 7984 0
1000000 4775 8441 0
1000000 4776 8665 0
1000000 4777 7843 0
1000000 4778 8334 0
1000000 4779 8626 0
1000000 4780 7769 0
1000000 4781 8509 0
1000000 4782 8623 0
1000000 4783 7733 0
1000000 4784 8758 0
1000000 4785 7697 0
1000000 4786 7711 0
1000000 4787 9442 0
1000000 4788 8222 0
1000000 4789 8840 0
1000000 4790 8094 0
1000000 4791 8733 0
1000000 4792 8228 0
1000000 4793 9148 0
1000000 4794 9046 0
1000000 4795 8572 0
1000000 4796 8871 0
1000000 4797 9418 0
1000000 4798 8958 0
1000000 4799 7943 0
1000000 4800 9249 0
1000000 4801 9118 0
1000000 4802 8391 0
1000000 4803 9115 0
1000000 4804 8258 0
1000000 4805 8547 0
1000000 4806 9329 0
1000000 4807 8465 0
1000000 4808 8255 0
1000000 4809 8493 0
1000000 4810 8105 0
1000000 4811 7722 0
1000000 4812 9368 0
1000000 4813 8599 0
1000000 4814 9380 0
1000000 4815 9129 0
1000000 4816 9252 0
1000000 4817 8385 0
1000000 4818 7890 0
1000000 4819 8561 0
1000000 4820 8839 0
1000000 4821 8165 0
1000000 4822 8183 0
1000000 4823 8094 0
1000000 4824 8335 0
1000000 4825 7815 0
1000000 4826 8149 0
1000000 4827 7972 0
1000000 4828 8492 0
1000000 4829 8955 0
1000000 4830 9180 0
1000000 4831 7783 0
1000000 4832 8626 0
1000000 4833 8591 0
1000000 4834 9012 0
1000000 4835 9212 0
1000000 4836 7712 0
1000000 4837 8873 0
1000000 4838 8652 0
1000000 4839 8282 0
1000000 4840 8983 0
1000000 4841 9171 0
1000000 4842 8867 0
1000000 4843 7687 0
1000000 4844 8807 0
1000000 4845 8803 0
1000000 4846 7993 0
1000000 4847 8049 0
1000000 4848 8832 0
1000000 4849 8361 0
1000000 4850 7722 0
1000000 4851 8640 0
1000000 4852 8023 0
1000000 4853 9126 0
1000000 4854 8025 0
1000000 4855 8630 0
1000000 4856 8225 0
1000000 4857 8107 0
1000000 4858 8515 0
1000000 4859 7877 0
1000000 4860 7993 0
1000000 4861 7857 0
1000000 4862 8570 0
1000000 4863 9355 0
1000000 4864 7703 0
1000000 4865 8991 0
1000000 4866 8671 0
1000000 4867 8394 0
1000000 4868 8660 0
1000000 4869 8105 0
1000000 4870 8045 0
1000000 4871 9223 0
1000000 4872 7781 0
1000000 4873 7757 0
1000000 4874 7985 0
1000000 4875 8869 0
1000000 4876 8343 0
1000000 4877 9087 0
1000000 4878 8633 0
1000000 4879 9211 0
1000000 4880 8926 0
1000000 4881 8266 0
1000000 4882 8869 0
1000000 4883 7694 0
1000000 4884 9422 0
1000000 4885 9170 0
1000000 4886 9141 0
1000000 4887 9442 0
1000000 4888 8171 0
1000000 4889 7803 0
1000000 4890 8326 0
1000000 4891 9457 0
1000000 4892 8341 0
1000000 4893 8281 0
1000000 4894 9364 0
1000000 4895 7761 0
1000000 4896 8185 0
1000000 4897 9309 0
1000000 4898 9395 0
1000000 4899 8025 0
1000000 4900 7850 0
1000000 4901 9160 0
1000000 4902 8818 0
1000000 4903 7763 0
1000000 4904 9294 0
1000000 4905 9051 0
1000000 4906 7911 0
1000000 4907 8550 0
1000000 4908 7681 0
1000000 4909 9104 0
1000000 4910 9312 0
1000000 4911 9277 0
1000000 4912 8105 0
1000000 4913 9208 0
1000000 4914 9322 0
1000000 4915 7747 0
1000000 4916 8231 0
1000000 4917 8627 0
1000000 4918 8481 0
1000000 4919 9174 0
1000000 4920 7802 0
1000000 4921 8169 0
1000000 4922 9272 0
1000000 4923 8788 0
1000000 4924 9304 0
1000000 4925 8760 0
1000000 4926 9344 0
1000000 4927 8280 0
1000000 4928 9344 0
1000000 4929 7949 0
1000000 4930 8031 0
1000000 4931 9261 0
1000000 4932 8015 0
1000000 4933 7966 0
1000000 4934 8182 0
1000000 4935 8123 0
1000000 4936 8114 0
1000000 4937 9063 0
1000000 4938 8397 0
1000000 4939 9341 0
1000000 4940 7808 0
1000000 4941 8648 0
1000000 4942 9335 0
1000000 4943 7709 0
1000000 4944 8787 0
1000000 4945 8933 0
1000000 4946 8791 0
1000000 4947 8438 0
1000000 4948 8689 0
1000000 4949 9310 0
1000000 4950 9026 0
1000000 4951 8363 0
1000000 4952 8807 0
1000000 4953 7917 0
1000000 4954 8544 0
1000000 4955 8908 0
1000000 4956 9032 0
1000000 4957 9423 0
1000000 4958 8486 0
1000000 4959 8003 0
1000000 4960 9031 0
1000000 4961 8168 0
1000000 4962 9306 0
1000000 4963 7814 0
1000000 4964 8015 0
1000000 4965 8241 0
1000000 4966 9208 0
1000000 4967 8904 0
1000000 4968 8473 0
1000000 4969 8737 0
1000000 4970 8323 0
1000000 4971 8928 0
1000000 4972 8647 0
1000000 4973 8458 0
1000000 4974 9068 0
1000000 4975 7837 0
1000000 4976 9061 0
1000000 4977 8235 0
1000000 4978 8993 0
1000000 4979 8216 0
1000000 4980 9480 0
1000000 4981 8412 0
1000000 4982 8102 0
1000000 4983 7971 0
1000000 4984 8240 0
1000000 4985 9457 0
1000000 4986 7699 0
1000000 4987 7895 0
1000000 4988 8191 0
1000000 4989 8046 0
1000000 4990 9076 0
1000000 4991 7765 0
1000000 4992 7681 0
1000000 4993 8892 0
1000000 4994 8833 0
1000000 4995 8439 0
1000000 4996 7728 0
1000000 4997 7876 0
1000000 4998 7958 0
1000000 4999 9324 0
1000000 5000 9420 0
1000000 5001 7918 0
1000000 5002 8678 0
1000000 5003 9287 0
1000000 5004 7874 0
1000000 5005 7910 0
1000000 5006 8171 0
1000000 5007 7790 0
1000000 5008 8607 0
1000000 5009 9012 0
1000000 5010 8030 0
1000000 5011 9045 0
1000000 5012 8795 0
1000000 5013 9108 0
1000000 5014 7962 0
1000000 5015 8392 0
1000000 5016 8084 0
1000000 5017 8787 0
1000000 5018 9146 0
1000000 5019 8606 0
1000000 5020 8098 0
1000000 5021 9069 0
1000000 5022 9154 0
1000000 5023 9409 0
1000000 5024 8398 0
1000000 5025 9019 0
1000000 5026 9015 0
1000000 5027 7791 0
1000000 5028 9233 0
1000000 5029 8767 0
1000000 5030 9431 0
1000000 5031 7719 0
1000000 5032 8768 0
1000000 5033 9418 0
1000000 5034 7872 0
1000000 5035 8782 0
1000000 5036 7843 0
1000000 5037 7774 0
1000000 5038 8562 0
1000000 5039 9034 0
1000000 5040 8922 0
1000000 5041 8242 0
1000000 5042 9461 0
1000000 5043 9114 0
1000000 5044 9378 0
1000000 5045 8508 0
1000000 5046 9013 0
1000000 5047 7738 0
1000000 5048 8417 0
1000000 5049 8096 0
1000000 5050 8887 0
1000000 5051 9437 0
1000000 5052 8474 0
1000000 5053 7834 0
1000000 5054 8969 0
1000000 5055 8191 0
1000000 5056 8355 0
1000000 5057 8978 0
1000000 5058 9046 0
1000000 5059 8791 0
1000000 5060 8952 0
1000000 5061 8385 0
1000000 5062 8973 0
1000000 5063 8872 0
1000000 5064 8671 0
1000000 5065 9361 0
1000000 5066 8081 0
1000000 5067 9237 0
1000000 5068 9446 0
1000000 5069 9444 0
1000000 5070 9331 0
1000000 5071 7810 0
1000000 5072 8482 0
1000000 5073 7701 0
1000000 5074 8837 0
1000000 5075 8589 0
1000000 5076 8358 0
1000000 5077 8775 0
1000000 5078 9002 0
1000000 5079 7919 0
1000000 5080 8631 0
1000000 5081 8810 0
1000000 5082 9281 0
1000000 5083 8145 0
1000000 5084 8600 0
1000000 5085 9374 0
1000000 5086 8598 0
1000000 5087 7801 0
1000000 5088 9113 0
1000000 5089 8687 0
1000000 5090 8681 0
1000000 5091 7911 0
1000000 5092 8237 0
1000000 5093 8594 0
1000000 5094 8175 0
1000000 5095 8148 0
1000000 5096 8006 0
1000000 5097 8704 0
1000000 5098 8044 0
1000000 5099 8135 0
1000000 5100 8289 0
1000000 5101 8568 0
1000000 5102 9116 0
1000000 5103 8696 0
1000000 5104 7752 0
1000000 5105 7714 0
1000000 5106 8727 0
1000000 5107 8664 0
1000000 5108 8842 0
1000000 5109 9335 0
1000000 5110 8782 0
1000000 5111 8673 0
1000000 5112 8663 0
1000000 5113 8945 0
1000000 5114 8455 0
1000000 5115 7782 0
1000000 5116 9018 0
1000000 5117 8320 0
1000000 5118 8438 0
1000000 5119 7771 0
1000000 5120 8879 0
1000000 5121 7763 0
1000000 5122 8399 0
1000000 5123 8776 0
1000000 5124 9000 0
1000000 5125 8249 0
1000000 5126 9235 0
1000000 5127 8950 0
1000000 5128 8017 0
1000000 5129 8457 0
1000000 5130 9450 0
1000000 5131 8569 0
1000000 5132 9074 0
1000000 5133 8669 0
1000000 5134 7798 0
1000000 5135 8999 0
1000000 5136 9107 0
1000000 5137 9136 0
1000000 5138 7834 0
1000000 5139 8641 0
1000000 5140 8747 0
1000000 5141 8752 0
1000000 5142 8750 0
1000000 5143 8468 0
1000000 5144 8609 0
1000000 5145 8419 0
1000000 5146 9153 0
1000000 5147 8846 0
1000000 5148 7745 0
1000000 5149 8815 0
1000000 5150 8710 0
1000000 5151 7901 0
1000000 5152 8996 0
1000000 5153 8917 0
1000000 5154 7929 0
1000000 5155 9043 0
1000000 5156 9256 0
1000000 5157 9284 0
1000000 5158 8318 0
1000000 5159 8109 0
1000000 5160 9274 0
1000000 5161 8743 0
1000000 5162 8210 0
1000000 5163 8543 0
1000000 5164 8568 0
1000000 5165 7838 0
1000000 5166 8645 0
1000000 5167 9187 0
1000000 5168 8617 0
1000000 5169 8155 0
1000000 5170 9454 0
1000000 5171 9058 0
1000000 5172 8701 0
1000000 5173 8623 0
1000000 5174 9456 0
1000000 5175 8048 0
1000000 5176 8648 0
1000000 5177 9036 0
1000000 5178 8208 0
1000000 5179 8964 0
1000000 5180 8989 0
1000000 5181 8188 0
1000000 5182 8859 0
1000000 5183 8502 0
1000000 5184 9223 0
1000000 5185 8682 0
1000000 5186 8306 0
1000000 5187 8333 0
1000000 5188 8274 0
1000000 5189 7978 0
1000000 5190 8674 0
1000000 5191 9255 0
1000000 5192 9222 0
1000000 5193 9461 0
1000000 5194 8613 0
1000000 5195 9443 0
1000000 5196 7745 0
1000000 5197 8432 0
1000000 5198 8405 0
1000000 5199 7957 0
1000000 5200 8448 0
1000000 5201 9320 0
1000000 5202 8420 0
1000000 5203 9364 0
1000000 5204 8241 0
1000000 5205 8414 0
1000000 5206 8053 0
1000000 5207 9209 0
1000000 5208 7887 0
1000000 5209 8818 0
1000000 5210 8301 0
1000000 5211 9413 0
1000000 5212 9283 0
1000000 5213 8413 0
1000000 5214 7804 0
1000000 5215 9372 0
1000000 5216 7941 0
1000000 5217 7684 0
1000000 5218 9316 0
1000000 5219 8969 0
1000000 5220 8432 0
1000000 5221 9040 0
1000000 5222 8672 0
1000000 5223 8402 0
1000000 5224 7966 0
1000000 5225 8131 0
1000000 5226 7801 0
1000000 5227 8209 0
1000000 5228 8868 0
1000000 5229 8784 0
1000000 5230 8606 0
1000000 5231 8124 0
1000000 5232 7996 0
1000000 5233 7964 0
1000000 5234 8281 0
1000000 5235 7892 0
1000000 5236 9171 0
1000000 5237 8767 0
1000000 5238 9053 0
1000000 5239 8440 0
1000000 5240 7879 0
1000000 5241 7871 0
1000000 5242 8773 0
1000000 5243 8176 0
1000000 5244 7897 0
1000000 5245 7705 0
1000000 5246 8412 0
1000000 5247 8455 0
1000000 5248 8658 0
1000000 5249 8886 0
1000000 5250 8181 0
1000000 5251 8814 0
1000000 5252 8035 0
1000000 5253 8230 0
1000000 5254 8078 0
1000000 5255 9311 0
1000000 5256 9395 0
1000000 5257 8774 0
1000000 5258 7756 0
1000000 5259 8543 0
1000000 5260 8064 0
1000000 5261 7888 0
1000000 5262 7731 0
1000000 5263 9236 0
1000000 5264 8246 0
1000000 5265 7706 0
1000000 5266 8013 0
1000000 5267 7865 0
1000000 5268 7989 0
1000000 5269 7850 0
1000000 5270 8423 0
1000000 5271 8739 0
1000000 5272 9115 0
1000000 5273 9443 0
1000000 5274 8896 0
1000000 5275 7961 0
1000000 5276 8252 0
1000000 5277 8207 0
1000000 5278 8636 0
1000000 5279 9098 0
1000000 5280 8824 0
1000000 5281 7757 0
1000000 5282 9145 0
1000000 5283 9433 0
1000000 5284 8811 0
1000000 5285 9381 0
1000000 5286 7736 0
1000000 5287 8764 0
1000000 5288 9251 0
1000000 5289 7858 0
1000000 5290 7924 0
1000000 5291 8841 0
1000000 5292 7869 0
1000000 5293 8772 0
1000000 5294 8325 0
1000000 5295 9196 0
1000000 5296 8240 0
1000000 5297 7923 0
1000000 5298 8453 0
1000000 5299 9420 0
1000000 5300 8085 0
1000000 5301 8021 0
1000000 5302 8311 0
1000000 5303 8010 0
1000000 5304 9293 0
1000000 5305 8037 0
1000000 5306 9184 0
1000000 5307 8953 0
1000000 5308 8406 0
1000000 5309 8263 0
1000000 5310 7689 0
1000000 5311 7762 0
1000000 5312 9389 0
1000000 5313 8346 0
1000000 5314 7826 0
1000000 5315 8920 0
1000000 5316 8104 0
1000000 5317 9123 0
1000000 5318 8368 0
1000000 5319 8393 0
1000000 5320 9343 0
1000000 5321 8526 0
1000000 5322 7967 0
1000000 5323 9402 0
1000000 5324 9278 0
1000000 5325 9350 0
1000000 5326 8836 0
1000000 5327 8268 0
1000000 5328 7718 0
1000000 5329 7732 0
1000000 5330 7935 0
1000000 5331 9305 0
1000000 5332 8080 0
1000000 5333 8044 0
1000000 5334 9426 0
1000000 5335 7804 0
1000000 5336 8597 0
1000000 5337 7743 0
1000000 5338 8737 0
1000000 5339 9022 0
1000000 5340 8373 0
1000000 5341 7938 0
1000000 5342 8841 0
1000000 5343 8622 0
1000000 5344 8009 0
1000000 5345 9470 0
1000000 5346 8084 0
1000000 5347 8254 0
1000000 5348 8576 0
1000000 5349 9134 0
1000000 5350 8016 0
1000000 5351 9277 0
1000000 5352 9228 0
1000000 5353 8751 0
1000000 5354 8180 0
1000000 5355 8956 0
1000000 5356 9182 0
1000000 5357 8855 0
1000000 5358 9400 0
1000000 5359 9004 0
1000000 5360 8404 0
1000000 5361 8102 0
1000000 5362 8058 0
1000000 5363 9365 0
1000000 5364 7829 0
1000000 5365 8798 0
1000000 5366 8343 0
1000000 5367 8355 0
1000000 5368 8377 0
1000000 5369 9200 0
1000000 5370 8533 0
1000000 5371 8848 0
1000000 5372 8093 0
1000000 5373 9243 0
1000000 5374 7933 0
1000000 5375 8755 0
1000000 5376 8885 0
1000000 5377 7881 0
1000000 5378 9336 0
1000000 5379 8848 0
1000000 5380 9194 0
1000000 5381 8215 0
1000000 5382 8492 0
1000000 5383 8051 0
1000000 5384 7987 0
1000000 5385 8726 0
1000000 5386 8062 0
1000000 5387 7985 0
1000000 5388 8809 0
1000000 5389 7728 0
1000000 5390 8076 0
1000000 5391 8579 0
1000000 5392 8613 0
1000000 5393 9424 0
1000000 5394 7824 0
1000000 5395 7997 0
1000000 5396 8317 0
1000000 5397 9310 0
1000000 5398 8572 0
1000000 5399 8444 0
1000000 5400 8307 0
1000000 5401 8961 0
1000000 5402 9352 0
1000000 5403 9235 0
1000000 5404 8904 0
1000000 5405 8095 0
1000000 5406 9077 0
1000000 5407 9200 0
1000000 5408 8008 0
1000000 5409 8956 0
1000000 5410 8263 0
1000000 5411 9299 0
1000000 5412 8498 0
1000000 5413 8446 0
1000000 5414 8338 0
1000000 5415 9421 0
1000000 5416 8451 0
1000000 5417 9121 0
1000000 5418 8541 0
1000000 5419 8300 0
1000000 5420 9101 0
1000000 5421 8115 0
1000000 5422 9353 0
1000000 5423 9115 0
1000000 5424 9236 0
1000000 5425 9043 0
1000000 5426 7951 0
1000000 5427 7883 0
1000000 5428 8586 0
1000000 5429 8018 0
1000000 5430 8909 0
1000000 5431 8312 0
1000000 5432 8043 0
1000000 5433 9263 0
1000000 5434 8136 0
1000000 5435 8158 0
1000000 5436 8634 0
1000000 5437 8420 0
1000000 5438 9083 0
1000000 5439 8711 0
1000000 5440 9396 0
1000000 5441 8930 0
1000000 5442 8796 0
1000000 5443 8572 0
1000000 5444 8592 0
1000000 5445 7684 0
1000000 5446 7882 0
1000000 5447 8373 0
1000000 5448 8551 0
1000000 5449 8422 0
1000000 5450 8766 0
1000000 5451 8395 0
1000000 5452 8509 0
1000000 5453 8735 0
1000000 5454 7991 0
1000000 5455 9034 0
1000000 5456 9177 0
1000000 5457 8065 0
1000000 5458 8769 0
1000000 5459 8805 0
1000000 5460 9451 0
1000000 5461 8757 0
1000000 5462 9072 0
1000000 5463 9313 0
1000000 5464 8001 0
1000000 5465 9138 0
1000000 5466 8363 0
1000000 5467 7721 0
1000000 5468 8315 0
1000000 5469 7738 0
1000000 5470 8422 0
1000000 5471 8947 0
1000000 5472 8535 0
1000000 5473 8118 0
1000000 5474 8472 0
1000000 5475 8177 0
1000000 5476 8470 0
1000000 5477 8921 0
1000000 5478 8775 0
1000000 5479 9057 0
1000000 5480 9408 0
1000000 5481 8067 0
1000000 5482 8463 0
1000000 5483 8907 0
1000000 5484 8766 0
1000000 5485 8435 0
1000000 5486 8746 0
1000000 5487 8630 0
1000000 5488 8166 0
1000000 5489 7914 0
1000000 5490 7740 0
1000000 5491 7740 0
1000000 5492 8554 0
1000000 5493 8225 0
1000000 5494 8370 0
1000000 5495 7842 0
1000000 5496 8478 0
1000000 5497 8054 0
1000000 5498 9231 0
1000000 5499 8477 0
1000000 5500 9044 0
1000000 5501 8476 0
1000000 5502 8765 0
1000000 5503 8380 0
1000000 5504 7957 0
1000000 5505 7751 0
1000000 5506 9329 0
1000000 5507 8702 0
1000000 5508 8288 0
1000000 5509 9038 0
1000000 5510 7961 0
1000000 5511 8590 0
1000000 5512 9329 0
1000000 5513 8832 0
1000000 5514 8168 0
1000000 5515 9036 0
1000000 5516 9431 0
1000000 5517 8756 0
1000000 5518 9383 0
1000000 5519 9094 0
1000000 5520 8407 0
1000000 5521 7807 0
1000000 5522 7909 0
1000000 5523 7843 0
1000000 5524 9393 0
1000000 5525 8794 0
1000000 5526 7812 0
1000000 5527 9392 0
1000000 5528 7787 0
1000000 5529 8206 0
1000000 5530 7712 0
1000000 5531 8453 0
1000000 5532 7798 0
1000000 5533 8010 0
1000000 5534 8466 0
1000000 5535 8670 0
1000000 5536 8306 0
1000000 5537 8616 0
1000000 5538 8108 0
1000000 5539 8409 0
1000000 5540 7701 0
1000000 5541 9143 0
1000000 5542 7772 0
1000000 5543 8475 0
1000000 5544 9472 0
1000000 5545 7800 0
1000000 5546 9030 0
1000000 5547 9016 0
1000000 5548 8601 0
1000000 5549 8941 0
1000000 5550 8150 0
1000000 5551 8151 0
1000000 5552 8405 0
1000000 5553 8403 0
1000000 5554 8592 0
1000000 5555 8411 0
1000000 5556 8349 0
1000000 5557 7936 0
1000000 5558 8634 0
1000000 5559 9331 0
1000000 5560 9340 0
1000000 5561 8903 0
1000000 5562 8758 0
1000000 5563 7850 0
1000000 5564 8199 0
1000000 5565 9374 0
1000000 5566 8939 0
1000000 5567 8031 0
1000000 5568 7935 0
1000000 5569 8330 0
1000000 5570 8350 0
1000000 5571 8409 0
1000000 5572 7876 0
1000000 5573 8721 0
1000000 5574 7767 0
1000000 5575 8144 0
1000000 5576 9047 0
1000000 5577 8449 0
1000000 5578 8526 0
1000000 5579 8489 0
1000000 5580 8012 0
1000000 5581 8232 0
1000000 5582 9027 0
1000000 5583 8808 0
1000000 5584 9285 0
1000000 5585 8868 0
1000000 5586 9124 0
1000000 5587 8656 0
1000000 5588 7978 0
1000000 5589 9295 0
1000000 5590 8396 0
1000000 5591 8666 0
1000000 5592 9317 0
1000000 5593 8073 0
1000000 5594 7828 0
1000000 5595 9075 0
1000000 5596 8603 0
1000000 5597 7857 0
1000000 5598 9342 0
1000000 5599 8112 0
1000000 5600 9253 0
1000000 5601 8130 0
1000000 5602 8450 0
1000000 5603 7751 0
1000000 5604 9109 0
1000000 5605 8089 0
1000000 5606 8614 0
1000000 5607 7682 0
1000000 5608 9448 0
1000000 5609 8145 0
1000000 5610 9466 0
1000000 5611 8710 0
1000000 5612 9087 0
1000000 5613 8122 0
1000000 5614 9435 0
1000000 5615 8086 0
1000000 5616 8928 0
1000000 5617 8495 0
1000000 5618 8697 0
1000000 5619 7714 0
1000000 5620 8222 0
1000000 5621 8963 0
1000000 5622 9440 0
1000000 5623 8984 0
1000000 5624 9388 0
1000000 5625 9308 0
1000000 5626 9232 0
1000000 5627 8856 0
1000000 5628 9475 0
1000000 5629 9168 0
1000000 5630 7690 0
1000000 5631 7845 0
1000000 5632 8577 0
1000000 5633 9309 0
1000000 5634 9016 0
1000000 5635 8227 0
1000000 5636 7949 0
1000000 5637 8785 0
1000000 5638 9154 0
1000000 5639 8906 0
1000000 5640 8649 0
1000000 5641 8196 0
1000000 5642 7896 0
1000000 5643 8632 0
1000000 5644 8806 0
1000000 5645 8456 0
1000000 5646 9202 0
1000000 5647 9007 0
1000000 5648 8199 0
1000000 5649 8021 0
1000000 5650 8038 0
1000000 5651 8223 0
1000000 5652 8517 0
1000000 5653 8584 0
1000000 5654 9152 0
1000000 5655 7708 0
1000000 5656 8420 0
1000000 5657 8402 0
1000000 5658 8427 0
1000000 5659 8367 0
1000000 5660 9151 0
1000000 5661 8989 0
1000000 5662 8709 0
1000000 5663 8662 0
1000000 5664 7889 0
1000000 5665 8244 0
1000000 5666 7764 0
1000000 5667 8465 0
1000000 5668 7953 0
1000000 5669 7826 0
1000000 5670 8600 0
1000000 5671 7707 0
1000000 5672 8303 0
1000000 5673 9353 0
1000000 5674 9328 0
1000000 5675 9461 0
1000000 5676 8035 0
1000000 5677 9118 0
1000000 5678 9328 0
1000000 5679 7913 0
1000000 5680 8753 0
1000000 5681 8823 0
1000000 5682 9303 0
1000000 5683 8138 0
1000000 5684 8889 0
1000000 5685 8919 0
1000000 5686 8424 0
1000000 5687 9360 0
1000000 5688 8347 0
1000000 5689 9058 0
1000000 5690 7819 0
1000000 5691 7806 0
1000000 5692 8602 0
1000000 5693 8523 0
1000000 5694 7885 0
1000000 5695 9399 0
1000000 5696 8451 0
1000000 5697 9130 0
1000000 5698 8615 0
1000000 5699 7724 0
1000000 5700 8310 0
1000000 5701 8447 0
1000000 5702 8930 0
1000000 5703 7729 0
1000000 5704 8198 0
1000000 5705 9181 0
1000000 5706 9134 0
1000000 5707 7732 0
1000000 5708 8362 0
1000000 5709 9122 0
1000000 5710 7823 0
1000000 5711 9394 0
1000000 5712 7709 0
1000000 5713 7868 0
1000000 5714 8021 0
1000000 5715 8731 0
1000000 5716 7897 0
1000000 5717 8536 0
1000000 5718 7950 0
1000000 5719 9281 0
1000000 5720 7780 0
1000000 5721 9120 0
1000000 5722 8859 0
1000000 5723 8507 0
1000000 5724 7941 0
1000000 5725 8136 0
1000000 5726 8108 0
1000000 5727 9269 0
1000000 5728 9006 0
1000000 5729 8520 0
1000000 5730 9357 0
1000000 5731 7952 0
1000000 5732 7872 0
1000000 5733 8645 0
1000000 5734 8719 0
1000000 5735 9404 0
1000000 5736 8449 0
1000000 5737 8284 0
1000000 5738 7824 0
1000000 5739 7812 0
1000000 5740 7965 0
1000000 5741 8608 0
1000000 5742 8313 0
1000000 5743 8360 0
1000000 5744 8933 0
1000000 5745 7937 0
1000000 5746 7977 0
1000000 5747 9189 0
1000000 5748 8616 0
1000000 5749 9345 0
1000000 5750 9192 0
1000000 5751 9334 0
1000000 5752 8761 0
1000000 5753 9387 0
1000000 5754 8129 0
1000000 5755 8110 0
1000000 5756 7689 0
1000000 5757 8678 0
1000000 5758 8703 0
1000000 5759 7767 0
1000000 5760 8745 0
1000000 5761 9446 0
1000000 5762 8864 0
1000000 5763 8298 0
1000000 5764 8204 0
1000000 5765 8332 0
1000000 5766 8888 0
1000000 5767 9137 0
1000000 5768 8620 0
1000000 5769 7943 0
1000000 5770 8931 0
1000000 5771 8386 0
1000000 5772 8208 0
1000000 5773 8676 0
1000000 5774 8257 0
1000000 5775 9202 0
1000000 5776 7875 0
1000000 5777 8072 0
1000000 5778 8316 0
1000000 5779 8396 0
1000000 5780 8730 0
1000000 5781 8736 0
1000000 5782 7739 0
1000000 5783 8447 0
1000000 5784 7995 0
1000000 5785 8708 0
1000000 5786 8444 0
1000000 5787 9311 0
1000000 5788 9104 0
1000000 5789 9459 0
1000000 5790 8516 0
1000000 5791 8786 0
1000000 5792 8121 0
1000000 5793 9325 0
1000000 5794 7695 0
1000000 5795 8891 0
1000000 5796 9474 0
1000000 5797 8434 0
1000000 5798 7858 0
1000000 5799 9438 0
1000000 5800 7682 0
1000000 5801 7748 0
1000000 5802 7853 0
1000000 5803 9032 0
1000000 5804 9416 0
1000000 5805 9155 0
1000000 5806 7700 0
1000000 5807 8635 0
1000000 5808 8744 0
1000000 5809 8783 0
1000000 5810 9190 0
1000000 5811 9380 0
1000000 5812 8642 0
1000000 5813 9311 0
1000000 5814 7794 0
1000000 5815 7951 0
1000000 5816 8360 0
1000000 5817 9199 0
1000000 5818 7755 0
1000000 5819 8812 0
1000000 5820 8145 0
1000000 5821 8075 0
1000000 5822 7691 0
1000000 5823 8176 0
1000000 5824 8646 0
1000000 5825 8695 0
1000000 5826 9270 0
1000000 5827 8365 0
1000000 5828 7776 0
1000000 5829 8825 0
1000000 5830 8709 0
1000000 5831 8691 0
1000000 5832 8389 0
1000000 5833 8039 0
1000000 5834 8126 0
1000000 5835 9396 0
1000000 5836 7983 0
1000000 5837 8156 0
1000000 5838 8990 0
1000000 5839 8442 0
1000000 5840 7775 0
1000000 5841 8056 0
1000000 5842 8579 0
1000000 5843 8511 0
1000000 5844 8379 0
1000000 5845 8069 0
1000000 5846 8525 0
1000000 5847 7887 0
1000000 5848 9053 0
1000000 5849 8720 0
1000000 5850 7885 0
1000000 5851 8576 0
1000000 5852 8034 0
1000000 5853 8115 0
1000000 5854 7958 0
1000000 5855 9362 0
1000000 5856 9011 0
1000000 5857 8515 0
1000000 5858 8301 0
1000000 5859 8700 0
1000000 5860 9254 0
1000000 5861 8562 0
1000000 5862 7945 0
1000000 5863 7771 0
1000000 5864 7939 0
1000000 5865 9467 0
1000000 5866 8390 0
1000000 5867 9067 0
1000000 5868 8653 0
1000000 5869 8194 0
1000000 5870 9213 0
1000000 5871 7725 0
1000000 5872 8136 0
1000000 5873 8307 0
1000000 5874 8750 0
1000000 5875 9449 0
1000000 5876 8515 0
1000000 5877 8538 0
1000000 5878 8418 0
1000000 5879 8725 0
1000000 5880 8496 0
1000000 5881 8039 0
1000000 5882 8385 0
1000000 5883 9204 0
1000000 5884 8296 0
1000000 5885 8388 0
1000000 5886 8851 0
1000000 5887 8143 0
1000000 5888 8029 0
1000000 5889 8088 0
1000000 5890 8221 0
1000000 5891 9194 0
1000000 5892 8851 0
1000000 5893 8664 0
1000000 5894 9247 0
1000000 5895 8401 0
1000000 5896 8861 0
1000000 5897 8835 0
1000000 5898 8810 0
1000000 5899 8563 0
1000000 5900 9390 0
1000000 5901 8367 0
1000000 5902 8142 0
1000000 5903 8224 0
1000000 5904 7990 0
1000000 5905 7749 0
1000000 5906 8946 0
1000000 5907 9465 0
1000000 5908 7807 0
1000000 5909 8205 0
1000000 5910 7820 0
1000000 5911 8055 0
1000000 5912 8877 0
1000000 5913 9095 0
1000000 5914 9085 0
1000000 5915 9150 0
1000000 5916 7710 0
1000000 5917 7743 0
1000000 5918 8316 0
1000000 5919 8702 0
1000000 5920 8068 0
1000000 5921 7805 0
1000000 5922 9407 0
1000000 5923 8976 0
1000000 5924 9164 0
1000000 5925 8836 0
1000000 5926 8334 0
1000000 5927 7796 0
1000000 5928 9025 0
1000000 5929 8146 0
1000000 5930 9092 0
1000000 5931 9169 0
1000000 5932 7904 0
1000000 5933 7979 0
1000000 5934 8238 0
1000000 5935 8076 0
1000000 5936 8287 0
1000000 5937 8286 0
1000000 5938 8157 0
1000000 5939 9395 0
1000000 5940 8342 0
1000000 5941 9081 0
1000000 5942 8870 0
1000000 5943 8128 0
1000000 5944 9415 0
1000000 5945 8368 0
1000000 5946 8328 0
1000000 5947 9147 0
1000000 5948 7973 0
1000000 5949 8019 0
1000000 5950 8690 0
1000000 5951 9029 0
1000000 5952 9066 0
1000000 5953 8799 0
1000000 5954 8588 0
1000000 5955 9087 0
1000000 5956 8714 0
1000000 5957 8922 0
1000000 5958 7931 0
1000000 5959 9108 0
1000000 5960 9082 0
1000000 5961 9042 0
1000000 5962 8503 0
1000000 5963 8654 0
1000000 5964 8707 0
1000000 5965 8489 0
1000000 5966 8481 0
1000000 5967 7903 0
1000000 5968 8353 0
1000000 5969 8205 0
1000000 5970 8273 0
1000000 5971 9428 0
1000000 5972 9202 0
1000000 5973 8501 0
1000000 5974 8431 0
1000000 5975 8368 0
1000000 5976 8161 0
1000000 5977 9209 0
1000000 5978 7833 0
1000000 5979 8975 0
1000000 5980 7962 0
1000000 5981 7993 0
1000000 5982 9188 0
1000000 5983 8826 0
1000000 5984 8087 0
1000000 5985 8910 0
1000000 5986 8150 0
1000000 5987 8296 0
1000000 5988 9226 0
1000000 5989 8022 0
1000000 5990 8816 0
1000000 5991 8479 0
1000000 5992 9373 0
1000000 5993 8921 0
1000000 5994 8345 0
1000000 5995 7795 0
1000000 5996 8339 0
1000000 5997 8959 0
1000000 5998 8574 0
1000000 5999 8802 0
1000000 6000 8715 0
1000000 6001 8916 0
1000000 6002 8733 0
1000000 6003 9268 0
1000000 6004 8292 0
1000000 6005 9217 0
1000000 6006 9279 0
1000000 6007 9332 0
1000000 6008 9217 0
1000000 6009 7820 0
1000000 6010 8836 0
1000000 6011 8832 0
1000000 6012 9220 0
1000000 6013 7789 0
1000000 6014 9090 0
1000000 6015 8757 0
1000000 6016 8910 0
1000000 6017 8403 0
1000000 6018 9143 0
1000000 6019 9259 0
1000000 6020 7773 0
1000000 6021 8178 0
1000000 6022 8079 0
1000000 6023 9411 0
1000000 6024 9321 0
1000000 6025 8223 0
1000000 6026 7900 0
1000000 6027 9390 0
1000000 6028 9404 0
1000000 6029 9344 0
1000000 6030 9021 0
1000000 6031 9318 0
1000000 6032 7961 0
1000000 6033 7976 0
1000000 6034 9308 0
1000000 6035 9302 0
1000000 6036 8651 0
1000000 6037 9473 0
1000000 6038 9325 0
1000000 6039 8346 0
1000000 6040 9265 0
1000000 6041 8872 0
1000000 6042 8437 0
1000000 6043 9239 0
1000000 6044 8035 0
1000000 6045 9006 0
1000000 6046 8862 0
1000000 6047 9075 0
1000000 6048 8253 0
1000000 6049 7713 0
1000000 6050 9150 0
1000000 6051 7856 0
1000000 6052 8680 0
1000000 6053 8102 0
1000000 6054 7686 0
1000000 6055 9013 0
1000000 6056 9080 0
1000000 6057 8558 0
1000000 6058 8243 0
1000000 6059 9328 0
1000000 6060 8797 0
1000000 6061 8636 0
1000000 6062 8499 0
1000000 6063 9131 0
1000000 6064 8352 0
1000000 6065 7821 0
1000000 6066 8658 0
1000000 6067 8622 0
1000000 6068 8581 0
1000000 6069 7902 0
1000000 6070 7828 0
1000000 6071 9083 0
1000000 6072 8621 0
1000000 6073 7695 0
1000000 6074 8027 0
1000000 6075 8998 0
1000000 6076 7788 0
1000000 6077 8430 0
1000000 6078 8521 0
1000000 6079 9195 0
1000000 6080 8146 0
1000000 6081 7808 0
1000000 6082 8751 0
1000000 6083 7915 0
1000000 6084 8713 0
1000000 6085 8765 0
1000000 6086 9274 0
1000000 6087 9187 0
1000000 6088 8966 0
1000000 6089 8728 0
1000000 6090 8378 0
1000000 6091 8713 0
1000000 6092 8410 0
1000000 6093 8303 0
1000000 6094 9277 0
1000000 6095 9323 0
1000000 6096 8583 0
1000000 6097 8683 0
1000000 6098 8661 0
1000000 6099 7885 0
1000000 6100 8980 0
1000000 6101 8558 0
1000000 6102 7754 0
1000000 6103 8657 0
1000000 6104 8844 0
1000000 6105 9354 0
1000000 6106 8896 0
1000000 6107 8486 0
1000000 6108 8663 0
1000000 6109 9144 0
1000000 6110 7792 0
1000000 6111 7861 0
1000000 6112 9427 0
1000000 6113 9200 0
1000000 6114 7789 0
1000000 6115 8602 0
1000000 6116 8426 0
1000000 6117 8552 0
1000000 6118 7973 0
1000000 6119 8293 0
1000000 6120 7711 0
1000000 6121 9300 0
1000000 6122 9162 0
1000000 6123 8918 0
1000000 6124 8698 0
1000000 6125 9180 0
1000000 6126 9399 0
1000000 6127 8002 0
1000000 6128 9215 0
1000000 6129 8891 0
1000000 6130 8953 0
1000000 6131 8731 0
1000000 6132 7988 0
1000000 6133 8501 0
1000000 6134 8057 0
1000000 6135 8665 0
1000000 6136 8202 0
1000000 6137 9427 0
1000000 6138 8407 0
1000000 6139 7842 0
1000000 6140 9455 0
1000000 6141 8638 0
1000000 6142 9127 0
1000000 6143 8041 0
1000000 6144 8527 0
1000000 6145 9434 0
1000000 6146 9044 0
1000000 6147 8941 0
1000000 6148 8743 0
1000000 6149 7869 0
1000000 6150 9280 0
1000000 6151 8916 0
1000000 6152 8973 0
1000000 6153 7981 0
1000000 6154 8392 0
1000000 6155 9450 0
1000000 6156 8519 0
1000000 6157 8763 0
1000000 6158 8844 0
1000000 6159 8217 0
1000000 6160 7690 0
1000000 6161 8235 0
1000000 6162 8792 0
1000000 6163 8899 0
1000000 6164 8581 0
1000000 6165 7760 0
1000000 6166 8912 0
1000000 6167 7725 0
1000000 6168 7928 0
1000000 6169 9318 0
1000000 6170 8522 0
1000000 6171 8425 0
1000000 6172 7773 0
1000000 6173 9133 0
1000000 6174 7921 0
1000000 6175 8166 0
1000000 6176 7974 0
1000000 6177 9433 0
1000000 6178 7929 0
1000000 6179 9211 0
1000000 6180 8967 0
1000000 6181 8180 0
1000000 6182 8453 0
1000000 6183 8926 0
1000000 6184 8657 0
1000000 6185 8192 0
1000000 6186 9026 0
1000000 6187 9103 0
1000000 6188 8030 0
1000000 6189 8605 0
1000000 6190 8662 0
1000000 6191 8246 0
1000000 6192 7969 0
1000000 6193 8201 0
1000000 6194 8690 0
1000000 6195 9054 0
1000000 6196 8214 0
1000000 6197 8668 0
1000000 6198 9179 0
1000000 6199 7881 0
1000000 6200 7858 0
1000000 6201 9077 0
1000000 6202 9283 0
1000000 6203 8805 0
1000000 6204 8637 0
1000000 6205 8487 0
1000000 6206 7772 0
1000000 6207 8019 0
1000000 6208 8714 0
1000000 6209 9039 0
1000000 6210 9138 0
1000000 6211 8484 0
1000000 6212 7829 0
1000000 6213 7712 0
1000000 6214 8621 0
1000000 6215 9463 0
1000000 6216 8925 0
1000000 6217 9078 0
1000000 6218 9295 0
1000000 6219 7691 0
1000000 6220 9090 0
1000000 6221 8233 0
1000000 6222 8269 0
1000000 6223 8189 0
1000000 6224 9164 0
1000000 6225 8446 0
1000000 6226 7955 0
1000000 6227 8853 0
1000000 6228 8416 0
1000000 6229 9310 0
1000000 6230 8917 0
1000000 6231 8123 0
1000000 6232 8100 0
1000000 6233 8742 0
1000000 6234 8272 0
1000000 6235 8741 0
1000000 6236 7735 0
1000000 6237 7924 0
1000000 6238 8000 0
1000000 6239 8442 0
1000000 6240 8825 0
1000000 6241 9477 0
1000000 6242 8389 0
1000000 6243 9386 0
1000000 6244 9349 0
1000000 6245 8474 0
1000000 6246 7894 0
1000000 6247 7989 0
1000000 6248 7992 0
1000000 6249 8734 0
1000000 6250 8416 0
1000000 6251 8639 0
1000000 6252 8917 0
1000000 6253 8139 0
1000000 6254 8531 0
1000000 6255 8854 0
1000000 6256 8232 0
1000000 6257 9272 0
1000000 6258 7915 0
1000000 6259 8649 0
1000000 6260 8544 0
1000000 6261 8587 0
1000000 6262 9365 0
1000000 6263 7694 0
1000000 6264 8640 0
1000000 6265 8427 0
1000000 6266 8882 0
1000000 6267 9037 0
1000000 6268 8116 0
1000000 6269 8494 0
1000000 6270 7772 0
1000000 6271 8087 0
1000000 6272 9226 0
1000000 6273 8087 0
1000000 6274 8629 0
1000000 6275 9191 0
1000000 6276 8901 0
1000000 6277 7979 0
1000000 6278 7831 0
1000000 6279 9064 0
1000000 6280 7917 0
1000000 6281 8221 0
1000000 6282 9397 0
1000000 6283 8328 0
1000000 6284 7721 0
1000000 6285 7952 0
1000000 6286 7750 0
1000000 6287 8132 0
1000000 6288 7907 0
1000000 6289 9479 0
1000000 6290 8343 0
1000000 6291 7743 0
1000000 6292 8707 0
1000000 6293 7953 0
1000000 6294 8948 0
1000000 6295 8308 0
1000000 6296 9321 0
1000000 6297 8555 0
1000000 6298 8115 0
1000000 6299 7684 0
1000000 6300 9004 0
1000000 6301 8618 0
1000000 6302 7942 0
1000000 6303 7747 0
1000000 6304 8450 0
1000000 6305 8617 0
1000000 6306 9458 0
1000000 6307 9069 0
1000000 6308 9128 0
1000000 6309 9353 0
1000000 6310 9214 0
1000000 6311 7920 0
1000000 6312 8529 0
1000000 6313 8934 0
1000000 6314 9384 0
1000000 6315 8957 0
1000000 6316 8476 0
1000000 6317 7683 0
1000000 6318 8060 0
1000000 6319 9414 0
1000000 6320 8681 0
1000000 6321 9173 0
1000000 6322 9427 0
1000000 6323 7895 0
1000000 6324 8000 0
1000000 6325 8672 0
1000000 6326 8193 0
1000000 6327 8042 0
1000000 6328 7906 0
1000000 6329 9006 0
1000000 6330 9274 0
1000000 6331 8300 0
1000000 6332 8414 0
1000000 6333 7946 0
1000000 6334 8737 0
1000000 6335 8899 0
1000000 6336 8154 0
1000000 6337 8894 0
1000000 6338 8898 0
1000000 6339 9317 0
1000000 6340 8137 0
1000000 6341 8423 0
1000000 6342 8827 0
1000000 6343 8351 0
1000000 6344 8279 0
1000000 6345 8902 0
1000000 6346 8383 0
1000000 6347 8318 0
1000000 6348 8550 0
1000000 6349 8292 0
1000000 6350 9055 0
1000000 6351 8210 0
1000000 6352 8872 0
1000000 6353 7708 0
1000000 6354 8070 0
1000000 6355 7908 0
1000000 6356 8070 0
1000000 6357 7998 0
1000000 6358 8568 0
1000000 6359 9351 0
1000000 6360 9186 0
1000000 6361 9291 0
1000000 6362 7818 0
1000000 6363 8987 0
1000000 6364 7954 0
1000000 6365 8952 0
1000000 6366 8957 0
1000000 6367 8611 0
1000000 6368 7690 0
1000000 6369 7857 0
1000000 6370 8519 0
1000000 6371 8456 0
1000000 6372 8607 0
1000000 6373 8300 0
1000000 6374 8366 0
1000000 6375 9037 0
1000000 6376 9290 0
1000000 6377 8959 0
1000000 6378 9375 0
1000000 6379 7996 0
1000000 6380 8771 0
1000000 6381 9149 0
1000000 6382 8762 0
1000000 6383 9197 0
1000000 6384 8895 0
1000000 6385 8938 0
1000000 6386 8607 0
1000000 6387 9428 0
1000000 6388 8187 0
1000000 6389 8754 0
1000000 6390 7853 0
1000000 6391 8099 0
1000000 6392 8138 0
1000000 6393 8236 0
1000000 6394 8252 0
1000000 6395 7921 0
1000000 6396 8935 0
1000000 6397 9423 0
1000000 6398 8158 0
1000000 6399 7839 0
1000000 6400 8779 0
1000000 6401 9227 0
1000000 6402 8152 0
1000000 6403 9470 0
1000000 6404 8229 0
1000000 6405 8865 0
1000000 6406 8609 0
1000000 6407 9068 0
1000000 6408 9253 0
1000000 6409 9226 0
1000000 6410 7865 0
1000000 6411 8565 0
1000000 6412 7807 0
1000000 6413 7835 0
1000000 6414 8847 0
1000000 6415 8998 0
1000000 6416 8351 0
1000000 6417 8532 0
1000000 6418 8406 0
1000000 6419 7945 0
1000000 6420 9460 0
1000000 6421 8995 0
1000000 6422 8033 0
1000000 6423 8475 0
1000000 6424 7686 0
1000000 6425 8580 0
1000000 6426 7941 0
1000000 6427 8485 0
1000000 6428 9085 0
1000000 6429 8179 0
1000000 6430 8244 0
1000000 6431 8161 0
1000000 6432 9017 0
1000000 6433 9099 0
1000000 6434 9417 0
1000000 6435 8217 0
1000000 6436 8386 0
1000000 6437 8101 0
1000000 6438 8139 0
1000000 6439 9409 0
1000000 6440 8875 0
1000000 6441 9198 0
1000000 6442 8276 0
1000000 6443 9166 0
1000000 6444 7870 0
1000000 6445 9240 0
1000000 6446 9048 0
1000000 6447 8408 0
1000000 6448 8160 0
1000000 6449 9232 0
1000000 6450 8030 0
1000000 6451 8401 0
1000000 6452 8935 0
1000000 6453 7830 0
1000000 6454 7693 0
1000000 6455 8902 0
1000000 6456 7696 0
1000000 6457 8286 0
1000000 6458 7808 0
1000000 6459 9386 0
1000000 6460 9375 0
1000000 6461 7898 0
1000000 6462 8026 0
1000000 6463 9207 0
1000000 6464 7853 0
1000000 6465 7956 0
1000000 6466 8525 0
1000000 6467 8754 0
1000000 6468 9206 0
1000000 6469 9405 0
1000000 6470 8466 0
1000000 6471 7745 0
1000000 6472 8987 0
1000000 6473 8190 0
1000000 6474 8256 0
1000000 6475 8229 0
1000000 6476 8806 0
1000000 6477 7788 0
1000000 6478 9095 0
1000000 6479 7688 0
1000000 6480 7774 0
1000000 6481 8913 0
1000000 6482 9376 0
1000000 6483 8121 0
1000000 6484 8573 0
1000000 6485 9092 0
1000000 6486 7758 0
1000000 6487 8833 0
1000000 6488 7802 0
1000000 6489 8010 0
1000000 6490 9347 0
1000000 6491 8680 0
1000000 6492 9356 0
1000000 6493 8016 0
1000000 6494 8033 0
1000000 6495 8005 0
1000000 6496 8677 0
1000000 6497 8187 0
1000000 6498 9027 0
1000000 6499 8686 0
1000000 6500 8665 0
1000000 6501 7724 0
1000000 6502 7838 0
1000000 6503 9079 0
1000000 6504 8864 0
1000000 6505 9339 0
1000000 6506 8044 0
1000000 6507 8994 0
1000000 6508 7849 0
1000000 6509 9471 0
1000000 6510 9335 0
1000000 6511 9163 0
1000000 6512 9157 0
1000000 6513 7866 0
1000000 6514 8483 0
1000000 6515 7714 0
1000000 6516 8565 0
1000000 6517 9477 0
1000000 6518 8175 0
1000000 6519 8884 0
1000000 6520 8039 0
1000000 6521 8469 0
1000000 6522 7894 0
1000000 6523 9163 0
1000000 6524 8341 0
1000000 6525 8032 0
1000000 6526 9472 0
1000000 6527 9360 0
1000000 6528 8711 0
1000000 6529 7963 0
1000000 6530 8723 0
1000000 6531 8011 0
1000000 6532 9050 0
1000000 6533 8240 0
1000000 6534 8990 0
1000000 6535 9044 0
1000000 6536 9339 0
1000000 6537 8959 0
1000000 6538 8845 0
1000000 6539 8012 0
1000000 6540 8577 0
1000000 6541 9143 0
1000000 6542 8090 0
1000000 6543 8460 0
1000000 6544 8697 0
1000000 6545 8804 0
1000000 6546 9446 0
1000000 6547 8930 0
1000000 6548 8461 0
1000000 6549 8113 0
1000000 6550 9364 0
1000000 6551 9014 0
1000000 6552 8803 0
1000000 6553 8038 0
1000000 6554 9249 0
1000000 6555 8939 0
1000000 6556 7717 0
1000000 6557 7866 0
1000000 6558 8639 0
1000000 6559 8284 0
1000000 6560 8804 0
1000000 6561 8897 0
1000000 6562 8987 0
1000000 6563 8983 0
1000000 6564 8040 0
1000000 6565 9219 0
1000000 6566 8285 0
1000000 6567 8466 0
1000000 6568 9321 0
1000000 6569 8957 0
1000000 6570 9255 0
1000000 6571 8323 0
1000000 6572 9322 0
1000000 6573 8412 0
1000000 6574 7949 0
1000000 6575 9245 0
1000000 6576 7704 0
1000000 6577 8032 0
1000000 6578 8379 0
1000000 6579 8546 0
1000000 6580 8469 0
1000000 6581 7956 0
1000000 6582 8072 0
1000000 6583 7692 0
1000000 6584 8540 0
1000000 6585 7705 0
1000000 6586 8467 0
1000000 6587 7888 0
1000000 6588 7702 0
1000000 6589 8172 0
1000000 6590 8036 0
1000000 6591 7990 0
1000000 6592 8908 0
1000000 6593 8257 0
1000000 6594 8511 0
1000000 6595 9020 0
1000000 6596 7744 0
1000000 6597 9324 0
1000000 6598 8257 0
1000000 6599 8528 0
1000000 6600 8844 0
1000000 6601 8330 0
1000000 6602 7704 0
1000000 6603 8103 0
1000000 6604 7784 0
1000000 6605 8821 0
1000000 6606 8512 0
1000000 6607 7842 0
1000000 6608 7884 0
1000000 6609 9221 0
1000000 6610 8662 0
1000000 6611 9465 0
1000000 6612 9291 0
1000000 6613 7787 0
1000000 6614 7987 0
1000000 6615 8141 0
1000000 6616 8139 0
1000000 6617 7759 0
1000000 6618 8695 0
1000000 6619 7763 0
1000000 6620 8025 0
1000000 6621 8380 0
1000000 6622 7871 0
1000000 6623 8425 0
1000000 6624 8850 0
1000000 6625 8874 0
1000000 6626 8661 0
1000000 6627 7899 0
1000000 6628 9413 0
1000000 6629 9041 0
1000000 6630 8529 0
1000000 6631 7742 0
1000000 6632 7716 0
1000000 6633 8364 0
1000000 6634 8006 0
1000000 6635 7710 0
1000000 6636 9119 0
1000000 6637 9271 0
1000000 6638 8863 0
1000000 6639 8521 0
1000000 6640 9336 0
1000000 6641 8726 0
1000000 6642 9346 0
1000000 6643 8324 0
1000000 6644 9116 0
1000000 6645 8714 0
1000000 6646 9474 0
1000000 6647 7876 0
1000000 6648 8249 0
1000000 6649 8981 0
1000000 6650 9250 0
1000000 6651 8599 0
1000000 6652 8140 0
1000000 6653 9441 0
1000000 6654 7819 0
1000000 6655 8923 0
1000000 6656 8040 0
1000000 6657 8634 0
1000000 6658 7825 0
1000000 6659 8358 0
1000000 6660 9296 0
1000000 6661 8381 0
1000000 6662 8305 0
1000000 6663 9477 0
1000000 6664 8068 0
1000000 6665 8581 0
1000000 6666 8557 0
1000000 6667 8250 0
1000000 6668 7698 0
1000000 6669 9142 0
1000000 6670 9242 0
1000000 6671 8327 0
1000000 6672 7715 0
1000000 6673 9389 0
1000000 6674 7704 0
1000000 6675 8598 0
1000000 6676 8380 0
1000000 6677 8291 0
1000000 6678 7896 0
1000000 6679 8098 0
1000000 6680 8395 0
1000000 6681 8424 0
1000000 6682 8471 0
1000000 6683 8560 0
1000000 6684 9254 0
1000000 6685 9111 0
1000000 6686 8089 0
1000000 6687 8403 0
1000000 6688 8084 0
1000000 6689 7964 0
1000000 6690 8615 0
1000000 6691 8447 0
1000000 6692 7700 0
1000000 6693 9072 0
1000000 6694 8494 0
1000000 6695 9214 0
1000000 6696 8432 0
1000000 6697 9244 0
1000000 6698 9089 0
1000000 6699 7822 0
1000000 6700 7864 0
1000000 6701 9039 0
1000000 6702 8256 0
1000000 6703 8155 0
1000000 6704 9205 0
1000000 6705 8539 0
1000000 6706 8704 0
1000000 6707 8143 0
1000000 6708 9273 0
1000000 6709 7940 0
1000000 6710 8382 0
1000000 6711 8231 0
1000000 6712 8927 0
1000000 6713 8170 0
1000000 6714 8268 0
1000000 6715 7913 0
1000000 6716 9053 0
1000000 6717 8359 0
1000000 6718 8083 0
1000000 6719 7766 0
1000000 6720 8116 0
1000000 6721 7774 0
1000000 6722 9102 0
1000000 6723 8910 0
1000000 6724 8454 0
1000000 6725 9471 0
1000000 6726 8279 0
1000000 6727 8128 0
1000000 6728 7964 0
1000000 6729 8383 0
1000000 6730 9127 0
1000000 6731 8800 0
1000000 6732 9185 0
1000000 6733 9203 0
1000000 6734 8236 0
1000000 6735 8431 0
1000000 6736 8739 0
1000000 6737 8793 0
1000000 6738 8392 0
1000000 6739 8440 0
1000000 6740 9307 0
1000000 6741 7923 0
1000000 6742 8705 0
1000000 6743 9184 0
1000000 6744 9454 0
1000000 6745 7784 0
1000000 6746 8027 0
1000000 6747 8291 0
1000000 6748 8545 0
1000000 6749 8890 0
1000000 6750 7867 0
1000000 6751 9040 0
1000000 6752 8557 0
1000000 6753 7733 0
1000000 6754 8896 0
1000000 6755 8929 0
1000000 6756 8247 0
1000000 6757 9170 0
1000000 6758 8712 0
1000000 6759 8745 0
1000000 6760 7829 0
1000000 6761 9286 0
1000000 6762 8747 0
1000000 6763 9023 0
1000000 6764 8242 0
1000000 6765 8981 0
1000000 6766 8387 0
1000000 6767 9130 0
1000000 6768 8288 0
1000000 6769 8961 0
1000000 6770 7832 0
1000000 6771 9418 0
1000000 6772 7932 0
1000000 6773 7816 0
1000000 6774 9258 0
1000000 6775 9297 0
1000000 6776 8966 0
1000000 6777 8773 0
1000000 6778 8812 0
1000000 6779 8424 0
1000000 6780 7733 0
1000000 6781 8141 0
1000000 6782 8762 0
1000000 6783 9064 0
1000000 6784 7994 0
1000000 6785 7878 0
1000000 6786 7854 0
1000000 6787 8090 0
1000000 6788 7917 0
1000000 6789 8781 0
1000000 6790 8517 0
1000000 6791 8939 0
1000000 6792 8643 0
1000000 6793 8338 0
1000000 6794 8718 0
1000000 6795 9204 0
1000000 6796 7731 0
1000000 6797 8260 0
1000000 6798 7943 0
1000000 6799 8833 0
1000000 6800 7755 0
1000000 6801 7744 0
1000000 6802 8206 0
1000000 6803 8802 0
1000000 6804 9360 0
1000000 6805 9041 0
1000000 6806 7901 0
1000000 6807 8586 0
1000000 6808 8571 0
1000000 6809 8566 0
1000000 6810 9315 0
1000000 6811 8951 0
1000000 6812 9018 0
1000000 6813 8610 0
1000000 6814 8629 0
1000000 6815 8203 0
1000000 6816 9125 0
1000000 6817 8637 0
1000000 6818 9167 0
1000000 6819 7895 0
1000000 6820 8247 0
1000000 6821 8047 0
1000000 6822 8335 0
1000000 6823 7981 0
1000000 6824 9345 0
1000000 6825 9181 0
1000000 6826 8014 0
1000000 6827 7846 0
1000000 6828 8582 0
1000000 6829 8342 0
1000000 6830 7967 0
1000000 6831 8093 0
1000000 6832 8410 0
1000000 6833 8459 0
1000000 6834 9058 0
1000000 6835 9412 0
1000000 6836 8942 0
1000000 6837 8236 0
1000000 6838 9199 0
1000000 6839 7756 0
1000000 6840 8052 0
1000000 6841 8219 0
1000000 6842 9382 0
1000000 6843 8219 0
1000000 6844 9371 0
1000000 6845 9262 0
1000000 6846 8579 0
1000000 6847 8504 0
1000000 6848 8134 0
1000000 6849 7746 0
1000000 6850 9126 0
1000000 6851 9348 0
1000000 6852 9043 0
1000000 6853 7947 0
1000000 6854 9063 0
1000000 6855 8569 0
1000000 6856 8807 0
1000000 6857 8052 0
1000000 6858 8005 0
1000000 6859 7918 0
1000000 6860 9302 0
1000000 6861 7896 0
1000000 6862 8777 0
1000000 6863 7793 0
1000000 6864 8613 0
1000000 6865 8056 0
1000000 6866 8407 0
1000000 6867 9290 0
1000000 6868 8786 0
1000000 6869 8623 0
1000000 6870 9425 0
1000000 6871 8332 0
1000000 6872 8444 0
1000000 6873 8584 0
1000000 6874 9162 0
1000000 6875 8514 0
1000000 6876 8033 0
1000000 6877 8965 0
1000000 6878 7871 0
1000000 6879 9064 0
1000000 6880 8374 0
1000000 6881 9476 0
1000000 6882 9288 0
1000000 6883 9184 0
1000000 6884 7899 0
1000000 6885 7861 0
1000000 6886 8640 0
1000000 6887 9088 0
1000000 6888 8730 0
1000000 6889 8586 0
1000000 6890 8676 0
1000000 6891 8893 0
1000000 6892 8834 0
1000000 6893 8276 0
1000000 6894 9415 0
1000000 6895 7909 0
1000000 6896 8877 0
1000000 6897 9296 0
1000000 6898 8282 0
1000000 6899 8090 0
1000000 6900 9421 0
1000000 6901 8871 0
1000000 6902 8428 0
1000000 6903 9449 0
1000000 6904 9076 0
1000000 6905 7987 0
1000000 6906 7954 0
1000000 6907 8906 0
1000000 6908 7682 0
1000000 6909 9038 0
1000000 6910 8704 0
1000000 6911 8158 0
1000000 6912 8397 0
1000000 6913 7868 0
1000000 6914 8588 0
1000000 6915 8289 0
1000000 6916 7721 0
1000000 6917 8883 0
1000000 6918 8088 0
1000000 6919 8251 0
1000000 6920 8460 0
1000000 6921 8845 0
1000000 6922 9164 0
1000000 6923 9219 0
1000000 6924 8604 0
1000000 6925 7990 0
1000000 6926 8418 0
1000000 6927 7735 0
1000000 6928 9303 0
1000000 6929 8774 0
1000000 6930 9084 0
1000000 6931 8894 0
1000000 6932 9023 0
1000000 6933 8297 0
1000000 6934 9292 0
1000000 6935 8884 0
1000000 6936 9367 0
1000000 6937 9480 0
1000000 6938 8372 0
1000000 6939 7837 0
1000000 6940 8303 0
1000000 6941 8993 0
1000000 6942 7906 0
1000000 6943 8542 0
1000000 6944 8011 0
1000000 6945 7950 0
1000000 6946 8245 0
1000000 6947 9330 0
1000000 6948 8502 0
1000000 6949 8185 0
1000000 6950 9223 0
1000000 6951 9227 0
1000000 6952 7783 0
1000000 6953 9284 0
1000000 6954 9417 0
1000000 6955 8555 0
1000000 6956 8524 0
1000000 6957 8114 0
1000000 6958 8188 0
1000000 6959 7913 0
1000000 6960 9262 0
1000000 6961 8720 0
1000000 6962 9003 0
1000000 6963 7833 0
1000000 6964 7741 0
1000000 6965 8092 0
1000000 6966 8789 0
1000000 6967 9069 0
1000000 6968 8999 0
1000000 6969 8315 0
1000000 6970 8198 0
1000000 6971 7730 0
1000000 6972 8902 0
1000000 6973 8308 0
1000000 6974 8126 0
1000000 6975 8393 0
1000000 6976 9139 0
1000000 6977 9385 0
1000000 6978 8582 0
1000000 6979 8028 0
1000000 6980 9057 0
1000000 6981 8312 0
1000000 6982 8924 0
1000000 6983 8056 0
1000000 6984 8354 0
1000000 6985 8471 0
1000000 6986 8069 0
1000000 6987 8281 0
1000000 6988 8631 0
1000000 6989 8259 0
1000000 6990 8435 0
1000000 6991 8093 0
1000000 6992 8000 0
1000000 6993 8819 0
1000000 6994 7726 0
1000000 6995 9462 0
1000000 6996 8109 0
1000000 6997 9299 0
1000000 6998 7988 0
1000000 6999 7795 0
1000000 7000 8382 0
1000000 7001 8359 0
1000000 7002 8205 0
1000000 7003 8651 0
1000000 7004 9097 0
1000000 7005 8088 0
1000000 7006 7851 0
1000000 7007 9149 0
1000000 7008 8271 0
1000000 7009 8808 0
1000000 7010 9256 0
1000000 7011 9148 0
1000000 7012 9239 0
1000000 7013 9300 0
1000000 7014 8876 0
1000000 7015 7957 0
1000000 7016 8011 0
1000000 7017 8819 0
1000000 7018 8540 0
1000000 7019 8914 0
1000000 7020 8386 0
1000000 7021 8182 0
1000000 7022 7955 0
1000000 7023 8901 0
1000000 7024 8577 0
1000000 7025 7983 0
1000000 7026 8991 0
1000000 7027 8369 0
1000000 7028 8858 0
1000000 7029 7873 0
1000000 7030 8082 0
1000000 7031 8487 0
1000000 7032 8071 0
1000000 7033 8199 0
1000000 7034 8119 0
1000000 7035 9377 0
1000000 7036 7724 0
1000000 7037 7748 0
1000000 7038 8925 0
1000000 7039 8185 0
1000000 7040 7718 0
1000000 7041 9356 0
1000000 7042 8384 0
1000000 7043 8528 0
1000000 7044 8057 0
1000000 7045 8053 0
1000000 7046 8206 0
1000000 7047 8679 0
1000000 7048 8751 0
1000000 7049 7685 0
1000000 7050 9195 0
1000000 7051 8228 0
1000000 7052 9072 0
1000000 7053 8168 0
1000000 7054 8678 0
1000000 7055 9340 0
1000000 7056 8961 0
1000000 7057 7785 0
1000000 7058 8028 0
1000000 7059 9393 0
1000000 7060 8309 0
1000000 7061 8505 0
1000000 7062 8849 0
1000000 7063 7813 0
1000000 7064 9469 0
1000000 7065 9289 0
1000000 7066 8799 0
1000000 7067 9066 0
1000000 7068 8542 0
1000000 7069 8863 0
1000000 7070 9304 0
1000000 7071 8375 0
1000000 7072 8962 0
1000000 7073 9241 0
1000000 7074 7832 0
1000000 7075 9176 0
1000000 7076 8655 0
1000000 7077 7776 0
1000000 7078 8062 0
1000000 7079 9280 0
1000000 7080 8524 0
1000000 7081 8697 0
1000000 7082 8134 0
1000000 7083 8213 0
1000000 7084 7891 0
1000000 7085 8768 0
1000000 7086 7963 0
1000000 7087 9162 0
1000000 7088 8298 0
1000000 7089 8506 0
1000000 7090 8057 0
1000000 7091 9263 0
1000000 7092 8133 0
1000000 7093 9206 0
1000000 7094 9127 0
1000000 7095 9195 0
1000000 7096 9405 0
1000000 7097 7893 0
1000000 7098 8661 0
1000000 7099 7951 0
1000000 7100 8451 0
1000000 7101 8694 0
1000000 7102 8764 0
1000000 7103 8990 0
1000000 7104 7960 0
1000000 7105 8857 0
1000000 7106 9439 0
1000000 7107 7817 0
1000000 7108 9414 0
1000000 7109 8686 0
1000000 7110 8213 0
1000000 7111 8978 0
1000000 7112 9028 0
1000000 7113 8297 0
1000000 7114 9301 0
1000000 7115 9169 0
1000000 7116 7764 0
1000000 7117 9029 0
1000000 7118 8156 0
1000000 7119 9432 0
1000000 7120 8091 0
1000000 7121 8122 0
1000000 7122 8304 0
1000000 7123 9229 0
1000000 7124 7706 0
1000000 7125 8518 0
1000000 7126 7778 0
1000000 7127 9361 0
1000000 7128 9327 0
1000000 7129 8821 0
1000000 7130 9038 0
1000000 7131 8711 0
1000000 7132 8542 0
1000000 7133 8237 0
1000000 7134 9414 0
1000000 7135 8172 0
1000000 7136 8776 0
1000000 7137 7976 0
1000000 7138 9359 0
1000000 7139 9229 0
1000000 7140 8419 0
1000000 7141 8418 0
1000000 7142 9369 0
1000000 7143 8530 0
1000000 7144 8669 0
1000000 7145 8422 0
1000000 7146 8871 0
1000000 7147 8285 0
1000000 7148 7820 0
1000000 7149 8604 0
1000000 7150 8660 0
1000000 7151 8985 0
1000000 7152 8265 0
1000000 7153 7976 0
1000000 7154 8601 0
1000000 7155 8146 0
1000000 7156 8792 0
1000000 7157 8127 0
1000000 7158 8073 0
1000000 7159 8811 0
1000000 7160 7944 0
1000000 7161 8549 0
1000000 7162 9391 0
1000000 7163 9389 0
1000000 7164 9220 0
1000000 7165 8849 0
1000000 7166 9110 0
1000000 7167 9230 0
1000000 7168 9451 0
1000000 7169 8003 0
1000000 7170 7855 0
1000000 7171 8126 0
1000000 7172 9091 0
1000000 7173 8770 0
1000000 7174 8114 0
1000000 7175 9430 0
1000000 7176 8173 0
1000000 7177 9034 0
1000000 7178 8160 0
1000000 7179 8548 0
1000000 7180 7977 0
1000000 7181 9083 0
1000000 7182 9133 0
1000000 7183 7968 0
1000000 7184 9048 0
1000000 7185 9169 0
1000000 7186 8929 0
1000000 7187 8487 0
1000000 7188 8074 0
1000000 7189 9246 0
1000000 7190 8690 0
1000000 7191 9452 0
1000000 7192 8625 0
1000000 7193 8107 0
1000000 7194 8495 0
1000000 7195 8177 0
1000000 7196 8790 0
1000000 7197 8636 0
1000000 7198 9255 0
1000000 7199 9208 0
1000000 7200 8992 0
1000000 7201 9018 0
1000000 7202 9408 0
1000000 7203 9073 0
1000000 7204 9035 0
1000000 7205 9387 0
1000000 7206 8824 0
1000000 7207 9289 0
1000000 7208 8174 0
1000000 7209 9107 0
1000000 7210 9357 0
1000000 7211 9401 0
1000000 7212 8570 0
1000000 7213 9201 0
1000000 7214 9413 0
1000000 7215 8321 0
1000000 7216 8756 0
1000000 7217 9086 0
1000000 7218 9010 0
1000000 7219 8864 0
1000000 7220 7982 0
1000000 7221 8589 0
1000000 7222 8784 0
1000000 7223 9231 0
1000000 7224 9048 0
1000000 7225 7809 0
1000000 7226 7756 0
1000000 7227 9059 0
1000000 7228 8986 0
1000000 7229 8630 0
1000000 7230 8200 0
1000000 7231 8410 0
1000000 7232 8429 0
1000000 7233 9129 0
1000000 7234 7840 0
1000000 7235 9037 0
1000000 7236 9135 0
1000000 7237 8075 0
1000000 7238 8528 0
1000000 7239 8364 0
1000000 7240 8337 0
1000000 7241 9406 0
1000000 7242 8063 0
1000000 7243 8747 0
1000000 7244 7986 0
1000000 7245 8822 0
1000000 7246 9234 0
1000000 7247 8184 0
1000000 7248 8522 0
1000000 7249 8620 0
1000000 7250 8121 0
1000000 7251 8200 0
1000000 7252 7768 0
1000000 7253 7782 0
1000000 7254 9445 0
1000000 7255 7975 0
1000000 7256 8264 0
1000000 7257 9453 0
1000000 7258 9332 0
1000000 7259 8154 0
1000000 7260 7977 0
1000000 7261 8488 0
1000000 7262 8965 0
1000000 7263 7912 0
1000000 7264 8782 0
1000000 7265 7786 0
1000000 7266 9145 0
1000000 7267 8066 0
1000000 7268 9299 0
1000000 7269 9405 0
1000000 7270 7720 0
1000000 7271 8944 0
1000000 7272 7814 0
1000000 7273 8991 0
1000000 7274 7784 0
1000000 7275 8435 0
1000000 7276 8829 0
1000000 7277 7900 0
1000000 7278 8196 0
1000000 7279 8701 0
1000000 7280 7978 0
1000000 7281 8124 0
1000000 7282 7838 0
1000000 7283 8760 0
1000000 7284 8953 0
1000000 7285 8050 0
1000000 7286 8125 0
1000000 7287 9189 0
1000000 7288 8026 0
1000000 7289 8949 0
1000000 7290 8813 0
1000000 7291 8406 0
1000000 7292 8741 0
1000000 7293 9168 0
1000000 7294 8772 0
1000000 7295 8140 0
1000000 7296 8856 0
1000000 7297 7968 0
1000000 7298 8721 0
1000000 7299 9173 0
1000000 7300 9221 0
1000000 7301 8123 0
1000000 7302 8027 0
1000000 7303 8315 0
1000000 7304 9455 0
1000000 7305 8270 0
1000000 7306 8046 0
1000000 7307 8501 0
1000000 7308 9120 0
1000000 7309 7693 0
1000000 7310 8499 0
1000000 7311 7775 0
1000000 7312 7761 0
1000000 7313 8198 0
1000000 7314 8413 0
1000000 7315 8026 0
1000000 7316 7997 0
1000000 7317 8334 0
1000000 7318 9234 0
1000000 7319 8302 0
1000000 7320 7999 0
1000000 7321 8548 0
1000000 7322 8251 0
1000000 7323 7719 0
1000000 7324 8020 0
1000000 7325 9319 0
1000000 7326 8229 0
1000000 7327 9210 0
1000000 7328 8954 0
1000000 7329 8443 0
1000000 7330 7863 0
1000000 7331 8344 0
1000000 7332 8815 0
1000000 7333 7959 0
1000000 7334 9385 0
1000000 7335 9346 0
1000000 7336 9342 0
1000000 7337 7681 0
1000000 7338 8873 0
1000000 7339 9309 0
1000000 7340 8261 0
1000000 7341 8849 0
1000000 7342 8642 0
1000000 7343 9331 0
1000000 7344 7753 0
1000000 7345 8537 0
1000000 7346 7723 0
1000000 7347 8071 0
1000000 7348 8404 0
1000000 7349 8155 0
1000000 7350 9252 0
1000000 7351 9132 0
1000000 7352 8132 0
1000000 7353 8256 0
1000000 7354 9126 0
1000000 7355 8606 0
1000000 7356 8192 0
1000000 7357 7687 0
1000000 7358 8480 0
1000000 7359 9365 0
1000000 7360 8736 0
1000000 7361 8920 0
1000000 7362 9237 0
1000000 7363 9023 0
1000000 7364 8012 0
1000000 7365 8510 0
1000000 7366 7934 0
1000000 7367 7928 0
1000000 7368 8248 0
1000000 7369 8838 0
1000000 7370 8675 0
1000000 7371 8226 0
1000000 7372 9106 0
1000000 7373 8283 0
1000000 7374 8277 0
1000000 7375 8474 0
1000000 7376 9107 0
1000000 7377 9005 0
1000000 7378 8787 0
1000000 7379 8947 0
1000000 7380 8575 0
1000000 7381 8082 0
1000000 7382 7737 0
1000000 7383 8253 0
1000000 7384 7937 0
1000000 7385 8974 0
1000000 7386 8366 0
1000000 7387 9265 0
1000000 7388 8904 0
1000000 7389 9060 0
1000000 7390 8908 0
1000000 7391 8915 0
1000000 7392 9276 0
1000000 7393 8017 0
1000000 7394 8793 0
1000000 7395 7900 0
1000000 7396 7758 0
1000000 7397 8950 0
1000000 7398 9443 0
1000000 7399 8508 0
1000000 7400 8972 0
1000000 7401 8212 0
1000000 7402 8400 0
1000000 7403 7817 0
1000000 7404 8053 0
1000000 7405 8544 0
1000000 7406 8218 0
1000000 7407 8612 0
1000000 7408 8299 0
1000000 7409 9237 0
1000000 7410 8650 0
1000000 7411 8983 0
1000000 7412 9178 0
1000000 7413 9410 0
1000000 7414 8753 0
1000000 7415 9333 0
1000000 7416 8147 0
1000000 7417 7748 0
1000000 7418 7916 0
1000000 7419 7775 0
1000000 7420 8924 0
1000000 7421 8509 0
1000000 7422 8846 0
1000000 7423 8889 0
1000000 7424 9419 0
1000000 7425 9275 0
1000000 7426 9428 0
1000000 7427 8265 0
1000000 7428 7742 0
1000000 7429 8862 0
1000000 7430 9407 0
1000000 7431 8355 0
1000000 7432 7969 0
1000000 7433 9445 0
1000000 7434 8988 0
1000000 7435 9256 0
1000000 7436 9079 0
1000000 7437 9098 0
1000000 7438 9204 0
1000000 7439 9289 0
1000000 7440 8003 0
1000000 7441 7703 0
1000000 7442 7881 0
1000000 7443 7922 0
1000000 7444 9384 0
1000000 7445 7859 0
1000000 7446 7992 0
1000000 7447 9173 0
1000000 7448 8866 0
1000000 7449 8626 0
1000000 7450 8375 0
1000000 7451 9243 0
1000000 7452 7806 0
1000000 7453 9082 0
1000000 7454 8796 0
1000000 7455 8183 0
1000000 7456 9270 0
1000000 7457 7925 0
1000000 7458 9142 0
1000000 7459 9356 0
1000000 7460 8398 0
1000000 7461 7845 0
1000000 7462 8371 0
1000000 7463 8760 0
1000000 7464 7930 0
1000000 7465 8892 0
1000000 7466 7699 0
1000000 7467 8068 0
1000000 7468 7839 0
1000000 7469 8375 0
1000000 7470 8595 0
1000000 7471 9294 0
1000000 7472 9448 0
1000000 7473 8163 0
1000000 7474 8710 0
1000000 7475 8682 0
1000000 7476 8786 0
1000000 7477 9431 0
1000000 7478 9092 0
1000000 7479 8667 0
1000000 7480 9429 0
1000000 7481 9120 0
1000000 7482 8408 0
1000000 7483 8058 0
1000000 7484 8945 0
1000000 7485 8008 0
1000000 7486 8020 0
1000000 7487 9450 0
1000000 7488 8593 0
1000000 7489 9187 0
1000000 7490 8270 0
1000000 7491 8975 0
1000000 7492 8918 0
1000000 7493 8527 0
1000000 7494 8468 0
1000000 7495 7766 0
1000000 7496 9452 0
1000000 7497 8065 0
1000000 7498 8940 0
1000000 7499 8395 0
1000000 7500 8878 0
1000000 7501 7833 0
1000000 7502 8024 0
1000000 7503 8652 0
1000000 7504 9266 0
1000000 7505 8795 0
1000000 7506 9068 0
1000000 7507 8621 0
1000000 7508 9212 0
1000000 7509 9248 0
1000000 7510 8609 0
1000000 7511 9266 0
1000000 7512 9040 0
1000000 7513 8472 0
1000000 7514 9071 0
1000000 7515 8472 0
1000000 7516 8915 0
1000000 7517 9135 0
1000000 7518 8603 0
1000000 7519 9376 0
1000000 7520 8637 0
1000000 7521 8186 0
1000000 7522 9337 0
1000000 7523 8255 0
1000000 7524 8333 0
1000000 7525 7747 0
1000000 7526 8526 0
1000000 7527 8302 0
1000000 7528 9361 0
1000000 7529 7813 0
1000000 7530 8325 0
1000000 7531 7782 0
1000000 7532 8415 0
1000000 7533 9065 0
1000000 7534 8152 0
1000000 7535 8785 0
1000000 7536 8861 0
1000000 7537 9267 0
1000000 7538 7805 0
1000000 7539 8321 0
1000000 7540 8940 0
1000000 7541 8181 0
1000000 7542 8595 0
1000000 7543 8074 0
1000000 7544 9312 0
1000000 7545 8891 0
1000000 7546 9233 0
1000000 7547 8860 0
1000000 7548 7783 0
1000000 7549 8262 0
1000000 7550 8946 0
1000000 7551 8319 0
1000000 7552 8271 0
1000000 7553 8719 0
1000000 7554 7694 0
1000000 7555 9161 0
1000000 7556 8097 0
1000000 7557 9133 0
1000000 7558 9100 0
1000000 7559 9245 0
1000000 7560 8153 0
1000000 7561 8811 0
1000000 7562 8677 0
1000000 7563 7927 0
1000000 7564 8436 0
1000000 7565 8467 0
1000000 7566 7873 0
1000000 7567 8344 0
1000000 7568 7864 0
1000000 7569 8829 0
1000000 7570 8318 0
1000000 7571 8242 0
1000000 7572 9297 0
1000000 7573 8183 0
1000000 7574 9159 0
1000000 7575 8629 0
1000000 7576 7862 0
1000000 7577 9080 0
1000000 7578 8371 0
1000000 7579 8059 0
1000000 7580 8058 0
1000000 7581 7945 0
1000000 7582 7890 0
1000000 7583 9105 0
1000000 7584 8450 0
1000000 7585 8254 0
1000000 7586 8361 0
1000000 7587 8314 0
1000000 7588 9136 0
1000000 7589 9192 0
1000000 7590 7706 0
1000000 7591 8301 0
1000000 7592 7753 0
1000000 7593 9102 0
1000000 7594 9366 0
1000000 7595 8389 0
1000000 7596 7825 0
1000000 7597 9033 0
1000000 7598 8779 0
1000000 7599 9166 0
1000000 7600 7979 0
1000000 7601 9181 0
1000000 7602 7786 0
1000000 7603 8493 0
1000000 7604 8554 0
1000000 7605 8979 0
1000000 7606 9248 0
1000000 7607 9117 0
1000000 7608 9182 0
1000000 7609 8141 0
1000000 7610 8679 0
1000000 7611 9224 0
1000000 7612 9323 0
1000000 7613 9240 0
1000000 7614 9264 0
1000000 7615 8994 0
1000000 7616 9425 0
1000000 7617 8440 0
1000000 7618 8937 0
1000000 7619 8213 0
1000000 7620 8493 0
1000000 7621 8632 0
1000000 7622 8913 0
1000000 7623 8622 0
1000000 7624 8209 0
1000000 7625 8295 0
1000000 7626 8971 0
1000000 7627 9399 0
1000000 7628 8603 0
1000000 7629 8618 0
1000000 7630 8631 0
1000000 7631 7768 0
1000000 7632 8448 0
1000000 7633 8263 0
1000000 7634 7910 0
1000000 7635 9085 0
1000000 7636 8732 0
1000000 7637 8452 0
1000000 7638 8922 0
1000000 7639 8018 0
1000000 7640 9008 0
1000000 7641 9248 0
1000000 7642 7770 0
1000000 7643 8360 0
1000000 7644 7727 0
1000000 7645 8265 0
1000000 7646 7946 0
1000000 7647 8502 0
1000000 7648 8843 0
1000000 7649 8128 0
1000000 7650 7804 0
1000000 7651 7799 0
1000000 7652 8912 0
1000000 7653 8605 0
1000000 7654 8477 0
1000000 7655 7873 0
1000000 7656 8768 0
1000000 7657 8479 0
1000000 7658 8706 0
1000000 7659 7970 0
1000000 7660 8073 0
1000000 7661 9158 0
1000000 7662 7754 0
1000000 7663 8585 0
1000000 7664 9201 0
1000000 7665 8239 0
1000000 7666 8796 0
1000000 7667 9105 0
1000000 7668 8478 0
1000000 7669 9441 0
1000000 7670 8944 0
1000000 7671 8739 0
1000000 7672 8611 0
1000000 7673 7730 0
1000000 7674 7922 0
1000000 7675 9464 0
1000000 7676 9435 0
1000000 7677 8569 0
1000000 7678 9271 0
1000000 7679 9358 0
1000000 7680 8006 0
1000000 -4081 -7839 0
1000000 -4082 -8571 0
1000000 -4083 -9404 0
1000000 -4084 -9088 0
1000000 -4085 -7879 0
1000000 -4086 -8288 0
1000000 -4087 -8886 0
1000000 -4088 -8968 0
1000000 -4089 -9236 0
1000000 -4090 -8875 0
1000000 -4091 -7940 0
1000000 -4092 -8512 0
1000000 -4093 -8216 0
1000000 -4094 -9002 0
1000000 -4095 -8308 0
1000000 -4096 -8993 0
1000000 -4097 -8825 0
1000000 -4098 -8212 0
1000000 -4099 -8749 0
1000000 -4100 -8443 0
1000000 -4101 -8077 0
1000000 -4102 -8534 0
1000000 -4103 -9081 0
1000000 -4104 -7746 0
1000000 -4105 -8534 0
1000000 -4106 -9447 0
1000000 -4107 -8956 0
1000000 -4108 -9148 0
1000000 -4109 -8827 0
1000000 -4110 -9156 0
1000000 -4111 -7786 0
1000000 -4112 -8190 0
1000000 -4113 -9377 0
1000000 -4114 -8436 0
1000000 -4115 -7927 0
1000000 -4116 -8559 0
1000000 -4117 -8104 0
1000000 -4118 -9340 0
1000000 -4119 -7841 0
1000000 -4120 -8655 0
1000000 -4121 -8960 0
1000000 -4122 -7849 0
1000000 -4123 -8790 0
1000000 -4124 -8336 0
1000000 -4125 -8174 0
1000000 -4126 -8600 0
1000000 -4127 -8806 0
1000000 -4128 -8507 0
1000000 -4129 -8356 0
1000000 -4130 -9032 0
1000000 -4131 -9326 0
1000000 -4132 -9382 0
1000000 -4133 -7699 0
1000000 -4134 -8669 0
1000000 -4135 -9089 0
1000000 -4136 -8923 0
1000000 -4137 -8820 0
1000000 -4138 -7731 0
1000000 -4139 -8220 0
1000000 -4140 -7886 0
1000000 -4141 -9135 0
1000000 -4142 -8171 0
1000000 -4143 -8101 0
1000000 -4144 -8597 0
1000000 -4145 -8769 0
1000000 -4146 -9049 0
1000000 -4147 -9029 0
1000000 -4148 -8685 0
1000000 -4149 -7802 0
1000000 -4150 -9066 0
1000000 -4151 -9393 0
1000000 -4152 -8159 0
1000000 -4153 -8516 0
1000000 -4154 -8247 0
1000000 -4155 -9229 0
1000000 -4156 -9163 0
1000000 -4157 -8354 0
1000000 -4158 -8050 0
1000000 -4159 -8064 0
1000000 -4160 -7727 0
1000000 -4161 -9341 0
1000000 -4162 -9142 0
1000000 -4163 -8999 0
1000000 -4164 -8178 0
1000000 -4165 -7959 0
1000000 -4166 -8230 0
1000000 -4167 -8546 0
1000000 -4168 -8080 0
1000000 -4169 -8211 0
1000000 -4170 -8925 0
1000000 -4171 -9070 0
1000000 -4172 -8271 0
1000000 -4173 -7892 0
1000000 -4174 -9186 0
1000000 -4175 -8295 0
1000000 -4176 -8693 0
1000000 -4177 -8792 0
1000000 -4178 -7815 0
1000000 -4179 -8329 0
1000000 -4180 -9042 0
1000000 -4181 -8840 0
1000000 -4182 -8443 0
1000000 -4183 -8989 0
1000000 -4184 -8681 0
1000000 -4185 -7779 0
1000000 -4186 -9275 0
1000000 -4187 -7725 0
1000000 -4188 -7901 0
1000000 -4189 -8333 0
1000000 -4190 -8135 0
1000000 -4191 -7841 0
1000000 -4192 -9096 0
1000000 -4193 -8433 0
1000000 -4194 -8007 0
1000000 -4195 -8856 0
1000000 -4196 -8162 0
1000000 -4197 -8604 0
1000000 -4198 -8859 0
1000000 -4199 -7817 0
1000000 -4200 -8482 0
1000000 -4201 -9172 0
1000000 -4202 -9060 0
1000000 -4203 -8290 0
1000000 -4204 -8187 0
1000000 -4205 -7689 0
1000000 -4206 -8239 0
1000000 -4207 -8051 0
1000000 -4208 -9439 0
1000000 -4209 -8518 0
1000000 -4210 -8773 0
1000000 -4211 -8346 0
1000000 -4212 -8759 0
1000000 -4213 -9381 0
1000000 -4214 -9282 0
1000000 -4215 -9033 0
1000000 -4216 -8729 0
1000000 -4217 -8578 0
1000000 -4218 -8653 0
1000000 -4219 -9409 0
1000000 -4220 -8670 0
1000000 -4221 -8365 0
1000000 -4222 -9198 0
1000000 -4223 -8675 0
1000000 -4224 -8311 0
1000000 -4225 -8734 0
1000000 -4226 -8207 0
1000000 -4227 -9191 0
1000000 -4228 -7800 0
1000000 -4229 -9293 0
1000000 -4230 -8482 0
1000000 -4231 -8659 0
1000000 -4232 -8470 0
1000000 -4233 -8458 0
1000000 -4234 -8717 0
1000000 -4235 -7831 0
1000000 -4236 -8203 0
1000000 -4237 -8351 0
1000000 -4238 -8556 0
1000000 -4239 -8091 0
1000000 -4240 -7811 0
1000000 -4241 -8498 0
1000000 -4242 -9434 0
1000000 -4243 -7897 0
1000000 -4244 -8848 0
1000000 -4245 -9130 0
1000000 -4246 -9343 0
1000000 -4247 -9394 0
1000000 -4248 -9338 0
1000000 -4249 -8464 0
1000000 -4250 -8117 0
1000000 -4251 -7980 0
1000000 -4252 -8933 0
1000000 -4253 -8964 0
1000000 -4254 -8973 0
1000000 -4255 -8801 0
1000000 -4256 -8061 0
1000000 -4257 -9379 0
1000000 -4258 -8132 0
1000000 -4259 -7971 0
1000000 -4260 -8382 0
1000000 -4261 -8130 0
1000000 -4262 -8830 0
1000000 -4263 -8490 0
1000000 -4264 -8921 0
1000000 -4265 -8635 0
1000000 -4266 -8666 0
1000000 -4267 -8923 0
1000000 -4268 -9074 0
1000000 -4269 -9257 0
1000000 -4270 -8491 0
1000000 -4271 -8449 0
1000000 -4272 -8564 0
1000000 -4273 -9370 0
1000000 -4274 -8293 0
1000000 -4275 -7919 0
1000000 -4276 -7973 0
1000000 -4277 -8551 0
1000000 -4278 -7824 0
1000000 -4279 -8357 0
1000000 -4280 -9150 0
1000000 -4281 -8041 0
1000000 -4282 -9369 0
1000000 -4283 -9140 0
1000000 -4284 -8106 0
1000000 -4285 -8404 0
1000000 -4286 -9343 0
1000000 -4287 -8267 0
1000000 -4288 -8521 0
1000000 -4289 -8421 0
1000000 -4290 -8516 0
1000000 -4291 -7776 0
1000000 -4292 -8499 0
1000000 -4293 -7905 0
1000000 -4294 -8809 0
1000000 -4295 -7933 0
1000000 -4296 -9093 0
1000000 -4297 -7960 0
1000000 -4298 -7940 0
1000000 -4299 -8227 0
1000000 -4300 -8979 0
1000000 -4301 -7955 0
1000000 -4302 -9314 0
1000000 -4303 -8746 0
1000000 -4304 -8142 0
1000000 -4305 -8116 0
1000000 -4306 -8740 0
1000000 -4307 -8639 0
1000000 -4308 -8345 0
1000000 -4309 -8505 0
1000000 -4310 -8899 0
1000000 -4311 -8143 0
1000000 -4312 -7728 0
1000000 -4313 -8559 0
1000000 -4314 -8967 0
1000000 -4315 -9196 0
1000000 -4316 -7781 0
1000000 -4317 -8278 0
1000000 -4318 -8831 0
1000000 -4319 -9188 0
1000000 -4320 -8280 0
1000000 -4321 -8061 0
1000000 -4322 -8776 0
1000000 -4323 -8670 0
1000000 -4324 -7981 0
1000000 -4325 -8880 0
1000000 -4326 -9375 0
1000000 -4327 -9463 0
1000000 -4328 -9322 0
1000000 -4329 -8599 0
1000000 -4330 -8238 0
1000000 -4331 -8692 0
1000000 -4332 -8294 0
1000000 -4333 -8757 0
1000000 -4334 -7958 0
1000000 -4335 -8331 0
1000000 -4336 -8709 0
1000000 -4337 -9453 0
1000000 -4338 -9444 0
1000000 -4339 -9240 0
1000000 -4340 -8539 0
1000000 -4341 -8083 0
1000000 -4342 -7962 0
1000000 -4343 -7707 0
1000000 -4344 -9078 0
1000000 -4345 -8032 0
1000000 -4346 -9218 0
1000000 -4347 -8479 0
1000000 -4348 -9398 0
1000000 -4349 -8019 0
1000000 -4350 -8582 0
1000000 -4351 -9260 0
1000000 -4352 -7800 0
1000000 -4353 -8911 0
1000000 -4354 -8931 0
1000000 -4355 -8047 0
1000000 -4356 -8248 0
1000000 -4357 -8371 0
1000000 -4358 -9348 0
1000000 -4359 -9263 0
1000000 -4360 -9144 0
1000000 -4361 -8656 0
1000000 -4362 -8239 0
1000000 -4363 -8167 0
1000000 -4364 -8854 0
1000000 -4365 -8732 0
1000000 -4366 -8592 0
1000000 -4367 -8878 0
1000000 -4368 -8614 0
1000000 -4369 -8289 0
1000000 -4370 -9117 0
1000000 -4371 -9091 0
1000000 -4372 -8819 0
1000000 -4373 -8293 0
1000000 -4374 -7874 0
1000000 -4375 -9478 0
1000000 -4376 -8195 0
1000000 -4377 -8537 0
1000000 -4378 -8730 0
1000000 -4379 -8514 0
1000000 -4380 -7754 0
1000000 -4381 -8558 0
1000000 -4382 -8775 0
1000000 -4383 -9141 0
1000000 -4384 -8733 0
1000000 -4385 -8793 0
1000000 -4386 -7767 0
1000000 -4387 -8275 0
1000000 -4388 -8614 0
1000000 -4389 -8700 0
1000000 -4390 -9387 0
1000000 -4391 -9186 0
1000000 -4392 -9224 0
1000000 -4393 -8722 0
1000000 -4394 -9257 0
1000000 -4395 -8738 0
1000000 -4396 -8914 0
1000000 -4397 -8489 0
1000000 -4398 -8860 0
1000000 -4399 -7904 0
1000000 -4400 -9159 0
1000000 -4401 -7797 0
1000000 -4402 -9010 0
1000000 -4403 -8829 0
1000000 -4404 -8791 0
1000000 -4405 -8965 0
1000000 -4406 -9436 0
1000000 -4407 -8465 0
1000000 -4408 -8789 0
1000000 -4409 -9462 0
1000000 -4410 -9366 0
1000000 -4411 -9371 0
1000000 -4412 -8162 0
1000000 -4413 -8699 0
1000000 -4414 -8677 0
1000000 -4415 -8477 0
1000000 -4416 -8433 0
1000000 -4417 -8326 0
1000000 -4418 -9273 0
1000000 -4419 -8337 0
1000000 -4420 -8748 0
1000000 -4421 -7851 0
1000000 -4422 -8306 0
1000000 -4423 -9475 0
1000000 -4424 -8817 0
1000000 -4425 -8724 0
1000000 -4426 -7992 0
1000000 -4427 -9052 0
1000000 -4428 -8850 0
1000000 -4429 -8483 0
1000000 -4430 -9439 0
1000000 -4431 -9070 0
1000000 -4432 -9193 0
1000000 -4433 -7856 0
1000000 -4434 -8150 0
1000000 -4435 -8826 0
1000000 -4436 -8684 0
1000000 -4437 -8842 0
1000000 -4438 -8550 0
1000000 -4439 -8100 0
1000000 -4440 -8208 0
1000000 -4441 -9401 0
1000000 -4442 -9254 0
1000000 -4443 -9352 0
1000000 -4444 -8366 0
1000000 -4445 -8124 0
1000000 -4446 -8895 0
1000000 -4447 -8597 0
1000000 -4448 -8906 0
1000000 -4449 -7811 0
1000000 -4450 -7911 0
1000000 -4451 -8280 0
1000000 -4452 -8067 0
1000000 -4453 -8855 0
1000000 -4454 -8421 0
1000000 -4455 -9403 0
1000000 -4456 -9381 0
1000000 -4457 -7844 0
1000000 -4458 -9448 0
1000000 -4459 -8014 0
1000000 -4460 -8754 0
1000000 -4461 -9412 0
1000000 -4462 -8977 0
1000000 -4463 -8877 0
1000000 -4464 -9426 0
1000000 -4465 -8106 0
1000000 -4466 -8931 0
1000000 -4467 -8436 0
1000000 -4468 -7995 0
1000000 -4469 -8004 0
1000000 -4470 -9225 0
1000000 -4471 -9307 0
1000000 -4472 -7902 0
1000000 -4473 -8147 0
1000000 -4474 -7932 0
1000000 -4475 -8302 0
1000000 -4476 -8942 0
1000000 -4477 -9327 0
1000000 -4478 -9462 0
1000000 -4479 -7707 0
1000000 -4480 -9011 0
1000000 -4481 -8943 0
1000000 -4482 -9222 0
1000000 -4483 -9225 0
1000000 -4484 -9188 0
1000000 -4485 -9080 0
1000000 -4486 -8040 0
1000000 -4487 -8803 0
1000000 -4488 -8537 0
1000000 -4489 -9112 0
1000000 -4490 -8414 0
1000000 -4491 -9425 0
1000000 -4492 -7948 0
1000000 -4493 -8230 0
1000000 -4494 -7713 0
1000000 -4495 -8469 0
1000000 -4496 -8264 0
1000000 -4497 -8920 0
1000000 -4498 -9111 0
1000000 -4499 -9341 0
1000000 -4500 -8802 0
1000000 -4501 -8448 0
1000000 -4502 -8828 0
1000000 -4503 -8147 0
1000000 -4504 -9125 0
1000000 -4505 -9241 0
1000000 -4506 -8398 0
1000000 -4507 -7762 0
1000000 -4508 -9326 0
1000000 -4509 -8632 0
1000000 -4510 -8505 0
1000000 -4511 -8284 0
1000000 -4512 -8924 0
1000000 -4513 -8950 0
1000000 -4514 -8471 0
1000000 -4515 -9367 0
1000000 -4516 -9333 0
1000000 -4517 -7860 0
1000000 -4518 -9468 0
1000000 -4519 -8159 0
1000000 -4520 -8324 0
1000000 -4521 -9318 0
1000000 -4522 -9045 0
1000000 -4523 -8101 0
1000000 -4524 -7827 0
1000000 -4525 -9437 0
1000000 -4526 -8780 0
1000000 -4527 -7801 0
1000000 -4528 -7735 0
1000000 -4529 -8186 0
1000000 -4530 -8445 0
1000000 -4531 -8540 0
1000000 -4532 -8164 0
1000000 -4533 -9165 0
1000000 -4534 -9079 0
1000000 -4535 -8376 0
1000000 -4536 -8490 0
1000000 -4537 -7719 0
1000000 -4538 -8312 0
1000000 -4539 -8495 0
1000000 -4540 -7848 0
1000000 -4541 -9421 0
1000000 -4542 -9363 0
1000000 -4543 -8934 0
1000000 -4544 -9467 0
1000000 -4545 -9217 0
1000000 -4546 -9146 0
1000000 -4547 -8178 0
1000000 -4548 -9464 0
1000000 -4549 -8598 0
1000000 -4550 -7777 0
1000000 -4551 -7847 0
1000000 -4552 -8497 0
1000000 -4553 -8830 0
1000000 -4554 -8818 0
1000000 -4555 -9383 0
1000000 -4556 -8644 0
1000000 -4557 -8260 0
1000000 -4558 -8960 0
1000000 -4559 -8918 0
1000000 -4560 -7855 0
1000000 -4561 -9194 0
1000000 -4562 -8553 0
1000000 -4563 -9177 0
1000000 -4564 -8852 0
1000000 -4565 -8655 0
1000000 -4566 -8992 0
1000000 -4567 -7795 0
1000000 -4568 -8718 0
1000000 -4569 -8170 0
1000000 -4570 -8267 0
1000000 -4571 -7729 0
1000000 -4572 -7852 0
1000000 -4573 -8880 0
1000000 -4574 -8801 0
1000000 -4575 -8900 0
1000000 -4576 -9160 0
1000000 -4577 -9225 0
1000000 -4578 -8562 0
1000000 -4579 -8596 0
1000000 -4580 -8861 0
1000000 -4581 -8722 0
1000000 -4582 -7880 0
1000000 -4583 -7836 0
1000000 -4584 -8348 0
1000000 -4585 -8468 0
1000000 -4586 -8936 0
1000000 -4587 -8500 0
1000000 -4588 -8005 0
1000000 -4589 -9298 0
1000000 -4590 -8997 0
1000000 -4591 -8235 0
1000000 -4592 -9231 0
1000000 -4593 -7757 0
1000000 -4594 -7781 0
1000000 -4595 -9001 0
1000000 -4596 -9062 0
1000000 -4597 -9280 0
1000000 -4598 -8574 0
1000000 -4599 -8628 0
1000000 -4600 -7778 0
1000000 -4601 -8652 0
1000000 -4602 -8439 0
1000000 -4603 -7986 0
1000000 -4604 -8107 0
1000000 -4605 -9009 0
1000000 -4606 -8881 0
1000000 -4607 -7870 0
1000000 -4608 -8162 0
1000000 -4609 -8772 0
1000000 -4610 -9270 0
1000000 -4611 -8653 0
1000000 -4612 -8348 0
1000000 -4613 -8345 0
1000000 -4614 -7806 0
1000000 -4615 -8154 0
1000000 -4616 -8279 0
1000000 -4617 -8618 0
1000000 -4618 -7799 0
1000000 -4619 -8111 0
1000000 -4620 -9022 0
1000000 -4621 -9457 0
1000000 -4622 -9098 0
1000000 -4623 -8373 0
1000000 -4624 -9266 0
1000000 -4625 -7710 0
1000000 -4626 -8880 0
1000000 -4627 -9010 0
1000000 -4628 -8944 0
1000000 -4629 -8262 0
1000000 -4630 -8619 0
1000000 -4631 -9050 0
1000000 -4632 -8567 0
1000000 -4633 -8340 0
1000000 -4634 -9011 0
1000000 -4635 -8378 0
1000000 -4636 -9031 0
1000000 -4637 -9057 0
1000000 -4638 -8778 0
1000000 -4639 -7828 0
1000000 -4640 -9055 0
1000000 -4641 -8799 0
1000000 -4642 -7893 0
1000000 -4643 -8275 0
1000000 -4644 -8316 0
1000000 -4645 -7862 0
1000000 -4646 -9449 0
1000000 -4647 -8682 0
1000000 -4648 -8434 0
1000000 -4649 -8004 0
1000000 -4650 -9166 0
1000000 -4651 -8378 0
1000000 -4652 -8753 0
1000000 -4653 -7908 0
1000000 -4654 -9097 0
1000000 -4655 -7734 0
1000000 -4656 -8324 0
1000000 -4657 -8379 0
1000000 -4658 -9155 0
1000000 -4659 -9052 0
1000000 -4660 -7991 0
1000000 -4661 -9238 0
1000000 -4662 -8624 0
1000000 -4663 -9096 0
1000000 -4664 -8831 0
1000000 -4665 -8798 0
1000000 -4666 -9325 0
1000000 -4667 -8055 0
1000000 -4668 -8986 0
1000000 -4669 -8202 0
1000000 -4670 -9314 0
1000000 -4671 -7755 0
1000000 -4672 -8197 0
1000000 -4673 -8863 0
1000000 -4674 -9056 0
1000000 -4675 -8034 0
1000000 -4676 -9459 0
1000000 -4677 -8762 0
1000000 -4678 -7867 0
1000000 -4679 -9191 0
1000000 -4680 -8094 0
1000000 -4681 -8415 0
1000000 -4682 -9088 0
1000000 -4683 -9015 0
1000000 -4684 -8363 0
1000000 -4685 -7875 0
1000000 -4686 -8716 0
1000000 -4687 -8462 0
1000000 -4688 -9385 0
1000000 -4689 -7872 0
1000000 -4690 -7768 0
1000000 -4691 -7925 0
1000000 -4692 -8981 0
1000000 -4693 -9308 0
1000000 -4694 -9307 0
1000000 -4695 -9250 0
1000000 -4696 -8490 0
1000000 -4697 -9316 0
1000000 -4698 -9372 0
1000000 -4699 -8986 0
1000000 -4700 -8513 0
1000000 -4701 -8813 0
1000000 -4702 -8498 0
1000000 -4703 -8805 0
1000000 -4704 -8329 0
1000000 -4705 -7785 0
1000000 -4706 -9095 0
1000000 -4707 -8446 0
1000000 -4708 -8137 0
1000000 -4709 -8104 0
1000000 -4710 -9052 0
1000000 -4711 -8408 0
1000000 -4712 -8223 0
1000000 -4713 -9175 0
1000000 -4714 -8724 0
1000000 -4715 -8585 0
1000000 -4716 -8438 0
1000000 -4717 -8190 0
1000000 -4718 -9183 0
1000000 -4719 -8722 0
1000000 -4720 -8591 0
1000000 -4721 -8234 0
1000000 -4722 -8266 0
1000000 -4723 -9137 0
1000000 -4724 -8913 0
1000000 -4725 -7991 0
1000000 -4726 -8970 0
1000000 -4727 -9303 0
1000000 -4728 -7848 0
1000000 -4729 -8686 0
1000000 -4730 -8725 0
1000000 -4731 -9247 0
1000000 -4732 -8023 0
1000000 -4733 -8120 0
1000000 -4734 -8927 0
1000000 -4735 -9153 0
1000000 -4736 -8955 0
1000000 -4737 -8966 0
1000000 -4738 -9401 0
1000000 -4739 -9262 0
1000000 -4740 -8982 0
1000000 -4741 -8736 0
1000000 -4742 -7727 0
1000000 -4743 -7826 0
1000000 -4744 -9380 0
1000000 -4745 -8295 0
1000000 -4746 -9106 0
1000000 -4747 -8728 0
1000000 -4748 -9235 0
1000000 -4749 -8571 0
1000000 -4750 -7868 0
1000000 -4751 -9216 0
1000000 -4752 -8504 0
1000000 -4753 -8932 0
1000000 -4754 -8367 0
1000000 -4755 -7831 0
1000000 -4756 -8217 0
1000000 -4757 -8219 0
1000000 -4758 -7939 0
1000000 -4759 -8322 0
1000000 -4760 -8688 0
1000000 -4761 -7693 0
1000000 -4762 -8167 0
1000000 -4763 -8538 0
1000000 -4764 -8895 0
1000000 -4765 -9258 0
1000000 -4766 -8878 0
1000000 -4767 -8656 0
1000000 -4768 -9383 0
1000000 -4769 -8596 0
1000000 -4770 -7798 0
1000000 -4771 -7926 0
1000000 -4772 -9024 0
1000000 -4773 -8905 0
1000000 -4774 -7984 0
1000000 -4775 -8441 0
1000000 -4776 -8665 0
1000000 -4777 -7843 0
1000000 -4778 -8334 0
1000000 -4779 -8626 0
1000000 -4780 -7769 0
1000000 -4781 -8509 0
1000000 -4782 -8623 0
1000000 -4783 -7733 0
1000000 -4784 -8758 0
1000000 -4785 -7697 0
1000000 -4786 -7711 0
1000000 -4787 -9442 0
1000000 -4788 -8222 0
1000000 -4789 -8840 0
1000000 -4790 -8094 0
1000000 -4791 -8733 0
1000000 -4792 -8228 0
1000000 -4793 -9148 0
1000000 -4794 -9046 0
1000000 -4795 -8572 0
1000000 -4796 -8871 0
1000000 -4797 -9418 0
1000000 -4798 -8958 0
1000000 -4799 -7943 0
1000000 -4800 -9249 0
1000000 -4801 -9118 0
1000000 -4802 -8391 0
1000000 -4803 -9115 0
1000000 -4804 -8258 0
1000000 -4805 -8547 0
1000000 -4806 -9329 0
1000000 -4807 -8465 0
1000000 -4808 -8255 0
1000000 -4809 -8493 0
1000000 -4810 -8105 0
1000000 -4811 -7722 0
1000000 -4812 -9368 0
1000000 -4813 -8599 0
1000000 -4814 -9380 0
1000000 -4815 -9129 0
1000000 -4816 -9252 0
1000000 -4817 -8385 0
1000000 -4818 -7890 0
1000000 -4819 -8561 0
1000000 -4820 -8839 0
1000000 -4821 -8165 0
1000000 -4822 -8183 0
1000000 -4823 -8094 0
1000000 -4824 -8335 0
1000000 -4825 -7815 0
1000000 -4826 -8149 0
1000000 -4827 -7972 0
1000000 -4828 -8492 0
1000000 -4829 -8955 0
1000000 -4830 -9180 0
1000000 -4831 -7783 0
1000000 -4832 -8626 0
1000000 -4833 -8591 0
1000000 -4834 -9012 0
1000000 -4835 -9212 0
1000000 -4836 -7712 0
1000000 -4837 -8873 0
1000000 -4838 -8652 0
1000000 -4839 -8282 0
1000000 -4840 -8983 0
1000000 -4841 -9171 0
1000000 -4842 -8867 0
1000000 -4843 -7687 0
1000000 -4844 -8807 0
1000000 -4845 -8803 0
1000000 -4846 -7993 0
1000000 -4847 -8049 0
1000000 -4848 -8832 0
1000000 -4849 -8361 0
1000000 -4850 -7722 0
1000000 -4851 -8640 0
1000000 -4852 -8023 0
1000000 -4853 -9126 0
1000000 -4854 -8025 0
1000000 -4855 -8630 0
1000000 -4856 -8225 0
1000000 -4857 -8107 0
1000000 -4858 -8515 0
1000000 -4859 -7877 0
1000000 -4860 -7993 0
1000000 -4861 -7857 0
1000000 -4862 -8570 0
1000000 -4863 -9355 0
1000000 -4864 -7703 0
1000000 -4865 -8991 0
1000000 -4866 -8671 0
1000000 -4867 -8394 0
1000000 -4868 -8660 0
1000000 -4869 -8105 0
1000000 -4870 -8045 0
1000000 -4871 -9223 0
1000000 -4872 -7781 0
1000000 -4873 -7757 0
1000000 -4874 -7985 0
1000000 -4875 -8869 0
1000000 -4876 -8343 0
1000000 -4877 -9087 0
1000000 -4878 -8633 0
1000000 -4879 -9211 0
1000000 -4880 -8926 0
1000000 -4881 -8266 0
1000000 -4882 -8869 0
1000000 -4883 -7694 0
1000000 -4884 -9422 0
1000000 -4885 -9170 0
1000000 -4886 -9141 0
1000000 -4887 -9442 0
1000000 -4888 -8171 0
1000000 -4889 -7803 0
1000000 -4890 -8326 0
1000000 -4891 -9457 0
1000000 -4892 -8341 0
1000000 -4893 -8281 0
1000000 -4894 -9364 0
1000000 -4895 -7761 0
1000000 -4896 -8185 0
1000000 -4897 -9309 0
1000000 -4898 -9395 0
1000000 -4899 -8025 0
1000000 -4900 -7850 0
1000000 -4901 -9160 0
1000000 -4902 -8818 0
1000000 -4903 -7763 0
1000000 -4904 -9294 0
1000000 -4905 -9051 0
1000000 -4906 -7911 0
1000000 -4907 -8550 0
1000000 -4908 -7681 0
1000000 -4909 -9104 0
1000000 -4910 -9312 0
1000000 -4911 -9277 0
1000000 -4912 -8105 0
1000000 -4913 -9208 0
1000000 -4914 -9322 0
1000000 -4915 -7747 0
1000000 -4916 -8231 0
1000000 -4917 -8627 0
1000000 -4918 -8481 0
1000000 -4919 -9174 0
1000000 -4920 -7802 0
1000000 -4921 -8169 0
1000000 -4922 -9272 0
1000000 -4923 -8788 0
1000000 -4924 -9304 0
1000000 -4925 -8760 0
1000000 -4926 -9344 0
1000000 -4927 -8280 0
1000000 -4928 -9344 0
1000000 -4929 -7949 0
1000000 -4930 -8031 0
1000000 -4931 -9261 0
1000000 -4932 -8015 0
1000000 -4933 -7966 0
1000000 -4934 -8182 0
1000000 -4935 -8123 0
1000000 -4936 -8114 0
1000000 -4937 -9063 0
1000000 -4938 -8397 0
1000000 -4939 -9341 0
1000000 -4940 -7808 0
1000000 -4941 -8648 0
1000000 -4942 -9335 0
1000000 -4943 -7709 0
1000000 -4944 -8787 0
1000000 -4945 -8933 0
1000000 -4946 -8791 0
1000000 -4947 -8438 0
1000000 -4948 -8689 0
1000000 -4949 -9310 0
1000000 -4950 -9026 0
1000000 -4951 -8363 0
1000000 -4952 -8807 0
1000000 -4953 -7917 0
1000000 -4954 -8544 0
1000000 -4955 -8908 0
1000000 -4956 -9032 0
1000000 -4957 -9423 0
1000000 -4958 -8486 0
1000000 -4959 -8003 0
1000000 -4960 -9031 0
1000000 -4961 -8168 0
1000000 -4962 -9306 0
1000000 -4963 -7814 0
1000000 -4964 -8015 0
1000000 -4965 -8241 0
1000000 -4966 -9208 0
1000000 -4967 -8904 0
1000000 -4968 -8473 0
1000000 -4969 -8737 0
1000000 -4970 -8323 0
1000000 -4971 -8928 0
1000000 -4972 -8647 0
1000000 -4973 -8458 0
1000000 -4974 -9068 0
1000000 -4975 -7837 0
1000000 -4976 -9061 0
1000000 -4977 -8235 0
1000000 -4978 -8993 0
1000000 -4979 -8216 0
1000000 -4980 -9480 0
1000000 -4981 -8412 0
1000000 -4982 -8102 0
1000000 -4983 -7971 0
1000000 -4984 -8240 0
1000000 -4985 -9457 0
1000000 -4986 -7699 0
1000000 -4987 -7895 0
1000000 -4988 -8191 0
1000000 -4989 -8046 0
1000000 -4990 -9076 0
1000000 -4991 -7765 0
1000000 -4992 -7681 0
1000000 -4993 -8892 0
1000000 -4994 -8833 0
1000000 -4995 -8439 0
1000000 -4996 -7728 0
1000000 -4997 -7876 0
1000000 -4998 -7958 0
1000000 -4999 -9324 0
1000000 -5000 -9420 0
1000000 -5001 -7918 0
1000000 -5002 -8678 0
1000000 -5003 -9287 0
1000000 -5004 -7874 0
1000000 -5005 -7910 0
1000000 -5006 -8171 0
1000000 -5007 -7790 0
1000000 -5008 -8607 0
1000000 -5009 -9012 0
1000000 -5010 -8030 0
1000000 -5011 -9045 0
1000000 -5012 -8795 0
1000000 -5013 -9108 0
1000000 -5014 -7962 0
1000000 -5015 -8392 0
1000000 -5016 -8084 0
1000000 -5017 -8787 0
1000000 -5018 -9146 0
1000000 -5019 -8606 0
1000000 -5020 -8098 0
1000000 -5021 -9069 0
1000000 -5022 -9154 0
1000000 -5023 -9409 0
1000000 -5024 -8398 0
1000000 -5025 -9019 0
1000000 -5026 -9015 0
1000000 -5027 -7791 0
1000000 -5028 -9233 0
1000000 -5029 -8767 0
1000000 -5030 -9431 0
1000000 -5031 -7719 0
1000000 -5032 -8768 0
1000000 -5033 -9418 0
1000000 -5034 -7872 0
1000000 -5035 -8782 0
1000000 -5036 -7843 0
1000000 -5037 -7774 0
1000000 -5038 -8562 0
1000000 -5039 -9034 0
1000000 -5040 -8922 0
1000000 -5041 -8242 0
1000000 -5042 -9461 0
1000000 -5043 -9114 0
1000000 -5044 -9378 0
1000000 -5045 -8508 0
1000000 -5046 -9013 0
1000000 -5047 -7738 0
1000000 -5048 -8417 0
1000000 -5049 -8096 0
1000000 -5050 -8887 0
1000000 -5051 -9437 0
1000000 -5052 -8474 0
1000000 -5053 -7834 0
1000000 -5054 -8969 0
1000000 -5055 -8191 0
1000000 -5056 -8355 0
1000000 -5057 -8978 0
1000000 -5058 -9046 0
1000000 -5059 -8791 0
1000000 -5060 -8952 0
1000000 -5061 -8385 0
1000000 -5062 -8973 0
1000000 -5063 -8872 0
1000000 -5064 -8671 0
1000000 -5065 -9361 0
1000000 -5066 -8081 0
1000000 -5067 -9237 0
1000000 -5068 -9446 0
1000000 -5069 -9444 0
1000000 -5070 -9331 0
1000000 -5071 -7810 0
1000000 -5072 -8482 0
1000000 -5073 -7701 0
1000000 -5074 -8837 0
1000000 -5075 -8589 0
1000000 -5076 -8358 0
1000000 -5077 -8775 0
1000000 -5078 -9002 0
1000000 -5079 -7919 0
1000000 -5080 -8631 0
1000000 -5081 -8810 0
1000000 -5082 -9281 0
1000000 -5083 -8145 0
1000000 -5084 -8600 0
1000000 -5085 -9374 0
1000000 -5086 -8598 0
1000000 -5087 -7801 0
1000000 -5088 -9113 0
1000000 -5089 -8687 0
1000000 -5090 -8681 0
1000000 -5091 -7911 0
1000000 -5092 -8237 0
1000000 -5093 -8594 0
1000000 -5094 -8175 0
1000000 -5095 -8148 0
1000000 -5096 -8006 0
1000000 -5097 -8704 0
1000000 -5098 -8044 0
1000000 -5099 -8135 0
1000000 -5100 -8289 0
1000000 -5101 -8568 0
1000000 -5102 -9116 0
1000000 -5103 -8696 0
1000000 -5104 -7752 0
1000000 -5105 -7714 0
1000000 -5106 -8727 0
1000000 -5107 -8664 0
1000000 -5108 -8842 0
1000000 -5109 -9335 0
1000000 -5110 -8782 0
1000000 -5111 -8673 0
1000000 -5112 -8663 0
1000000 -5113 -8945 0
1000000 -5114 -8455 0
1000000 -5115 -7782 0
1000000 -5116 -9018 0
1000000 -5117 -8320 0
1000000 -5118 -8438 0
1000000 -5119 -7771 0
1000000 -5120 -8879 0
1000000 -5121 -7763 0
1000000 -5122 -8399 0
1000000 -5123 -8776 0
1000000 -5124 -9000 0
1000000 -5125 -8249 0
1000000 -5126 -9235 0
1000000 -5127 -8950 0
1000000 -5128 -8017 0
1000000 -5129 -8457 0
1000000 -5130 -9450 0
1000000 -5131 -8569 0
1000000 -5132 -9074 0
1000000 -5133 -8669 0
1000000 -5134 -7798 0
1000000 -5135 -8999 0
1000000 -5136 -9107 0
1000000 -5137 -9136 0
1000000 -5138 -7834 0
1000000 -5139 -8641 0
1000000 -5140 -8747 0
1000000 -5141 -8752 0
1000000 -5142 -8750 0
1000000 -5143 -8468 0
1000000 -5144 -8609 0
1000000 -5145 -8419 0
1000000 -5146 -9153 0
1000000 -5147 -8846 0
1000000 -5148 -7745 0
1000000 -5149 -8815 0
1000000 -5150 -8710 0
1000000 -5151 -7901 0
1000000 -5152 -8996 0
1000000 -5153 -8917 0
1000000 -5154 -7929 0
1000000 -5155 -9043 0
1000000 -5156 -9256 0
1000000 -5157 -9284 0
1000000 -5158 -8318 0
1000000 -5159 -8109 0
1000000 -5160 -9274 0
1000000 -5161 -8743 0
1000000 -5162 -8210 0
1000000 -5163 -8543 0
1000000 -5164 -8568 0
1000000 -5165 -7838 0
1000000 -5166 -8645 0
1000000 -5167 -9187 0
1000000 -5168 -8617 0
1000000 -5169 -8155 0
1000000 -5170 -9454 0
1000000 -5171 -9058 0
1000000 -5172 -8701 0
1000000 -5173 -8623 0
1000000 -5174 -9456 0
1000000 -5175 -8048 0
1000000 -5176 -8648 0
1000000 -5177 -9036 0
1000000 -5178 -8208 0
1000000 -5179 -8964 0
1000000 -5180 -8989 0
1000000 -5181 -8188 0
1000000 -5182 -8859 0
1000000 -5183 -8502 0
1000000 -5184 -9223 0
1000000 -5185 -8682 0
1000000 -5186 -8306 0
1000000 -5187 -8333 0
1000000 -5188 -8274 0
1000000 -5189 -7978 0
1000000 -5190 -8674 0
1000000 -5191 -9255 0
1000000 -5192 -9222 0
1000000 -5193 -9461 0
1000000 -5194 -8613 0
1000000 -5195 -9443 0
1000000 -5196 -7745 0
1000000 -5197 -8432 0
1000000 -5198 -8405 0
1000000 -5199 -7957 0
1000000 -5200 -8448 0
1000000 -5201 -9320 0
1000000 -5202 -8420 0
1000000 -5203 -9364 0
1000000 -5204 -8241 0
1000000 -5205 -8414 0
1000000 -5206 -8053 0
1000000 -5207 -9209 0
1000000 -5208 -7887 0
1000000 -5209 -8818 0
1000000 -5210 -8301 0
1000000 -5211 -9413 0
1000000 -5212 -9283 0
1000000 -5213 -8413 0
1000000 -5214 -7804 0
1000000 -5215 -9372 0
1000000 -5216 -7941 0
1000000 -5217 -7684 0
1000000 -5218 -9316 0
1000000 -5219 -8969 0
1000000 -5220 -8432 0
1000000 -5221 -9040 0
1000000 -5222 -8672 0
1000000 -5223 -8402 0
1000000 -5224 -7966 0
1000000 -5225 -8131 0
1000000 -5226 -7801 0
1000000 -5227 -8209 0
1000000 -5228 -8868 0
1000000 -5229 -8784 0
1000000 -5230 -8606 0
1000000 -5231 -8124 0
1000000 -5232 -7996 0
1000000 -5233 -7964 0
1000000 -5234 -8281 0
1000000 -5235 -7892 0
1000000 -5236 -9171 0
1000000 -5237 -8767 0
1000000 -5238 -9053 0
1000000 -5239 -8440 0
1000000 -5240 -7879 0
1000000 -5241 -7871 0
1000000 -5242 -8773 0
1000000 -5243 -8176 0
1000000 -5244 -7897 0
1000000 -5245 -7705 0
1000000 -5246 -8412 0
1000000 -5247 -8455 0
1000000 -5248 -8658 0
1000000 -5249 -8886 0
1000000 -5250 -8181 0
1000000 -5251 -8814 0
1000000 -5252 -8035 0
1000000 -5253 -8230 0
1000000 -5254 -8078 0
1000000 -5255 -9311 0
1000000 -5256 -9395 0
1000000 -5257 -8774 0
1000000 -5258 -7756 0
1000000 -5259 -8543 0
1000000 -5260 -8064 0
1000000 -5261 -7888 0
1000000 -5262 -7731 0
1000000 -5263 -9236 0
1000000 -5264 -8246 0
1000000 -5265 -7706 0
1000000 -5266 -8013 0
1000000 -5267 -7865 0
1000000 -5268 -7989 0
1000000 -5269 -7850 0
1000000 -5270 -8423 0
1000000 -5271 -8739 0
1000000 -5272 -9115 0
1000000 -5273 -9443 0
1000000 -5274 -8896 0
1000000 -5275 -7961 0
1000000 -5276 -8252 0
1000000 -5277 -8207 0
1000000 -5278 -8636 0
1000000 -5279 -9098 0
1000000 -5280 -8824 0
1000000 -5281 -7757 0
1000000 -5282 -9145 0
1000000 -5283 -9433 0
1000000 -5284 -8811 0
1000000 -5285 -9381 0
1000000 -5286 -7736 0
1000000 -5287 -8764 0
1000000 -5288 -9251 0
1000000 -5289 -7858 0
1000000 -5290 -7924 0
1000000 -5291 -8841 0
1000000 -5292 -7869 0
1000000 -5293 -8772 0
1000000 -5294 -8325 0
1000000 -5295 -9196 0
1000000 -5296 -8240 0
1000000 -5297 -7923 0
1000000 -5298 -8453 0
1000000 -5299 -9420 0
1000000 -5300 -8085 0
1000000 -5301 -8021 0
1000000 -5302 -8311 0
1000000 -5303 -8010 0
1000000 -5304 -9293 0
1000000 -5305 -8037 0
1000000 -5306 -9184 0
1000000 -5307 -8953 0
1000000 -5308 -8406 0
1000000 -5309 -8263 0
1000000 -5310 -7689 0
1000000 -5311 -7762 0
1000000 -5312 -9389 0
1000000 -5313 -8346 0
1000000 -5314 -7826 0
1000000 -5315 -8920 0
1000000 -5316 -8104 0
1000000 -5317 -9123 0
1000000 -5318 -8368 0
1000000 -5319 -8393 0
1000000 -5320 -9343 0
1000000 -5321 -8526 0
1000000 -5322 -7967 0
1000000 -5323 -9402 0
1000000 -5324 -9278 0
1000000 -5325 -9350 0
1000000 -5326 -8836 0
1000000 -5327 -8268 0
1000000 -5328 -7718 0
1000000 -5329 -7732 0
1000000 -5330 -7935 0
1000000 -5331 -9305 0
1000000 -5332 -8080 0
1000000 -5333 -8044 0
1000000 -5334 -9426 0
1000000 -5335 -7804 0
1000000 -5336 -8597 0
1000000 -5337 -7743 0
1000000 -5338 -8737 0
1000000 -5339 -9022 0
1000000 -5340 -8373 0
1000000 -5341 -7938 0
1000000 -5342 -8841 0
1000000 -5343 -8622 0
1000000 -5344 -8009 0
1000000 -5345 -9470 0
1000000 -5346 -8084 0
1000000 -5347 -8254 0
1000000 -5348 -8576 0
1000000 -5349 -9134 0
1000000 -5350 -8016 0
1000000 -5351 -9277 0
1000000 -5352 -9228 0
1000000 -5353 -8751 0
1000000 -5354 -8180 0
1000000 -5355 -8956 0
1000000 -5356 -9182 0
1000000 -5357 -8855 0
1000000 -5358 -9400 0
1000000 -5359 -9004 0
1000000 -5360 -8404 0
1000000 -5361 -8102 0
1000000 -5362 -8058 0
1000000 -5363 -9365 0
1000000 -5364 -7829 0
1000000 -5365 -8798 0
1000000 -5366 -8343 0
1000000 -5367 -8355 0
1000000 -5368 -8377 0
1000000 -5369 -9200 0
1000000 -5370 -8533 0
1000000 -5371 -8848 0
1000000 -5372 -8093 0
1000000 -5373 -9243 0
1000000 -5374 -7933 0
1000000 -5375 -8755 0
1000000 -5376 -8885 0
1000000 -5377 -7881 0
1000000 -5378 -9336 0
1000000 -5379 -8848 0
1000000 -5380 -9194 0
1000000 -5381 -8215 0
1000000 -5382 -8492 0
1000000 -5383 -8051 0
1000000 -5384 -7987 0
1000000 -5385 -8726 0
1000000 -5386 -8062 0
1000000 -5387 -7985 0
1000000 -5388 -8809 0
1000000 -5389 -7728 0
1000000 -5390 -8076 0
1000000 -5391 -8579 0
1000000 -5392 -8613 0
1000000 -5393 -9424 0
1000000 -5394 -7824 0
1000000 -5395 -7997 0
1000000 -5396 -8317 0
1000000 -5397 -9310 0
1000000 -5398 -8572 0
1000000 -5399 -8444 0
1000000 -5400 -8307 0
1000000 -5401 -8961 0
1000000 -5402 -9352 0
1000000 -5403 -9235 0
1000000 -5404 -8904 0
1000000 -5405 -8095 0
1000000 -5406 -9077 0
1000000 -5407 -9200 0
1000000 -5408 -8008 0
1000000 -5409 -8956 0
1000000 -5410 -8263 0
1000000 -5411 -9299 0
1000000 -5412 -8498 0
1000000 -5413 -8446 0
1000000 -5414 -8338 0
1000000 -5415 -9421 0
1000000 -5416 -8451 0
1000000 -5417 -9121 0
1000000 -5418 -8541 0
1000000 -5419 -8300 0
1000000 -5420 -9101 0
1000000 -5421 -8115 0
1000000 -5422 -9353 0
1000000 -5423 -9115 0
1000000 -5424 -9236 0
1000000 -5425 -9043 0
1000000 -5426 -7951 0
1000000 -5427 -7883 0
1000000 -5428 -8586 0
1000000 -5429 -8018 0
1000000 -5430 -8909 0
1000000 -5431 -8312 0
1000000 -5432 -8043 0
1000000 -5433 -9263 0
1000000 -5434 -8136 0
1000000 -5435 -8158 0
1000000 -5436 -8634 0
1000000 -5437 -8420 0
1000000 -5438 -9083 0
1000000 -5439 -8711 0
1000000 -5440 -9396 0
1000000 -5441 -8930 0
1000000 -5442 -8796 0
1000000 -5443 -8572 0
1000000 -5444 -8592 0
1000000 -5445 -7684 0
1000000 -5446 -7882 0
1000000 -5447 -8373 0
1000000 -5448 -8551 0
1000000 -5449 -8422 0
1000000 -5450 -8766 0
1000000 -5451 -8395 0
1000000 -5452 -8509 0
1000000 -5453 -8735 0
1000000 -5454 -7991 0
1000000 -5455 -9034 0
1000000 -5456 -9177 0
1000000 -5457 -8065 0
1000000 -5458 -8769 0
1000000 -5459 -8805 0
1000000 -5460 -9451 0
1000000 -5461 -8757 0
1000000 -5462 -9072 0
1000000 -5463 -9313 0
1000000 -5464 -8001 0
1000000 -5465 -9138 0
1000000 -5466 -8363 0
1000000 -5467 -7721 0
1000000 -5468 -8315 0
1000000 -5469 -7738 0
1000000 -5470 -8422 0
1000000 -5471 -8947 0
1000000 -5472 -8535 0
1000000 -5473 -8118 0
1000000 -5474 -8472 0
1000000 -5475 -8177 0
1000000 -5476 -8470 0
1000000 -5477 -8921 0
1000000 -5478 -8775 0
1000000 -5479 -9057 0
1000000 -5480 -9408 0
1000000 -5481 -8067 0
1000000 -5482 -8463 0
1000000 -5483 -8907 0
1000000 -5484 -8766 0
1000000 -5485 -8435 0
1000000 -5486 -8746 0
1000000 -5487 -8630 0
1000000 -5488 -8166 0
1000000 -5489 -7914 0
1000000 -5490 -7740 0
1000000 -5491 -7740 0
1000000 -5492 -8554 0
1000000 -5493 -8225 0
1000000 -5494 -8370 0
1000000 -5495 -7842 0
1000000 -5496 -8478 0
1000000 -5497 -8054 0
1000000 -5498 -9231 0
1000000 -5499 -8477 0
1000000 -5500 -9044 0
1000000 -5501 -8476 0
1000000 -5502 -8765 0
1000000 -5503 -8380 0
1000000 -5504 -7957 0
1000000 -5505 -7751 0
1000000 -5506 -9329 0
1000000 -5507 -8702 0
1000000 -5508 -8288 0
1000000 -5509 -9038 0
1000000 -5510 -7961 0
1000000 -5511 -8590 0
1000000 -5512 -9329 0
1000000 -5513 -8832 0
1000000 -5514 -8168 0
1000000 -5515 -9036 0
1000000 -5516 -9431 0
1000000 -5517 -8756 0
1000000 -5518 -9383 0
1000000 -5519 -9094 0
1000000 -5520 -8407 0
1000000 -5521 -7807 0
1000000 -5522 -7909 0
1000000 -5523 -7843 0
1000000 -5524 -9393 0
1000000 -5525 -8794 0
1000000 -5526 -7812 0
1000000 -5527 -9392 0
1000000 -5528 -7787 0
1000000 -5529 -8206 0
1000000 -5530 -7712 0
1000000 -5531 -8453 0
1000000 -5532 -7798 0
1000000 -5533 -8010 0
1000000 -5534 -8466 0
1000000 -5535 -8670 0
1000000 -5536 -8306 0
1000000 -5537 -8616 0
1000000 -5538 -8108 0
1000000 -5539 -8409 0
1000000 -5540 -7701 0
1000000 -5541 -9143 0
1000000 -5542 -7772 0
1000000 -5543 -8475 0
1000000 -5544 -9472 0
1000000 -5545 -7800 0
1000000 -5546 -9030 0
1000000 -5547 -9016 0
1000000 -5548 -8601 0
1000000 -5549 -8941 0
1000000 -5550 -8150 0
1000000 -5551 -8151 0
1000000 -5552 -8405 0
1000000 -5553 -8403 0
1000000 -5554 -8592 0
1000000 -5555 -8411 0
1000000 -5556 -8349 0
1000000 -5557 -7936 0
1000000 -5558 -8634 0
1000000 -5559 -9331 0
1000000 -5560 -9340 0
1000000 -5561 -8903 0
1000000 -5562 -8758 0
1000000 -5563 -7850 0
1000000 -5564 -8199 0
1000000 -5565 -9374 0
1000000 -5566 -8939 0
1000000 -5567 -8031 0
1000000 -5568 -7935 0
1000000 -5569 -8330 0
1000000 -5570 -8350 0
1000000 -5571 -8409 0
1000000 -5572 -7876 0
1000000 -5573 -8721 0
1000000 -5574 -7767 0
1000000 -5575 -8144 0
1000000 -5576 -9047 0
1000000 -5577 -8449 0
1000000 -5578 -8526 0
1000000 -5579 -8489 0
1000000 -5580 -8012 0
1000000 -5581 -8232 0
1000000 -5582 -9027 0
1000000 -5583 -8808 0
1000000 -5584 -9285 0
1000000 -5585 -8868 0
1000000 -5586 -9124 0
1000000 -5587 -8656 0
1000000 -5588 -7978 0
1000000 -5589 -9295 0
1000000 -5590 -8396 0
1000000 -5591 -8666 0
1000000 -5592 -9317 0
1000000 -5593 -8073 0
1000000 -5594 -7828 0
1000000 -5595 -9075 0
1000000 -5596 -8603 0
1000000 -5597 -7857 0
1000000 -5598 -9342 0
1000000 -5599 -8112 0
1000000 -5600 -9253 0
1000000 -5601 -8130 0
1000000 -5602 -8450 0
1000000 -5603 -7751 0
1000000 -5604 -9109 0
1000000 -5605 -8089 0
1000000 -5606 -8614 0
1000000 -5607 -7682 0
1000000 -5608 -9448 0
1000000 -5609 -8145 0
1000000 -5610 -9466 0
1000000 -5611 -8710 0
1000000 -5612 -9087 0
1000000 -5613 -8122 0
1000000 -5614 -9435 0
1000000 -5615 -8086 0
1000000 -5616 -8928 0
1000000 -5617 -8495 0
1000000 -5618 -8697 0
1000000 -5619 -7714 0
1000000 -5620 -8222 0
1000000 -5621 -8963 0
1000000 -5622 -9440 0
1000000 -5623 -8984 0
1000000 -5624 -9388 0
1000000 -5625 -9308 0
1000000 -5626 -9232 0
1000000 -5627 -8856 0
1000000 -5628 -9475 0
1000000 -5629 -9168 0
1000000 -5630 -7690 0
1000000 -5631 -7845 0
1000000 -5632 -8577 0
1000000 -5633 -9309 0
1000000 -5634 -9016 0
1000000 -5635 -8227 0
1000000 -5636 -7949 0
1000000 -5637 -8785 0
1000000 -5638 -9154 0
1000000 -5639 -8906 0
1000000 -5640 -8649 0
1000000 -5641 -8196 0
1000000 -5642 -7896 0
1000000 -5643 -8632 0
1000000 -5644 -8806 0
1000000 -5645 -8456 0
1000000 -5646 -9202 0
1000000 -5647 -9007 0
1000000 -5648 -8199 0
1000000 -5649 -8021 0
1000000 -5650 -8038 0
1000000 -5651 -8223 0
1000000 -5652 -8517 0
1000000 -5653 -8584 0
1000000 -5654 -9152 0
1000000 -5655 -7708 0
1000000 -5656 -8420 0
1000000 -5657 -8402 0
1000000 -5658 -8427 0
1000000 -5659 -8367 0
1000000 -5660 -9151 0
1000000 -5661 -8989 0
1000000 -5662 -8709 0
1000000 -5663 -8662 0
1000000 -5664 -7889 0
1000000 -5665 -8244 0
1000000 -5666 -7764 0
1000000 -5667 -8465 0
1000000 -5668 -7953 0
1000000 -5669 -7826 0
1000000 -5670 -8600 0
1000000 -5671 -7707 0
1000000 -5672 -8303 0
1000000 -5673 -9353 0
1000000 -5674 -9328 0
1000000 -5675 -9461 0
1000000 -5676 -8035 0
1000000 -5677 -9118 0
1000000 -5678 -9328 0
1000000 -5679 -7913 0
1000000 -5680 -8753 0
1000000 -5681 -8823 0
1000000 -5682 -9303 0
1000000 -5683 -8138 0
1000000 -5684 -8889 0
1000000 -5685 -8919 0
1000000 -5686 -8424 0
1000000 -5687 -9360 0
1000000 -5688 -8347 0
1000000 -5689 -9058 0
1000000 -5690 -7819 0
1000000 -5691 -7806 0
1000000 -5692 -8602 0
1000000 -5693 -8523 0
1000000 -5694 -7885 0
1000000 -5695 -9399 0
1000000 -5696 -8451 0
1000000 -5697 -9130 0
1000000 -5698 -8615 0
1000000 -5699 -7724 0
1000000 -5700 -8310 0
1000000 -5701 -8447 0
1000000 -5702 -8930 0
1000000 -5703 -7729 0
1000000 -5704 -8198 0
1000000 -5705 -9181 0
1000000 -5706 -9134 0
1000000 -5707 -7732 0
1000000 -5708 -8362 0
1000000 -5709 -9122 0
1000000 -5710 -7823 0
1000000 -5711 -9394 0
1000000 -5712 -7709 0
1000000 -5713 -7868 0
1000000 -5714 -8021 0
1000000 -5715 -8731 0
1000000 -5716 -7897 0
1000000 -5717 -8536 0
1000000 -5718 -7950 0
1000000 -5719 -9281 0
1000000 -5720 -7780 0
1000000 -5721 -9120 0
1000000 -5722 -8859 0
1000000 -5723 -8507 0
1000000 -5724 -7941 0
1000000 -5725 -8136 0
1000000 -5726 -8108 0
1000000 -5727 -9269 0
1000000 -5728 -9006 0
1000000 -5729 -8520 0
1000000 -5730 -9357 0
1000000 -5731 -7952 0
1000000 -5732 -7872 0
1000000 -5733 -8645 0
1000000 -5734 -8719 0
1000000 -5735 -9404 0
1000000 -5736 -8449 0
1000000 -5737 -8284 0
1000000 -5738 -7824 0
1000000 -5739 -7812 0
1000000 -5740 -7965 0
1000000 -5741 -8608 0
1000000 -5742 -8313 0
1000000 -5743 -8360 0
1000000 -5744 -8933 0
1000000 -5745 -7937 0
1000000 -5746 -7977 0
1000000 -5747 -9189 0
1000000 -5748 -8616 0
1000000 -5749 -9345 0
1000000 -5750 -9192 0
1000000 -5751 -9334 0
1000000 -5752 -8761 0
1000000 -5753 -9387 0
1000000 -5754 -8129 0
1000000 -5755 -8110 0
1000000 -5756 -7689 0
1000000 -5757 -8678 0
1000000 -5758 -8703 0
1000000 -5759 -7767 0
1000000 -5760 -8745 0
1000000 -5761 -9446 0
1000000 -5762 -8864 0
1000000 -5763 -8298 0
1000000 -5764 -8204 0
1000000 -5765 -8332 0
1000000 -5766 -8888 0
1000000 -5767 -9137 0
1000000 -5768 -8620 0
1000000 -5769 -7943 0
1000000 -5770 -8931 0
1000000 -5771 -8386 0
1000000 -5772 -8208 0
1000000 -5773 -8676 0
1000000 -5774 -8257 0
1000000 -5775 -9202 0
1000000 -5776 -7875 0
1000000 -5777 -8072 0
1000000 -5778 -8316 0
1000000 -5779 -8396 0
1000000 -5780 -8730 0
1000000 -5781 -8736 0
1000000 -5782 -7739 0
1000000 -5783 -8447 0
1000000 -5784 -7995 0
1000000 -5785 -8708 0
1000000 -5786 -8444 0
1000000 -5787 -9311 0
1000000 -5788 -9104 0
1000000 -5789 -9459 0
1000000 -5790 -8516 0
1000000 -5791 -8786 0
1000000 -5792 -8121 0
1000000 -5793 -9325 0
1000000 -5794 -7695 0
1000000 -5795 -8891 0
1000000 -5796 -9474 0
1000000 -5797 -8434 0
1000000 -5798 -7858 0
1000000 -5799 -9438 0
1000000 -5800 -7682 0
1000000 -5801 -7748 0
1000000 -5802 -7853 0
1000000 -5803 -9032 0
1000000 -5804 -9416 0
1000000 -5805 -9155 0
1000000 -5806 -7700 0
1000000 -5807 -8635 0
1000000 -5808 -8744 0
1000000 -5809 -8783 0
1000000 -5810 -9190 0
1000000 -5811 -9380 0
1000000 -5812 -8642 0
1000000 -5813 -9311 0
1000000 -5814 -7794 0
1000000 -5815 -7951 0
1000000 -5816 -8360 0
1000000 -5817 -9199 0
1000000 -5818 -7755 0
1000000 -5819 -8812 0
1000000 -5820 -8145 0
1000000 -5821 -8075 0
1000000 -5822 -7691 0
1000000 -5823 -8176 0
1000000 -5824 -8646 0
1000000 -5825 -8695 0
1000000 -5826 -9270 0
1000000 -5827 -8365 0
1000000 -5828 -7776 0
1000000 -5829 -8825 0
1000000 -5830 -8709 0
1000000 -5831 -8691 0
1000000 -5832 -8389 0
1000000 -5833 -8039 0
1000000 -5834 -8126 0
1000000 -5835 -9396 0
1000000 -5836 -7983 0
1000000 -5837 -8156 0
1000000 -5838 -8990 0
1000000 -5839 -8442 0
1000000 -5840 -7775 0
1000000 -5841 -8056 0
1000000 -5842 -8579 0
1000000 -5843 -8511 0
1000000 -5844 -8379 0
1000000 -5845 -8069 0
1000000 -5846 -8525 0
1000000 -5847 -7887 0
1000000 -5848 -9053 0
1000000 -5849 -8720 0
1000000 -5850 -7885 0
1000000 -5851 -8576 0
1000000 -5852 -8034 0
1000000 -5853 -8115 0
1000000 -5854 -7958 0
1000000 -5855 -9362 0
1000000 -5856 -9011 0
1000000 -5857 -8515 0
1000000 -5858 -8301 0
1000000 -5859 -8700 0
1000000 -5860 -9254 0
1000000 -5861 -8562 0
1000000 -5862 -7945 0
1000000 -5863 -7771 0
1000000 -5864 -7939 0
1000000 -5865 -9467 0
1000000 -5866 -8390 0
1000000 -5867 -9067 0
1000000 -5868 -8653 0
1000000 -5869 -8194 0
1000000 -5870 -9213 0
1000000 -5871 -7725 0
1000000 -5872 -8136 0
1000000 -5873 -8307 0
1000000 -5874 -8750 0
1000000 -5875 -9449 0
1000000 -5876 -8515 0
1000000 -5877 -8538 0
1000000 -5878 -8418 0
1000000 -5879 -8725 0
1000000 -5880 -8496 0
1000000 -5881 -8039 0
1000000 -5882 -8385 0
1000000 -5883 -9204 0
1000000 -5884 -8296 0
1000000 -5885 -8388 0
1000000 -5886 -8851 0
1000000 -5887 -8143 0
1000000 -5888 -8029 0
1000000 -5889 -8088 0
1000000 -5890 -8221 0
1000000 -5891 -9194 0
1000000 -5892 -8851 0
1000000 -5893 -8664 0
1000000 -5894 -9247 0
1000000 -5895 -8401 0
1000000 -5896 -8861 0
1000000 -5897 -8835 0
1000000 -5898 -8810 0
1000000 -5899 -8563 0
1000000 -5900 -9390 0
1000000 -5901 -8367 0
1000000 -5902 -8142 0
1000000 -5903 -8224 0
1000000 -5904 -7990 0
1000000 -5905 -7749 0
1000000 -5906 -8946 0
1000000 -5907 -9465 0
1000000 -5908 -7807 0
1000000 -5909 -8205 0
1000000 -5910 -7820 0
1000000 -5911 -8055 0
1000000 -5912 -8877 0
1000000 -5913 -9095 0
1000000 -5914 -9085 0
1000000 -5915 -9150 0
1000000 -5916 -7710 0
1000000 -5917 -7743 0
1000000 -5918 -8316 0
1000000 -5919 -8702 0
1000000 -5920 -8068 0
1000000 -5921 -7805 0
1000000 -5922 -9407 0
1000000 -5923 -8976 0
1000000 -5924 -9164 0
1000000 -5925 -8836 0
1000000 -5926 -8334 0
1000000 -5927 -7796 0
1000000 -5928 -9025 0
1000000 -5929 -8146 0
1000000 -5930 -9092 0
1000000 -5931 -9169 0
1000000 -5932 -7904 0
1000000 -5933 -7979 0
1000000 -5934 -8238 0
1000000 -5935 -8076 0
1000000 -5936 -8287 0
1000000 -5937 -8286 0
1000000 -5938 -8157 0
1000000 -5939 -9395 0
1000000 -5940 -8342 0
1000000 -5941 -9081 0
1000000 -5942 -8870 0
1000000 -5943 -8128 0
1000000 -5944 -9415 0
1000000 -5945 -8368 0
1000000 -5946 -8328 0
1000000 -5947 -9147 0
1000000 -5948 -7973 0
1000000 -5949 -8019 0
1000000 -5950 -8690 0
1000000 -5951 -9029 0
1000000 -5952 -9066 0
1000000 -5953 -8799 0
1000000 -5954 -8588 0
1000000 -5955 -9087 0
1000000 -5956 -8714 0
1000000 -5957 -8922 0
1000000 -5958 -7931 0
1000000 -5959 -9108 0
1000000 -5960 -9082 0
1000000 -5961 -9042 0
1000000 -5962 -8503 0
1000000 -5963 -8654 0
1000000 -5964 -8707 0
1000000 -5965 -8489 0
1000000 -5966 -8481 0
1000000 -5967 -7903 0
1000000 -5968 -8353 0
1000000 -5969 -8205 0
1000000 -5970 -8273 0
1000000 -5971 -9428 0
1000000 -5972 -9202 0
1000000 -5973 -8501 0
1000000 -5974 -8431 0
1000000 -5975 -8368 0
1000000 -5976 -8161 0
1000000 -5977 -9209 0
1000000 -5978 -7833 0
1000000 -5979 -8975 0
1000000 -5980 -7962 0
1000000 -5981 -7993 0
1000000 -5982 -9188 0
1000000 -5983 -8826 0
1000000 -5984 -8087 0
1000000 -5985 -8910 0
1000000 -5986 -8150 0
1000000 -5987 -8296 0
1000000 -5988 -9226 0
1000000 -5989 -8022 0
1000000 -5990 -8816 0
1000000 -5991 -8479 0
1000000 -5992 -9373 0
1000000 -5993 -8921 0
1000000 -5994 -8345 0
1000000 -5995 -7795 0
1000000 -5996 -8339 0
1000000 -5997 -8959 0
1000000 -5998 -8574 0
1000000 -5999 -8802 0
1000000 -6000 -8715 0
1000000 -6001 -8916 0
1000000 -6002 -8733 0
1000000 -6003 -9268 0
1000000 -6004 -8292 0
1000000 -6005 -9217 0
1000000 -6006 -9279 0
1000000 -6007 -9332 0
1000000 -6008 -9217 0
1000000 -6009 -7820 0
1000000 -6010 -8836 0
1000000 -6011 -8832 0
1000000 -6012 -9220 0
1000000 -6013 -7789 0
1000000 -6014 -9090 0
1000000 -6015 -8757 0
1000000 -6016 -8910 0
1000000 -6017 -8403 0
1000000 -6018 -9143 0
1000000 -6019 -9259 0
1000000 -6020 -7773 0
1000000 -6021 -8178 0
1000000 -6022 -8079 0
1000000 -6023 -9411 0
1000000 -6024 -9321 0
1000000 -6025 -8223 0
1000000 -6026 -7900 0
1000000 -6027 -9390 0
1000000 -6028 -9404 0
1000000 -6029 -9344 0
1000000 -6030 -9021 0
1000000 -6031 -9318 0
1000000 -6032 -7961 0
1000000 -6033 -7976 0
1000000 -6034 -9308 0
1000000 -6035 -9302 0
1000000 -6036 -8651 0
1000000 -6037 -9473 0
1000000 -6038 -9325 0
1000000 -6039 -8346 0
1000000 -6040 -9265 0
1000000 -6041 -8872 0
1000000 -6042 -8437 0
1000000 -6043 -9239 0
1000000 -6044 -8035 0
1000000 -6045 -9006 0
1000000 -6046 -8862 0
1000000 -6047 -9075 0
1000000 -6048 -8253 0
1000000 -6049 -7713 0
1000000 -6050 -9150 0
1000000 -6051 -7856 0
1000000 -6052 -8680 0
1000000 -6053 -8102 0
1000000 -6054 -7686 0
1000000 -6055 -9013 0
1000000 -6056 -9080 0
1000000 -6057 -8558 0
1000000 -6058 -8243 0
1000000 -6059 -9328 0
1000000 -6060 -8797 0
1000000 -6061 -8636 0
1000000 -6062 -8499 0
1000000 -6063 -9131 0
1000000 -6064 -8352 0
1000000 -6065 -7821 0
1000000 -6066 -8658 0
1000000 -6067 -8622 0
1000000 -6068 -8581 0
1000000 -6069 -7902 0
1000000 -6070 -7828 0
1000000 -6071 -9083 0
1000000 -6072 -8621 0
1000000 -6073 -7695 0
1000000 -6074 -8027 0
1000000 -6075 -8998 0
1000000 -6076 -7788 0
1000000 -6077 -8430 0
1000000 -6078 -8521 0
1000000 -6079 -9195 0
1000000 -6080 -8146 0
1000000 -6081 -7808 0
1000000 -6082 -8751 0
1000000 -6083 -7915 0
1000000 -6084 -8713 0
1000000 -6085 -8765 0
1000000 -6086 -9274 0
1000000 -6087 -9187 0
1000000 -6088 -8966 0
1000000 -6089 -8728 0
1000000 -6090 -8378 0
1000000 -6091 -8713 0
1000000 -6092 -8410 0
1000000 -6093 -8303 0
1000000 -6094 -9277 0
1000000 -6095 -9323 0
1000000 -6096 -8583 0
1000000 -6097 -8683 0
1000000 -6098 -8661 0
1000000 -6099 -7885 0
1000000 -6100 -8980 0
1000000 -6101 -8558 0
1000000 -6102 -7754 0
1000000 -6103 -8657 0
1000000 -6104 -8844 0
1000000 -6105 -9354 0
1000000 -6106 -8896 0
1000000 -6107 -8486 0
1000000 -6108 -8663 0
1000000 -6109 -9144 0
1000000 -6110 -7792 0
1000000 -6111 -7861 0
1000000 -6112 -9427 0
1000000 -6113 -9200 0
1000000 -6114 -7789 0
1000000 -6115 -8602 0
1000000 -6116 -8426 0
1000000 -6117 -8552 0
1000000 -6118 -7973 0
1000000 -6119 -8293 0
1000000 -6120 -7711 0
1000000 -6121 -9300 0
1000000 -6122 -9162 0
1000000 -6123 -8918 0
1000000 -6124 -8698 0
1000000 -6125 -9180 0
1000000 -6126 -9399 0
1000000 -6127 -8002 0
1000000 -6128 -9215 0
1000000 -6129 -8891 0
1000000 -6130 -8953 0
1000000 -6131 -8731 0
1000000 -6132 -7988 0
1000000 -6133 -8501 0
1000000 -6134 -8057 0
1000000 -6135 -8665 0
1000000 -6136 -8202 0
1000000 -6137 -9427 0
1000000 -6138 -8407 0
1000000 -6139 -7842 0
1000000 -6140 -9455 0
1000000 -6141 -8638 0
1000000 -6142 -9127 0
1000000 -6143 -8041 0
1000000 -6144 -8527 0
1000000 -6145 -9434 0
1000000 -6146 -9044 0
1000000 -6147 -8941 0
1000000 -6148 -8743 0
1000000 -6149 -7869 0
1000000 -6150 -9280 0
1000000 -6151 -8916 0
1000000 -6152 -8973 0
1000000 -6153 -7981 0
1000000 -6154 -8392 0
1000000 -6155 -9450 0
1000000 -6156 -8519 0
1000000 -6157 -8763 0
1000000 -6158 -8844 0
1000000 -6159 -8217 0
1000000 -6160 -7690 0
1000000 -6161 -8235 0
1000000 -6162 -8792 0
1000000 -6163 -8899 0
1000000 -6164 -8581 0
1000000 -6165 -7760 0
1000000 -6166 -8912 0
1000000 -6167 -7725 0
1000000 -6168 -7928 0
1000000 -6169 -9318 0
1000000 -6170 -8522 0
1000000 -6171 -8425 0
1000000 -6172 -7773 0
1000000 -6173 -9133 0
1000000 -6174 -7921 0
1000000 -6175 -8166 0
1000000 -6176 -7974 0
1000000 -6177 -9433 0
1000000 -6178 -7929 0
1000000 -6179 -9211 0
1000000 -6180 -8967 0
1000000 -6181 -8180 0
1000000 -6182 -8453 0
1000000 -6183 -8926 0
1000000 -6184 -8657 0
1000000 -6185 -8192 0
1000000 -6186 -9026 0
1000000 -6187 -9103 0
1000000 -6188 -8030 0
1000000 -6189 -8605 0
1000000 -6190 -8662 0
1000000 -6191 -8246 0
1000000 -6192 -7969 0
1000000 -6193 -8201 0
1000000 -6194 -8690 0
1000000 -6195 -9054 0
1000000 -6196 -8214 0
1000000 -6197 -8668 0
1000000 -6198 -9179 0
1000000 -6199 -7881 0
1000000 -6200 -7858 0
1000000 -6201 -9077 0
1000000 -6202 -9283 0
1000000 -6203 -8805 0
1000000 -6204 -8637 0
1000000 -6205 -8487 0
1000000 -6206 -7772 0
1000000 -6207 -8019 0
1000000 -6208 -8714 0
1000000 -6209 -9039 0
1000000 -6210 -9138 0
1000000 -6211 -8484 0
1000000 -6212 -7829 0
1000000 -6213 -7712 0
1000000 -6214 -8621 0
1000000 -6215 -9463 0
1000000 -6216 -8925 0
1000000 -6217 -9078 0
1000000 -6218 -9295 0
1000000 -6219 -7691 0
1000000 -6220 -9090 0
1000000 -6221 -8233 0
1000000 -6222 -8269 0
1000000 -6223 -8189 0
1000000 -6224 -9164 0
1000000 -6225 -8446 0
1000000 -6226 -7955 0
1000000 -6227 -8853 0
1000000 -6228 -8416 0
1000000 -6229 -9310 0
1000000 -6230 -8917 0
1000000 -6231 -8123 0
1000000 -6232 -8100 0
1000000 -6233 -8742 0
1000000 -6234 -8272 0
1000000 -6235 -8741 0
1000000 -6236 -7735 0
1000000 -6237 -7924 0
1000000 -6238 -8000 0
1000000 -6239 -8442 0
1000000 -6240 -8825 0
1000000 -6241 -9477 0
1000000 -6242 -8389 0
1000000 -6243 -9386 0
1000000 -6244 -9349 0
1000000 -6245 -8474 0
1000000 -6246 -7894 0
1000000 -6247 -7989 0
1000000 -6248 -7992 0
1000000 -6249 -8734 0
1000000 -6250 -8416 0
1000000 -6251 -8639 0
1000000 -6252 -8917 0
1000000 -6253 -8139 0
1000000 -6254 -8531 0
1000000 -6255 -8854 0
1000000 -6256 -8232 0
1000000 -6257 -9272 0
1000000 -6258 -7915 0
1000000 -6259 -8649 0
1000000 -6260 -8544 0
1000000 -6261 -8587 0
1000000 -6262 -9365 0
1000000 -6263 -7694 0
1000000 -6264 -8640 0
1000000 -6265 -8427 0
1000000 -6266 -8882 0
1000000 -6267 -9037 0
1000000 -6268 -8116 0
1000000 -6269 -8494 0
1000000 -6270 -7772 0
1000000 -6271 -8087 0
1000000 -6272 -9226 0
1000000 -6273 -8087 0
1000000 -6274 -8629 0
1000000 -6275 -9191 0
1000000 -6276 -8901 0
1000000 -6277 -7979 0
1000000 -6278 -7831 0
1000000 -6279 -9064 0
1000000 -6280 -7917 0
1000000 -6281 -8221 0
1000000 -6282 -9397 0
1000000 -6283 -8328 0
1000000 -6284 -7721 0
1000000 -6285 -7952 0
1000000 -6286 -7750 0
1000000 -6287 -8132 0
1000000 -6288 -7907 0
1000000 -6289 -9479 0
1000000 -6290 -8343 0
1000000 -6291 -7743 0
1000000 -6292 -8707 0
1000000 -6293 -7953 0
1000000 -6294 -8948 0
1000000 -6295 -8308 0
1000000 -6296 -9321 0
1000000 -6297 -8555 0
1000000 -6298 -8115 0
1000000 -6299 -7684 0
1000000 -6300 -9004 0
1000000 -6301 -8618 0
1000000 -6302 -7942 0
1000000 -6303 -7747 0
1000000 -6304 -8450 0
1000000 -6305 -8617 0
1000000 -6306 -9458 0
1000000 -6307 -9069 0
1000000 -6308 -9128 0
1000000 -6309 -9353 0
1000000 -6310 -9214 0
1000000 -6311 -7920 0
1000000 -6312 -8529 0
1000000 -6313 -8934 0
1000000 -6314 -9384 0
1000000 -6315 -8957 0
1000000 -6316 -8476 0
1000000 -6317 -7683 0
1000000 -6318 -8060 0
1000000 -6319 -9414 0
1000000 -6320 -8681 0
1000000 -6321 -9173 0
1000000 -6322 -9427 0
1000000 -6323 -7895 0
1000000 -6324 -8000 0
1000000 -6325 -8672 0
1000000 -6326 -8193 0
1000000 -6327 -8042 0
1000000 -6328 -7906 0
1000000 -6329 -9006 0
1000000 -6330 -9274 0
1000000 -6331 -8300 0
1000000 -6332 -8414 0
1000000 -6333 -7946 0
1000000 -6334 -8737 0
1000000 -6335 -8899 0
1000000 -6336 -8154 0
1000000 -6337 -8894 0
1000000 -6338 -8898 0
1000000 -6339 -9317 0
1000000 -6340 -8137 0
1000000 -6341 -8423 0
1000000 -6342 -8827 0
1000000 -6343 -8351 0
1000000 -6344 -8279 0
1000000 -6345 -8902 0
1000000 -6346 -8383 0
1000000 -6347 -8318 0
1000000 -6348 -8550 0
1000000 -6349 -8292 0
1000000 -6350 -9055 0
1000000 -6351 -8210 0
1000000 -6352 -8872 0
1000000 -6353 -7708 0
1000000 -6354 -8070 0
1000000 -6355 -7908 0
1000000 -6356 -8070 0
1000000 -6357 -7998 0
1000000 -6358 -8568 0
1000000 -6359 -9351 0
1000000 -6360 -9186 0
1000000 -6361 -9291 0
1000000 -6362 -7818 0
1000000 -6363 -8987 0
1000000 -6364 -7954 0
1000000 -6365 -8952 0
1000000 -6366 -8957 0
1000000 -6367 -8611 0
1000000 -6368 -7690 0
1000000 -6369 -7857 0
1000000 -6370 -8519 0
1000000 -6371 -8456 0
1000000 -6372 -8607 0
1000000 -6373 -8300 0
1000000 -6374 -8366 0
1000000 -6375 -9037 0
1000000 -6376 -9290 0
1000000 -6377 -8959 0
1000000 -6378 -9375 0
1000000 -6379 -7996 0
1000000 -6380 -8771 0
1000000 -6381 -9149 0
1000000 -6382 -8762 0
1000000 -6383 -9197 0
1000000 -6384 -8895 0
1000000 -6385 -8938 0
1000000 -6386 -8607 0
1000000 -6387 -9428 0
1000000 -6388 -8187 0
1000000 -6389 -8754 0
1000000 -6390 -7853 0
1000000 -6391 -8099 0
1000000 -6392 -8138 0
1000000 -6393 -8236 0
1000000 -6394 -8252 0
1000000 -6395 -7921 0
1000000 -6396 -8935 0
1000000 -6397 -9423 0
1000000 -6398 -8158 0
1000000 -6399 -7839 0
1000000 -6400 -8779 0
1000000 -6401 -9227 0
1000000 -6402 -8152 0
1000000 -6403 -9470 0
1000000 -6404 -8229 0
1000000 -6405 -8865 0
1000000 -6406 -8609 0
1000000 -6407 -9068 0
1000000 -6408 -9253 0
1000000 -6409 -9226 0
1000000 -6410 -7865 0
1000000 -6411 -8565 0
1000000 -6412 -7807 0
1000000 -6413 -7835 0
1000000 -6414 -8847 0
1000000 -6415 -8998 0
1000000 -6416 -8351 0
1000000 -6417 -8532 0
1000000 -6418 -8406 0
1000000 -6419 -7945 0
1000000 -6420 -9460 0
1000000 -6421 -8995 0
1000000 -6422 -8033 0
1000000 -6423 -8475 0
1000000 -6424 -7686 0
1000000 -6425 -8580 0
1000000 -6426 -7941 0
1000000 -6427 -8485 0
1000000 -6428 -9085 0
1000000 -6429 -8179 0
1000000 -6430 -8244 0
1000000 -6431 -8161 0
1000000 -6432 -9017 0
1000000 -6433 -9099 0
1000000 -6434 -9417 0
1000000 -6435 -8217 0
1000000 -6436 -8386 0
1000000 -6437 -8101 0
1000000 -6438 -8139 0
1000000 -6439 -9409 0
1000000 -6440 -8875 0
1000000 -6441 -9198 0
1000000 -6442 -8276 0
1000000 -6443 -9166 0
1000000 -6444 -7870 0
1000000 -6445 -9240 0
1000000 -6446 -9048 0
1000000 -6447 -8408 0
1000000 -6448 -8160 0
1000000 -6449 -9232 0
1000000 -6450 -8030 0
1000000 -6451 -8401 0
1000000 -6452 -8935 0
1000000 -6453 -7830 0
1000000 -6454 -7693 0
1000000 -6455 -8902 0
1000000 -6456 -7696 0
1000000 -6457 -8286 0
1000000 -6458 -7808 0
1000000 -6459 -9386 0
1000000 -6460 -9375 0
1000000 -6461 -7898 0
1000000 -6462 -8026 0
1000000 -6463 -9207 0
1000000 -6464 -7853 0
1000000 -6465 -7956 0
1000000 -6466 -8525 0
1000000 -6467 -8754 0
1000000 -6468 -9206 0
1000000 -6469 -9405 0
1000000 -6470 -8466 0
1000000 -6471 -7745 0
1000000 -6472 -8987 0
1000000 -6473 -8190 0
1000000 -6474 -8256 0
1000000 -6475 -8229 0
1000000 -6476 -8806 0
1000000 -6477 -7788 0
1000000 -6478 -9095 0
1000000 -6479 -7688 0
1000000 -6480 -7774 0
1000000 -6481 -8913 0
1000000 -6482 -9376 0
1000000 -6483 -8121 0
1000000 -6484 -8573 0
1000000 -6485 -9092 0
1000000 -6486 -7758 0
1000000 -6487 -8833 0
1000000 -6488 -7802 0
1000000 -6489 -8010 0
1000000 -6490 -9347 0
1000000 -6491 -8680 0
1000000 -6492 -9356 0
1000000 -6493 -8016 0
1000000 -6494 -8033 0
1000000 -6495 -8005 0
1000000 -6496 -8677 0
1000000 -6497 -8187 0
1000000 -6498 -9027 0
1000000 -6499 -8686 0
1000000 -6500 -8665 0
1000000 -6501 -7724 0
1000000 -6502 -7838 0
1000000 -6503 -9079 0
1000000 -6504 -8864 0
1000000 -6505 -9339 0
1000000 -6506 -8044 0
1000000 -6507 -8994 0
1000000 -6508 -7849 0
1000000 -6509 -9471 0
1000000 -6510 -9335 0
1000000 -6511 -9163 0
1000000 -6512 -9157 0
1000000 -6513 -7866 0
1000000 -6514 -8483 0
1000000 -6515 -7714 0
1000000 -6516 -8565 0
1000000 -6517 -9477 0
1000000 -6518 -8175 0
1000000 -6519 -8884 0
1000000 -6520 -8039 0
1000000 -6521 -8469 0
1000000 -6522 -7894 0
1000000 -6523 -9163 0
1000000 -6524 -8341 0
1000000 -6525 -8032 0
1000000 -6526 -9472 0
1000000 -6527 -9360 0
1000000 -6528 -8711 0
1000000 -6529 -7963 0
1000000 -6530 -8723 0
1000000 -6531 -8011 0
1000000 -6532 -9050 0
1000000 -6533 -8240 0
1000000 -6534 -8990 0
1000000 -6535 -9044 0
1000000 -6536 -9339 0
1000000 -6537 -8959 0
1000000 -6538 -8845 0
1000000 -6539 -8012 0
1000000 -6540 -8577 0
1000000 -6541 -9143 0
1000000 -6542 -8090 0
1000000 -6543 -8460 0
1000000 -6544 -8697 0
1000000 -6545 -8804 0
1000000 -6546 -9446 0
1000000 -6547 -8930 0
1000000 -6548 -8461 0
1000000 -6549 -8113 0
1000000 -6550 -9364 0
1000000 -6551 -9014 0
1000000 -6552 -8803 0
1000000 -6553 -8038 0
1000000 -6554 -9249 0
1000000 -6555 -8939 0
1000000 -6556 -7717 0
1000000 -6557 -7866 0
1000000 -6558 -8639 0
1000000 -6559 -8284 0
1000000 -6560 -8804 0
1000000 -6561 -8897 0
1000000 -6562 -8987 0
1000000 -6563 -8983 0
1000000 -6564 -8040 0
1000000 -6565 -9219 0
1000000 -6566 -8285 0
1000000 -6567 -8466 0
1000000 -6568 -9321 0
1000000 -6569 -8957 0
1000000 -6570 -9255 0
1000000 -6571 -8323 0
1000000 -6572 -9322 0
1000000 -6573 -8412 0
1000000 -6574 -7949 0
1000000 -6575 -9245 0
1000000 -6576 -7704 0
1000000 -6577 -8032 0
1000000 -6578 -8379 0
1000000 -6579 -8546 0
1000000 -6580 -8469 0
1000000 -6581 -7956 0
1000000 -6582 -8072 0
1000000 -6583 -7692 0
1000000 -6584 -8540 0
1000000 -6585 -7705 0
1000000 -6586 -8467 0
1000000 -6587 -7888 0
1000000 -6588 -7702 0
1000000 -6589 -8172 0
1000000 -6590 -8036 0
1000000 -6591 -7990 0
1000000 -6592 -8908 0
1000000 -6593 -8257 0
1000000 -6594 -8511 0
1000000 -6595 -9020 0
1000000 -6596 -7744 0
1000000 -6597 -9324 0
1000000 -6598 -8257 0
1000000 -6599 -8528 0
1000000 -6600 -8844 0
1000000 -6601 -8330 0
1000000 -6602 -7704 0
1000000 -6603 -8103 0
1000000 -6604 -7784 0
1000000 -6605 -8821 0
1000000 -6606 -8512 0
1000000 -6607 -7842 0
1000000 -6608 -7884 0
1000000 -6609 -9221 0
1000000 -6610 -8662 0
1000000 -6611 -9465 0
1000000 -6612 -9291 0
1000000 -6613 -7787 0
1000000 -6614 -7987 0
1000000 -6615 -8141 0
1000000 -6616 -8139 0
1000000 -6617 -7759 0
1000000 -6618 -8695 0
1000000 -6619 -7763 0
1000000 -6620 -8025 0
1000000 -6621 -8380 0
1000000 -6622 -7871 0
1000000 -6623 -8425 0
1000000 -6624 -8850 0
1000000 -6625 -8874 0
1000000 -6626 -8661 0
1000000 -6627 -7899 0
1000000 -6628 -9413 0
1000000 -6629 -9041 0
1000000 -6630 -8529 0
1000000 -6631 -7742 0
1000000 -6632 -7716 0
1000000 -6633 -8364 0
1000000 -6634 -8006 0
1000000 -6635 -7710 0
1000000 -6636 -9119 0
1000000 -6637 -9271 0
1000000 -6638 -8863 0
1000000 -6639 -8521 0
1000000 -6640 -9336 0
1000000 -6641 -8726 0
1000000 -6642 -9346 0
1000000 -6643 -8324 0
1000000 -6644 -9116 0
1000000 -6645 -8714 0
1000000 -6646 -9474 0
1000000 -6647 -7876 0
1000000 -6648 -8249 0
1000000 -6649 -8981 0
1000000 -6650 -9250 0
1000000 -6651 -8599 0
1000000 -6652 -8140 0
1000000 -6653 -9441 0
1000000 -6654 -7819 0
1000000 -6655 -8923 0
1000000 -6656 -8040 0
1000000 -6657 -8634 0
1000000 -6658 -7825 0
1000000 -6659 -8358 0
1000000 -6660 -9296 0
1000000 -6661 -8381 0
1000000 -6662 -8305 0
1000000 -6663 -9477 0
1000000 -6664 -8068 0
1000000 -6665 -8581 0
1000000 -6666 -8557 0
1000000 -6667 -8250 0
1000000 -6668 -7698 0
1000000 -6669 -9142 0
1000000 -6670 -9242 0
1000000 -6671 -8327 0
1000000 -6672 -7715 0
1000000 -6673 -9389 0
1000000 -6674 -7704 0
1000000 -6675 -8598 0
1000000 -6676 -8380 0
1000000 -6677 -8291 0
1000000 -6678 -7896 0
1000000 -6679 -8098 0
1000000 -6680 -8395 0
1000000 -6681 -8424 0
1000000 -6682 -8471 0
1000000 -6683 -8560 0
1000000 -6684 -9254 0
1000000 -6685 -9111 0
1000000 -6686 -8089 0
1000000 -6687 -8403 0
1000000 -6688 -8084 0
1000000 -6689 -7964 0
1000000 -6690 -8615 0
1000000 -6691 -8447 0
1000000 -6692 -7700 0
1000000 -6693 -9072 0
1000000 -6694 -8494 0
1000000 -6695 -9214 0
1000000 -6696 -8432 0
1000000 -6697 -9244 0
1000000 -6698 -9089 0
1000000 -6699 -7822 0
1000000 -6700 -7864 0
1000000 -6701 -9039 0
1000000 -6702 -8256 0
1000000 -6703 -8155 0
1000000 -6704 -9205 0
1000000 -6705 -8539 0
1000000 -6706 -8704 0
1000000 -6707 -8143 0
1000000 -6708 -9273 0
1000000 -6709 -7940 0
1000000 -6710 -8382 0
1000000 -6711 -8231 0
1000000 -6712 -8927 0
1000000 -6713 -8170 0
1000000 -6714 -8268 0
1000000 -6715 -7913 0
1000000 -6716 -9053 0
1000000 -6717 -8359 0
1000000 -6718 -8083 0
1000000 -6719 -7766 0
1000000 -6720 -8116 0
1000000 -6721 -7774 0
1000000 -6722 -9102 0
1000000 -6723 -8910 0
1000000 -6724 -8454 0
1000000 -6725 -9471 0
1000000 -6726 -8279 0
1000000 -6727 -8128 0
1000000 -6728 -7964 0
1000000 -6729 -8383 0
1000000 -6730 -9127 0
1000000 -6731 -8800 0
1000000 -6732 -9185 0
1000000 -6733 -9203 0
1000000 -6734 -8236 0
1000000 -6735 -8431 0
1000000 -6736 -8739 0
1000000 -6737 -8793 0
1000000 -6738 -8392 0
1000000 -6739 -8440 0
1000000 -6740 -9307 0
1000000 -6741 -7923 0
1000000 -6742 -8705 0
1000000 -6743 -9184 0
1000000 -6744 -9454 0
1000000 -6745 -7784 0
1000000 -6746 -8027 0
1000000 -6747 -8291 0
1000000 -6748 -8545 0
1000000 -6749 -8890 0
1000000 -6750 -7867 0
1000000 -6751 -9040 0
1000000 -6752 -8557 0
1000000 -6753 -7733 0
1000000 -6754 -8896 0
1000000 -6755 -8929 0
1000000 -6756 -8247 0
1000000 -6757 -9170 0
1000000 -6758 -8712 0
1000000 -6759 -8745 0
1000000 -6760 -7829 0
1000000 -6761 -9286 0
1000000 -6762 -8747 0
1000000 -6763 -9023 0
1000000 -6764 -8242 0
1000000 -6765 -8981 0
1000000 -6766 -8387 0
1000000 -6767 -9130 0
1000000 -6768 -8288 0
1000000 -6769 -8961 0
1000000 -6770 -7832 0
1000000 -6771 -9418 0
1000000 -6772 -7932 0
1000000 -6773 -7816 0
1000000 -6774 -9258 0
1000000 -6775 -9297 0
1000000 -6776 -8966 0
1000000 -6777 -8773 0
1000000 -6778 -8812 0
1000000 -6779 -8424 0
1000000 -6780 -7733 0
1000000 -6781 -8141 0
1000000 -6782 -8762 0
1000000 -6783 -9064 0
1000000 -6784 -7994 0
1000000 -6785 -7878 0
1000000 -6786 -7854 0
1000000 -6787 -8090 0
1000000 -6788 -7917 0
1000000 -6789 -8781 0
1000000 -6790 -8517 0
1000000 -6791 -8939 0
1000000 -6792 -8643 0
1000000 -6793 -8338 0
1000000 -6794 -8718 0
1000000 -6795 -9204 0
1000000 -6796 -7731 0
1000000 -6797 -8260 0
1000000 -6798 -7943 0
1000000 -6799 -8833 0
1000000 -6800 -7755 0
1000000 -6801 -7744 0
1000000 -6802 -8206 0
1000000 -6803 -8802 0
1000000 -6804 -9360 0
1000000 -6805 -9041 0
1000000 -6806 -7901 0
1000000 -6807 -8586 0
1000000 -6808 -8571 0
1000000 -6809 -8566 0
1000000 -6810 -9315 0
1000000 -6811 -8951 0
1000000 -6812 -9018 0
1000000 -6813 -8610 0
1000000 -6814 -8629 0
1000000 -6815 -8203 0
1000000 -6816 -9125 0
1000000 -6817 -8637 0
1000000 -6818 -9167 0
1000000 -6819 -7895 0
1000000 -6820 -8247 0
1000000 -6821 -8047 0
1000000 -6822 -8335 0
1000000 -6823 -7981 0
1000000 -6824 -9345 0
1000000 -6825 -9181 0
1000000 -6826 -8014 0
1000000 -6827 -7846 0
1000000 -6828 -8582 0
1000000 -6829 -8342 0
1000000 -6830 -7967 0
1000000 -6831 -8093 0
1000000 -6832 -8410 0
1000000 -6833 -8459 0
1000000 -6834 -9058 0
1000000 -6835 -9412 0
1000000 -6836 -8942 0
1000000 -6837 -8236 0
1000000 -6838 -9199 0
1000000 -6839 -7756 0
1000000 -6840 -8052 0
1000000 -6841 -8219 0
1000000 -6842 -9382 0
1000000 -6843 -8219 0
1000000 -6844 -9371 0
1000000 -6845 -9262 0
1000000 -6846 -8579 0
1000000 -6847 -8504 0
1000000 -6848 -8134 0
1000000 -6849 -7746 0
1000000 -6850 -9126 0
1000000 -6851 -9348 0
1000000 -6852 -9043 0
1000000 -6853 -7947 0
1000000 -6854 -9063 0
1000000 -6855 -8569 0
1000000 -6856 -8807 0
1000000 -6857 -8052 0
1000000 -6858 -8005 0
1000000 -6859 -7918 0
1000000 -6860 -9302 0
1000000 -6861 -7896 0
1000000 -6862 -8777 0
1000000 -6863 -7793 0
1000000 -6864 -8613 0
1000000 -6865 -8056 0
1000000 -6866 -8407 0
1000000 -6867 -9290 0
1000000 -6868 -8786 0
1000000 -6869 -8623 0
1000000 -6870 -9425 0
1000000 -6871 -8332 0
1000000 -6872 -8444 0
1000000 -6873 -8584 0
1000000 -6874 -9162 0
1000000 -6875 -8514 0
1000000 -6876 -8033 0
1000000 -6877 -8965 0
1000000 -6878 -7871 0
1000000 -6879 -9064 0
1000000 -6880 -8374 0
1000000 -6881 -9476 0
1000000 -6882 -9288 0
1000000 -6883 -9184 0
1000000 -6884 -7899 0
1000000 -6885 -7861 0
1000000 -6886 -8640 0
1000000 -6887 -9088 0
1000000 -6888 -8730 0
1000000 -6889 -8586 0
1000000 -6890 -8676 0
1000000 -6891 -8893 0
1000000 -6892 -8834 0
1000000 -6893 -8276 0
1000000 -6894 -9415 0
1000000 -6895 -7909 0
1000000 -6896 -8877 0
1000000 -6897 -9296 0
1000000 -6898 -8282 0
1000000 -6899 -8090 0
1000000 -6900 -9421 0
1000000 -6901 -8871 0
1000000 -6902 -8428 0
1000000 -6903 -9449 0
1000000 -6904 -9076 0
1000000 -6905 -7987 0
1000000 -6906 -7954 0
1000000 -6907 -8906 0
1000000 -6908 -7682 0
1000000 -6909 -9038 0
1000000 -6910 -8704 0
1000000 -6911 -8158 0
1000000 -6912 -8397 0
1000000 -6913 -7868 0
1000000 -6914 -8588 0
1000000 -6915 -8289 0
1000000 -6916 -7721 0
1000000 -6917 -8883 0
1000000 -6918 -8088 0
1000000 -6919 -8251 0
1000000 -6920 -8460 0
1000000 -6921 -8845 0
1000000 -6922 -9164 0
1000000 -6923 -9219 0
1000000 -6924 -8604 0
1000000 -6925 -7990 0
1000000 -6926 -8418 0
1000000 -6927 -7735 0
1000000 -6928 -9303 0
1000000 -6929 -8774 0
1000000 -6930 -9084 0
1000000 -6931 -8894 0
1000000 -6932 -9023 0
1000000 -6933 -8297 0
1000000 -6934 -9292 0
1000000 -6935 -8884 0
1000000 -6936 -9367 0
1000000 -6937 -9480 0
1000000 -6938 -8372 0
1000000 -6939 -7837 0
1000000 -6940 -8303 0
1000000 -6941 -8993 0
1000000 -6942 -7906 0
1000000 -6943 -8542 0
1000000 -6944 -8011 0
1000000 -6945 -7950 0
1000000 -6946 -8245 0
1000000 -6947 -9330 0
1000000 -6948 -8502 0
1000000 -6949 -8185 0
1000000 -6950 -9223 0
1000000 -6951 -9227 0
1000000 -6952 -7783 0
1000000 -6953 -9284 0
1000000 -6954 -9417 0
1000000 -6955 -8555 0
1000000 -6956 -8524 0
1000000 -6957 -8114 0
1000000 -6958 -8188 0
1000000 -6959 -7913 0
1000000 -6960 -9262 0
1000000 -6961 -8720 0
1000000 -6962 -9003 0
1000000 -6963 -7833 0
1000000 -6964 -7741 0
1000000 -6965 -8092 0
1000000 -6966 -8789 0
1000000 -6967 -9069 0
1000000 -6968 -8999 0
1000000 -6969 -8315 0
1000000 -6970 -8198 0
1000000 -6971 -7730 0
1000000 -6972 -8902 0
1000000 -6973 -8308 0
1000000 -6974 -8126 0
1000000 -6975 -8393 0
1000000 -6976 -9139 0
1000000 -6977 -9385 0
1000000 -6978 -8582 0
1000000 -6979 -8028 0
1000000 -6980 -9057 0
1000000 -6981 -8312 0
1000000 -6982 -8924 0
1000000 -6983 -8056 0
1000000 -6984 -8354 0
1000000 -6985 -8471 0
1000000 -6986 -8069 0
1000000 -6987 -8281 0
1000000 -6988 -8631 0
1000000 -6989 -8259 0
1000000 -6990 -8435 0
1000000 -6991 -8093 0
1000000 -6992 -8000 0
1000000 -6993 -8819 0
1000000 -6994 -7726 0
1000000 -6995 -9462 0
1000000 -6996 -8109 0
1000000 -6997 -9299 0
1000000 -6998 -7988 0
1000000 -6999 -7795 0
1000000 -7000 -8382 0
1000000 -7001 -8359 0
1000000 -7002 -8205 0
1000000 -7003 -8651 0
1000000 -7004 -9097 0
1000000 -7005 -8088 0
1000000 -7006 -7851 0
1000000 -7007 -9149 0
1000000 -7008 -8271 0
1000000 -7009 -8808 0
1000000 -7010 -9256 0
1000000 -7011 -9148 0
1000000 -7012 -9239 0
1000000 -7013 -9300 0
1000000 -7014 -8876 0
1000000 -7015 -7957 0
1000000 -7016 -8011 0
1000000 -7017 -8819 0
1000000 -7018 -8540 0
1000000 -7019 -8914 0
1000000 -7020 -8386 0
1000000 -7021 -8182 0
1000000 -7022 -7955 0
1000000 -7023 -8901 0
1000000 -7024 -8577 0
1000000 -7025 -7983 0
1000000 -7026 -8991 0
1000000 -7027 -8369 0
1000000 -7028 -8858 0
1000000 -7029 -7873 0
1000000 -7030 -8082 0
1000000 -7031 -8487 0
1000000 -7032 -8071 0
1000000 -7033 -8199 0
1000000 -7034 -8119 0
1000000 -7035 -9377 0
1000000 -7036 -7724 0
1000000 -7037 -7748 0
1000000 -7038 -8925 0
1000000 -7039 -8185 0
1000000 -7040 -7718 0
1000000 -7041 -9356 0
1000000 -7042 -8384 0
1000000 -7043 -8528 0
1000000 -7044 -8057 0
1000000 -7045 -8053 0
1000000 -7046 -8206 0
1000000 -7047 -8679 0
1000000 -7048 -8751 0
1000000 -7049 -7685 0
1000000 -7050 -9195 0
1000000 -7051 -8228 0
1000000 -7052 -9072 0
1000000 -7053 -8168 0
1000000 -7054 -8678 0
1000000 -7055 -9340 0
1000000 -7056 -8961 0
1000000 -7057 -7785 0
1000000 -7058 -8028 0
1000000 -7059 -9393 0
1000000 -7060 -8309 0
1000000 -7061 -8505 0
1000000 -7062 -8849 0
1000000 -7063 -7813 0
1000000 -7064 -9469 0
1000000 -7065 -9289 0
1000000 -7066 -8799 0
1000000 -7067 -9066 0
1000000 -7068 -8542 0
1000000 -7069 -8863 0
1000000 -7070 -9304 0
1000000 -7071 -8375 0
1000000 -7072 -8962 0
1000000 -7073 -9241 0
1000000 -7074 -7832 0
1000000 -7075 -9176 0
1000000 -7076 -8655 0
1000000 -7077 -7776 0
1000000 -7078 -8062 0
1000000 -7079 -9280 0
1000000 -7080 -8524 0
1000000 -7081 -8697 0
1000000 -7082 -8134 0
1000000 -7083 -8213 0
1000000 -7084 -7891 0
1000000 -7085 -8768 0
1000000 -7086 -7963 0
1000000 -7087 -9162 0
1000000 -7088 -8298 0
1000000 -7089 -8506 0
1000000 -7090 -8057 0
1000000 -7091 -9263 0
1000000 -7092 -8133 0
1000000 -7093 -9206 0
1000000 -7094 -9127 0
1000000 -7095 -9195 0
1000000 -7096 -9405 0
1000000 -7097 -7893 0
1000000 -7098 -8661 0
1000000 -7099 -7951 0
1000000 -7100 -8451 0
1000000 -7101 -8694 0
1000000 -7102 -8764 0
1000000 -7103 -8990 0
1000000 -7104 -7960 0
1000000 -7105 -8857 0
1000000 -7106 -9439 0
1000000 -7107 -7817 0
1000000 -7108 -9414 0
1000000 -7109 -8686 0
1000000 -7110 -8213 0
1000000 -7111 -8978 0
1000000 -7112 -9028 0
1000000 -7113 -8297 0
1000000 -7114 -9301 0
1000000 -7115 -9169 0
1000000 -7116 -7764 0
1000000 -7117 -9029 0
1000000 -7118 -8156 0
1000000 -7119 -9432 0
1000000 -7120 -8091 0
1000000 -7121 -8122 0
1000000 -7122 -8304 0
1000000 -7123 -9229 0
1000000 -7124 -7706 0
1000000 -7125 -8518 0
1000000 -7126 -7778 0
1000000 -7127 -9361 0
1000000 -7128 -9327 0
1000000 -7129 -8821 0
1000000 -7130 -9038 0
1000000 -7131 -8711 0
1000000 -7132 -8542 0
1000000 -7133 -8237 0
1000000 -7134 -9414 0
1000000 -7135 -8172 0
1000000 -7136 -8776 0
1000000 -7137 -7976 0
1000000 -7138 -9359 0
1000000 -7139 -9229 0
1000000 -7140 -8419 0
1000000 -7141 -8418 0
1000000 -7142 -9369 0
1000000 -7143 -8530 0
1000000 -7144 -8669 0
1000000 -7145 -8422 0
1000000 -7146 -8871 0
1000000 -7147 -8285 0
1000000 -7148 -7820 0
1000000 -7149 -8604 0
1000000 -7150 -8660 0
1000000 -7151 -8985 0
1000000 -7152 -8265 0
1000000 -7153 -7976 0
1000000 -7154 -8601 0
1000000 -7155 -8146 0
1000000 -7156 -8792 0
1000000 -7157 -8127 0
1000000 -7158 -8073 0
1000000 -7159 -8811 0
1000000 -7160 -7944 0
1000000 -7161 -8549 0
1000000 -7162 -9391 0
1000000 -7163 -9389 0
1000000 -7164 -9220 0
1000000 -7165 -8849 0
1000000 -7166 -9110 0
1000000 -7167 -9230 0
1000000 -7168 -9451 0
1000000 -7169 -8003 0
1000000 -7170 -7855 0
1000000 -7171 -8126 0
1000000 -7172 -9091 0
1000000 -7173 -8770 0
1000000 -7174 -8114 0
1000000 -7175 -9430 0
1000000 -7176 -8173 0
1000000 -7177 -9034 0
1000000 -7178 -8160 0
1000000 -7179 -8548 0
1000000 -7180 -7977 0
1000000 -7181 -9083 0
1000000 -7182 -9133 0
1000000 -7183 -7968 0
1000000 -7184 -9048 0
1000000 -7185 -9169 0
1000000 -7186 -8929 0
1000000 -7187 -8487 0
1000000 -7188 -8074 0
1000000 -7189 -9246 0
1000000 -7190 -8690 0
1000000 -7191 -9452 0
1000000 -7192 -8625 0
1000000 -7193 -8107 0
1000000 -7194 -8495 0
1000000 -7195 -8177 0
1000000 -7196 -8790 0
1000000 -7197 -8636 0
1000000 -7198 -9255 0
1000000 -7199 -9208 0
1000000 -7200 -8992 0
1000000 -7201 -9018 0
1000000 -7202 -9408 0
1000000 -7203 -9073 0
1000000 -7204 -9035 0
1000000 -7205 -9387 0
1000000 -7206 -8824 0
1000000 -7207 -9289 0
1000000 -7208 -8174 0
1000000 -7209 -9107 0
1000000 -7210 -9357 0
1000000 -7211 -9401 0
1000000 -7212 -8570 0
1000000 -7213 -9201 0
1000000 -7214 -9413 0
1000000 -7215 -8321 0
1000000 -7216 -8756 0
1000000 -7217 -9086 0
1000000 -7218 -9010 0
1000000 -7219 -8864 0
1000000 -7220 -7982 0
1000000 -7221 -8589 0
1000000 -7222 -8784 0
1000000 -7223 -9231 0
1000000 -7224 -9048 0
1000000 -7225 -7809 0
1000000 -7226 -7756 0
1000000 -7227 -9059 0
1000000 -7228 -8986 0
1000000 -7229 -8630 0
1000000 -7230 -8200 0
1000000 -7231 -8410 0
1000000 -7232 -8429 0
1000000 -7233 -9129 0
1000000 -7234 -7840 0
1000000 -7235 -9037 0
1000000 -7236 -9135 0
1000000 -7237 -8075 0
1000000 -7238 -8528 0
1000000 -7239 -8364 0
1000000 -7240 -8337 0
1000000 -7241 -9406 0
1000000 -7242 -8063 0
1000000 -7243 -8747 0
1000000 -7244 -7986 0
1000000 -7245 -8822 0
1000000 -7246 -9234 0
1000000 -7247 -8184 0
1000000 -7248 -8522 0
1000000 -7249 -8620 0
1000000 -7250 -8121 0
1000000 -7251 -8200 0
1000000 -7252 -7768 0
1000000 -7253 -7782 0
1000000 -7254 -9445 0
1000000 -7255 -7975 0
1000000 -7256 -8264 0
1000000 -7257 -9453 0
1000000 -7258 -9332 0
1000000 -7259 -8154 0
1000000 -7260 -7977 0
1000000 -7261 -8488 0
1000000 -7262 -8965 0
1000000 -7263 -7912 0
1000000 -7264 -8782 0
1000000 -7265 -7786 0
1000000 -7266 -9145 0
1000000 -7267 -8066 0
1000000 -7268 -9299 0
1000000 -7269 -9405 0
1000000 -7270 -7720 0
1000000 -7271 -8944 0
1000000 -7272 -7814 0
1000000 -7273 -8991 0
1000000 -7274 -7784 0
1000000 -7275 -8435 0
1000000 -7276 -8829 0
1000000 -7277 -7900 0
1000000 -7278 -8196 0
1000000 -7279 -8701 0
1000000 -7280 -7978 0
1000000 -7281 -8124 0
1000000 -7282 -7838 0
1000000 -7283 -8760 0
1000000 -7284 -8953 0
1000000 -7285 -8050 0
1000000 -7286 -8125 0
1000000 -7287 -9189 0
1000000 -7288 -8026 0
1000000 -7289 -8949 0
1000000 -7290 -8813 0
1000000 -7291 -8406 0
1000000 -7292 -8741 0
1000000 -7293 -9168 0
1000000 -7294 -8772 0
1000000 -7295 -8140 0
1000000 -7296 -8856 0
1000000 -7297 -7968 0
1000000 -7298 -8721 0
1000000 -7299 -9173 0
1000000 -7300 -9221 0
1000000 -7301 -8123 0
1000000 -7302 -8027 0
1000000 -7303 -8315 0
1000000 -7304 -9455 0
1000000 -7305 -8270 0
1000000 -7306 -8046 0
1000000 -7307 -8501 0
1000000 -7308 -9120 0
1000000 -7309 -7693 0
1000000 -7310 -8499 0
1000000 -7311 -7775 0
1000000 -7312 -7761 0
1000000 -7313 -8198 0
1000000 -7314 -8413 0
1000000 -7315 -8026 0
1000000 -7316 -7997 0
1000000 -7317 -8334 0
1000000 -7318 -9234 0
1000000 -7319 -8302 0
1000000 -7320 -7999 0
1000000 -7321 -8548 0
1000000 -7322 -8251 0
1000000 -7323 -7719 0
1000000 -7324 -8020 0
1000000 -7325 -9319 0
1000000 -7326 -8229 0
1000000 -7327 -9210 0
1000000 -7328 -8954 0
1000000 -7329 -8443 0
1000000 -7330 -7863 0
1000000 -7331 -8344 0
1000000 -7332 -8815 0
1000000 -7333 -7959 0
1000000 -7334 -9385 0
1000000 -7335 -9346 0
1000000 -7336 -9342 0
1000000 -7337 -7681 0
1000000 -7338 -8873 0
1000000 -7339 -9309 0
1000000 -7340 -8261 0
1000000 -7341 -8849 0
1000000 -7342 -8642 0
1000000 -7343 -9331 0
1000000 -7344 -7753 0
1000000 -7345 -8537 0
1000000 -7346 -7723 0
1000000 -7347 -8071 0
1000000 -7348 -8404 0
1000000 -7349 -8155 0
1000000 -7350 -9252 0
1000000 -7351 -9132 0
1000000 -7352 -8132 0
1000000 -7353 -8256 0
1000000 -7354 -9126 0
1000000 -7355 -8606 0
1000000 -7356 -8192 0
1000000 -7357 -7687 0
1000000 -7358 -8480 0
1000000 -7359 -9365 0
1000000 -7360 -8736 0
1000000 -7361 -8920 0
1000000 -7362 -9237 0
1000000 -7363 -9023 0
1000000 -7364 -8012 0
1000000 -7365 -8510 0
1000000 -7366 -7934 0
1000000 -7367 -7928 0
1000000 -7368 -8248 0
1000000 -7369 -8838 0
1000000 -7370 -8675 0
1000000 -7371 -8226 0
1000000 -7372 -9106 0
1000000 -7373 -8283 0
1000000 -7374 -8277 0
1000000 -7375 -8474 0
1000000 -7376 -9107 0
1000000 -7377 -9005 0
1000000 -7378 -8787 0
1000000 -7379 -8947 0
1000000 -7380 -8575 0
1000000 -7381 -8082 0
1000000 -7382 -7737 0
1000000 -7383 -8253 0
1000000 -7384 -7937 0
1000000 -7385 -8974 0
1000000 -7386 -8366 0
1000000 -7387 -9265 0
1000000 -7388 -8904 0
1000000 -7389 -9060 0
1000000 -7390 -8908 0
1000000 -7391 -8915 0
1000000 -7392 -9276 0
1000000 -7393 -8017 0
1000000 -7394 -8793 0
1000000 -7395 -7900 0
1000000 -7396 -7758 0
1000000 -7397 -8950 0
1000000 -7398 -9443 0
1000000 -7399 -8508 0
1000000 -7400 -8972 0
1000000 -7401 -8212 0
1000000 -7402 -8400 0
1000000 -7403 -7817 0
1000000 -7404 -8053 0
1000000 -7405 -8544 0
1000000 -7406 -8218 0
1000000 -7407 -8612 0
1000000 -7408 -8299 0
1000000 -7409 -9237 0
1000000 -7410 -8650 0
1000000 -7411 -8983 0
1000000 -7412 -9178 0
1000000 -7413 -9410 0
1000000 -7414 -8753 0
1000000 -7415 -9333 0
1000000 -7416 -8147 0
1000000 -7417 -7748 0
1000000 -7418 -7916 0
1000000 -7419 -7775 0
1000000 -7420 -8924 0
1000000 -7421 -8509 0
1000000 -7422 -8846 0
1000000 -7423 -8889 0
1000000 -7424 -9419 0
1000000 -7425 -9275 0
1000000 -7426 -9428 0
1000000 -7427 -8265 0
1000000 -7428 -7742 0
1000000 -7429 -8862 0
1000000 -7430 -9407 0
1000000 -7431 -8355 0
1000000 -7432 -7969 0
1000000 -7433 -9445 0
1000000 -7434 -8988 0
1000000 -7435 -9256 0
1000000 -7436 -9079 0
1000000 -7437 -9098 0
1000000 -7438 -9204 0
1000000 -7439 -9289 0
1000000 -7440 -8003 0
1000000 -7441 -7703 0
1000000 -7442 -7881 0
1000000 -7443 -7922 0
1000000 -7444 -9384 0
1000000 -7445 -7859 0
1000000 -7446 -7992 0
1000000 -7447 -9173 0
1000000 -7448 -8866 0
1000000 -7449 -8626 0
1000000 -7450 -8375 0
1000000 -7451 -9243 0
1000000 -7452 -7806 0
1000000 -7453 -9082 0
1000000 -7454 -8796 0
1000000 -7455 -8183 0
1000000 -7456 -9270 0
1000000 -7457 -7925 0
1000000 -7458 -9142 0
1000000 -7459 -9356 0
1000000 -7460 -8398 0
1000000 -7461 -7845 0
1000000 -7462 -8371 0
1000000 -7463 -8760 0
1000000 -7464 -7930 0
1000000 -7465 -8892 0
1000000 -7466 -7699 0
1000000 -7467 -8068 0
1000000 -7468 -7839 0
1000000 -7469 -8375 0
1000000 -7470 -8595 0
1000000 -7471 -9294 0
1000000 -7472 -9448 0
1000000 -7473 -8163 0
1000000 -7474 -8710 0
1000000 -7475 -8682 0
1000000 -7476 -8786 0
1000000 -7477 -9431 0
1000000 -7478 -9092 0
1000000 -7479 -8667 0
1000000 -7480 -9429 0
1000000 -7481 -9120 0
1000000 -7482 -8408 0
1000000 -7483 -8058 0
1000000 -7484 -8945 0
1000000 -7485 -8008 0
1000000 -7486 -8020 0
1000000 -7487 -9450 0
1000000 -7488 -8593 0
1000000 -7489 -9187 0
1000000 -7490 -8270 0
1000000 -7491 -8975 0
1000000 -7492 -8918 0
1000000 -7493 -8527 0
1000000 -7494 -8468 0
1000000 -7495 -7766 0
1000000 -7496 -9452 0
1000000 -7497 -8065 0
1000000 -7498 -8940 0
1000000 -7499 -8395 0
1000000 -7500 -8878 0
1000000 -7501 -7833 0
1000000 -7502 -8024 0
1000000 -7503 -8652 0
1000000 -7504 -9266 0
1000000 -7505 -8795 0
1000000 -7506 -9068 0
1000000 -7507 -8621 0
1000000 -7508 -9212 0
1000000 -7509 -9248 0
1000000 -7510 -8609 0
1000000 -7511 -9266 0
1000000 -7512 -9040 0
1000000 -7513 -8472 0
1000000 -7514 -9071 0
1000000 -7515 -8472 0
1000000 -7516 -8915 0
1000000 -7517 -9135 0
1000000 -7518 -8603 0
1000000 -7519 -9376 0
1000000 -7520 -8637 0
1000000 -7521 -8186 0
1000000 -7522 -9337 0
1000000 -7523 -8255 0
1000000 -7524 -8333 0
1000000 -7525 -7747 0
1000000 -7526 -8526 0
1000000 -7527 -8302 0
1000000 -7528 -9361 0
1000000 -7529 -7813 0
1000000 -7530 -8325 0
1000000 -7531 -7782 0
1000000 -7532 -8415 0
1000000 -7533 -9065 0
1000000 -7534 -8152 0
1000000 -7535 -8785 0
1000000 -7536 -8861 0
1000000 -7537 -9267 0
1000000 -7538 -7805 0
1000000 -7539 -8321 0
1000000 -7540 -8940 0
1000000 -7541 -8181 0
1000000 -7542 -8595 0
1000000 -7543 -8074 0
1000000 -7544 -9312 0
1000000 -7545 -8891 0
1000000 -7546 -9233 0
1000000 -7547 -8860 0
1000000 -7548 -7783 0
1000000 -7549 -8262 0
1000000 -7550 -8946 0
1000000 -7551 -8319 0
1000000 -7552 -8271 0
1000000 -7553 -8719 0
1000000 -7554 -7694 0
1000000 -7555 -9161 0
1000000 -7556 -8097 0
1000000 -7557 -9133 0
1000000 -7558 -9100 0
1000000 -7559 -9245 0
1000000 -7560 -8153 0
1000000 -7561 -8811 0
1000000 -7562 -8677 0
1000000 -7563 -7927 0
1000000 -7564 -8436 0
1000000 -7565 -8467 0
1000000 -7566 -7873 0
1000000 -7567 -8344 0
1000000 -7568 -7864 0
1000000 -7569 -8829 0
1000000 -7570 -8318 0
1000000 -7571 -8242 0
1000000 -7572 -9297 0
1000000 -7573 -8183 0
1000000 -7574 -9159 0
1000000 -7575 -8629 0
1000000 -7576 -7862 0
1000000 -7577 -9080 0
1000000 -7578 -8371 0
1000000 -7579 -8059 0
1000000 -7580 -8058 0
1000000 -7581 -7945 0
1000000 -7582 -7890 0
1000000 -7583 -9105 0
1000000 -7584 -8450 0
1000000 -7585 -8254 0
1000000 -7586 -8361 0
1000000 -7587 -8314 0
1000000 -7588 -9136 0
1000000 -7589 -9192 0
1000000 -7590 -7706 0
1000000 -7591 -8301 0
1000000 -7592 -7753 0
1000000 -7593 -9102 0
1000000 -7594 -9366 0
1000000 -7595 -8389 0
1000000 -7596 -7825 0
1000000 -7597 -9033 0
1000000 -7598 -8779 0
1000000 -7599 -9166 0
1000000 -7600 -7979 0
1000000 -7601 -9181 0
1000000 -7602 -7786 0
1000000 -7603 -8493 0
1000000 -7604 -8554 0
1000000 -7605 -8979 0
1000000 -7606 -9248 0
1000000 -7607 -9117 0
1000000 -7608 -9182 0
1000000 -7609 -8141 0
1000000 -7610 -8679 0
1000000 -7611 -9224 0
1000000 -7612 -9323 0
1000000 -7613 -9240 0
1000000 -7614 -9264 0
1000000 -7615 -8994 0
1000000 -7616 -9425 0
1000000 -7617 -8440 0
1000000 -7618 -8937 0
1000000 -7619 -8213 0
1000000 -7620 -8493 0
1000000 -7621 -8632 0
1000000 -7622 -8913 0
1000000 -7623 -8622 0
1000000 -7624 -8209 0
1000000 -7625 -8295 0
1000000 -7626 -8971 0
1000000 -7627 -9399 0
1000000 -7628 -8603 0
1000000 -7629 -8618 0
1000000 -7630 -8631 0
1000000 -7631 -7768 0
1000000 -7632 -8448 0
1000000 -7633 -8263 0
1000000 -7634 -7910 0
1000000 -7635 -9085 0
1000000 -7636 -8732 0
1000000 -7637 -8452 0
1000000 -7638 -8922 0
1000000 -7639 -8018 0
1000000 -7640 -9008 0
1000000 -7641 -9248 0
1000000 -7642 -7770 0
1000000 -7643 -8360 0
1000000 -7644 -7727 0
1000000 -7645 -8265 0
1000000 -7646 -7946 0
1000000 -7647 -8502 0
1000000 -7648 -8843 0
1000000 -7649 -8128 0
1000000 -7650 -7804 0
1000000 -7651 -7799 0
1000000 -7652 -8912 0
1000000 -7653 -8605 0
1000000 -7654 -8477 0
1000000 -7655 -7873 0
1000000 -7656 -8768 0
1000000 -7657 -8479 0
1000000 -7658 -8706 0
1000000 -7659 -7970 0
1000000 -7660 -8073 0
1000000 -7661 -9158 0
1000000 -7662 -7754 0
1000000 -7663 -8585 0
1000000 -7664 -9201 0
1000000 -7665 -8239 0
1000000 -7666 -8796 0
1000000 -7667 -9105 0
1000000 -7668 -8478 0
1000000 -7669 -9441 0
1000000 -7670 -8944 0
1000000 -7671 -8739 0
1000000 -7672 -8611 0
1000000 -7673 -7730 0
1000000 -7674 -7922 0
1000000 -7675 -9464 0
1000000 -7676 -9435 0
1000000 -7677 -8569 0
1000000 -7678 -9271 0
1000000 -7679 -9358 0
1000000 -7680 -8006 0
7700 -7681 0
5100 -7682 0
7700 -7683 0
8700 -7684 0
5500 -7685 0
5500 -7686 0
5100 -7687 0
5100 -7688 0
7700 -7689 0
8700 -7690 0
7700 -7691 0
5200 -7692 0
5100 -7693 0
5500 -7694 0
5500 -7695 0
7700 -7696 0
7700 -7697 0
5100 -7698 0
7700 -7699 0
5500 -7700 0
5500 -7701 0
5500 -7702 0
5200 -7703 0
7700 -7704 0
5100 -7705 0
5500 -7706 0
5200 -7707 0
7700 -7708 0
8700 -7709 0
5100 -7710 0
5100 -7711 0
5100 -7712 0
5100 -7713 0
8700 -7714 0
7700 -7715 0
7700 -7716 0
7700 -7717 0
5100 -7718 0
8700 -7719 0
5200 -7720 0
5100 -7721 0
8700 -7722 0
5500 -7723 0
7700 -7724 0
5100 -7725 0
5100 -7726 0
8700 -7727 0
7700 -7728 0
5200 -7729 0
5500 -7730 0
8700 -7731 0
5200 -7732 0
5200 -7733 0
5500 -7734 0
5500 -7735 0
5500 -7736 0
5200 -7737 0
8700 -7738 0
5200 -7739 0
8700 -7740 0
5200 -7741 0
5500 -7742 0
7700 -7743 0
5100 -7744 0
5200 -7745 0
5100 -7746 0
5100 -7747 0
5100 -7748 0
5200 -7749 0
7700 -7750 0
5100 -7751 0
5200 -7752 0
5200 -7753 0
5200 -7754 0
5200 -7755 0
5200 -7756 0
8700 -7757 0
8700 -7758 0
5100 -7759 0
8700 -7760 0
5200 -7761 0
5200 -7762 0
8700 -7763 0
5100 -7764 0
5100 -7765 0
5500 -7766 0
8700 -7767 0
5200 -7768 0
5200 -7769 0
5500 -7770 0
8700 -7771 0
5100 -7772 0
7700 -7773 0
5500 -7774 0
5100 -7775 0
5200 -7776 0
5500 -7777 0
5500 -7778 0
7700 -7779 0
5100 -7780 0
7700 -7781 0
5500 -7782 0
5100 -7783 0
8700 -7784 0
5500 -7785 0
7700 -7786 0
7700 -7787 0
7700 -7788 0
7700 -7789 0
7700 -7790 0
5200 -7791 0
5500 -7792 0
8700 -7793 0
8700 -7794 0
5100 -7795 0
5200 -7796 0
5500 -7797 0
7700 -7798 0
7700 -7799 0
8700 -7800 0
8700 -7801 0
5200 -7802 0
5500 -7803 0
5500 -7804 0
5100 -7805 0
7700 -7806 0
5500 -7807 0
5500 -7808 0
5200 -7809 0
5200 -7810 0
5100 -7811 0
7700 -7812 0
5100 -7813 0
5200 -7814 0
7700 -7815 0
5200 -7816 0
5200 -7817 0
5100 -7818 0
8700 -7819 0
8700 -7820 0
5100 -7821 0
5200 -7822 0
5200 -7823 0
5200 -7824 0
8700 -7825 0
7700 -7826 0
5500 -7827 0
5100 -7828 0
5100 -7829 0
5200 -7830 0
5200 -7831 0
8700 -7832 0
5200 -7833 0
7700 -7834 0
5100 -7835 0
5500 -7836 0
5200 -7837 0
7700 -7838 0
5500 -7839 0
8700 -7840 0
5500 -7841 0
5100 -7842 0
7700 -7843 0
5100 -7844 0
5500 -7845 0
5100 -7846 0
5500 -7847 0
8700 -7848 0
5100 -7849 0
5100 -7850 0
5100 -7851 0
5500 -7852 0
5100 -7853 0
5100 -7854 0
8700 -7855 0
5200 -7856 0
5100 -7857 0
5500 -7858 0
5500 -7859 0
5100 -7860 0
8700 -7861 0
5500 -7862 0
7700 -7863 0
8700 -7864 0
8700 -7865 0
5100 -7866 0
5200 -7867 0
5500 -7868 0
5100 -7869 0
5100 -7870 0
7700 -7871 0
5200 -7872 0
5100 -7873 0
5500 -7874 0
5200 -7875 0
5500 -7876 0
7700 -7877 0
5200 -7878 0
8700 -7879 0
5200 -7880 0
5500 -7881 0
5100 -7882 0
7700 -7883 0
5200 -7884 0
7700 -7885 0
5500 -7886 0
5500 -7887 0
5500 -7888 0
5100 -7889 0
8700 -7890 0
7700 -7891 0
8700 -7892 0
8700 -7893 0
7700 -7894 0
5500 -7895 0
8700 -7896 0
7700 -7897 0
5200 -7898 0
8700 -7899 0
5500 -7900 0
5100 -7901 0
7700 -7902 0
8700 -7903 0
5500 -7904 0
5500 -7905 0
7700 -7906 0
5200 -7907 0
5500 -7908 0
7700 -7909 0
8700 -7910 0
5200 -7911 0
7700 -7912 0
7700 -7913 0
5200 -7914 0
5500 -7915 0
5500 -7916 0
8700 -7917 0
8700 -7918 0
5100 -7919 0
5100 -7920 0
8700 -7921 0
5200 -7922 0
5100 -7923 0
5100 -7924 0
5200 -7925 0
5500 -7926 0
7700 -7927 0
5500 -7928 0
7700 -7929 0
5200 -7930 0
5100 -7931 0
5200 -7932 0
5500 -7933 0
5200 -7934 0
5500 -7935 0
5200 -7936 0
8700 -7937 0
5500 -7938 0
7700 -7939 0
5100 -7940 0
5100 -7941 0
5500 -7942 0
8700 -7943 0
5100 -7944 0
8700 -7945 0
7700 -7946 0
5100 -7947 0
5200 -7948 0
5200 -7949 0
5500 -7950 0
5100 -7951 0
8700 -7952 0
8700 -7953 0
7700 -7954 0
5100 -7955 0
8700 -7956 0
8700 -7957 0
5100 -7958 0
5200 -7959 0
5100 -7960 0
5200 -7961 0
5500 -7962 0
5500 -7963 0
5200 -7964 0
5100 -7965 0
7700 -7966 0
8700 -7967 0
5500 -7968 0
5500 -7969 0
5200 -7970 0
7700 -7971 0
5100 -7972 0
7700 -7973 0
5200 -7974 0
7700 -7975 0
8700 -7976 0
5100 -7977 0
5100 -7978 0
7700 -7979 0
5500 -7980 0
8700 -7981 0
5100 -7982 0
5100 -7983 0
5500 -7984 0
7700 -7985 0
5500 -7986 0
5200 -7987 0
5500 -7988 0
8700 -7989 0
5100 -7990 0
7700 -7991 0
5200 -7992 0
8700 -7993 0
5100 -7994 0
5100 -7995 0
7700 -7996 0
7700 -7997 0
7700 -7998 0
5200 -7999 0
7700 -8000 0
8700 -8001 0
7700 -8002 0
7700 -8003 0
8700 -8004 0
5200 -8005 0
5100 -8006 0
7700 -8007 0
5500 -8008 0
8700 -8009 0
5500 -8010 0
5100 -8011 0
5200 -8012 0
5500 -8013 0
5500 -8014 0
8700 -8015 0
5200 -8016 0
5100 -8017 0
5200 -8018 0
5200 -8019 0
5100 -8020 0
5500 -8021 0
5500 -8022 0
5100 -8023 0
5500 -8024 0
5200 -8025 0
5500 -8026 0
7700 -8027 0
5200 -8028 0
5100 -8029 0
7700 -8030 0
5200 -8031 0
8700 -8032 0
5500 -8033 0
5500 -8034 0
5200 -8035 0
7700 -8036 0
8700 -8037 0
5200 -8038 0
5500 -8039 0
8700 -8040 0
5500 -8041 0
7700 -8042 0
7700 -8043 0
8700 -8044 0
5500 -8045 0
5100 -8046 0
7700 -8047 0
8700 -8048 0
8700 -8049 0
5200 -8050 0
7700 -8051 0
5500 -8052 0
7700 -8053 0
5200 -8054 0
5100 -8055 0
8700 -8056 0
5500 -8057 0
8700 -8058 0
5200 -8059 0
5500 -8060 0
7700 -8061 0
5100 -8062 0
5100 -8063 0
5200 -8064 0
8700 -8065 0
5100 -8066 0
8700 -8067 0
5100 -8068 0
5100 -8069 0
5100 -8070 0
8700 -8071 0
5500 -8072 0
5100 -8073 0
8700 -8074 0
5500 -8075 0
8700 -8076 0
7700 -8077 0
5100 -8078 0
8700 -8079 0
5100 -8080 0
7700 -8081 0
8700 -8082 0
5500 -8083 0
5100 -8084 0
5100 -8085 0
7700 -8086 0
5100 -8087 0
5200 -8088 0
5500 -8089 0
5200 -8090 0
5500 -8091 0
7700 -8092 0
5200 -8093 0
5200 -8094 0
7700 -8095 0
5500 -8096 0
5100 -8097 0
5200 -8098 0
5200 -8099 0
7700 -8100 0
5100 -8101 0
5500 -8102 0
8700 -8103 0
5500 -8104 0
7700 -8105 0
5200 -8106 0
5100 -8107 0
5200 -8108 0
7700 -8109 0
5500 -8110 0
5200 -8111 0
8700 -8112 0
7700 -8113 0
5500 -8114 0
5100 -8115 0
5500 -8116 0
8700 -8117 0
5200 -8118 0
5500 -8119 0
8700 -8120 0
8700 -8121 0
8700 -8122 0
7700 -8123 0
7700 -8124 0
5500 -8125 0
5500 -8126 0
5500 -8127 0
5200 -8128 0
5200 -8129 0
5500 -8130 0
5100 -8131 0
7700 -8132 0
7700 -8133 0
8700 -8134 0
5500 -8135 0
5200 -8136 0
8700 -8137 0
7700 -8138 0
5500 -8139 0
7700 -8140 0
5100 -8141 0
8700 -8142 0
5500 -8143 0
5100 -8144 0
5100 -8145 0
5200 -8146 0
5500 -8147 0
5200 -8148 0
5100 -8149 0
5500 -8150 0
5500 -8151 0
5500 -8152 0
5500 -8153 0
5200 -8154 0
7700 -8155 0
5500 -8156 0
8700 -8157 0
5500 -8158 0
5200 -8159 0
5500 -8160 0
7700 -8161 0
5100 -8162 0
5200 -8163 0
5500 -8164 0
5500 -8165 0
5500 -8166 0
5100 -8167 0
5500 -8168 0
7700 -8169 0
5200 -8170 0
5200 -8171 0
5500 -8172 0
5100 -8173 0
5200 -8174 0
8700 -8175 0
5100 -8176 0
5100 -8177 0
5500 -8178 0
5200 -8179 0
5200 -8180 0
5200 -8181 0
5200 -8182 0
5100 -8183 0
5100 -8184 0
5500 -8185 0
7700 -8186 0
5500 -8187 0
5200 -8188 0
5100 -8189 0
7700 -8190 0
5100 -8191 0
8700 -8192 0
5500 -8193 0
5500 -8194 0
5500 -8195 0
5100 -8196 0
5500 -8197 0
5100 -8198 0
8700 -8199 0
5100 -8200 0
8700 -8201 0
5100 -8202 0
7700 -8203 0
7700 -8204 0
5200 -8205 0
5200 -8206 0
5100 -8207 0
5200 -8208 0
8700 -8209 0
8700 -8210 0
8700 -8211 0
5500 -8212 0
5500 -8213 0
8700 -8214 0
7700 -8215 0
5100 -8216 0
5200 -8217 0
5100 -8218 0
7700 -8219 0
7700 -8220 0
5100 -8221 0
5100 -8222 0
8700 -8223 0
8700 -8224 0
5200 -8225 0
7700 -8226 0
5100 -8227 0
7700 -8228 0
7700 -8229 0
7700 -8230 0
5500 -8231 0
5100 -8232 0
5100 -8233 0
8700 -8234 0
5500 -8235 0
8700 -8236 0
5100 -8237 0
5100 -8238 0
5500 -8239 0
5200 -8240 0
7700 -8241 0
8700 -8242 0
8700 -8243 0
8700 -8244 0
5500 -8245 0
7700 -8246 0
8700 -8247 0
5200 -8248 0
5200 -8249 0
5100 -8250 0
7700 -8251 0
5100 -8252 0
5100 -8253 0
7700 -8254 0
5100 -8255 0
7700 -8256 0
5200 -8257 0
7700 -8258 0
8700 -8259 0
5500 -8260 0
5200 -8261 0
5500 -8262 0
5200 -8263 0
8700 -8264 0
5500 -8265 0
8700 -8266 0
8700 -8267 0
5200 -8268 0
5100 -8269 0
8700 -8270 0
8700 -8271 0
5200 -8272 0
7700 -8273 0
5200 -8274 0
8700 -8275 0
5200 -8276 0
8700 -8277 0
5500 -8278 0
7700 -8279 0
5500 -8280 0
5500 -8281 0
7700 -8282 0
5500 -8283 0
5100 -8284 0
5500 -8285 0
8700 -8286 0
7700 -8287 0
5200 -8288 0
8700 -8289 0
5100 -8290 0
7700 -8291 0
5500 -8292 0
5500 -8293 0
8700 -8294 0
8700 -8295 0
7700 -8296 0
8700 -8297 0
8700 -8298 0
7700 -8299 0
8700 -8300 0
7700 -8301 0
5100 -8302 0
8700 -8303 0
8700 -8304 0
8700 -8305 0
5500 -8306 0
8700 -8307 0
7700 -8308 0
5500 -8309 0
5500 -8310 0
8700 -8311 0
5200 -8312 0
5500 -8313 0
7700 -8314 0
8700 -8315 0
7700 -8316 0
5200 -8317 0
8700 -8318 0
7700 -8319 0
7700 -8320 0
8700 -8321 0
5100 -8322 0
5100 -8323 0
5200 -8324 0
5500 -8325 0
5500 -8326 0
8700 -8327 0
8700 -8328 0
8700 -8329 0
8700 -8330 0
5100 -8331 0
5200 -8332 0
7700 -8333 0
7700 -8334 0
5100 -8335 0
5200 -8336 0
8700 -8337 0
5500 -8338 0
5100 -8339 0
5100 -8340 0
8700 -8341 0
5100 -8342 0
7700 -8343 0
8700 -8344 0
7700 -8345 0
8700 -8346 0
5500 -8347 0
7700 -8348 0
8700 -8349 0
5100 -8350 0
5100 -8351 0
5200 -8352 0
8700 -8353 0
5500 -8354 0
5200 -8355 0
5100 -8356 0
5500 -8357 0
8700 -8358 0
5100 -8359 0
5200 -8360 0
5100 -8361 0
7700 -8362 0
5200 -8363 0
5100 -8364 0
5200 -8365 0
8700 -8366 0
7700 -8367 0
7700 -8368 0
5100 -8369 0
5200 -8370 0
5200 -8371 0
5200 -8372 0
7700 -8373 0
5100 -8374 0
5200 -8375 0
5100 -8376 0
5500 -8377 0
8700 -8378 0
8700 -8379 0
8700 -8380 0
5200 -8381 0
8700 -8382 0
5200 -8383 0
8700 -8384 0
7700 -8385 0
5200 -8386 0
5200 -8387 0
5100 -8388 0
8700 -8389 0
7700 -8390 0
7700 -8391 0
5100 -8392 0
5500 -8393 0
8700 -8394 0
5500 -8395 0
7700 -8396 0
5200 -8397 0
5100 -8398 0
7700 -8399 0
8700 -8400 0
5100 -8401 0
5500 -8402 0
5200 -8403 0
5100 -8404 0
5100 -8405 0
7700 -8406 0
5200 -8407 0
5200 -8408 0
5200 -8409 0
5200 -8410 0
5200 -8411 0
7700 -8412 0
5200 -8413 0
7700 -8414 0
7700 -8415 0
5200 -8416 0
5500 -8417 0
8700 -8418 0
5200 -8419 0
8700 -8420 0
7700 -8421 0
5500 -8422 0
7700 -8423 0
5500 -8424 0
7700 -8425 0
5100 -8426 0
5100 -8427 0
5100 -8428 0
5500 -8429 0
7700 -8430 0
8700 -8431 0
5500 -8432 0
5500 -8433 0
5500 -8434 0
7700 -8435 0
5500 -8436 0
5100 -8437 0
8700 -8438 0
7700 -8439 0
8700 -8440 0
7700 -8441 0
7700 -8442 0
7700 -8443 0
7700 -8444 0
8700 -8445 0
5100 -8446 0
8700 -8447 0
5100 -8448 0
7700 -8449 0
5500 -8450 0
7700 -8451 0
7700 -8452 0
7700 -8453 0
5200 -8454 0
5200 -8455 0
5100 -8456 0
5500 -8457 0
5200 -8458 0
5100 -8459 0
8700 -8460 0
5200 -8461 0
8700 -8462 0
8700 -8463 0
8700 -8464 0
5200 -8465 0
8700 -8466 0
5100 -8467 0
5100 -8468 0
5100 -8469 0
5200 -8470 0
5200 -8471 0
7700 -8472 0
5500 -8473 0
7700 -8474 0
8700 -8475 0
5200 -8476 0
5200 -8477 0
8700 -8478 0
5200 -8479 0
5200 -8480 0
5100 -8481 0
5500 -8482 0
7700 -8483 0
8700 -8484 0
5100 -8485 0
8700 -8486 0
7700 -8487 0
5500 -8488 0
5200 -8489 0
7700 -8490 0
7700 -8491 0
8700 -8492 0
5200 -8493 0
5200 -8494 0
5200 -8495 0
5100 -8496 0
7700 -8497 0
7700 -8498 0
5100 -8499 0
5500 -8500 0
5100 -8501 0
5500 -8502 0
8700 -8503 0
8700 -8504 0
7700 -8505 0
5100 -8506 0
5100 -8507 0
5100 -8508 0
5100 -8509 0
5200 -8510 0
5200 -8511 0
8700 -8512 0
5200 -8513 0
5500 -8514 0
5100 -8515 0
5200 -8516 0
8700 -8517 0
5200 -8518 0
5500 -8519 0
7700 -8520 0
5100 -8521 0
5200 -8522 0
7700 -8523 0
5500 -8524 0
8700 -8525 0
5500 -8526 0
5100 -8527 0
8700 -8528 0
5500 -8529 0
5100 -8530 0
5200 -8531 0
5500 -8532 0
8700 -8533 0
8700 -8534 0
5500 -8535 0
5200 -8536 0
7700 -8537 0
8700 -8538 0
8700 -8539 0
7700 -8540 0
5100 -8541 0
5500 -8542 0
5200 -8543 0
5500 -8544 0
7700 -8545 0
5100 -8546 0
5500 -8547 0
8700 -8548 0
7700 -8549 0
5200 -8550 0
5200 -8551 0
8700 -8552 0
5500 -8553 0
8700 -8554 0
5100 -8555 0
5200 -8556 0
5200 -8557 0
5500 -8558 0
5200 -8559 0
8700 -8560 0
8700 -8561 0
8700 -8562 0
7700 -8563 0
5200 -8564 0
5200 -8565 0
8700 -8566 0
5100 -8567 0
5100 -8568 0
7700 -8569 0
5100 -8570 0
8700 -8571 0
5100 -8572 0
5200 -8573 0
7700 -8574 0
8700 -8575 0
5500 -8576 0
8700 -8577 0
5200 -8578 0
5500 -8579 0
5200 -8580 0
5100 -8581 0
8700 -8582 0
5100 -8583 0
7700 -8584 0
5100 -8585 0
5200 -8586 0
5200 -8587 0
5200 -8588 0
5100 -8589 0
5500 -8590 0
5500 -8591 0
7700 -8592 0
5200 -8593 0
7700 -8594 0
7700 -8595 0
5200 -8596 0
5100 -8597 0
8700 -8598 0
5200 -8599 0
8700 -8600 0
8700 -8601 0
5100 -8602 0
5200 -8603 0
5200 -8604 0
5200 -8605 0
8700 -8606 0
5100 -8607 0
5500 -8608 0
5200 -8609 0
5500 -8610 0
8700 -8611 0
8700 -8612 0
7700 -8613 0
5100 -8614 0
7700 -8615 0
5500 -8616 0
8700 -8617 0
5200 -8618 0
5200 -8619 0
5100 -8620 0
5500 -8621 0
7700 -8622 0
5500 -8623 0
5500 -8624 0
5100 -8625 0
7700 -8626 0
5200 -8627 0
5200 -8628 0
8700 -8629 0
7700 -8630 0
8700 -8631 0
5100 -8632 0
5500 -8633 0
5200 -8634 0
5500 -8635 0
5500 -8636 0
5200 -8637 0
5200 -8638 0
7700 -8639 0
5200 -8640 0
8700 -8641 0
5200 -8642 0
5500 -8643 0
5500 -8644 0
7700 -8645 0
5500 -8646 0
8700 -8647 0
7700 -8648 0
5200 -8649 0
5200 -8650 0
5200 -8651 0
5500 -8652 0
5500 -8653 0
5100 -8654 0
8700 -8655 0
5200 -8656 0
8700 -8657 0
5200 -8658 0
7700 -8659 0
8700 -8660 0
8700 -8661 0
5500 -8662 0
5100 -8663 0
5500 -8664 0
8700 -8665 0
7700 -8666 0
5500 -8667 0
5100 -8668 0
5200 -8669 0
8700 -8670 0
5500 -8671 0
5500 -8672 0
7700 -8673 0
8700 -8674 0
5200 -8675 0
7700 -8676 0
8700 -8677 0
8700 -8678 0
5500 -8679 0
5100 -8680 0
8700 -8681 0
5200 -8682 0
5500 -8683 0
5100 -8684 0
5500 -8685 0
5200 -8686 0
7700 -8687 0
5200 -8688 0
5500 -8689 0
5100 -8690 0
5500 -8691 0
5500 -8692 0
5200 -8693 0
8700 -8694 0
8700 -8695 0
7700 -8696 0
8700 -8697 0
8700 -8698 0
5500 -8699 0
5500 -8700 0
5200 -8701 0
5500 -8702 0
5500 -8703 0
7700 -8704 0
8700 -8705 0
5500 -8706 0
8700 -8707 0
5500 -8708 0
8700 -8709 0
8700 -8710 0
5500 -8711 0
5200 -8712 0
5100 -8713 0
5500 -8714 0
7700 -8715 0
7700 -8716 0
5100 -8717 0
8700 -8718 0
5100 -8719 0
8700 -8720 0
5100 -8721 0
5200 -8722 0
5200 -8723 0
5500 -8724 0
8700 -8725 0
8700 -8726 0
5500 -8727 0
7700 -8728 0
7700 -8729 0
8700 -8730 0
5500 -8731 0
5200 -8732 0
7700 -8733 0
5500 -8734 0
5200 -8735 0
8700 -8736 0
5200 -8737 0
8700 -8738 0
5500 -8739 0
7700 -8740 0
5100 -8741 0
7700 -8742 0
5500 -8743 0
5500 -8744 0
8700 -8745 0
5200 -8746 0
7700 -8747 0
5100 -8748 0
5200 -8749 0
5500 -8750 0
5100 -8751 0
5100 -8752 0
8700 -8753 0
7700 -8754 0
5500 -8755 0
5100 -8756 0
7700 -8757 0
5200 -8758 0
8700 -8759 0
7700 -8760 0
8700 -8761 0
7700 -8762 0
5200 -8763 0
5500 -8764 0
7700 -8765 0
5500 -8766 0
5100 -8767 0
5100 -8768 0
5200 -8769 0
5200 -8770 0
5100 -8771 0
8700 -8772 0
5100 -8773 0
5100 -8774 0
5500 -8775 0
8700 -8776 0
5500 -8777 0
5100 -8778 0
5500 -8779 0
7700 -8780 0
8700 -8781 0
5200 -8782 0
8700 -8783 0
5100 -8784 0
5500 -8785 0
5500 -8786 0
8700 -8787 0
7700 -8788 0
5200 -8789 0
7700 -8790 0
8700 -8791 0
8700 -8792 0
5200 -8793 0
8700 -8794 0
5500 -8795 0
8700 -8796 0
5100 -8797 0
5200 -8798 0
7700 -8799 0
8700 -8800 0
7700 -8801 0
7700 -8802 0
5500 -8803 0
5100 -8804 0
5200 -8805 0
7700 -8806 0
5500 -8807 0
8700 -8808 0
7700 -8809 0
7700 -8810 0
8700 -8811 0
8700 -8812 0
5100 -8813 0
5500 -8814 0
8700 -8815 0
8700 -8816 0
5100 -8817 0
5200 -8818 0
5100 -8819 0
7700 -8820 0
8700 -8821 0
5200 -8822 0
5500 -8823 0
5500 -8824 0
5200 -8825 0
5500 -8826 0
8700 -8827 0
5500 -8828 0
8700 -8829 0
8700 -8830 0
8700 -8831 0
5500 -8832 0
8700 -8833 0
5100 -8834 0
5100 -8835 0
8700 -8836 0
8700 -8837 0
5100 -8838 0
5500 -8839 0
5200 -8840 0
5200 -8841 0
7700 -8842 0
8700 -8843 0
8700 -8844 0
8700 -8845 0
5200 -8846 0
8700 -8847 0
5100 -8848 0
8700 -8849 0
7700 -8850 0
7700 -8851 0
5100 -8852 0
5200 -8853 0
8700 -8854 0
7700 -8855 0
5200 -8856 0
5500 -8857 0
7700 -8858 0
5200 -8859 0
5200 -8860 0
8700 -8861 0
5200 -8862 0
5200 -8863 0
5200 -8864 0
5100 -8865 0
5100 -8866 0
5200 -8867 0
8700 -8868 0
5200 -8869 0
5500 -8870 0
5200 -8871 0
5200 -8872 0
5500 -8873 0
7700 -8874 0
5100 -8875 0
5100 -8876 0
8700 -8877 0
5100 -8878 0
8700 -8879 0
7700 -8880 0
5200 -8881 0
5200 -8882 0
7700 -8883 0
5200 -8884 0
7700 -8885 0
5200 -8886 0
5100 -8887 0
5100 -8888 0
5200 -8889 0
5500 -8890 0
7700 -8891 0
8700 -8892 0
5200 -8893 0
8700 -8894 0
8700 -8895 0
8700 -8896 0
5500 -8897 0
5500 -8898 0
5100 -8899 0
7700 -8900 0
5200 -8901 0
5200 -8902 0
5200 -8903 0
5200 -8904 0
7700 -8905 0
5200 -8906 0
5200 -8907 0
7700 -8908 0
5100 -8909 0
5500 -8910 0
5200 -8911 0
5500 -8912 0
5500 -8913 0
5200 -8914 0
5100 -8915 0
8700 -8916 0
8700 -8917 0
5200 -8918 0
7700 -8919 0
7700 -8920 0
5100 -8921 0
5200 -8922 0
7700 -8923 0
5500 -8924 0
5200 -8925 0
5200 -8926 0
8700 -8927 0
8700 -8928 0
5200 -8929 0
5500 -8930 0
7700 -8931 0
5500 -8932 0
8700 -8933 0
7700 -8934 0
5100 -8935 0
5200 -8936 0
8700 -8937 0
7700 -8938 0
8700 -8939 0
5100 -8940 0
5100 -8941 0
8700 -8942 0
5500 -8943 0
5500 -8944 0
5500 -8945 0
5200 -8946 0
5200 -8947 0
5100 -8948 0
5500 -8949 0
5100 -8950 0
8700 -8951 0
5200 -8952 0
8700 -8953 0
5200 -8954 0
7700 -8955 0
7700 -8956 0
5100 -8957 0
5100 -8958 0
5200 -8959 0
5100 -8960 0
7700 -8961 0
5200 -8962 0
5500 -8963 0
5500 -8964 0
5100 -8965 0
7700 -8966 0
8700 -8967 0
7700 -8968 0
8700 -8969 0
5200 -8970 0
7700 -8971 0
5500 -8972 0
8700 -8973 0
5200 -8974 0
5500 -8975 0
5500 -8976 0
5500 -8977 0
5200 -8978 0
5100 -8979 0
5200 -8980 0
7700 -8981 0
5200 -8982 0
8700 -8983 0
8700 -8984 0
7700 -8985 0
8700 -8986 0
8700 -8987 0
8700 -8988 0
5200 -8989 0
8700 -8990 0
5100 -8991 0
5500 -8992 0
5200 -8993 0
5100 -8994 0
8700 -8995 0
8700 -8996 0
8700 -8997 0
5500 -8998 0
8700 -8999 0
8700 -9000 0
7700 -9001 0
5200 -9002 0
5200 -9003 0
5100 -9004 0
5500 -9005 0
8700 -9006 0
5500 -9007 0
7700 -9008 0
5500 -9009 0
5200 -9010 0
5500 -9011 0
7700 -9012 0
5500 -9013 0
7700 -9014 0
5500 -9015 0
5100 -9016 0
8700 -9017 0
5200 -9018 0
5200 -9019 0
5500 -9020 0
5500 -9021 0
5500 -9022 0
7700 -9023 0
5500 -9024 0
5100 -9025 0
5500 -9026 0
5500 -9027 0
8700 -9028 0
5100 -9029 0
5500 -9030 0
5200 -9031 0
5100 -9032 0
5100 -9033 0
7700 -9034 0
5200 -9035 0
5200 -9036 0
7700 -9037 0
5100 -9038 0
5200 -9039 0
7700 -9040 0
7700 -9041 0
7700 -9042 0
7700 -9043 0
8700 -9044 0
7700 -9045 0
5200 -9046 0
5200 -9047 0
5100 -9048 0
5500 -9049 0
7700 -9050 0
7700 -9051 0
5500 -9052 0
5500 -9053 0
5200 -9054 0
5200 -9055 0
8700 -9056 0
5500 -9057 0
5100 -9058 0
5500 -9059 0
5100 -9060 0
7700 -9061 0
8700 -9062 0
7700 -9063 0
5200 -9064 0
5100 -9065 0
5200 -9066 0
5100 -9067 0
5200 -9068 0
8700 -9069 0
5500 -9070 0
7700 -9071 0
5500 -9072 0
7700 -9073 0
5500 -9074 0
7700 -9075 0
5200 -9076 0
8700 -9077 0
5100 -9078 0
5200 -9079 0
5200 -9080 0
5100 -9081 0
5500 -9082 0
7700 -9083 0
5200 -9084 0
5200 -9085 0
5500 -9086 0
5200 -9087 0
7700 -9088 0
5100 -9089 0
8700 -9090 0
8700 -9091 0
5100 -9092 0
5100 -9093 0
5100 -9094 0
5500 -9095 0
8700 -9096 0
5200 -9097 0
5500 -9098 0
7700 -9099 0
5100 -9100 0
5200 -9101 0
8700 -9102 0
5200 -9103 0
5500 -9104 0
5200 -9105 0
5100 -9106 0
8700 -9107 0
8700 -9108 0
8700 -9109 0
8700 -9110 0
5500 -9111 0
5500 -9112 0
5200 -9113 0
5500 -9114 0
8700 -9115 0
7700 -9116 0
5200 -9117 0
7700 -9118 0
8700 -9119 0
7700 -9120 0
5200 -9121 0
5500 -9122 0
8700 -9123 0
5100 -9124 0
5200 -9125 0
5500 -9126 0
7700 -9127 0
8700 -9128 0
5100 -9129 0
5100 -9130 0
5500 -9131 0
7700 -9132 0
5200 -9133 0
5200 -9134 0
5100 -9135 0
5200 -9136 0
8700 -9137 0
8700 -9138 0
7700 -9139 0
5500 -9140 0
7700 -9141 0
5500 -9142 0
5500 -9143 0
5500 -9144 0
7700 -9145 0
5100 -9146 0
8700 -9147 0
5500 -9148 0
5100 -9149 0
7700 -9150 0
8700 -9151 0
7700 -9152 0
5200 -9153 0
5100 -9154 0
5500 -9155 0
7700 -9156 0
5500 -9157 0
5100 -9158 0
5100 -9159 0
8700 -9160 0
5200 -9161 0
5200 -9162 0
7700 -9163 0
7700 -9164 0
8700 -9165 0
5100 -9166 0
5100 -9167 0
5100 -9168 0
8700 -9169 0
5500 -9170 0
5200 -9171 0
5500 -9172 0
5100 -9173 0
5200 -9174 0
7700 -9175 0
8700 -9176 0
7700 -9177 0
8700 -9178 0
5200 -9179 0
5200 -9180 0
8700 -9181 0
5100 -9182 0
7700 -9183 0
8700 -9184 0
5500 -9185 0
5100 -9186 0
7700 -9187 0
7700 -9188 0
5100 -9189 0
5500 -9190 0
7700 -9191 0
5100 -9192 0
5200 -9193 0
8700 -9194 0
5200 -9195 0
7700 -9196 0
5200 -9197 0
5500 -9198 0
7700 -9199 0
8700 -9200 0
8700 -9201 0
8700 -9202 0
5500 -9203 0
8700 -9204 0
5200 -9205 0
5200 -9206 0
7700 -9207 0
8700 -9208 0
5500 -9209 0
5100 -9210 0
5200 -9211 0
7700 -9212 0
5200 -9213 0
5200 -9214 0
7700 -9215 0
5200 -9216 0
5200 -9217 0
5500 -9218 0
5100 -9219 0
7700 -9220 0
7700 -9221 0
8700 -9222 0
5100 -9223 0
5200 -9224 0
5500 -9225 0
8700 -9226 0
7700 -9227 0
5100 -9228 0
5500 -9229 0
7700 -9230 0
5200 -9231 0
8700 -9232 0
5100 -9233 0
8700 -9234 0
5200 -9235 0
5200 -9236 0
7700 -9237 0
8700 -9238 0
8700 -9239 0
8700 -9240 0
8700 -9241 0
5500 -9242 0
7700 -9243 0
5100 -9244 0
5500 -9245 0
8700 -9246 0
5200 -9247 0
5200 -9248 0
8700 -9249 0
5500 -9250 0
5500 -9251 0
7700 -9252 0
5200 -9253 0
8700 -9254 0
5500 -9255 0
5500 -9256 0
5100 -9257 0
7700 -9258 0
5100 -9259 0
5200 -9260 0
8700 -9261 0
5200 -9262 0
8700 -9263 0
5500 -9264 0
5500 -9265 0
8700 -9266 0
5200 -9267 0
5200 -9268 0
7700 -9269 0
5100 -9270 0
8700 -9271 0
5200 -9272 0
5500 -9273 0
5200 -9274 0
5200 -9275 0
7700 -9276 0
5200 -9277 0
7700 -9278 0
5500 -9279 0
5500 -9280 0
5500 -9281 0
5500 -9282 0
5500 -9283 0
5200 -9284 0
5100 -9285 0
8700 -9286 0
5500 -9287 0
5100 -9288 0
5100 -9289 0
5100 -9290 0
5200 -9291 0
7700 -9292 0
5500 -9293 0
5100 -9294 0
8700 -9295 0
5200 -9296 0
5200 -9297 0
5200 -9298 0
7700 -9299 0
5100 -9300 0
8700 -9301 0
5500 -9302 0
7700 -9303 0
5500 -9304 0
5100 -9305 0
8700 -9306 0
5200 -9307 0
5500 -9308 0
5200 -9309 0
5100 -9310 0
5100 -9311 0
5100 -9312 0
5200 -9313 0
5500 -9314 0
5100 -9315 0
5100 -9316 0
5100 -9317 0
5500 -9318 0
8700 -9319 0
5500 -9320 0
8700 -9321 0
5100 -9322 0
8700 -9323 0
5500 -9324 0
5100 -9325 0
5200 -9326 0
7700 -9327 0
5500 -9328 0
5500 -9329 0
8700 -9330 0
5100 -9331 0
8700 -9332 0
8700 -9333 0
5500 -9334 0
5100 -9335 0
7700 -9336 0
5500 -9337 0
5500 -9338 0
5500 -9339 0
5100 -9340 0
7700 -9341 0
7700 -9342 0
5100 -9343 0
8700 -9344 0
5200 -9345 0
5500 -9346 0
8700 -9347 0
7700 -9348 0
5500 -9349 0
5100 -9350 0
7700 -9351 0
5100 -9352 0
5200 -9353 0
8700 -9354 0
5100 -9355 0
5200 -9356 0
7700 -9357 0
5100 -9358 0
7700 -9359 0
5100 -9360 0
5100 -9361 0
5100 -9362 0
8700 -9363 0
5500 -9364 0
5500 -9365 0
8700 -9366 0
5500 -9367 0
8700 -9368 0
8700 -9369 0
7700 -9370 0
8700 -9371 0
8700 -9372 0
5100 -9373 0
5100 -9374 0
8700 -9375 0
5100 -9376 0
7700 -9377 0
7700 -9378 0
8700 -9379 0
5100 -9380 0
5200 -9381 0
5500 -9382 0
5100 -9383 0
7700 -9384 0
7700 -9385 0
5200 -9386 0
8700 -9387 0
5200 -9388 0
5200 -9389 0
5500 -9390 0
7700 -9391 0
5200 -9392 0
8700 -9393 0
5100 -9394 0
8700 -9395 0
5500 -9396 0
7700 -9397 0
8700 -9398 0
7700 -9399 0
5100 -9400 0
5100 -9401 0
5100 -9402 0
8700 -9403 0
5200 -9404 0
8700 -9405 0
7700 -9406 0
5200 -9407 0
5200 -9408 0
5500 -9409 0
5100 -9410 0
8700 -9411 0
5500 -9412 0
7700 -9413 0
5500 -9414 0
5100 -9415 0
5500 -9416 0
5100 -9417 0
5200 -9418 0
5500 -9419 0
7700 -9420 0
5500 -9421 0
7700 -9422 0
7700 -9423 0
7700 -9424 0
8700 -9425 0
8700 -9426 0
7700 -9427 0
5500 -9428 0
5500 -9429 0
5200 -9430 0
8700 -9431 0
5200 -9432 0
5500 -9433 0
5500 -9434 0
8700 -9435 0
5100 -9436 0
7700 -9437 0
5100 -9438 0
5200 -9439 0
5500 -9440 0
5100 -9441 0
7700 -9442 0
5100 -9443 0
7700 -9444 0
5100 -9445 0
7700 -9446 0
5100 -9447 0
5500 -9448 0
5500 -9449 0
8700 -9450 0
7700 -9451 0
5200 -9452 0
8700 -9453 0
7700 -9454 0
5100 -9455 0
5100 -9456 0
5100 -9457 0
5200 -9458 0
5200 -9459 0
5100 -9460 0
8700 -9461 0
7700 -9462 0
5500 -9463 0
5100 -9464 0
8700 -9465 0
8700 -9466 0
8700 -9467 0
5200 -9468 0
5100 -9469 0
7700 -9470 0
5500 -9471 0
7700 -9472 0
8700 -9473 0
5100 -9474 0
5200 -9475 0
5200 -9476 0
8700 -9477 0
5200 -9478 0
7700 -9479 0
5200 -9480 0
1600 4081 0
1600 4082 0
2500 4083 0
2400 4084 0
4400 4085 0
1800 4086 0
2400 4087 0
2500 4088 0
4400 4089 0
4400 4090 0
4400 4091 0
2400 4092 0
4400 4093 0
2400 4094 0
2500 4095 0
1800 4096 0
2400 4097 0
2500 4098 0
2400 4099 0
2500 4100 0
1800 4101 0
1600 4102 0
1800 4103 0
1600 4104 0
1600 4105 0
4400 4106 0
2400 4107 0
4400 4108 0
2500 4109 0
2500 4110 0
2500 4111 0
4400 4112 0
1800 4113 0
4400 4114 0
4400 4115 0
1800 4116 0
1800 4117 0
1800 4118 0
2400 4119 0
4400 4120 0
2400 4121 0
1600 4122 0
1600 4123 0
4400 4124 0
2500 4125 0
1800 4126 0
2400 4127 0
1600 4128 0
4400 4129 0
2500 4130 0
4400 4131 0
2500 4132 0
4400 4133 0
1800 4134 0
1800 4135 0
2500 4136 0
4400 4137 0
1800 4138 0
4400 4139 0
4400 4140 0
1800 4141 0
1600 4142 0
1600 4143 0
4400 4144 0
1600 4145 0
2400 4146 0
1800 4147 0
1600 4148 0
1600 4149 0
4400 4150 0
2500 4151 0
1600 4152 0
2500 4153 0
1800 4154 0
2500 4155 0
1600 4156 0
2400 4157 0
2400 4158 0
1800 4159 0
1600 4160 0
1800 4161 0
4400 4162 0
4400 4163 0
2500 4164 0
1800 4165 0
2400 4166 0
1800 4167 0
2500 4168 0
1600 4169 0
1800 4170 0
2500 4171 0
4400 4172 0
2400 4173 0
1600 4174 0
1800 4175 0
1800 4176 0
2400 4177 0
4400 4178 0
1800 4179 0
2400 4180 0
2400 4181 0
1600 4182 0
2400 4183 0
2400 4184 0
2400 4185 0
1800 4186 0
2400 4187 0
2400 4188 0
2400 4189 0
2400 4190 0
4400 4191 0
1800 4192 0
2400 4193 0
2500 4194 0
2500 4195 0
2500 4196 0
1600 4197 0
4400 4198 0
2500 4199 0
4400 4200 0
2500 4201 0
1600 4202 0
1800 4203 0
4400 4204 0
1800 4205 0
1600 4206 0
4400 4207 0
1800 4208 0
1600 4209 0
2400 4210 0
4400 4211 0
1800 4212 0
1600 4213 0
2400 4214 0
4400 4215 0
2400 4216 0
2500 4217 0
4400 4218 0
1600 4219 0
1600 4220 0
4400 4221 0
2500 4222 0
4400 4223 0
1800 4224 0
1600 4225 0
2400 4226 0
1600 4227 0
2500 4228 0
4400 4229 0
1600 4230 0
1800 4231 0
2500 4232 0
2500 4233 0
2400 4234 0
1600 4235 0
4400 4236 0
2500 4237 0
1800 4238 0
1800 4239 0
4400 4240 0
1800 4241 0
2400 4242 0
4400 4243 0
1800 4244 0
2400 4245 0
1800 4246 0
1600 4247 0
4400 4248 0
1800 4249 0
1800 4250 0
2400 4251 0
1600 4252 0
1600 4253 0
2400 4254 0
1600 4255 0
1800 4256 0
1800 4257 0
1600 4258 0
1800 4259 0
1600 4260 0
2400 4261 0
4400 4262 0
2400 4263 0
4400 4264 0
2400 4265 0
2500 4266 0
1800 4267 0
2400 4268 0
4400 4269 0
1600 4270 0
1600 4271 0
2400 4272 0
2400 4273 0
2400 4274 0
1600 4275 0
2500 4276 0
2400 4277 0
1600 4278 0
1600 4279 0
2400 4280 0
4400 4281 0
4400 4282 0
1800 4283 0
1600 4284 0
1800 4285 0
1800 4286 0
4400 4287 0
4400 4288 0
2500 4289 0
1600 4290 0
2500 4291 0
2400 4292 0
2500 4293 0
2400 4294 0
1800 4295 0
1600 4296 0
2500 4297 0
1600 4298 0
1800 4299 0
1800 4300 0
1800 4301 0
1800 4302 0
4400 4303 0
4400 4304 0
1800 4305 0
1800 4306 0
2500 4307 0
1600 4308 0
2500 4309 0
1800 4310 0
4400 4311 0
2400 4312 0
4400 4313 0
4400 4314 0
4400 4315 0
2400 4316 0
1800 4317 0
1800 4318 0
1800 4319 0
4400 4320 0
1600 4321 0
1600 4322 0
2500 4323 0
1600 4324 0
4400 4325 0
1800 4326 0
1600 4327 0
2400 4328 0
2400 4329 0
1800 4330 0
1600 4331 0
4400 4332 0
4400 4333 0
1600 4334 0
2500 4335 0
2500 4336 0
2400 4337 0
1800 4338 0
2400 4339 0
1800 4340 0
1800 4341 0
1800 4342 0
1800 4343 0
4400 4344 0
1600 4345 0
1800 4346 0
1600 4347 0
1800 4348 0
4400 4349 0
4400 4350 0
1600 4351 0
1600 4352 0
2400 4353 0
2400 4354 0
2500 4355 0
2400 4356 0
2400 4357 0
1800 4358 0
2500 4359 0
2400 4360 0
2400 4361 0
1600 4362 0
2500 4363 0
2500 4364 0
2500 4365 0
1600 4366 0
4400 4367 0
2500 4368 0
2500 4369 0
1600 4370 0
4400 4371 0
2500 4372 0
2500 4373 0
1800 4374 0
4400 4375 0
2400 4376 0
2500 4377 0
1600 4378 0
1800 4379 0
2400 4380 0
2400 4381 0
1800 4382 0
1600 4383 0
2400 4384 0
2400 4385 0
4400 4386 0
2400 4387 0
2500 4388 0
2500 4389 0
1800 4390 0
1800 4391 0
1600 4392 0
1600 4393 0
4400 4394 0
1800 4395 0
4400 4396 0
1600 4397 0
2400 4398 0
4400 4399 0
2400 4400 0
4400 4401 0
4400 4402 0
1600 4403 0
4400 4404 0
1600 4405 0
4400 4406 0
4400 4407 0
1800 4408 0
1800 4409 0
1600 4410 0
4400 4411 0
2400 4412 0
2500 4413 0
1600 4414 0
1800 4415 0
1800 4416 0
1600 4417 0
1800 4418 0
2400 4419 0
1800 4420 0
2500 4421 0
2500 4422 0
4400 4423 0
2400 4424 0
1800 4425 0
1800 4426 0
1600 4427 0
4400 4428 0
2500 4429 0
1600 4430 0
1600 4431 0
1800 4432 0
2500 4433 0
1600 4434 0
1800 4435 0
4400 4436 0
2400 4437 0
2500 4438 0
4400 4439 0
1800 4440 0
2400 4441 0
1600 4442 0
4400 4443 0
1600 4444 0
1600 4445 0
2400 4446 0
2400 4447 0
1600 4448 0
1600 4449 0
2400 4450 0
1800 4451 0
2500 4452 0
1600 4453 0
2400 4454 0
4400 4455 0
4400 4456 0
1800 4457 0
1800 4458 0
4400 4459 0
1800 4460 0
1600 4461 0
2400 4462 0
2500 4463 0
2400 4464 0
2400 4465 0
1800 4466 0
2500 4467 0
1600 4468 0
4400 4469 0
1600 4470 0
1800 4471 0
4400 4472 0
1600 4473 0
2400 4474 0
1800 4475 0
2500 4476 0
2400 4477 0
2500 4478 0
4400 4479 0
2500 4480 0
2400 4481 0
2500 4482 0
1800 4483 0
1800 4484 0
2400 4485 0
1600 4486 0
2500 4487 0
2400 4488 0
2500 4489 0
2400 4490 0
2500 4491 0
1600 4492 0
2400 4493 0
1800 4494 0
1600 4495 0
1800 4496 0
1600 4497 0
1800 4498 0
1600 4499 0
2500 4500 0
1800 4501 0
2500 4502 0
2400 4503 0
2500 4504 0
1800 4505 0
1600 4506 0
2500 4507 0
4400 4508 0
1600 4509 0
2400 4510 0
2400 4511 0
1800 4512 0
1600 4513 0
2500 4514 0
2500 4515 0
2400 4516 0
1600 4517 0
1600 4518 0
2400 4519 0
2500 4520 0
2400 4521 0
1600 4522 0
2500 4523 0
4400 4524 0
2400 4525 0
1600 4526 0
1600 4527 0
1800 4528 0
1800 4529 0
2400 4530 0
2500 4531 0
4400 4532 0
4400 4533 0
2500 4534 0
1800 4535 0
1600 4536 0
1800 4537 0
2400 4538 0
1800 4539 0
2500 4540 0
2400 4541 0
2500 4542 0
2400 4543 0
1600 4544 0
1800 4545 0
2500 4546 0
2400 4547 0
1800 4548 0
4400 4549 0
2500 4550 0
1600 4551 0
2400 4552 0
2500 4553 0
2500 4554 0
4400 4555 0
1600 4556 0
4400 4557 0
2400 4558 0
1800 4559 0
2500 4560 0
2400 4561 0
2400 4562 0
1600 4563 0
2500 4564 0
4400 4565 0
1800 4566 0
2500 4567 0
2500 4568 0
1800 4569 0
2400 4570 0
4400 4571 0
2500 4572 0
2400 4573 0
1600 4574 0
2400 4575 0
1800 4576 0
4400 4577 0
1800 4578 0
1600 4579 0
2400 4580 0
2500 4581 0
1600 4582 0
1800 4583 0
2400 4584 0
1800 4585 0
2500 4586 0
1600 4587 0
1600 4588 0
4400 4589 0
1800 4590 0
4400 4591 0
1600 4592 0
2400 4593 0
4400 4594 0
2400 4595 0
4400 4596 0
1800 4597 0
1800 4598 0
1600 4599 0
1800 4600 0
4400 4601 0
4400 4602 0
2400 4603 0
2500 4604 0
4400 4605 0
2400 4606 0
1600 4607 0
1800 4608 0
1800 4609 0
4400 4610 0
1800 4611 0
1600 4612 0
2500 4613 0
4400 4614 0
1600 4615 0
2400 4616 0
2500 4617 0
4400 4618 0
1800 4619 0
4400 4620 0
2400 4621 0
1800 4622 0
2500 4623 0
4400 4624 0
1600 4625 0
2400 4626 0
4400 4627 0
1600 4628 0
4400 4629 0
2400 4630 0
4400 4631 0
1800 4632 0
1800 4633 0
1600 4634 0
1800 4635 0
2500 4636 0
2500 4637 0
4400 4638 0
2500 4639 0
2500 4640 0
2400 4641 0
2400 4642 0
2500 4643 0
2400 4644 0
2500 4645 0
1600 4646 0
2400 4647 0
2500 4648 0
2500 4649 0
4400 4650 0
1600 4651 0
1600 4652 0
4400 4653 0
4400 4654 0
4400 4655 0
1800 4656 0
2500 4657 0
1800 4658 0
2400 4659 0
4400 4660 0
2500 4661 0
2500 4662 0
2400 4663 0
1600 4664 0
2500 4665 0
1600 4666 0
2500 4667 0
1800 4668 0
4400 4669 0
1600 4670 0
1800 4671 0
2500 4672 0
4400 4673 0
1800 4674 0
4400 4675 0
2500 4676 0
2500 4677 0
1800 4678 0
2500 4679 0
2400 4680 0
4400 4681 0
2500 4682 0
2500 4683 0
2400 4684 0
4400 4685 0
1600 4686 0
2400 4687 0
2400 4688 0
4400 4689 0
2400 4690 0
4400 4691 0
2400 4692 0
4400 4693 0
4400 4694 0
1600 4695 0
2500 4696 0
4400 4697 0
1800 4698 0
1600 4699 0
1600 4700 0
2500 4701 0
2400 4702 0
2400 4703 0
4400 4704 0
1600 4705 0
4400 4706 0
1800 4707 0
2400 4708 0
4400 4709 0
4400 4710 0
1600 4711 0
1800 4712 0
1800 4713 0
4400 4714 0
1800 4715 0
1800 4716 0
1600 4717 0
1600 4718 0
1800 4719 0
4400 4720 0
2400 4721 0
4400 4722 0
4400 4723 0
2400 4724 0
1600 4725 0
4400 4726 0
1800 4727 0
1800 4728 0
1600 4729 0
1600 4730 0
1600 4731 0
2500 4732 0
2500 4733 0
1800 4734 0
4400 4735 0
2500 4736 0
4400 4737 0
2400 4738 0
1800 4739 0
2500 4740 0
1800 4741 0
2400 4742 0
2400 4743 0
1800 4744 0
2500 4745 0
1800 4746 0
4400 4747 0
4400 4748 0
4400 4749 0
4400 4750 0
4400 4751 0
2400 4752 0
2500 4753 0
2500 4754 0
1600 4755 0
1800 4756 0
2400 4757 0
2400 4758 0
1800 4759 0
1800 4760 0
4400 4761 0
2400 4762 0
2400 4763 0
1800 4764 0
1800 4765 0
2500 4766 0
4400 4767 0
1600 4768 0
4400 4769 0
2400 4770 0
2500 4771 0
1800 4772 0
1600 4773 0
2400 4774 0
1600 4775 0
4400 4776 0
2500 4777 0
4400 4778 0
1800 4779 0
2500 4780 0
4400 4781 0
1600 4782 0
2500 4783 0
2500 4784 0
1800 4785 0
1800 4786 0
1600 4787 0
1600 4788 0
2500 4789 0
2400 4790 0
4400 4791 0
2500 4792 0
1600 4793 0
2500 4794 0
1800 4795 0
4400 4796 0
2500 4797 0
1800 4798 0
4400 4799 0
4400 4800 0
2400 4801 0
1800 4802 0
4400 4803 0
2400 4804 0
2400 4805 0
2500 4806 0
1600 4807 0
1600 4808 0
4400 4809 0
4400 4810 0
4400 4811 0
2500 4812 0
2400 4813 0
1600 4814 0
1800 4815 0
1600 4816 0
2400 4817 0
2400 4818 0
1800 4819 0
2500 4820 0
1600 4821 0
4400 4822 0
2500 4823 0
4400 4824 0
1600 4825 0
1800 4826 0
2500 4827 0
1600 4828 0
4400 4829 0
1600 4830 0
2400 4831 0
2400 4832 0
1600 4833 0
4400 4834 0
2400 4835 0
1600 4836 0
1600 4837 0
4400 4838 0
2400 4839 0
4400 4840 0
4400 4841 0
4400 4842 0
2400 4843 0
2400 4844 0
2500 4845 0
1800 4846 0
1600 4847 0
1800 4848 0
4400 4849 0
2500 4850 0
2500 4851 0
1600 4852 0
1600 4853 0
1800 4854 0
1800 4855 0
2400 4856 0
1800 4857 0
1800 4858 0
4400 4859 0
2500 4860 0
1800 4861 0
2400 4862 0
1800 4863 0
4400 4864 0
1600 4865 0
4400 4866 0
2400 4867 0
1600 4868 0
2500 4869 0
2400 4870 0
2400 4871 0
1800 4872 0
2400 4873 0
2500 4874 0
2500 4875 0
2500 4876 0
2400 4877 0
4400 4878 0
2400 4879 0
1800 4880 0
2500 4881 0
1800 4882 0
2500 4883 0
1800 4884 0
1600 4885 0
1600 4886 0
2500 4887 0
1800 4888 0
2400 4889 0
4400 4890 0
2400 4891 0
2400 4892 0
4400 4893 0
4400 4894 0
1800 4895 0
4400 4896 0
1600 4897 0
4400 4898 0
2400 4899 0
2500 4900 0
1600 4901 0
4400 4902 0
4400 4903 0
2500 4904 0
1800 4905 0
2400 4906 0
2500 4907 0
1800 4908 0
2400 4909 0
4400 4910 0
1800 4911 0
2500 4912 0
1600 4913 0
2500 4914 0
2500 4915 0
1600 4916 0
1800 4917 0
1800 4918 0
2500 4919 0
2500 4920 0
1800 4921 0
1600 4922 0
2400 4923 0
1600 4924 0
4400 4925 0
2500 4926 0
1800 4927 0
1600 4928 0
4400 4929 0
4400 4930 0
2500 4931 0
2400 4932 0
2400 4933 0
4400 4934 0
1600 4935 0
4400 4936 0
2500 4937 0
2500 4938 0
2400 4939 0
4400 4940 0
1800 4941 0
1800 4942 0
1600 4943 0
1600 4944 0
2400 4945 0
2500 4946 0
1800 4947 0
1800 4948 0
1800 4949 0
1800 4950 0
2400 4951 0
4400 4952 0
1800 4953 0
2500 4954 0
1800 4955 0
1600 4956 0
2500 4957 0
4400 4958 0
1800 4959 0
2400 4960 0
2400 4961 0
1800 4962 0
1600 4963 0
2400 4964 0
2500 4965 0
1600 4966 0
4400 4967 0
4400 4968 0
2400 4969 0
1600 4970 0
2400 4971 0
4400 4972 0
2400 4973 0
1600 4974 0
1800 4975 0
4400 4976 0
1800 4977 0
1600 4978 0
4400 4979 0
2400 4980 0
2400 4981 0
2400 4982 0
4400 4983 0
4400 4984 0
2400 4985 0
2400 4986 0
1800 4987 0
4400 4988 0
2400 4989 0
1600 4990 0
2400 4991 0
4400 4992 0
2400 4993 0
1800 4994 0
2500 4995 0
4400 4996 0
4400 4997 0
2500 4998 0
2400 4999 0
1800 5000 0
2400 5001 0
2500 5002 0
1800 5003 0
1600 5004 0
1600 5005 0
1800 5006 0
1600 5007 0
1800 5008 0
2400 5009 0
2400 5010 0
2500 5011 0
2400 5012 0
2400 5013 0
2500 5014 0
4400 5015 0
4400 5016 0
1800 5017 0
4400 5018 0
4400 5019 0
4400 5020 0
2400 5021 0
4400 5022 0
2400 5023 0
2400 5024 0
2500 5025 0
1800 5026 0
2500 5027 0
1600 5028 0
2400 5029 0
4400 5030 0
4400 5031 0
1600 5032 0
1800 5033 0
2400 5034 0
1600 5035 0
1600 5036 0
1600 5037 0
2400 5038 0
2400 5039 0
2400 5040 0
2400 5041 0
2500 5042 0
1600 5043 0
2500 5044 0
1800 5045 0
1600 5046 0
2400 5047 0
2400 5048 0
2400 5049 0
2500 5050 0
2400 5051 0
1600 5052 0
4400 5053 0
1600 5054 0
1800 5055 0
1600 5056 0
2400 5057 0
1600 5058 0
1600 5059 0
2500 5060 0
4400 5061 0
1600 5062 0
1800 5063 0
1600 5064 0
4400 5065 0
4400 5066 0
4400 5067 0
4400 5068 0
4400 5069 0
2500 5070 0
4400 5071 0
2500 5072 0
1600 5073 0
1600 5074 0
2500 5075 0
2400 5076 0
4400 5077 0
4400 5078 0
1600 5079 0
2500 5080 0
4400 5081 0
1600 5082 0
4400 5083 0
2500 5084 0
2400 5085 0
1800 5086 0
1600 5087 0
1600 5088 0
1800 5089 0
1800 5090 0
1600 5091 0
2400 5092 0
1600 5093 0
1800 5094 0
4400 5095 0
2500 5096 0
4400 5097 0
2400 5098 0
1600 5099 0
1600 5100 0
2500 5101 0
4400 5102 0
2500 5103 0
2400 5104 0
4400 5105 0
4400 5106 0
2400 5107 0
1600 5108 0
1600 5109 0
1800 5110 0
1600 5111 0
2500 5112 0
2400 5113 0
1600 5114 0
4400 5115 0
2400 5116 0
1600 5117 0
2500 5118 0
1800 5119 0
1800 5120 0
2400 5121 0
2500 5122 0
2500 5123 0
2500 5124 0
1600 5125 0
1800 5126 0
2500 5127 0
4400 5128 0
1600 5129 0
4400 5130 0
4400 5131 0
2400 5132 0
1600 5133 0
4400 5134 0
1600 5135 0
2500 5136 0
2400 5137 0
1800 5138 0
4400 5139 0
2400 5140 0
2400 5141 0
2400 5142 0
2400 5143 0
2500 5144 0
1600 5145 0
1800 5146 0
1800 5147 0
1600 5148 0
1800 5149 0
2400 5150 0
2500 5151 0
2400 5152 0
2400 5153 0
2500 5154 0
4400 5155 0
1800 5156 0
2500 5157 0
1600 5158 0
1600 5159 0
1600 5160 0
4400 5161 0
2500 5162 0
4400 5163 0
1600 5164 0
2400 5165 0
2400 5166 0
4400 5167 0
1600 5168 0
1600 5169 0
1600 5170 0
1600 5171 0
2500 5172 0
4400 5173 0
4400 5174 0
2500 5175 0
2400 5176 0
4400 5177 0
1800 5178 0
4400 5179 0
4400 5180 0
2400 5181 0
2500 5182 0
2400 5183 0
2400 5184 0
2500 5185 0
1800 5186 0
2500 5187 0
2400 5188 0
2500 5189 0
4400 5190 0
4400 5191 0
1800 5192 0
1800 5193 0
2500 5194 0
2500 5195 0
2500 5196 0
1600 5197 0
2400 5198 0
2400 5199 0
1800 5200 0
4400 5201 0
4400 5202 0
4400 5203 0
4400 5204 0
2400 5205 0
1600 5206 0
4400 5207 0
1800 5208 0
2500 5209 0
2500 5210 0
1800 5211 0
1800 5212 0
1800 5213 0
1600 5214 0
2500 5215 0
1600 5216 0
4400 5217 0
2500 5218 0
1800 5219 0
1600 5220 0
2400 5221 0
2500 5222 0
1800 5223 0
1800 5224 0
4400 5225 0
1600 5226 0
4400 5227 0
2400 5228 0
2400 5229 0
4400 5230 0
2500 5231 0
2500 5232 0
4400 5233 0
4400 5234 0
2500 5235 0
1600 5236 0
4400 5237 0
1800 5238 0
1600 5239 0
4400 5240 0
1800 5241 0
1800 5242 0
4400 5243 0
4400 5244 0
4400 5245 0
1800 5246 0
2400 5247 0
4400 5248 0
4400 5249 0
1600 5250 0
4400 5251 0
1600 5252 0
1600 5253 0
2400 5254 0
4400 5255 0
2400 5256 0
1800 5257 0
2400 5258 0
2500 5259 0
2500 5260 0
2500 5261 0
1600 5262 0
2500 5263 0
2400 5264 0
4400 5265 0
1600 5266 0
1600 5267 0
2500 5268 0
1800 5269 0
1800 5270 0
4400 5271 0
2400 5272 0
2500 5273 0
2400 5274 0
1800 5275 0
1800 5276 0
2500 5277 0
1800 5278 0
1800 5279 0
4400 5280 0
4400 5281 0
1800 5282 0
2500 5283 0
2500 5284 0
1800 5285 0
1800 5286 0
1600 5287 0
4400 5288 0
4400 5289 0
2500 5290 0
2400 5291 0
2400 5292 0
1800 5293 0
1800 5294 0
1600 5295 0
1600 5296 0
2500 5297 0
2400 5298 0
1600 5299 0
2400 5300 0
1600 5301 0
4400 5302 0
1800 5303 0
1600 5304 0
1600 5305 0
2500 5306 0
4400 5307 0
1800 5308 0
4400 5309 0
1800 5310 0
4400 5311 0
4400 5312 0
2500 5313 0
2400 5314 0
4400 5315 0
1800 5316 0
1800 5317 0
2500 5318 0
2400 5319 0
1800 5320 0
2500 5321 0
1800 5322 0
1600 5323 0
4400 5324 0
2400 5325 0
4400 5326 0
4400 5327 0
1600 5328 0
2400 5329 0
4400 5330 0
2500 5331 0
1800 5332 0
1800 5333 0
2500 5334 0
1800 5335 0
1600 5336 0
2500 5337 0
1600 5338 0
2400 5339 0
1800 5340 0
1600 5341 0
1800 5342 0
2400 5343 0
4400 5344 0
1800 5345 0
2400 5346 0
2500 5347 0
1800 5348 0
2500 5349 0
2400 5350 0
2500 5351 0
1600 5352 0
4400 5353 0
2500 5354 0
1600 5355 0
4400 5356 0
2400 5357 0
2400 5358 0
1800 5359 0
1600 5360 0
4400 5361 0
1800 5362 0
1800 5363 0
2400 5364 0
2500 5365 0
4400 5366 0
2400 5367 0
2400 5368 0
2500 5369 0
1600 5370 0
1600 5371 0
4400 5372 0
2500 5373 0
2500 5374 0
1800 5375 0
2500 5376 0
4400 5377 0
2500 5378 0
1800 5379 0
1600 5380 0
2500 5381 0
2500 5382 0
4400 5383 0
1800 5384 0
2500 5385 0
4400 5386 0
1800 5387 0
2400 5388 0
1800 5389 0
2400 5390 0
2400 5391 0
1800 5392 0
1800 5393 0
4400 5394 0
1800 5395 0
1600 5396 0
2500 5397 0
1800 5398 0
2400 5399 0
2400 5400 0
1800 5401 0
2500 5402 0
2500 5403 0
4400 5404 0
4400 5405 0
4400 5406 0
2500 5407 0
2400 5408 0
4400 5409 0
1800 5410 0
4400 5411 0
1800 5412 0
1800 5413 0
2400 5414 0
1800 5415 0
4400 5416 0
2400 5417 0
2400 5418 0
2500 5419 0
1800 5420 0
4400 5421 0
1800 5422 0
4400 5423 0
1600 5424 0
2500 5425 0
2400 5426 0
2500 5427 0
1600 5428 0
2500 5429 0
2500 5430 0
1600 5431 0
2500 5432 0
2500 5433 0
1600 5434 0
1600 5435 0
2400 5436 0
4400 5437 0
4400 5438 0
1600 5439 0
4400 5440 0
1800 5441 0
1800 5442 0
1800 5443 0
2400 5444 0
4400 5445 0
2500 5446 0
1600 5447 0
4400 5448 0
2400 5449 0
2500 5450 0
1600 5451 0
2500 5452 0
1600 5453 0
1800 5454 0
1600 5455 0
1600 5456 0
2400 5457 0
2400 5458 0
2400 5459 0
4400 5460 0
1800 5461 0
1800 5462 0
1600 5463 0
2400 5464 0
1800 5465 0
1800 5466 0
1600 5467 0
1600 5468 0
2500 5469 0
2500 5470 0
1600 5471 0
2500 5472 0
1800 5473 0
1600 5474 0
1600 5475 0
2400 5476 0
1800 5477 0
1800 5478 0
4400 5479 0
4400 5480 0
2400 5481 0
4400 5482 0
2500 5483 0
1600 5484 0
2500 5485 0
1800 5486 0
4400 5487 0
2500 5488 0
1800 5489 0
4400 5490 0
1600 5491 0
1600 5492 0
4400 5493 0
1600 5494 0
2400 5495 0
4400 5496 0
2400 5497 0
4400 5498 0
2400 5499 0
1600 5500 0
1600 5501 0
2500 5502 0
1800 5503 0
2400 5504 0
4400 5505 0
1600 5506 0
1600 5507 0
4400 5508 0
1800 5509 0
4400 5510 0
2400 5511 0
2400 5512 0
2500 5513 0
4400 5514 0
1600 5515 0
2500 5516 0
4400 5517 0
4400 5518 0
1600 5519 0
1800 5520 0
4400 5521 0
2500 5522 0
1600 5523 0
2400 5524 0
1800 5525 0
1600 5526 0
2500 5527 0
4400 5528 0
2500 5529 0
4400 5530 0
1600 5531 0
1800 5532 0
1600 5533 0
2500 5534 0
2500 5535 0
2400 5536 0
2400 5537 0
4400 5538 0
2500 5539 0
2400 5540 0
2400 5541 0
1600 5542 0
4400 5543 0
1800 5544 0
1600 5545 0
4400 5546 0
4400 5547 0
1600 5548 0
2400 5549 0
2400 5550 0
1800 5551 0
1800 5552 0
4400 5553 0
1800 5554 0
1600 5555 0
1800 5556 0
2500 5557 0
4400 5558 0
2500 5559 0
4400 5560 0
4400 5561 0
1600 5562 0
2400 5563 0
1800 5564 0
2500 5565 0
1800 5566 0
4400 5567 0
2500 5568 0
2500 5569 0
4400 5570 0
1800 5571 0
2500 5572 0
1800 5573 0
2500 5574 0
2400 5575 0
1600 5576 0
4400 5577 0
1600 5578 0
1800 5579 0
1600 5580 0
1600 5581 0
1600 5582 0
1600 5583 0
4400 5584 0
2400 5585 0
2400 5586 0
1600 5587 0
2400 5588 0
2400 5589 0
4400 5590 0
1600 5591 0
1800 5592 0
1600 5593 0
2400 5594 0
1800 5595 0
2400 5596 0
2400 5597 0
2500 5598 0
2500 5599 0
2500 5600 0
2400 5601 0
1600 5602 0
1600 5603 0
2400 5604 0
2500 5605 0
2400 5606 0
1600 5607 0
1600 5608 0
4400 5609 0
1600 5610 0
4400 5611 0
2400 5612 0
1600 5613 0
4400 5614 0
1600 5615 0
4400 5616 0
1600 5617 0
1600 5618 0
1800 5619 0
2400 5620 0
2400 5621 0
1600 5622 0
4400 5623 0
2500 5624 0
4400 5625 0
1600 5626 0
2400 5627 0
4400 5628 0
1800 5629 0
1600 5630 0
4400 5631 0
4400 5632 0
1800 5633 0
2500 5634 0
2500 5635 0
4400 5636 0
1600 5637 0
1800 5638 0
2500 5639 0
4400 5640 0
1600 5641 0
2500 5642 0
2400 5643 0
4400 5644 0
1800 5645 0
1600 5646 0
4400 5647 0
2500 5648 0
4400 5649 0
4400 5650 0
2500 5651 0
2400 5652 0
1600 5653 0
2500 5654 0
4400 5655 0
4400 5656 0
1800 5657 0
4400 5658 0
2500 5659 0
1800 5660 0
4400 5661 0
2500 5662 0
1600 5663 0
1600 5664 0
4400 5665 0
1600 5666 0
4400 5667 0
1800 5668 0
1600 5669 0
1800 5670 0
1800 5671 0
1800 5672 0
2400 5673 0
2500 5674 0
4400 5675 0
1800 5676 0
4400 5677 0
1800 5678 0
2500 5679 0
1600 5680 0
4400 5681 0
2400 5682 0
4400 5683 0
2500 5684 0
1800 5685 0
4400 5686 0
2500 5687 0
1800 5688 0
1600 5689 0
2500 5690 0
2400 5691 0
4400 5692 0
2500 5693 0
1800 5694 0
1800 5695 0
2400 5696 0
4400 5697 0
1800 5698 0
1800 5699 0
1800 5700 0
2500 5701 0
2500 5702 0
4400 5703 0
2400 5704 0
4400 5705 0
2400 5706 0
1600 5707 0
1800 5708 0
2400 5709 0
1800 5710 0
2400 5711 0
1600 5712 0
2400 5713 0
4400 5714 0
2500 5715 0
1800 5716 0
2500 5717 0
2400 5718 0
4400 5719 0
2400 5720 0
1600 5721 0
1600 5722 0
1600 5723 0
2400 5724 0
1600 5725 0
2400 5726 0
2400 5727 0
4400 5728 0
1800 5729 0
2500 5730 0
1800 5731 0
2500 5732 0
2500 5733 0
2400 5734 0
1600 5735 0
1600 5736 0
1600 5737 0
1800 5738 0
1600 5739 0
4400 5740 0
2400 5741 0
1600 5742 0
1600 5743 0
1600 5744 0
1800 5745 0
2400 5746 0
4400 5747 0
1600 5748 0
2500 5749 0
1800 5750 0
1600 5751 0
1600 5752 0
1800 5753 0
4400 5754 0
2500 5755 0
2500 5756 0
4400 5757 0
1800 5758 0
1600 5759 0
4400 5760 0
1800 5761 0
1800 5762 0
1800 5763 0
1800 5764 0
2500 5765 0
1800 5766 0
4400 5767 0
1600 5768 0
1600 5769 0
2400 5770 0
4400 5771 0
2400 5772 0
4400 5773 0
1800 5774 0
2400 5775 0
1800 5776 0
4400 5777 0
2500 5778 0
2500 5779 0
2500 5780 0
2500 5781 0
1600 5782 0
2500 5783 0
4400 5784 0
2500 5785 0
1600 5786 0
1800 5787 0
2400 5788 0
1800 5789 0
1800 5790 0
2400 5791 0
2500 5792 0
2500 5793 0
4400 5794 0
2500 5795 0
2500 5796 0
4400 5797 0
2400 5798 0
4400 5799 0
2500 5800 0
2500 5801 0
2500 5802 0
4400 5803 0
2400 5804 0
1600 5805 0
4400 5806 0
2400 5807 0
2500 5808 0
2400 5809 0
1800 5810 0
1800 5811 0
1600 5812 0
2500 5813 0
1600 5814 0
1800 5815 0
1600 5816 0
1800 5817 0
1800 5818 0
2400 5819 0
2500 5820 0
1800 5821 0
2500 5822 0
1600 5823 0
1600 5824 0
1800 5825 0
2500 5826 0
1800 5827 0
1800 5828 0
2400 5829 0
1600 5830 0
2500 5831 0
1600 5832 0
2400 5833 0
4400 5834 0
1600 5835 0
2400 5836 0
1600 5837 0
2500 5838 0
2400 5839 0
4400 5840 0
1600 5841 0
2400 5842 0
4400 5843 0
2500 5844 0
1600 5845 0
1800 5846 0
2500 5847 0
2500 5848 0
2500 5849 0
2500 5850 0
4400 5851 0
1800 5852 0
1600 5853 0
2500 5854 0
1600 5855 0
2400 5856 0
2500 5857 0
2500 5858 0
1600 5859 0
1800 5860 0
2400 5861 0
1800 5862 0
1600 5863 0
4400 5864 0
2500 5865 0
4400 5866 0
1600 5867 0
1600 5868 0
1600 5869 0
1600 5870 0
2500 5871 0
4400 5872 0
2400 5873 0
2500 5874 0
1600 5875 0
1600 5876 0
2500 5877 0
4400 5878 0
4400 5879 0
1800 5880 0
1800 5881 0
1800 5882 0
1600 5883 0
2500 5884 0
2500 5885 0
1800 5886 0
4400 5887 0
1800 5888 0
2500 5889 0
1600 5890 0
1800 5891 0
2400 5892 0
2400 5893 0
4400 5894 0
2500 5895 0
1600 5896 0
2400 5897 0
1800 5898 0
1600 5899 0
2500 5900 0
1800 5901 0
1600 5902 0
2500 5903 0
1600 5904 0
2400 5905 0
2400 5906 0
2500 5907 0
2400 5908 0
2500 5909 0
4400 5910 0
2400 5911 0
1600 5912 0
1600 5913 0
2500 5914 0
4400 5915 0
1800 5916 0
1600 5917 0
4400 5918 0
1600 5919 0
2500 5920 0
2500 5921 0
1800 5922 0
2500 5923 0
1800 5924 0
2500 5925 0
1600 5926 0
2500 5927 0
2400 5928 0
4400 5929 0
1600 5930 0
4400 5931 0
2400 5932 0
4400 5933 0
2400 5934 0
2500 5935 0
2500 5936 0
2400 5937 0
1600 5938 0
2500 5939 0
1600 5940 0
4400 5941 0
2500 5942 0
2400 5943 0
2400 5944 0
2500 5945 0
2400 5946 0
2500 5947 0
1800 5948 0
2500 5949 0
1600 5950 0
4400 5951 0
2400 5952 0
4400 5953 0
2500 5954 0
2500 5955 0
2500 5956 0
1600 5957 0
4400 5958 0
4400 5959 0
2400 5960 0
2500 5961 0
2400 5962 0
1600 5963 0
1800 5964 0
1600 5965 0
1800 5966 0
2500 5967 0
4400 5968 0
4400 5969 0
2400 5970 0
1800 5971 0
2400 5972 0
2500 5973 0
4400 5974 0
2400 5975 0
1800 5976 0
2500 5977 0
2500 5978 0
1800 5979 0
2400 5980 0
1600 5981 0
2400 5982 0
1800 5983 0
4400 5984 0
2400 5985 0
1600 5986 0
2400 5987 0
4400 5988 0
2500 5989 0
2400 5990 0
2500 5991 0
4400 5992 0
1600 5993 0
2400 5994 0
2500 5995 0
1600 5996 0
2500 5997 0
2500 5998 0
2500 5999 0
2400 6000 0
2500 6001 0
4400 6002 0
1800 6003 0
1600 6004 0
1600 6005 0
2400 6006 0
2400 6007 0
2400 6008 0
1800 6009 0
4400 6010 0
1600 6011 0
1600 6012 0
2400 6013 0
2400 6014 0
4400 6015 0
2500 6016 0
4400 6017 0
2400 6018 0
1600 6019 0
4400 6020 0
2500 6021 0
1800 6022 0
1800 6023 0
1600 6024 0
2500 6025 0
4400 6026 0
2400 6027 0
2400 6028 0
2500 6029 0
4400 6030 0
2500 6031 0
4400 6032 0
1800 6033 0
4400 6034 0
4400 6035 0
2400 6036 0
1600 6037 0
2400 6038 0
1800 6039 0
2500 6040 0
2400 6041 0
2500 6042 0
2400 6043 0
1600 6044 0
1600 6045 0
2400 6046 0
2400 6047 0
2500 6048 0
2500 6049 0
1800 6050 0
1800 6051 0
2400 6052 0
1600 6053 0
1800 6054 0
1800 6055 0
4400 6056 0
1600 6057 0
2500 6058 0
2500 6059 0
2500 6060 0
4400 6061 0
2400 6062 0
2400 6063 0
2500 6064 0
1600 6065 0
4400 6066 0
2500 6067 0
2500 6068 0
2400 6069 0
1600 6070 0
4400 6071 0
4400 6072 0
1800 6073 0
1600 6074 0
2400 6075 0
1800 6076 0
2400 6077 0
2500 6078 0
1800 6079 0
2400 6080 0
2500 6081 0
2400 6082 0
1600 6083 0
2400 6084 0
1600 6085 0
2400 6086 0
2500 6087 0
1600 6088 0
4400 6089 0
1600 6090 0
2500 6091 0
1600 6092 0
2400 6093 0
2400 6094 0
4400 6095 0
1600 6096 0
2400 6097 0
1600 6098 0
1800 6099 0
2400 6100 0
1600 6101 0
2400 6102 0
1800 6103 0
1800 6104 0
2400 6105 0
1800 6106 0
2400 6107 0
2500 6108 0
4400 6109 0
2500 6110 0
1800 6111 0
2400 6112 0
2500 6113 0
1600 6114 0
1600 6115 0
1600 6116 0
2400 6117 0
1800 6118 0
2400 6119 0
1800 6120 0
4400 6121 0
2400 6122 0
4400 6123 0
2400 6124 0
4400 6125 0
4400 6126 0
2400 6127 0
2500 6128 0
1600 6129 0
4400 6130 0
1600 6131 0
2400 6132 0
4400 6133 0
1600 6134 0
1600 6135 0
1800 6136 0
2500 6137 0
1600 6138 0
2400 6139 0
2400 6140 0
1800 6141 0
1600 6142 0
4400 6143 0
2400 6144 0
4400 6145 0
2400 6146 0
4400 6147 0
2500 6148 0
1600 6149 0
2500 6150 0
2500 6151 0
1600 6152 0
4400 6153 0
2500 6154 0
1600 6155 0
4400 6156 0
1600 6157 0
1600 6158 0
2500 6159 0
1600 6160 0
1600 6161 0
2400 6162 0
2500 6163 0
4400 6164 0
2500 6165 0
1600 6166 0
2400 6167 0
2400 6168 0
1800 6169 0
1800 6170 0
2400 6171 0
2500 6172 0
2500 6173 0
1600 6174 0
1800 6175 0
2400 6176 0
1600 6177 0
4400 6178 0
4400 6179 0
2500 6180 0
1600 6181 0
1600 6182 0
2400 6183 0
1600 6184 0
2400 6185 0
1800 6186 0
1600 6187 0
2500 6188 0
2500 6189 0
1600 6190 0
1800 6191 0
4400 6192 0
2500 6193 0
1800 6194 0
1600 6195 0
1800 6196 0
4400 6197 0
4400 6198 0
4400 6199 0
2400 6200 0
2500 6201 0
4400 6202 0
1800 6203 0
2500 6204 0
4400 6205 0
1800 6206 0
2500 6207 0
2500 6208 0
1600 6209 0
1800 6210 0
1600 6211 0
4400 6212 0
2500 6213 0
1800 6214 0
1800 6215 0
2400 6216 0
4400 6217 0
2500 6218 0
4400 6219 0
2400 6220 0
2400 6221 0
1800 6222 0
2400 6223 0
4400 6224 0
2500 6225 0
1600 6226 0
4400 6227 0
2400 6228 0
2400 6229 0
1800 6230 0
1800 6231 0
1800 6232 0
4400 6233 0
1600 6234 0
1800 6235 0
2500 6236 0
2500 6237 0
1800 6238 0
1800 6239 0
1600 6240 0
1600 6241 0
4400 6242 0
4400 6243 0
2500 6244 0
1600 6245 0
4400 6246 0
4400 6247 0
1800 6248 0
1600 6249 0
4400 6250 0
1800 6251 0
2500 6252 0
2400 6253 0
1600 6254 0
2500 6255 0
2500 6256 0
1600 6257 0
2400 6258 0
1800 6259 0
2500 6260 0
2500 6261 0
2400 6262 0
1800 6263 0
2500 6264 0
2400 6265 0
1600 6266 0
2400 6267 0
2400 6268 0
4400 6269 0
2500 6270 0
1800 6271 0
1600 6272 0
4400 6273 0
2400 6274 0
1600 6275 0
1800 6276 0
1600 6277 0
1600 6278 0
2500 6279 0
1800 6280 0
2400 6281 0
2500 6282 0
2500 6283 0
2400 6284 0
4400 6285 0
1800 6286 0
1600 6287 0
4400 6288 0
1800 6289 0
1800 6290 0
1600 6291 0
4400 6292 0
4400 6293 0
4400 6294 0
1600 6295 0
1600 6296 0
1800 6297 0
4400 6298 0
2400 6299 0
1800 6300 0
2400 6301 0
1800 6302 0
2400 6303 0
1600 6304 0
1800 6305 0
1800 6306 0
2500 6307 0
2400 6308 0
1800 6309 0
1800 6310 0
1600 6311 0
2400 6312 0
4400 6313 0
2400 6314 0
4400 6315 0
1800 6316 0
2400 6317 0
2400 6318 0
2400 6319 0
2400 6320 0
2400 6321 0
2500 6322 0
2500 6323 0
1800 6324 0
4400 6325 0
2400 6326 0
1600 6327 0
1800 6328 0
1800 6329 0
2400 6330 0
2400 6331 0
4400 6332 0
2500 6333 0
1800 6334 0
1800 6335 0
2400 6336 0
1800 6337 0
1600 6338 0
4400 6339 0
2400 6340 0
4400 6341 0
1800 6342 0
2500 6343 0
2500 6344 0
1600 6345 0
1600 6346 0
2400 6347 0
1600 6348 0
1800 6349 0
2400 6350 0
2500 6351 0
4400 6352 0
4400 6353 0
1800 6354 0
1800 6355 0
1600 6356 0
1800 6357 0
4400 6358 0
2400 6359 0
4400 6360 0
1600 6361 0
1800 6362 0
2500 6363 0
1600 6364 0
2500 6365 0
2400 6366 0
4400 6367 0
2500 6368 0
1800 6369 0
2500 6370 0
1600 6371 0
4400 6372 0
2400 6373 0
1600 6374 0
1800 6375 0
2500 6376 0
1800 6377 0
2500 6378 0
4400 6379 0
2400 6380 0
4400 6381 0
4400 6382 0
2400 6383 0
1800 6384 0
2400 6385 0
2500 6386 0
2500 6387 0
4400 6388 0
1600 6389 0
2500 6390 0
4400 6391 0
1600 6392 0
2400 6393 0
1600 6394 0
1800 6395 0
4400 6396 0
4400 6397 0
4400 6398 0
2500 6399 0
1800 6400 0
1600 6401 0
2400 6402 0
1600 6403 0
1800 6404 0
1600 6405 0
1800 6406 0
2500 6407 0
1800 6408 0
1800 6409 0
1800 6410 0
1800 6411 0
1600 6412 0
4400 6413 0
2500 6414 0
2400 6415 0
1600 6416 0
1600 6417 0
1600 6418 0
1800 6419 0
2400 6420 0
1600 6421 0
1600 6422 0
2400 6423 0
4400 6424 0
4400 6425 0
2500 6426 0
2400 6427 0
2400 6428 0
1800 6429 0
1600 6430 0
4400 6431 0
1800 6432 0
2500 6433 0
4400 6434 0
1600 6435 0
2500 6436 0
2500 6437 0
1600 6438 0
1800 6439 0
1600 6440 0
2400 6441 0
4400 6442 0
1600 6443 0
4400 6444 0
2400 6445 0
2400 6446 0
2400 6447 0
1600 6448 0
1800 6449 0
4400 6450 0
1600 6451 0
2500 6452 0
1800 6453 0
4400 6454 0
1800 6455 0
1600 6456 0
4400 6457 0
1600 6458 0
2400 6459 0
2500 6460 0
2500 6461 0
2400 6462 0
1800 6463 0
1800 6464 0
1600 6465 0
2500 6466 0
1800 6467 0
1600 6468 0
2400 6469 0
1600 6470 0
2400 6471 0
2500 6472 0
2500 6473 0
1800 6474 0
1600 6475 0
2500 6476 0
4400 6477 0
1800 6478 0
4400 6479 0
1600 6480 0
4400 6481 0
1600 6482 0
1800 6483 0
1600 6484 0
2500 6485 0
1800 6486 0
4400 6487 0
4400 6488 0
2500 6489 0
1800 6490 0
2400 6491 0
4400 6492 0
2500 6493 0
2400 6494 0
1800 6495 0
1600 6496 0
2400 6497 0
1800 6498 0
2400 6499 0
2500 6500 0
1800 6501 0
1800 6502 0
1600 6503 0
1800 6504 0
2500 6505 0
1800 6506 0
1800 6507 0
4400 6508 0
2500 6509 0
4400 6510 0
2400 6511 0
2400 6512 0
2500 6513 0
4400 6514 0
2400 6515 0
4400 6516 0
1800 6517 0
1800 6518 0
1800 6519 0
1800 6520 0
1800 6521 0
2500 6522 0
4400 6523 0
4400 6524 0
1800 6525 0
2400 6526 0
2500 6527 0
2400 6528 0
4400 6529 0
1800 6530 0
1800 6531 0
1600 6532 0
1600 6533 0
1800 6534 0
2400 6535 0
2500 6536 0
2400 6537 0
2400 6538 0
4400 6539 0
2400 6540 0
2400 6541 0
4400 6542 0
4400 6543 0
4400 6544 0
4400 6545 0
4400 6546 0
2500 6547 0
1600 6548 0
1600 6549 0
2500 6550 0
2500 6551 0
2400 6552 0
2500 6553 0
1600 6554 0
1800 6555 0
1800 6556 0
1800 6557 0
2400 6558 0
1600 6559 0
4400 6560 0
4400 6561 0
1800 6562 0
2400 6563 0
1800 6564 0
2500 6565 0
2500 6566 0
2400 6567 0
2400 6568 0
2400 6569 0
2400 6570 0
1800 6571 0
2400 6572 0
2400 6573 0
2400 6574 0
2500 6575 0
1600 6576 0
2500 6577 0
2500 6578 0
2500 6579 0
1600 6580 0
1600 6581 0
2500 6582 0
2400 6583 0
2500 6584 0
2500 6585 0
4400 6586 0
4400 6587 0
2500 6588 0
1600 6589 0
2500 6590 0
1800 6591 0
2500 6592 0
2500 6593 0
1800 6594 0
2500 6595 0
2500 6596 0
2500 6597 0
4400 6598 0
2400 6599 0
4400 6600 0
2400 6601 0
2400 6602 0
1800 6603 0
2500 6604 0
2500 6605 0
2400 6606 0
1800 6607 0
4400 6608 0
1800 6609 0
1800 6610 0
2400 6611 0
4400 6612 0
4400 6613 0
2400 6614 0
4400 6615 0
4400 6616 0
2500 6617 0
2500 6618 0
4400 6619 0
2500 6620 0
4400 6621 0
2400 6622 0
2400 6623 0
1800 6624 0
2400 6625 0
4400 6626 0
2500 6627 0
2500 6628 0
2400 6629 0
4400 6630 0
1600 6631 0
1800 6632 0
4400 6633 0
2400 6634 0
1600 6635 0
2500 6636 0
2400 6637 0
1800 6638 0
1600 6639 0
1600 6640 0
2400 6641 0
4400 6642 0
2400 6643 0
1600 6644 0
2500 6645 0
1800 6646 0
2500 6647 0
1600 6648 0
2500 6649 0
4400 6650 0
2400 6651 0
1600 6652 0
1800 6653 0
1800 6654 0
4400 6655 0
2500 6656 0
2500 6657 0
1800 6658 0
1600 6659 0
2500 6660 0
1600 6661 0
1800 6662 0
1600 6663 0
4400 6664 0
1800 6665 0
1600 6666 0
2400 6667 0
4400 6668 0
1600 6669 0
1800 6670 0
1600 6671 0
2400 6672 0
2500 6673 0
1600 6674 0
1800 6675 0
2400 6676 0
2500 6677 0
1600 6678 0
2500 6679 0
1600 6680 0
1600 6681 0
4400 6682 0
2500 6683 0
2500 6684 0
2400 6685 0
1600 6686 0
1600 6687 0
4400 6688 0
2500 6689 0
2400 6690 0
2500 6691 0
1800 6692 0
2400 6693 0
1800 6694 0
2400 6695 0
4400 6696 0
1600 6697 0
2500 6698 0
2400 6699 0
1600 6700 0
1600 6701 0
1800 6702 0
4400 6703 0
4400 6704 0
1800 6705 0
1600 6706 0
1800 6707 0
1600 6708 0
4400 6709 0
1600 6710 0
1600 6711 0
4400 6712 0
1800 6713 0
2400 6714 0
1600 6715 0
2500 6716 0
2500 6717 0
1800 6718 0
1600 6719 0
1600 6720 0
2400 6721 0
2400 6722 0
2500 6723 0
2500 6724 0
2500 6725 0
2500 6726 0
1600 6727 0
2500 6728 0
2400 6729 0
1600 6730 0
4400 6731 0
1800 6732 0
2400 6733 0
1800 6734 0
4400 6735 0
4400 6736 0
2500 6737 0
2500 6738 0
4400 6739 0
1600 6740 0
1600 6741 0
2400 6742 0
1800 6743 0
1600 6744 0
1600 6745 0
4400 6746 0
1800 6747 0
4400 6748 0
1800 6749 0
4400 6750 0
4400 6751 0
2500 6752 0
2500 6753 0
1600 6754 0
2500 6755 0
1600 6756 0
1600 6757 0
1800 6758 0
1600 6759 0
1600 6760 0
1600 6761 0
2500 6762 0
2500 6763 0
2400 6764 0
4400 6765 0
1800 6766 0
2400 6767 0
1600 6768 0
1600 6769 0
2400 6770 0
1800 6771 0
1600 6772 0
1600 6773 0
2500 6774 0
4400 6775 0
1600 6776 0
4400 6777 0
4400 6778 0
4400 6779 0
1600 6780 0
1600 6781 0
4400 6782 0
2400 6783 0
4400 6784 0
2500 6785 0
1600 6786 0
1800 6787 0
1600 6788 0
4400 6789 0
1600 6790 0
4400 6791 0
1800 6792 0
1800 6793 0
1800 6794 0
2500 6795 0
2500 6796 0
4400 6797 0
2500 6798 0
2400 6799 0
1800 6800 0
1800 6801 0
4400 6802 0
2500 6803 0
1800 6804 0
1600 6805 0
2500 6806 0
1600 6807 0
1800 6808 0
1800 6809 0
1600 6810 0
1800 6811 0
2500 6812 0
2400 6813 0
2400 6814 0
2400 6815 0
1800 6816 0
4400 6817 0
2500 6818 0
2500 6819 0
1800 6820 0
2500 6821 0
1800 6822 0
2400 6823 0
2500 6824 0
4400 6825 0
1800 6826 0
2500 6827 0
1600 6828 0
1600 6829 0
4400 6830 0
4400 6831 0
1600 6832 0
1800 6833 0
2500 6834 0
1600 6835 0
4400 6836 0
2500 6837 0
1800 6838 0
1600 6839 0
4400 6840 0
1600 6841 0
1800 6842 0
4400 6843 0
2500 6844 0
1600 6845 0
2500 6846 0
2400 6847 0
1800 6848 0
1600 6849 0
4400 6850 0
1800 6851 0
2400 6852 0
4400 6853 0
1800 6854 0
1800 6855 0
1600 6856 0
2400 6857 0
1600 6858 0
2500 6859 0
4400 6860 0
2400 6861 0
1800 6862 0
1800 6863 0
2500 6864 0
1800 6865 0
4400 6866 0
1600 6867 0
2400 6868 0
4400 6869 0
2500 6870 0
4400 6871 0
2500 6872 0
4400 6873 0
1800 6874 0
1800 6875 0
2500 6876 0
4400 6877 0
4400 6878 0
1600 6879 0
1600 6880 0
2400 6881 0
1800 6882 0
2500 6883 0
1800 6884 0
4400 6885 0
1800 6886 0
1600 6887 0
4400 6888 0
1800 6889 0
2400 6890 0
1600 6891 0
1600 6892 0
1800 6893 0
4400 6894 0
4400 6895 0
1600 6896 0
4400 6897 0
2400 6898 0
2500 6899 0
4400 6900 0
2400 6901 0
4400 6902 0
1600 6903 0
2400 6904 0
1600 6905 0
1800 6906 0
4400 6907 0
4400 6908 0
1600 6909 0
4400 6910 0
2500 6911 0
4400 6912 0
2400 6913 0
1800 6914 0
1600 6915 0
2400 6916 0
2400 6917 0
2400 6918 0
1800 6919 0
1600 6920 0
1600 6921 0
1800 6922 0
2500 6923 0
2400 6924 0
1600 6925 0
1800 6926 0
1800 6927 0
2400 6928 0
1800 6929 0
4400 6930 0
2400 6931 0
1600 6932 0
2400 6933 0
2500 6934 0
2400 6935 0
2400 6936 0
2500 6937 0
2400 6938 0
1800 6939 0
1600 6940 0
1600 6941 0
4400 6942 0
1600 6943 0
1600 6944 0
2500 6945 0
2400 6946 0
2400 6947 0
1800 6948 0
2400 6949 0
2500 6950 0
1800 6951 0
1800 6952 0
4400 6953 0
2400 6954 0
2500 6955 0
1600 6956 0
2500 6957 0
2500 6958 0
2500 6959 0
1800 6960 0
4400 6961 0
1800 6962 0
2500 6963 0
1600 6964 0
1800 6965 0
2500 6966 0
1600 6967 0
2400 6968 0
2400 6969 0
2500 6970 0
4400 6971 0
4400 6972 0
2500 6973 0
4400 6974 0
4400 6975 0
4400 6976 0
1800 6977 0
1600 6978 0
2500 6979 0
2400 6980 0
4400 6981 0
2500 6982 0
1800 6983 0
1800 6984 0
4400 6985 0
1600 6986 0
2400 6987 0
1600 6988 0
2400 6989 0
2400 6990 0
2500 6991 0
2400 6992 0
2400 6993 0
1800 6994 0
1600 6995 0
1600 6996 0
1800 6997 0
4400 6998 0
2500 6999 0
1600 7000 0
4400 7001 0
1800 7002 0
2500 7003 0
1800 7004 0
4400 7005 0
1600 7006 0
1600 7007 0
2400 7008 0
1800 7009 0
2400 7010 0
1800 7011 0
1600 7012 0
1800 7013 0
1800 7014 0
2500 7015 0
4400 7016 0
2500 7017 0
2500 7018 0
2400 7019 0
1800 7020 0
4400 7021 0
1600 7022 0
1800 7023 0
1800 7024 0
2500 7025 0
4400 7026 0
2400 7027 0
1600 7028 0
1600 7029 0
2500 7030 0
1600 7031 0
1800 7032 0
1800 7033 0
2500 7034 0
2400 7035 0
1800 7036 0
2400 7037 0
2400 7038 0
1600 7039 0
1800 7040 0
1600 7041 0
2500 7042 0
1800 7043 0
2500 7044 0
1600 7045 0
1600 7046 0
1600 7047 0
1800 7048 0
1600 7049 0
2500 7050 0
2400 7051 0
1800 7052 0
4400 7053 0
2500 7054 0
1800 7055 0
1600 7056 0
4400 7057 0
4400 7058 0
1800 7059 0
1600 7060 0
2500 7061 0
2500 7062 0
2400 7063 0
1600 7064 0
2400 7065 0
2500 7066 0
1600 7067 0
2400 7068 0
1800 7069 0
1800 7070 0
4400 7071 0
2500 7072 0
2500 7073 0
2400 7074 0
2400 7075 0
4400 7076 0
2400 7077 0
4400 7078 0
1600 7079 0
1800 7080 0
1600 7081 0
1600 7082 0
2400 7083 0
1800 7084 0
2400 7085 0
4400 7086 0
1800 7087 0
1800 7088 0
2400 7089 0
2500 7090 0
1600 7091 0
1800 7092 0
2400 7093 0
1600 7094 0
1600 7095 0
4400 7096 0
2400 7097 0
2500 7098 0
2500 7099 0
4400 7100 0
4400 7101 0
2400 7102 0
2500 7103 0
1600 7104 0
2400 7105 0
1800 7106 0
2400 7107 0
2500 7108 0
1600 7109 0
4400 7110 0
1600 7111 0
4400 7112 0
1800 7113 0
2400 7114 0
2500 7115 0
1800 7116 0
2400 7117 0
4400 7118 0
2500 7119 0
2500 7120 0
4400 7121 0
1600 7122 0
1600 7123 0
1600 7124 0
2500 7125 0
2400 7126 0
2400 7127 0
2400 7128 0
1800 7129 0
1800 7130 0
1600 7131 0
1600 7132 0
2400 7133 0
1600 7134 0
2400 7135 0
4400 7136 0
2400 7137 0
1800 7138 0
2400 7139 0
1600 7140 0
2400 7141 0
1600 7142 0
2400 7143 0
2500 7144 0
1800 7145 0
1800 7146 0
2400 7147 0
4400 7148 0
1600 7149 0
2400 7150 0
1800 7151 0
4400 7152 0
1600 7153 0
2500 7154 0
2500 7155 0
1600 7156 0
2400 7157 0
1800 7158 0
1600 7159 0
2400 7160 0
1600 7161 0
1600 7162 0
4400 7163 0
1800 7164 0
2500 7165 0
2500 7166 0
4400 7167 0
2500 7168 0
2500 7169 0
1800 7170 0
2400 7171 0
1600 7172 0
1800 7173 0
4400 7174 0
4400 7175 0
2500 7176 0
2500 7177 0
1800 7178 0
4400 7179 0
4400 7180 0
1600 7181 0
1800 7182 0
1600 7183 0
1800 7184 0
2400 7185 0
4400 7186 0
2500 7187 0
4400 7188 0
2400 7189 0
1800 7190 0
2400 7191 0
4400 7192 0
1600 7193 0
1800 7194 0
1600 7195 0
2400 7196 0
2500 7197 0
1800 7198 0
4400 7199 0
1600 7200 0
2400 7201 0
1800 7202 0
2500 7203 0
1800 7204 0
2500 7205 0
2400 7206 0
1600 7207 0
1800 7208 0
1800 7209 0
1600 7210 0
1800 7211 0
1800 7212 0
4400 7213 0
1800 7214 0
4400 7215 0
1800 7216 0
1600 7217 0
2400 7218 0
1800 7219 0
1600 7220 0
2400 7221 0
4400 7222 0
1600 7223 0
2500 7224 0
2400 7225 0
2400 7226 0
2500 7227 0
2400 7228 0
2400 7229 0
2500 7230 0
1600 7231 0
1800 7232 0
2400 7233 0
1600 7234 0
1600 7235 0
2500 7236 0
1600 7237 0
2500 7238 0
1600 7239 0
1800 7240 0
4400 7241 0
1600 7242 0
1600 7243 0
1600 7244 0
2500 7245 0
2400 7246 0
2500 7247 0
1800 7248 0
2500 7249 0
2400 7250 0
1800 7251 0
2400 7252 0
2400 7253 0
4400 7254 0
1800 7255 0
4400 7256 0
4400 7257 0
2400 7258 0
4400 7259 0
2500 7260 0
4400 7261 0
4400 7262 0
2400 7263 0
1600 7264 0
2500 7265 0
2400 7266 0
1600 7267 0
2500 7268 0
1800 7269 0
2500 7270 0
1800 7271 0
2500 7272 0
1600 7273 0
1800 7274 0
4400 7275 0
2500 7276 0
1800 7277 0
2400 7278 0
2500 7279 0
2500 7280 0
1600 7281 0
1600 7282 0
1600 7283 0
1800 7284 0
4400 7285 0
2500 7286 0
1800 7287 0
2500 7288 0
4400 7289 0
1600 7290 0
1800 7291 0
4400 7292 0
2400 7293 0
2400 7294 0
2500 7295 0
1800 7296 0
1800 7297 0
2500 7298 0
2500 7299 0
4400 7300 0
4400 7301 0
1600 7302 0
2500 7303 0
1600 7304 0
1800 7305 0
2400 7306 0
2400 7307 0
1600 7308 0
2500 7309 0
2500 7310 0
2400 7311 0
2400 7312 0
1600 7313 0
1600 7314 0
1800 7315 0
2400 7316 0
2500 7317 0
1800 7318 0
1600 7319 0
1600 7320 0
1800 7321 0
4400 7322 0
2400 7323 0
1800 7324 0
2500 7325 0
1800 7326 0
4400 7327 0
2400 7328 0
1600 7329 0
1600 7330 0
1600 7331 0
1600 7332 0
1800 7333 0
4400 7334 0
4400 7335 0
1600 7336 0
2500 7337 0
1600 7338 0
1800 7339 0
4400 7340 0
2400 7341 0
1600 7342 0
1600 7343 0
2500 7344 0
2500 7345 0
4400 7346 0
1800 7347 0
1600 7348 0
2400 7349 0
2400 7350 0
1600 7351 0
4400 7352 0
4400 7353 0
2500 7354 0
1800 7355 0
1600 7356 0
1600 7357 0
2500 7358 0
1600 7359 0
1800 7360 0
2400 7361 0
2400 7362 0
1800 7363 0
2400 7364 0
4400 7365 0
1600 7366 0
1800 7367 0
4400 7368 0
2500 7369 0
4400 7370 0
2500 7371 0
2500 7372 0
4400 7373 0
2500 7374 0
4400 7375 0
1600 7376 0
1600 7377 0
2500 7378 0
1600 7379 0
4400 7380 0
1800 7381 0
1800 7382 0
1800 7383 0
4400 7384 0
2500 7385 0
4400 7386 0
2500 7387 0
2500 7388 0
1600 7389 0
2400 7390 0
2400 7391 0
1600 7392 0
2500 7393 0
2500 7394 0
1600 7395 0
1800 7396 0
1800 7397 0
4400 7398 0
1600 7399 0
1600 7400 0
4400 7401 0
1800 7402 0
1800 7403 0
2400 7404 0
2400 7405 0
2400 7406 0
2500 7407 0
4400 7408 0
1800 7409 0
2500 7410 0
1600 7411 0
4400 7412 0
2500 7413 0
2500 7414 0
1600 7415 0
2500 7416 0
2500 7417 0
2400 7418 0
1600 7419 0
1600 7420 0
1600 7421 0
4400 7422 0
1600 7423 0
1800 7424 0
4400 7425 0
4400 7426 0
1800 7427 0
1600 7428 0
1800 7429 0
2500 7430 0
2400 7431 0
2400 7432 0
2500 7433 0
2400 7434 0
2500 7435 0
2500 7436 0
2400 7437 0
2500 7438 0
2400 7439 0
1600 7440 0
2400 7441 0
2400 7442 0
1600 7443 0
4400 7444 0
2400 7445 0
2500 7446 0
1800 7447 0
1600 7448 0
2400 7449 0
1600 7450 0
1600 7451 0
2500 7452 0
2500 7453 0
2400 7454 0
2400 7455 0
1600 7456 0
1600 7457 0
1600 7458 0
2500 7459 0
1600 7460 0
4400 7461 0
2400 7462 0
2400 7463 0
1800 7464 0
4400 7465 0
1600 7466 0
2500 7467 0
1800 7468 0
2500 7469 0
2500 7470 0
1600 7471 0
1600 7472 0
1600 7473 0
4400 7474 0
4400 7475 0
4400 7476 0
1800 7477 0
2500 7478 0
1600 7479 0
1600 7480 0
1600 7481 0
4400 7482 0
4400 7483 0
4400 7484 0
1600 7485 0
2400 7486 0
2500 7487 0
4400 7488 0
2500 7489 0
1600 7490 0
4400 7491 0
1800 7492 0
4400 7493 0
2500 7494 0
1800 7495 0
1600 7496 0
1600 7497 0
2500 7498 0
1600 7499 0
4400 7500 0
1800 7501 0
1600 7502 0
1600 7503 0
2500 7504 0
2400 7505 0
1800 7506 0
2400 7507 0
1600 7508 0
1800 7509 0
1600 7510 0
2400 7511 0
4400 7512 0
2400 7513 0
4400 7514 0
1800 7515 0
4400 7516 0
1600 7517 0
2400 7518 0
1800 7519 0
1600 7520 0
1600 7521 0
1800 7522 0
1600 7523 0
2400 7524 0
4400 7525 0
2400 7526 0
1800 7527 0
2500 7528 0
1600 7529 0
2400 7530 0
2400 7531 0
2400 7532 0
2400 7533 0
4400 7534 0
1600 7535 0
2500 7536 0
1600 7537 0
1600 7538 0
1800 7539 0
2400 7540 0
2400 7541 0
4400 7542 0
2500 7543 0
2500 7544 0
1800 7545 0
1800 7546 0
1800 7547 0
2400 7548 0
2400 7549 0
4400 7550 0
2500 7551 0
2500 7552 0
1800 7553 0
1600 7554 0
2500 7555 0
4400 7556 0
2400 7557 0
2500 7558 0
4400 7559 0
2400 7560 0
1600 7561 0
1800 7562 0
1800 7563 0
1800 7564 0
2500 7565 0
4400 7566 0
1800 7567 0
2400 7568 0
4400 7569 0
4400 7570 0
2500 7571 0
2500 7572 0
1600 7573 0
1600 7574 0
2500 7575 0
2500 7576 0
4400 7577 0
4400 7578 0
2500 7579 0
4400 7580 0
2500 7581 0
4400 7582 0
2500 7583 0
2400 7584 0
2500 7585 0
2400 7586 0
1800 7587 0
2400 7588 0
1800 7589 0
1600 7590 0
4400 7591 0
1600 7592 0
2500 7593 0
2400 7594 0
1800 7595 0
1800 7596 0
2400 7597 0
2500 7598 0
2400 7599 0
1600 7600 0
1600 7601 0
2500 7602 0
2400 7603 0
1600 7604 0
1800 7605 0
1800 7606 0
4400 7607 0
2400 7608 0
2500 7609 0
1800 7610 0
1800 7611 0
1600 7612 0
1800 7613 0
2400 7614 0
2400 7615 0
4400 7616 0
1600 7617 0
2400 7618 0
2400 7619 0
1600 7620 0
1600 7621 0
1600 7622 0
1600 7623 0
4400 7624 0
1800 7625 0
2500 7626 0
1600 7627 0
2400 7628 0
2500 7629 0
4400 7630 0
2500 7631 0
2500 7632 0
1800 7633 0
1800 7634 0
1600 7635 0
2400 7636 0
1600 7637 0
2500 7638 0
1600 7639 0
2500 7640 0
2400 7641 0
4400 7642 0
2500 7643 0
4400 7644 0
1800 7645 0
1600 7646 0
1600 7647 0
4400 7648 0
1800 7649 0
1800 7650 0
1800 7651 0
2500 7652 0
1800 7653 0
4400 7654 0
4400 7655 0
2400 7656 0
1600 7657 0
1600 7658 0
2400 7659 0
4400 7660 0
4400 7661 0
4400 7662 0
1600 7663 0
1800 7664 0
1600 7665 0
2400 7666 0
1800 7667 0
2500 7668 0
2500 7669 0
4400 7670 0
1800 7671 0
1600 7672 0
2400 7673 0
4400 7674 0
4400 7675 0
1800 7676 0
2400 7677 0
2500 7678 0
4400 7679 0
4400 7680 0
1885 3698 -3462 0
5655 -3698 3462 0
7257 -3698 -3462 0
380 2614 3211 -1292 0
8550 2614 -3211 1292 0
8759 2614 -3211 -1292 0
2280 -2614 3211 1292 0
2614 -2614 3211 -1292 0
9804 -2614 -3211 1292 0
9988 -2614 -3211 -1292 0
17100 3544 2028 2475 -3333 0
8550 3544 2028 -2475 3333 0
17955 3544 2028 -2475 -3333 0
4750 3544 -2028 2475 3333 0
17575 3544 -2028 2475 -3333 0
11162 3544 -2028 -2475 3333 0
18216 3544 -2028 -2475 -3333 0
1900 -3544 2028 2475 3333 0
17290 -3544 2028 2475 -3333 0
9595 -3544 2028 -2475 3333 0
18059 -3544 2028 -2475 -3333 0
6175 -3544 -2028 2475 3333 0
17718 -3544 -2028 2475 -3333 0
11946 -3544 -2028 -2475 3333 0
18295 -3544 -2028 -2475 -3333 0
14250 1734 -1922 0
3800 -1734 1922 0
15200 -1734 -1922 0
40755 2932 -2661 0
34320 -2932 2661 0
42471 -2932 -2661 0
24505 2460 3032 1383 -2051 0
3770 2460 3032 -1383 2051 0
25825 2460 3032 -1383 -2051 0
28275 2460 -3032 1383 2051 0
34401 2460 -3032 1383 -2051 0
29218 2460 -3032 -1383 2051 0
34731 2460 -3032 -1383 -2051 0
28275 -2460 3032 1383 2051 0
34401 -2460 3032 1383 -2051 0
29218 -2460 3032 -1383 2051 0
34731 -2460 3032 -1383 -2051 0
35344 -2460 -3032 1383 2051 0
36875 -2460 -3032 1383 -2051 0
35579 -2460 -3032 -1383 2051 0
36958 -2460 -3032 -1383 -2051 0
4280 -3927 0
5270 3405 -3343 0
3720 -3405 3343 0
5828 -3405 -3343 0
10165 3820 1418 -1509 0
9095 3820 -1418 1509 0
10620 3820 -1418 -1509 0
7490 -3820 1418 1509 0
10539 -3820 1418 -1509 0
10219 -3820 -1418 1509 0
10676 -3820 -1418 -1509 0
5270 2829 2865 1835 -3307 0
930 2829 2865 -1835 3307 0
5410 2829 2865 -1835 -3307 0
3410 2829 -2865 1835 3307 0
5781 2829 -2865 1835 -3307 0
3829 2829 -2865 -1835 3307 0
5844 2829 -2865 -1835 -3307 0
4960 -2829 2865 1835 3307 0
6014 -2829 2865 1835 -3307 0
5146 -2829 2865 -1835 3307 0
6042 -2829 2865 -1835 -3307 0
5642 -2829 -2865 1835 3307 0
6116 -2829 -2865 1835 -3307 0
5726 -2829 -2865 -1835 3307 0
6129 -2829 -2865 -1835 -3307 0
16302 3894 -3097 0
34320 -3894 3097 0
37580 -3894 -3097 0
620 -3668 0
24505 -1630 0
950 2674 2147 3363 -2188 0
17100 2674 2147 -3363 2188 0
17195 2674 2147 -3363 -2188 0
3800 2674 -2147 3363 2188 0
4560 2674 -2147 3363 -2188 0
17480 2674 -2147 -3363 2188 0
17556 2674 -2147 -3363 -2188 0
18050 -2674 2147 3363 2188 0
18097 -2674 2147 3363 -2188 0
18905 -2674 2147 -3363 2188 0
18910 -2674 2147 -3363 -2188 0
18240 -2674 -2147 3363 2188 0
18278 -2674 -2147 3363 -2188 0
18924 -2674 -2147 -3363 2188 0
18928 -2674 -2147 -3363 -2188 0
38610 -2655 0
2356 2155 -3836 0
5270 -2155 3836 0
5623 -2155 -3836 0
15200 2449 3585 -2979 0
7600 2449 -3585 2979 0
16720 2449 -3585 -2979 0
1900 -2449 3585 2979 0
15580 -2449 3585 -2979 0
8740 -2449 -3585 2979 0
16948 -2449 -3585 -2979 0
4650 3435 2622 -2321 0
1860 3435 -2622 2321 0
5115 3435 -2622 -2321 0
5890 -3435 2622 2321 0
6123 -3435 2622 -2321 0
5983 -3435 -2622 2321 0
6146 -3435 -2622 -2321 0
30160 3464 -1324 0
13195 -3464 1324 0
32799 -3464 -1324 0
6955 2977 2592 1984 2121 3763 -2254 0
3424 2977 2592 1984 2121 -3763 2254 0
8153 2977 2592 1984 2121 -3763 -2254 0
3424 2977 2592 1984 -2121 3763 2254 0
8153 2977 2592 1984 -2121 3763 -2254 0
5752 2977 2592 1984 -2121 -3763 2254 0
8968 2977 2592 1984 -2121 -3763 -2254 0
6420 2977 2592 -1984 2121 3763 2254 0
9202 2977 2592 -1984 2121 3763 -2254 0
7790 2977 2592 -1984 2121 -3763 2254 0
9681 2977 2592 -1984 2121 -3763 -2254 0
7790 2977 2592 -1984 -2121 3763 2254 0
9681 2977 2592 -1984 -2121 3763 -2254 0
8721 2977 2592 -1984 -2121 -3763 2254 0
10007 2977 2592 -1984 -2121 -3763 -2254 0
1070 2977 -2592 1984 2121 3763 2254 0
7330 2977 -2592 1984 2121 3763 -2254 0
4152 2977 -2592 1984 2121 -3763 2254 0
8408 2977 -2592 1984 2121 -3763 -2254 0
4152 2977 -2592 1984 -2121 3763 2254 0
8408 2977 -2592 1984 -2121 3763 -2254 0
6247 2977 -2592 1984 -2121 -3763 2254 0
9141 2977 -2592 1984 -2121 -3763 -2254 0
6848 2977 -2592 -1984 2121 3763 2254 0
9352 2977 -2592 -1984 2121 3763 -2254 0
8081 2977 -2592 -1984 2121 -3763 2254 0
9783 2977 -2592 -1984 2121 -3763 -2254 0
8081 2977 -2592 -1984 -2121 3763 2254 0
9783 2977 -2592 -1984 -2121 3763 -2254 0
8919 2977 -2592 -1984 -2121 -3763 2254 0
10077 2977 -2592 -1984 -2121 -3763 -2254 0
4066 -2977 2592 1984 2121 3763 2254 0
8378 -2977 2592 1984 2121 3763 -2254 0
6189 -2977 2592 1984 2121 -3763 2254 0
9121 -2977 2592 1984 2121 -3763 -2254 0
6189 -2977 2592 1984 -2121 3763 2254 0
9121 -2977 2592 1984 -2121 3763 -2254 0
7632 -2977 2592 1984 -2121 -3763 2254 0
9626 -2977 2592 1984 -2121 -3763 -2254 0
8046 -2977 2592 -1984 2121 3763 2254 0
9771 -2977 2592 -1984 2121 3763 -2254 0
8896 -2977 2592 -1984 2121 -3763 2254 0
10068 -2977 2592 -1984 2121 -3763 -2254 0
8896 -2977 2592 -1984 -2121 3763 2254 0
10068 -2977 2592 -1984 -2121 3763 -2254 0
9473 -2977 2592 -1984 -2121 -3763 2254 0
10271 -2977 2592 -1984 -2121 -3763 -2254 0
4729 -2977 -2592 1984 2121 3763 2254 0
8610 -2977 -2592 1984 2121 3763 -2254 0
6640 -2977 -2592 1984 2121 -3763 2254 0
9279 -2977 -2592 1984 2121 -3763 -2254 0
6640 -2977 -2592 1984 -2121 3763 2254 0
9279 -2977 -2592 1984 -2121 3763 -2254 0
7939 -2977 -2592 1984 -2121 -3763 2254 0
9734 -2977 -2592 1984 -2121 -3763 -2254 0
8312 -2977 -2592 -1984 2121 3763 2254 0
9864 -2977 -2592 -1984 2121 3763 -2254 0
9076 -2977 -2592 -1984 2121 -3763 2254 0
10132 -2977 -2592 -1984 2121 -3763 -2254 0
9076 -2977 -2592 -1984 -2121 3763 2254 0
10132 -2977 -2592 -1984 -2121 3763 -2254 0
9596 -2977 -2592 -1984 -2121 -3763 2254 0
10313 -2977 -2592 -1984 -2121 -3763 -2254 0
30160 2810 -2403 0
30160 -2810 2403 0
36192 -2810 -2403 0
35815 3015 -3081 0
22620 -3015 3081 0
36946 -3015 -3081 0
5148 -3538 0
930 2195 1505 -1273 0
5270 2195 -1505 1273 0
5410 2195 -1505 -1273 0
4960 -2195 1505 1273 0
5146 -2195 1505 -1273 0
6014 -2195 -1505 1273 0
6042 -2195 -1505 -1273 0
5890 2734 2306 3020 1354 -1634 0
2170 2734 2306 3020 -1354 1634 0
5998 2734 2306 3020 -1354 -1634 0
930 2734 2306 -3020 1354 1634 0
5937 2734 2306 -3020 1354 -1634 0
2775 2734 2306 -3020 -1354 1634 0
6029 2734 2306 -3020 -1354 -1634 0
2356 2734 -2306 3020 1354 1634 0
6008 2734 -2306 3020 1354 -1634 0
3701 2734 -2306 3020 -1354 1634 0
6075 2734 -2306 3020 -1354 -1634 0
2933 2734 -2306 -3020 1354 1634 0
6037 2734 -2306 -3020 1354 -1634 0
4076 2734 -2306 -3020 -1354 1634 0
6094 2734 -2306 -3020 -1354 -1634 0
4960 -2734 2306 3020 1354 1634 0
6138 -2734 2306 3020 1354 -1634 0
5394 -2734 2306 3020 -1354 1634 0
6160 -2734 2306 3020 -1354 -1634 0
5146 -2734 2306 -3020 1354 1634 0
6147 -2734 2306 -3020 1354 -1634 0
5515 -2734 2306 -3020 -1354 1634 0
6166 -2734 2306 -3020 -1354 -1634 0
5431 -2734 -2306 3020 1354 1634 0
6162 -2734 -2306 3020 1354 -1634 0
5700 -2734 -2306 3020 -1354 1634 0
6175 -2734 -2306 3020 -1354 -1634 0
5547 -2734 -2306 -3020 1354 1634 0
6167 -2734 -2306 -3020 1354 -1634 0
5775 -2734 -2306 -3020 -1354 1634 0
6179 -2734 -2306 -3020 -1354 -1634 0
2170 2304 1615 2363 2645 -1263 0
5890 2304 1615 2363 -2645 1263 0
5998 2304 1615 2363 -2645 -1263 0
5580 2304 1615 -2363 2645 1263 0
5797 2304 1615 -2363 2645 -1263 0
6169 2304 1615 -2363 -2645 1263 0
6180 2304 1615 -2363 -2645 -1263 0
1860 2304 -1615 2363 2645 1263 0
3379 2304 -1615 2363 2645 -1263 0
5983 2304 -1615 2363 -2645 1263 0
6059 2304 -1615 2363 -2645 -1263 0
5766 2304 -1615 -2363 2645 1263 0
5918 2304 -1615 -2363 2645 -1263 0
6178 2304 -1615 -2363 -2645 1263 0
6186 2304 -1615 -2363 -2645 -1263 0
5580 -2304 1615 2363 2645 1263 0
5797 -2304 1615 2363 2645 -1263 0
6169 -2304 1615 2363 -2645 1263 0
6180 -2304 1615 2363 -2645 -1263 0
6138 -2304 1615 -2363 2645 1263 0
6160 -2304 1615 -2363 2645 -1263 0
6197 -2304 1615 -2363 -2645 1263 0
6198 -2304 1615 -2363 -2645 -1263 0
5766 -2304 -1615 2363 2645 1263 0
5918 -2304 -1615 2363 2645 -1263 0
6178 -2304 -1615 2363 -2645 1263 0
6186 -2304 -1615 2363 -2645 -1263 0
6157 -2304 -1615 -2363 2645 1263 0
6172 -2304 -1615 -2363 2645 -1263 0
6198 -2304 -1615 -2363 -2645 1263 0
6199 -2304 -1615 -2363 -2645 -1263 0
20735 3245 -3134 0
9425 -3245 3134 0
24976 -3245 -3134 0
6420 2118 -2687 0
9095 -2118 2687 0
10058 -2118 -2687 0
1926 3415 4048 -3454 0
9630 3415 -4048 3454 0
9823 3415 -4048 -3454 0
3745 -3415 4048 3454 0
4997 -3415 4048 -3454 0
10005 -3415 -4048 3454 0
10130 -3415 -4048 -3454 0
6435 -3259 0
10450 -3837 0
1240 -1905 0
33930 1278 2064 -2375 0
26390 1278 -2064 2375 0
36569 1278 -2064 -2375 0
24505 -1278 2064 2375 0
36381 -1278 2064 -2375 0
33742 -1278 -2064 2375 0
37304 -1278 -2064 -2375 0
1885 4022 -2020 0
14326 -4022 2020 0
15495 -4022 -2020 0
40755 2931 3971 -2817 0
30030 2931 -3971 2817 0
42256 2931 -3971 -2817 0
858 -2931 3971 2817 0
40798 -2931 3971 -2817 0
30287 -2931 -3971 2817 0
42269 -2931 -3971 -2817 0
2675 1889 -3509 0
3745 -1889 3509 0
5484 -1889 -3509 0
1900 3016 -3687 0
5700 -3016 3687 0
7030 -3016 -3687 0
4960 2615 -1485 0
744 -2615 1485 0
5109 -2615 -1485 0
6435 -2247 0
2145 1504 2420 -3138 0
40755 1504 -2420 3138 0
40862 1504 -2420 -3138 0
34320 -1504 2420 3138 0
34749 -1504 2420 -3138 0
42471 -1504 -2420 3138 0
42492 -1504 -2420 -3138 0
1926 1442 2697 -1582 0
535 1442 -2697 1582 0
2365 1442 -2697 -1582 0
7490 -1442 2697 1582 0
8068 -1442 2697 -1582 0
7650 -1442 -2697 1582 0
8199 -1442 -2697 -1582 0
4750 1414 2210 1487 -1807 0
16150 1414 2210 -1487 1807 0
16862 1414 2210 -1487 -1807 0
2280 1414 -2210 1487 1807 0
6460 1414 -2210 1487 -1807 0
16492 1414 -2210 -1487 1807 0
17119 1414 -2210 -1487 -1807 0
1900 -1414 2210 1487 1807 0
6175 -1414 2210 1487 -1807 0
16435 -1414 2210 -1487 1807 0
17076 -1414 2210 -1487 -1807 0
3952 -1414 -2210 1487 1807 0
7714 -1414 -2210 1487 -1807 0
16743 -1414 -2210 -1487 1807 0
17307 -1414 -2210 -1487 -1807 0
2850 -1930 0
3800 -3850 0
1605 1990 3317 3683 -1742 0
2675 1990 3317 -3683 1742 0
3879 1990 3317 -3683 -1742 0
3210 1990 -3317 3683 1742 0
4334 1990 -3317 3683 -1742 0
5083 1990 -3317 -3683 1742 0
5925 1990 -3317 -3683 -1742 0
1070 -1990 3317 3683 1742 0
2514 -1990 3317 3683 -1742 0
3477 -1990 3317 -3683 1742 0
4561 -1990 3317 -3683 -1742 0
3959 -1990 -3317 3683 1742 0
4970 -1990 -3317 3683 -1742 0
5644 -1990 -3317 -3683 1742 0
6403 -1990 -3317 -3683 -1742 0
3210 -2032 0
30160 3693 -3348 0
28275 -3693 3348 0
35815 -3693 -3348 0
14326 -3253 0
9095 3930 -3440 0
214 -3930 3440 0
9127 -3930 -3440 0
21450 -3843 0
34320 3985 -4004 0
858 -3985 4004 0
34492 -3985 -4004 0
19305 -1506 0
12350 2759 4043 -3367 0
11400 2759 -4043 3367 0
16340 2759 -4043 -3367 0
8550 -2759 4043 3367 0
15343 -2759 4043 -3367 0
14820 -2759 -4043 3367 0
17537 -2759 -4043 -3367 0
16965 2365 1899 -2426 0
3770 2365 -1899 2426 0
19038 2365 -1899 -2426 0
33930 -2365 1899 2426 0
35627 -2365 1899 -2426 0
34307 -2365 -1899 2426 0
35834 -2365 -1899 -2426 0
16965 2525 -1849 0
15080 -2525 1849 0
25259 -2525 -1849 0
3420 2172 -2907 0
6080 -2172 2907 0
8406 -2172 -2907 0
2170 2165 -3494 0
5580 -2165 3494 0
5797 -2165 -3494 0
10725 3216 -1695 0
4290 -3216 1695 0
13942 -3216 -1695 0
33930 -1564 0
4030 3648 2344 -3416 0
620 3648 -2344 3416 0
4247 3648 -2344 -3416 0
1240 -3648 2344 3416 0
4464 -3648 2344 -3416 0
1736 -3648 -2344 3416 0
4638 -3648 -2344 -3416 0
535 3352 1425 3682 3595 2874 -1748 0
6420 3352 1425 3682 3595 -2874 1748 0
6634 3352 1425 3682 3595 -2874 -1748 0
7490 3352 1425 3682 -3595 2874 1748 0
7650 3352 1425 3682 -3595 2874 -1748 0
9416 3352 1425 3682 -3595 -2874 1748 0
9480 3352 1425 3682 -3595 -2874 -1748 0
8560 3352 1425 -3682 3595 2874 1748 0
8667 3352 1425 -3682 3595 2874 -1748 0
9844 3352 1425 -3682 3595 -2874 1748 0
9887 3352 1425 -3682 3595 -2874 -1748 0
10058 3352 1425 -3682 -3595 2874 1748 0
10090 3352 1425 -3682 -3595 2874 -1748 0
10443 3352 1425 -3682 -3595 -2874 1748 0
10456 3352 1425 -3682 -3595 -2874 -1748 0
8560 3352 -1425 3682 3595 2874 1748 0
8667 3352 -1425 3682 3595 2874 -1748 0
9844 3352 -1425 3682 3595 -2874 1748 0
9887 3352 -1425 3682 3595 -2874 -1748 0
10058 3352 -1425 3682 -3595 2874 1748 0
10090 3352 -1425 3682 -3595 2874 -1748 0
10443 3352 -1425 3682 -3595 -2874 1748 0
10456 3352 -1425 3682 -3595 -2874 -1748 0
10272 3352 -1425 -3682 3595 2874 1748 0
10293 3352 -1425 -3682 3595 2874 -1748 0
10529 3352 -1425 -3682 3595 -2874 1748 0
10537 3352 -1425 -3682 3595 -2874 -1748 0
10572 3352 -1425 -3682 -3595 2874 1748 0
10578 3352 -1425 -3682 -3595 2874 -1748 0
10649 3352 -1425 -3682 -3595 -2874 1748 0
10651 3352 -1425 -3682 -3595 -2874 -1748 0
9630 -3352 1425 3682 3595 2874 1748 0
9684 -3352 1425 3682 3595 2874 -1748 0
10272 -3352 1425 3682 3595 -2874 1748 0
10293 -3352 1425 3682 3595 -2874 -1748 0
10379 -3352 1425 3682 -3595 2874 1748 0
10395 -3352 1425 3682 -3595 2874 -1748 0
10572 -3352 1425 3682 -3595 -2874 1748 0
10578 -3352 1425 3682 -3595 -2874 -1748 0
10486 -3352 1425 -3682 3595 2874 1748 0
10497 -3352 1425 -3682 3595 2874 -1748 0
10614 -3352 1425 -3682 3595 -2874 1748 0
10619 -3352 1425 -3682 3595 -2874 -1748 0
10636 -3352 1425 -3682 -3595 2874 1748 0
10639 -3352 1425 -3682 -3595 2874 -1748 0
10674 -3352 1425 -3682 -3595 -2874 1748 0
10676 -3352 1425 -3682 -3595 -2874 -1748 0
10486 -3352 -1425 3682 3595 2874 1748 0
10497 -3352 -1425 3682 3595 2874 -1748 0
10614 -3352 -1425 3682 3595 -2874 1748 0
10619 -3352 -1425 3682 3595 -2874 -1748 0
10636 -3352 -1425 3682 -3595 2874 1748 0
10639 -3352 -1425 3682 -3595 2874 -1748 0
10674 -3352 -1425 3682 -3595 -2874 1748 0
10676 -3352 -1425 3682 -3595 -2874 -1748 0
10657 -3352 -1425 -3682 3595 2874 1748 0
10659 -3352 -1425 -3682 3595 2874 -1748 0
10683 -3352 -1425 -3682 3595 -2874 1748 0
10684 -3352 -1425 -3682 3595 -2874 -1748 0
10687 -3352 -1425 -3682 -3595 2874 1748 0
10688 -3352 -1425 -3682 -3595 2874 -1748 0
10695 -3352 -1425 -3682 -3595 -2874 1748 0
10695 -3352 -1425 -3682 -3595 -2874 -1748 0
15080 -2593 0
1984 2902 -1643 0
3100 -2902 1643 0
4092 -2902 -1643 0
8550 3727 1872 3587 -2025 0
2280 3727 1872 -3587 2025 0
9804 3727 1872 -3587 -2025 0
18050 3727 -1872 3587 2025 0
18477 3727 -1872 3587 -2025 0
18164 3727 -1872 -3587 2025 0
18540 3727 -1872 -3587 -2025 0
3420 -3727 1872 3587 2025 0
10431 -3727 1872 3587 -2025 0
5290 -3727 1872 -3587 2025 0
11459 -3727 1872 -3587 -2025 0
18221 -3727 -1872 3587 2025 0
18572 -3727 -1872 3587 -2025 0
18314 -3727 -1872 -3587 2025 0
18623 -3727 -1872 -3587 -2025 0
8025 3670 -3839 0
9095 -3670 3839 0
10299 -3670 -3839 0
2675 -1361 0
2850 3630 2914 2684 -2586 0
11400 3630 2914 -2684 2586 0
12540 3630 2914 -2684 -2586 0
8550 3630 -2914 2684 2586 0
10117 3630 -2914 2684 -2586 0
14820 3630 -2914 -2684 2586 0
15447 3630 -2914 -2684 -2586 0
12350 -3630 2914 2684 2586 0
13347 -3630 2914 2684 -2586 0
16340 -3630 2914 -2684 2586 0
16739 -3630 2914 -2684 -2586 0
15343 -3630 -2914 2684 2586 0
15891 -3630 -2914 2684 -2586 0
17537 -3630 -2914 -2684 2586 0
17756 -3630 -2914 -2684 -2586 0
7220 2969 1297 -3248 0
18050 2969 -1297 3248 0
18411 2969 -1297 -3248 0
2850 -2969 1297 3248 0
8987 -2969 1297 -3248 0
18193 -2969 -1297 3248 0
18499 -2969 -1297 -3248 0
5655 1401 -2119 0
26390 -1401 2119 0
28087 -1401 -2119 0
620 -1266 0
2790 1607 -3263 0
3410 -1607 3263 0
4665 -1607 -3263 0
4280 2974 -2221 0
6420 -2974 2221 0
8132 -2974 -2221 0
4524 3998 2714 -3505 0
18850 3998 -2714 3505 0
21112 3998 -2714 -3505 0
13195 -3998 2714 3505 0
16136 -3998 2714 -3505 0
25448 -3998 -2714 3505 0
26918 -3998 -2714 -3505 0
19305 -4017 0
5700 -1977 0
4280 3218 3734 -4044 0
2140 3218 -3734 4044 0
5564 3218 -3734 -4044 0
8025 -3218 3734 4044 0
9095 -3218 3734 -4044 0
8560 -3218 -3734 4044 0
9416 -3218 -3734 -4044 0
18050 2175 1906 -2923 0
950 2175 -1906 2923 0
18097 2175 -1906 -2923 0
380 -2175 1906 2923 0
18069 -2175 1906 -2923 0
1311 -2175 -1906 2923 0
18116 -2175 -1906 -2923 0
7600 1882 2455 -3966 0
1900 1882 -2455 3966 0
8740 1882 -2455 -3966 0
10450 -1882 2455 3966 0
13870 -1882 2455 -3966 0
11305 -1882 -2455 3966 0
14383 -1882 -2455 -3966 0
23595 -1898 0
950 1829 -2537 0
9500 -1829 2537 0
9975 -1829 -2537 0
9630 -2994 0
36465 3191 3854 2409 -3280 0
15015 3191 3854 -2409 3280 0
38717 3191 3854 -2409 -3280 0
16302 3191 -3854 2409 3280 0
38910 3191 -3854 2409 -3280 0
25611 3191 -3854 -2409 3280 0
40307 3191 -3854 -2409 -3280 0
34320 -3191 3854 2409 3280 0
41613 -3191 3854 2409 -3280 0
37323 -3191 3854 -2409 3280 0
42063 -3191 3854 -2409 -3280 0
37580 -3191 -3854 2409 3280 0
42102 -3191 -3854 2409 -3280 0
39442 -3191 -3854 -2409 3280 0
42381 -3191 -3854 -2409 -3280 0
4650 1783 -1861 0
4960 -1783 1861 0
5890 -1783 -1861 0
4750 -2710 0
6420 -2676 0
2790 3160 -3108 0
2790 -3160 3108 0
4324 -3160 -3108 0
8550 -1384 0
9095 2328 3401 3060 -3225 0
6420 2328 3401 -3060 3225 0
10058 2328 3401 -3060 -3225 0
8560 2328 -3401 3060 3225 0
10379 2328 -3401 3060 -3225 0
9844 2328 -3401 -3060 3225 0
10572 2328 -3401 -3060 -3225 0
8025 -2328 3401 3060 3225 0
10299 -2328 3401 3060 -3225 0
9630 -2328 3401 -3060 3225 0
10539 -2328 3401 -3060 -3225 0
10165 -2328 -3401 3060 3225 0
10620 -2328 -3401 3060 -3225 0
10486 -2328 -3401 -3060 3225 0
10668 -2328 -3401 -3060 -3225 0
22620 -1969 0
16965 1631 -3136 0
14326 -1631 3136 0
24844 -1631 -3136 0
13195 1760 3661 -2396 0
32045 1760 -3661 2396 0
34024 1760 -3661 -2396 0
33930 -1760 3661 2396 0
35250 -1760 3661 -2396 0
37134 -1760 -3661 2396 0
37332 -1760 -3661 -2396 0
620 3720 1628 -2510 0
744 3720 -1628 2510 0
1290 3720 -1628 -2510 0
3100 -3720 1628 2510 0
3410 -3720 1628 -2510 0
3472 -3720 -1628 2510 0
3745 -3720 -1628 -2510 0
1926 -1574 0
15200 1648 -1762 0
1900 -1648 1762 0
15580 -1648 -1762 0
214 3285 2464 2981 1260 -1798 0
1605 3285 2464 2981 -1260 1798 0
1787 3285 2464 2981 -1260 -1798 0
4280 3285 2464 -2981 1260 1798 0
4408 3285 2464 -2981 1260 -1798 0
5243 3285 2464 -2981 -1260 1798 0
5352 3285 2464 -2981 -1260 -1798 0
4815 3285 -2464 2981 1260 1798 0
4933 3285 -2464 2981 1260 -1798 0
5698 3285 -2464 2981 -1260 1798 0
5798 3285 -2464 2981 -1260 -1798 0
7169 3285 -2464 -2981 1260 1798 0
7240 3285 -2464 -2981 1260 -1798 0
7699 3285 -2464 -2981 -1260 1798 0
7759 3285 -2464 -2981 -1260 -1798 0
9095 -3285 2464 2981 1260 1798 0
9127 -3285 2464 2981 1260 -1798 0
9336 -3285 2464 2981 -1260 1798 0
9363 -3285 2464 2981 -1260 -1798 0
9737 -3285 2464 -2981 1260 1798 0
9756 -3285 2464 -2981 1260 -1798 0
9881 -3285 2464 -2981 -1260 1798 0
9898 -3285 2464 -2981 -1260 -1798 0
9817 -3285 -2464 2981 1260 1798 0
9835 -3285 -2464 2981 1260 -1798 0
9950 -3285 -2464 2981 -1260 1798 0
9965 -3285 -2464 2981 -1260 -1798 0
10170 -3285 -2464 -2981 1260 1798 0
10181 -3285 -2464 -2981 1260 -1798 0
10250 -3285 -2464 -2981 -1260 1798 0
10259 -3285 -2464 -2981 -1260 -1798 0
32175 3433 2505 -1552 0
858 3433 -2505 1552 0
32389 3433 -2505 -1552 0
32175 -3433 2505 1552 0
40219 -3433 2505 -1552 0
32389 -3433 -2505 1552 0
40272 -3433 -2505 -1552 0
4524 1286 -1786 0
24505 -1286 1786 0
26088 -1286 -1786 0
3100 3858 -1620 0
5270 -3858 1620 0
5735 -3858 -1620 0
36465 1871 1477 1892 -3785 0
30030 1871 1477 -1892 3785 0
40969 1871 1477 -1892 -3785 0
15015 1871 -1477 1892 3785 0
38717 1871 -1477 1892 -3785 0
34534 1871 -1477 -1892 3785 0
41645 1871 -1477 -1892 -3785 0
8580 -1871 1477 1892 3785 0
37752 -1871 1477 1892 -3785 0
32604 -1871 1477 -1892 3785 0
41356 -1871 1477 -1892 -3785 0
20592 -1871 -1477 1892 3785 0
39554 -1871 -1477 1892 -3785 0
36208 -1871 -1477 -1892 3785 0
41896 -1871 -1477 -1892 -3785 0
16965 1329 3536 -1982 0
22620 1329 -3536 1982 0
29406 1329 -3536 -1982 0
18850 -1329 3536 1982 0
27332 -1329 3536 -1982 0
30160 -1329 -3536 1982 0
33553 -1329 -3536 -1982 0
20735 2431 3991 -1350 0
4524 2431 -3991 1350 0
22771 2431 -3991 -1350 0
14326 -2431 3991 1350 0
27182 -2431 3991 -1350 0
17131 -2431 -3991 1350 0
28444 -2431 -3991 -1350 0
620 1622 1210 -1319 0
5270 1622 -1210 1319 0
5363 1622 -1210 -1319 0
5890 -1622 1210 1319 0
5921 -1622 1210 -1319 0
6153 -1622 -1210 1319 0
6158 -1622 -1210 -1319 0
6786 -3704 0
2140 2381 2423 3627 -2133 0
8560 2381 2423 -3627 2133 0
8988 2381 2423 -3627 -2133 0
4280 2381 -2423 3627 2133 0
5564 2381 -2423 3627 -2133 0
9416 2381 -2423 -3627 2133 0
9673 2381 -2423 -3627 -2133 0
9630 -2381 2423 3627 2133 0
9844 -2381 2423 3627 -2133 0
10486 -2381 2423 -3627 2133 0
10529 -2381 2423 -3627 -2133 0
10058 -2381 -2423 3627 2133 0
10186 -2381 -2423 3627 -2133 0
10572 -2381 -2423 -3627 2133 0
10597 -2381 -2423 -3627 -2133 0
4815 -1638 0
124 2294 -3009 0
1116 -2294 3009 0
1218 -2294 -3009 0
20735 2848 -2625 0
32045 -2848 2625 0
35155 -2848 -2625 0
7220 1691 -2698 0
4750 -1691 2698 0
10165 -1691 -2698 0
9500 -3608 0
24505 3572 1756 3483 1400 -3631 0
20735 3572 1756 3483 -1400 3631 0
31762 3572 1756 3483 -1400 -3631 0
22620 3572 1756 -3483 1400 3631 0
32422 3572 1756 -3483 1400 -3631 0
30914 3572 1756 -3483 -1400 3631 0
35325 3572 1756 -3483 -1400 -3631 0
18850 3572 -1756 3483 1400 3631 0
31102 3572 -1756 3483 1400 -3631 0
29218 3572 -1756 3483 -1400 3631 0
34731 3572 -1756 3483 -1400 -3631 0
30160 3572 -1756 -3483 1400 3631 0
35061 3572 -1756 -3483 1400 -3631 0
34307 3572 -1756 -3483 -1400 3631 0
36512 3572 -1756 -3483 -1400 -3631 0
24505 -3572 1756 3483 1400 3631 0
33082 -3572 1756 3483 1400 -3631 0
31762 -3572 1756 3483 -1400 3631 0
35622 -3572 1756 3483 -1400 -3631 0
32422 -3572 1756 -3483 1400 3631 0
35853 -3572 1756 -3483 1400 -3631 0
35325 -3572 1756 -3483 -1400 3631 0
36869 -3572 1756 -3483 -1400 -3631 0
31102 -3572 -1756 3483 1400 3631 0
35391 -3572 -1756 3483 1400 -3631 0
34731 -3572 -1756 3483 -1400 3631 0
36661 -3572 -1756 3483 -1400 -3631 0
35061 -3572 -1756 -3483 1400 3631 0
36776 -3572 -1756 -3483 1400 -3631 0
36512 -3572 -1756 -3483 -1400 3631 0
37284 -3572 -1756 -3483 -1400 -3631 0
8025 3281 -1538 0
7490 -3281 1538 0
9898 -3281 -1538 0
21450 3219 3549 -2104 0
36465 3219 -3549 2104 0
39683 3219 -3549 -2104 0
34320 -3219 3549 2104 0
38610 -3219 3549 -2104 0
41613 -3219 -3549 2104 0
42256 -3219 -3549 -2104 0
23595 2331 -1878 0
15015 -2331 1878 0
30352 -2331 -1878 0
4280 3944 2729 2609 -3822 0
1605 3944 2729 -2609 3822 0
5243 3944 2729 -2609 -3822 0
535 3944 -2729 2609 3822 0
4601 3944 -2729 2609 -3822 0
2060 3944 -2729 -2609 3822 0
5516 3944 -2729 -2609 -3822 0
6955 -3944 2729 2609 3822 0
8453 -3944 2729 2609 -3822 0
7517 -3944 2729 -2609 3822 0
8790 -3944 2729 -2609 -3822 0
7142 -3944 -2729 2609 3822 0
8565 -3944 -2729 2609 -3822 0
7676 -3944 -2729 -2609 3822 0
8886 -3944 -2729 -2609 -3822 0
858 1612 2965 -3174 0
858 1612 -2965 3174 0
1699 1612 -2965 -3174 0
10725 -1612 2965 3174 0
11369 -1612 2965 -3174 0
11369 -1612 -2965 3174 0
11999 -1612 -2965 -3174 0
21450 2004 3712 -3579 0
19305 2004 -3712 3579 0
31102 2004 -3712 -3579 0
36465 -2004 3712 3579 0
39683 -2004 3712 -3579 0
39361 -2004 -3712 3579 0
41130 -2004 -3712 -3579 0
11400 3556 -1625 0
8550 -3556 1625 0
14820 -3556 -1625 0
36465 -3865 0
5890 2833 2841 3143 -1978 0
124 2833 2841 -3143 1978 0
5896 2833 2841 -3143 -1978 0
3410 2833 -2841 3143 1978 0
6061 2833 -2841 3143 -1978 0
3466 2833 -2841 -3143 1978 0
6063 2833 -2841 -3143 -1978 0
3720 -2833 2841 3143 1978 0
6076 -2833 2841 3143 -1978 0
3770 -2833 2841 -3143 1978 0
6078 -2833 2841 -3143 -1978 0
5084 -2833 -2841 3143 1978 0
6144 -2833 -2841 3143 -1978 0
5106 -2833 -2841 -3143 1978 0
6145 -2833 -2841 -3143 -1978 0
35815 1944 -2397 0
9425 -1944 2397 0
36286 -1944 -2397 0
380 -3246 0
1550 1393 1810 1269 1983 -3925 0
1860 1393 1810 1269 -1983 3925 0
2945 1393 1810 1269 -1983 -3925 0
3100 1393 1810 -1269 1983 3925 0
3875 1393 1810 -1269 1983 -3925 0
4030 1393 1810 -1269 -1983 3925 0
4573 1393 1810 -1269 -1983 -3925 0
5890 1393 -1810 1269 1983 3925 0
5967 1393 -1810 1269 1983 -3925 0
5983 1393 -1810 1269 -1983 3925 0
6037 1393 -1810 1269 -1983 -3925 0
6045 1393 -1810 -1269 1983 3925 0
6084 1393 -1810 -1269 1983 -3925 0
6091 1393 -1810 -1269 -1983 3925 0
6119 1393 -1810 -1269 -1983 -3925 0
930 -1393 1810 1269 1983 3925 0
2248 -1393 1810 1269 1983 -3925 0
2511 -1393 1810 1269 -1983 3925 0
3433 -1393 1810 1269 -1983 -3925 0
3565 -1393 1810 -1269 1983 3925 0
4224 -1393 1810 -1269 1983 -3925 0
4355 -1393 1810 -1269 -1983 3925 0
4817 -1393 1810 -1269 -1983 -3925 0
5937 -1393 -1810 1269 1983 3925 0
6002 -1393 -1810 1269 1983 -3925 0
6016 -1393 -1810 1269 -1983 3925 0
6062 -1393 -1810 1269 -1983 -3925 0
6068 -1393 -1810 -1269 1983 3925 0
6101 -1393 -1810 -1269 1983 -3925 0
6108 -1393 -1810 -1269 -1983 3925 0
6131 -1393 -1810 -1269 -1983 -3925 0
14250 2358 -4077 0
15200 -2358 4077 0
18050 -2358 -4077 0
7220 1816 -3701 0
2850 -1816 3701 0
8987 -1816 -3701 0
13300 3027 3485 -1667 0
8550 3027 -3485 1667 0
15865 3027 -3485 -1667 0
6080 -3027 3485 1667 0
15124 -3027 3485 -1667 0
11894 -3027 -3485 1667 0
16868 -3027 -3485 -1667 0
8025 -4059 0
6786 2180 2419 -2174 0
4524 2180 -2419 2174 0
10496 2180 -2419 -2174 0
24505 -2180 2419 2174 0
26880 -2180 2419 -2174 0
26088 -2180 -2419 2174 0
28178 -2180 -2419 -2174 0
4066 3314 -3679 0
8025 -3314 3679 0
9041 -3314 -3679 0
5700 1884 -3830 0
14250 -1884 3830 0
15675 -1884 -3830 0
7600 2442 2448 -2488 0
2280 2442 -2448 2488 0
8968 2442 -2448 -2488 0
1900 -2442 2448 2488 0
8740 -2442 2448 -2488 0
3952 -2442 -2448 2488 0
9971 -2442 -2448 -2488 0
22620 4014 2950 -2605 0
18850 4014 -2950 2605 0
30160 4014 -2950 -2605 0
32045 -4014 2950 2605 0
35438 -4014 2950 -2605 0
34873 -4014 -2950 2605 0
36569 -4014 -2950 -2605 0
8550 3126 -3080 0
7600 -3126 3080 0
12730 -3126 -3080 0
5270 2792 -3560 0
1860 -2792 3560 0
5549 -2792 -3560 0
5885 3171 -2219 0
6955 -3171 2219 0
9015 -3171 -2219 0
2356 2894 -3714 0
3410 -2894 3714 0
4470 -2894 -3714 0
17160 3017 -2372 0
32175 -3017 2372 0
36465 -3017 -2372 0
744 -3938 0
9425 1744 1432 -1390 0
754 1744 -1432 1390 0
9991 1744 -1432 -1390 0
20735 -1744 1432 1390 0
24976 -1744 1432 -1390 0
21074 -1744 -1432 1390 0
25231 -1744 -1432 -1390 0
15200 3340 2738 -2991 0
5700 3340 -2738 2991 0
16340 3340 -2738 -2991 0
14250 -3340 2738 2991 0
18050 -3340 2738 -2991 0
15675 -3340 -2738 2991 0
18335 -3340 -2738 -2991 0
26390 -2338 0
6955 1295 -3473 0
4280 -1295 3473 0
8453 -1295 -3473 0
9630 2193 3604 -2563 0
3424 2193 -3604 2563 0
9972 2193 -3604 -2563 0
4066 -2193 3604 2563 0
10037 -2193 3604 -2563 0
6189 -2193 -3604 2563 0
10249 -2193 -3604 -2563 0
24505 -3043 0
1116 -2362 0
17160 -2348 0
1240 2801 2597 2855 -3534 0
5890 2801 2597 -2855 3534 0
5952 2801 2597 -2855 -3534 0
2170 2801 -2597 2855 3534 0
2976 2801 -2597 2855 -3534 0
5998 2801 -2597 -2855 3534 0
6039 2801 -2597 -2855 -3534 0
310 -2801 2597 2855 3534 0
1488 -2801 2597 2855 -3534 0
5905 -2801 2597 -2855 3534 0
5964 -2801 2597 -2855 -3534 0
2372 -2801 -2597 2855 3534 0
3137 -2801 -2597 2855 -3534 0
6009 -2801 -2597 -2855 3534 0
6047 -2801 -2597 -2855 -3534 0
6080 -1677 0
6080 -2373 0
20735 2908 -2654 0
20735 -2908 2654 0
30066 -2908 -2654 0
2675 2102 -3316 0
9630 -2102 3316 0
9898 -2102 -3316 0
14326 3730 1428 -3344 0
15080 3730 -1428 3344 0
23676 3730 -1428 -3344 0
3770 -3730 1428 3344 0
16663 -3730 1428 -3344 0
17342 -3730 -1428 3344 0
25078 -3730 -1428 -3344 0
3424 3758 3296 -1738 0
7490 3758 -3296 1738 0
8517 3758 -3296 -1738 0
4066 -3758 3296 1738 0
6189 -3758 3296 -1738 0
8710 -3758 -3296 1738 0
9347 -3758 -3296 -1738 0
12350 2643 2263 -2490 0
13300 2643 -2263 2490 0
17005 2643 -2263 -2490 0
4750 -2643 2263 2490 0
14012 -2643 2263 -2490 0
14725 -2643 -2263 2490 0
17504 -2643 -2263 -2490 0
4650 3061 1883 2583 -2159 0
2790 3061 1883 -2583 2159 0
5348 3061 1883 -2583 -2159 0
4960 3061 -1883 2583 2159 0
5890 3061 -1883 2583 -2159 0
5518 3061 -1883 -2583 2159 0
6030 3061 -1883 -2583 -2159 0
620 -3061 1883 2583 2159 0
4805 -3061 1883 2583 -2159 0
3131 -3061 1883 -2583 2159 0
5433 -3061 1883 -2583 -2159 0
5084 -3061 -1883 2583 2159 0
5921 -3061 -1883 2583 -2159 0
5586 -3061 -1883 -2583 2159 0
6047 -3061 -1883 -2583 -2159 0
310 1714 1410 -3410 0
5580 1714 -1410 3410 0
5611 1714 -1410 -3410 0
5580 -1714 1410 3410 0
5611 -1714 1410 -3410 0
6138 -1714 -1410 3410 0
6141 -1714 -1410 -3410 0
2480 1901 2571 -1446 0
930 1901 -2571 1446 0
3038 1901 -2571 -1446 0
4340 -1901 2571 1446 0
5084 -1901 2571 -1446 0
4619 -1901 -2571 1446 0
5251 -1901 -2571 -1446 0
15080 -1933 0
10725 1360 2079 1766 -2390 0
4290 1360 2079 -1766 2390 0
13942 1360 2079 -1766 -2390 0
858 1360 -2079 1766 2390 0
11369 1360 -2079 1766 -2390 0
5062 1360 -2079 -1766 2390 0
14522 1360 -2079 -1766 -2390 0
30030 -1360 2079 1766 2390 0
33247 -1360 2079 1766 -2390 0
31317 -1360 2079 -1766 2390 0
34213 -1360 2079 -1766 -2390 0
30287 -1360 -2079 1766 2390 0
33441 -1360 -2079 1766 -2390 0
31549 -1360 -2079 -1766 2390 0
34386 -1360 -2079 -1766 -2390 0
20735 -1237 0
8025 2319 2718 2395 -1229 0
1605 2319 2718 -2395 1229 0
8426 2319 2718 -2395 -1229 0
6955 2319 -2718 2395 1229 0
9764 2319 -2718 2395 -1229 0
7517 2319 -2718 -2395 1229 0
9904 2319 -2718 -2395 -1229 0
535 -2319 2718 2395 1229 0
8159 -2319 2718 2395 -1229 0
2060 -2319 2718 -2395 1229 0
8540 -2319 2718 -2395 -1229 0
7142 -2319 -2718 2395 1229 0
9811 -2319 -2718 2395 -1229 0
7676 -2319 -2718 -2395 1229 0
9944 -2319 -2718 -2395 -1229 0
2480 1997 2291 -1515 0
4340 1997 -2291 1515 0
5084 1997 -2291 -1515 0
4340 -1997 2291 1515 0
5084 -1997 2291 -1515 0
5642 -1997 -2291 1515 0
5865 -1997 -2291 -1515 0
2145 3070 1556 3522 -3791 0
40755 3070 1556 -3522 3791 0
40862 3070 1556 -3522 -3791 0
6435 3070 -1556 3522 3791 0
8258 3070 -1556 3522 -3791 0
41077 3070 -1556 -3522 3791 0
41168 3070 -1556 -3522 -3791 0
12870 -3070 1556 3522 3791 0
14372 -3070 1556 3522 -3791 0
41399 -3070 1556 -3522 3791 0
41474 -3070 1556 -3522 -3791 0
17375 -3070 -1556 3522 3791 0
18651 -3070 -1556 3522 -3791 0
41624 -3070 -1556 -3522 3791 0
41688 -3070 -1556 -3522 -3791 0
15015 -2458 0
15080 3099 -3804 0
6786 -3099 3804 0
19152 -3099 -3804 0
4815 -3908 0
2170 1916 3421 -3275 0
1240 1916 -3421 3275 0
2976 1916 -3421 -3275 0
5580 -1916 3421 3275 0
5797 -1916 3421 -3275 0
5704 -1916 -3421 3275 0
5878 -1916 -3421 -3275 0
9095 -2347 0
33930 2048 -2978 0
12064 -2048 2978 0
35136 -2048 -2978 0
12064 2588 2628 1915 -2560 0
16965 2588 2628 -1915 2560 0
23600 2588 2628 -1915 -2560 0
20735 2588 -2628 1915 2560 0
26164 2588 -2628 1915 -2560 0
28369 2588 -2628 -1915 2560 0
31355 2588 -2628 -1915 -2560 0
11310 -2588 2628 1915 2560 0
19755 -2588 2628 1915 -2560 0
23185 -2588 2628 -1915 2560 0
27830 -2588 2628 -1915 -2560 0
25825 -2588 -2628 1915 2560 0
29625 -2588 -2628 1915 -2560 0
31168 -2588 -2628 -1915 2560 0
33259 -2588 -2628 -1915 -2560 0
7490 3166 1836 -1654 0
4815 3166 -1836 1654 0
8934 3166 -1836 -1654 0
9095 -3166 1836 1654 0
10219 -3166 1836 -1654 0
9817 -3166 -1836 1654 0
10435 -3166 -1836 -1654 0
6786 -3917 0
950 3107 -3808 0
10450 -3107 3808 0
10878 -3107 -3808 0
13728 3255 3546 -2651 0
36465 3255 -3546 2651 0
38524 3255 -3546 -2651 0
5148 -3255 3546 2651 0
17229 -3255 3546 -2651 0
37237 -3255 -3546 2651 0
39049 -3255 -3546 -2651 0
4815 1876 2352 3303 -1684 0
10165 1876 2352 -3303 1684 0
10406 1876 2352 -3303 -1684 0
3424 1876 -2352 3303 1684 0
6698 1876 -2352 3303 -1684 0
10336 1876 -2352 -3303 1684 0
10500 1876 -2352 -3303 -1684 0
535 -1876 2352 3303 1684 0
5109 -1876 2352 3303 -1684 0
10192 -1876 2352 -3303 1684 0
10420 -1876 2352 -3303 -1684 0
3788 -1876 -2352 3303 1684 0
6898 -1876 -2352 3303 -1684 0
10354 -1876 -2352 -3303 1684 0
10510 -1876 -2352 -3303 -1684 0
6420 2765 -2878 0
5350 -2765 2878 0
8560 -2765 -2878 0
8025 2336 3345 1879 -3903 0
4280 2336 3345 -1879 3903 0
9095 2336 3345 -1879 -3903 0
9095 2336 -3345 1879 3903 0
10299 2336 -3345 1879 -3903 0
9737 2336 -3345 -1879 3903 0
10459 2336 -3345 -1879 -3903 0
214 -2336 3345 1879 3903 0
8078 -2336 3345 1879 -3903 0
4408 -2336 3345 -1879 3903 0
9127 -2336 3345 -1879 -3903 0
9127 -2336 -3345 1879 3903 0
10307 -2336 -3345 1879 -3903 0
9756 -2336 -3345 -1879 3903 0
10464 -2336 -3345 -1879 -3903 0
4524 1466 3642 -3100 0
12064 1466 -3642 3100 0
15140 1466 -3642 -3100 0
18850 -1466 3642 3100 0
21112 -1466 3642 -3100 0
24882 -1466 -3642 3100 0
26420 -1466 -3642 -3100 0
3410 2275 -1386 0
310 -2275 1386 0
3549 -2275 -1386 0
13728 3601 1519 1301 -1355 0
25740 3601 1519 -1301 1355 0
31231 3601 1519 -1301 -1355 0
8580 3601 -1519 1301 1355 0
19562 3601 -1519 1301 -1355 0
29172 3601 -1519 -1301 1355 0
33565 3601 -1519 -1301 -1355 0
5148 -3601 1519 1301 1355 0
17229 -3601 1519 1301 -1355 0
27799 -3601 1519 -1301 1355 0
32631 -3601 1519 -1301 -1355 0
12698 -3601 -1519 1301 1355 0
22363 -3601 -1519 1301 -1355 0
30819 -3601 -1519 -1301 1355 0
34685 -3601 -1519 -1301 -1355 0
9630 2798 3694 -2125 0
9095 2798 -3694 2125 0
10539 2798 -3694 -2125 0
1605 -2798 3694 2125 0
9791 -2798 3694 -2125 0
9336 -2798 -3694 2125 0
10564 -2798 -3694 -2125 0
15080 2996 -1209 0
16965 -2996 1209 0
25259 -2996 -1209 0
9425 3201 -3874 0
20735 -3201 3874 0
24976 -3201 -3874 0
6955 2154 3953 3295 3623 -2178 0
1605 2154 3953 3295 -3623 2178 0
7517 2154 3953 3295 -3623 -2178 0
4815 2154 3953 -3295 3623 2178 0
8640 2154 3953 -3295 3623 -2178 0
5698 2154 3953 -3295 -3623 2178 0
8949 2154 3953 -3295 -3623 -2178 0
214 2154 -3953 3295 3623 2178 0
7030 2154 -3953 3295 3623 -2178 0
1787 2154 -3953 3295 -3623 2178 0
7580 2154 -3953 3295 -3623 -2178 0
4933 2154 -3953 -3295 3623 2178 0
8681 2154 -3953 -3295 3623 -2178 0
5798 2154 -3953 -3295 -3623 2178 0
8984 2154 -3953 -3295 -3623 -2178 0
1926 -2154 3953 3295 3623 2178 0
7629 -2154 3953 3295 3623 -2178 0
3242 -2154 3953 3295 -3623 2178 0
8090 -2154 3953 3295 -3623 -2178 0
5874 -2154 3953 -3295 3623 2178 0
9011 -2154 3953 -3295 3623 -2178 0
6598 -2154 3953 -3295 -3623 2178 0
9264 -2154 3953 -3295 -3623 -2178 0
2101 -2154 -3953 3295 3623 2178 0
7691 -2154 -3953 3295 3623 -2178 0
3391 -2154 -3953 3295 -3623 2178 0
8142 -2154 -3953 3295 -3623 -2178 0
5971 -2154 -3953 -3295 3623 2178 0
9045 -2154 -3953 -3295 3623 -2178 0
6680 -2154 -3953 -3295 -3623 2178 0
9293 -2154 -3953 -3295 -3623 -2178 0
34320 2638 3349 -1659 0
7722 2638 -3349 1659 0
35864 2638 -3349 -1659 0
17160 -2638 3349 1659 0
37752 -2638 3349 -1659 0
21793 -2638 -3349 1659 0
38679 -2638 -3349 -1659 0
1070 3743 -2197 0
8560 -3743 2197 0
8774 -3743 -2197 0
6420 1203 1253 1834 -1794 0
10165 1203 1253 -1834 1794 0
10486 1203 1253 -1834 -1794 0
1070 1203 -1253 1834 1794 0
6848 1203 -1253 1834 -1794 0
10219 1203 -1253 -1834 1794 0
10507 1203 -1253 -1834 -1794 0
1070 -1203 1253 1834 1794 0
6848 -1203 1253 1834 -1794 0
10219 -1203 1253 -1834 1794 0
10507 -1203 1253 -1834 -1794 0
2033 -1203 -1253 1834 1794 0
7233 -1203 -1253 1834 -1794 0
10267 -1203 -1253 -1834 1794 0
10527 -1203 -1253 -1834 -1794 0
744 1464 2804 1721 -1282 0
5890 1464 2804 -1721 1282 0
5927 1464 2804 -1721 -1282 0
5270 1464 -2804 1721 1282 0
5382 1464 -2804 1721 -1282 0
6153 1464 -2804 -1721 1282 0
6159 1464 -2804 -1721 -1282 0
1984 -1464 2804 1721 1282 0
2490 -1464 2804 1721 -1282 0
5989 -1464 2804 -1721 1282 0
6014 -1464 2804 -1721 -1282 0
5568 -1464 -2804 1721 1282 0
5643 -1464 -2804 1721 -1282 0
6168 -1464 -2804 -1721 1282 0
6172 -1464 -2804 -1721 -1282 0
124 3849 -3418 0
1860 -3849 3418 0
1947 -3849 -3418 0
12350 1523 3272 -3952 0
9500 1523 -3272 3952 0
15675 1523 -3272 -3952 0
13300 -1523 3272 3952 0
17005 -1523 3272 -3952 0
16150 -1523 -3272 3952 0
18003 -1523 -3272 -3952 0
2850 -3936 0
3770 2021 1787 1452 3063 3823 -3846 0
30160 2021 1787 1452 3063 -3823 3846 0
30914 2021 1787 1452 3063 -3823 -3846 0
35815 2021 1787 1452 -3063 3823 3846 0
36003 2021 1787 1452 -3063 3823 -3846 0
37323 2021 1787 1452 -3063 -3823 3846 0
37361 2021 1787 1452 -3063 -3823 -3846 0
5655 2021 1787 -1452 3063 3823 3846 0
8859 2021 1787 -1452 3063 3823 -3846 0
31291 2021 1787 -1452 3063 -3823 3846 0
31932 2021 1787 -1452 3063 -3823 -3846 0
36098 2021 1787 -1452 -3063 3823 3846 0
36258 2021 1787 -1452 -3063 3823 -3846 0
37380 2021 1787 -1452 -3063 -3823 3846 0
37412 2021 1787 -1452 -3063 -3823 -3846 0
754 2021 -1787 1452 3063 3823 3846 0
4449 2021 -1787 1452 3063 3823 -3846 0
30311 2021 -1787 1452 3063 -3823 3846 0
31050 2021 -1787 1452 3063 -3823 -3846 0
35853 2021 -1787 1452 -3063 3823 3846 0
36037 2021 -1787 1452 -3063 3823 -3846 0
37331 2021 -1787 1452 -3063 -3823 3846 0
37367 2021 -1787 1452 -3063 -3823 -3846 0
6296 2021 -1787 -1452 3063 3823 3846 0
9436 2021 -1787 -1452 3063 3823 -3846 0
31419 2021 -1787 -1452 3063 -3823 3846 0
32047 2021 -1787 -1452 3063 -3823 -3846 0
36130 2021 -1787 -1452 -3063 3823 3846 0
36287 2021 -1787 -1452 -3063 3823 -3846 0
37386 2021 -1787 -1452 -3063 -3823 3846 0
37417 2021 -1787 -1452 -3063 -3823 -3846 0
24505 -2021 1787 1452 3063 3823 3846 0
25825 -2021 1787 1452 3063 3823 -3846 0
35061 -2021 1787 1452 3063 -3823 3846 0
35325 -2021 1787 1452 3063 -3823 -3846 0
37040 -2021 1787 1452 -3063 3823 3846 0
37106 -2021 1787 1452 -3063 3823 -3846 0
37568 -2021 1787 1452 -3063 -3823 3846 0
37581 -2021 1787 1452 -3063 -3823 -3846 0
26484 -2021 1787 -1452 3063 3823 3846 0
27606 -2021 1787 -1452 3063 3823 -3846 0
35457 -2021 1787 -1452 3063 -3823 3846 0
35681 -2021 1787 -1452 3063 -3823 -3846 0
37139 -2021 1787 -1452 -3063 3823 3846 0
37195 -2021 1787 -1452 -3063 3823 -3846 0
37588 -2021 1787 -1452 -3063 -3823 3846 0
37599 -2021 1787 -1452 -3063 -3823 -3846 0
24769 -2021 -1787 1452 3063 3823 3846 0
26062 -2021 -1787 1452 3063 3823 -3846 0
35114 -2021 -1787 1452 3063 -3823 3846 0
35372 -2021 -1787 1452 3063 -3823 -3846 0
37053 -2021 -1787 1452 -3063 3823 3846 0
37118 -2021 -1787 1452 -3063 3823 -3846 0
37571 -2021 -1787 1452 -3063 -3823 3846 0
37584 -2021 -1787 1452 -3063 -3823 -3846 0
26709 -2021 -1787 -1452 3063 3823 3846 0
27808 -2021 -1787 -1452 3063 3823 -3846 0
35502 -2021 -1787 -1452 3063 -3823 3846 0
35722 -2021 -1787 -1452 3063 -3823 -3846 0
37150 -2021 -1787 -1452 -3063 3823 3846 0
37205 -2021 -1787 -1452 -3063 3823 -3846 0
37590 -2021 -1787 -1452 -3063 -3823 3846 0
37601 -2021 -1787 -1452 -3063 -3823 -3846 0
4340 2245 1352 -2771 0
1116 2245 -1352 2771 0
4675 2245 -1352 -2771 0
1860 -2245 1352 2771 0
4898 -2245 1352 -2771 0
2641 -2245 -1352 2771 0
5132 -2245 -1352 -2771 0
4650 1248 -2233 0
620 -1248 2233 0
4805 -1248 -2233 0
4750 3988 -2026 0
380 -3988 2026 0
5035 -3988 -2026 0
1116 1495 -2507 0
2170 -1495 2507 0
2895 -1495 -2507 0
9500 2700 2407 3597 -3459 0
17100 2700 2407 -3597 3459 0
18050 2700 2407 -3597 -3459 0
15200 2700 -2407 3597 3459 0
17100 2700 -2407 3597 -3459 0
18620 2700 -2407 -3597 3459 0
18810 2700 -2407 -3597 -3459 0
3800 -2700 2407 3597 3459 0
11400 -2700 2407 3597 -3459 0
17480 -2700 2407 -3597 3459 0
18240 -2700 2407 -3597 -3459 0
15960 -2700 -2407 3597 3459 0
17480 -2700 -2407 3597 -3459 0
18696 -2700 -2407 -3597 3459 0
18848 -2700 -2407 -3597 -3459 0
10450 1848 -3965 0
7220 -1848 3965 0
13699 -1848 -3965 0
30160 3358 3691 -2793 0
18850 3358 -3691 2793 0
33930 3358 -3691 -2793 0
24505 -3358 3691 2793 0
35061 -3358 3691 -2793 0
31102 -3358 -3691 2793 0
36381 -3358 -3691 -2793 0
11310 2116 -2844 0
1885 -2116 2844 0
12630 -2116 -2844 0
15200 3154 3372 3302 -3336 0
3420 3154 3372 -3302 3336 0
15884 3154 3372 -3302 -3336 0
2280 3154 -3372 3302 3336 0
15656 3154 -3372 3302 -3336 0
5290 3154 -3372 -3302 3336 0
16258 3154 -3372 -3302 -3336 0
11400 -3154 3372 3302 3336 0
17480 -3154 3372 3302 -3336 0
12768 -3154 3372 -3302 3336 0
17754 -3154 3372 -3302 -3336 0
12312 -3154 -3372 3302 3336 0
17662 -3154 -3372 3302 -3336 0
13516 -3154 -3372 -3302 3336 0
17903 -3154 -3372 -3302 -3336 0
5350 1755 2635 -1498 0
8025 1755 -2635 1498 0
9362 1755 -2635 -1498 0
5350 -1755 2635 1498 0
8025 -1755 2635 -1498 0
9362 -1755 -2635 1498 0
10031 -1755 -2635 -1498 0
9425 1335 -2735 0
13195 -1335 2735 0
19321 -1335 -2735 0
1550 2339 1207 -3616 0
1550 2339 -1207 3616 0
2712 2339 -1207 -3616 0
5580 -2339 1207 3616 0
5735 -2339 1207 -3616 0
5735 -2339 -1207 3616 0
5851 -2339 -1207 -3616 0
32045 1419 -3122 0
14326 -1419 3122 0
34194 -1419 -3122 0
1240 -2066 0
30030 3740 3657 -3878 0
12870 3740 -3657 3878 0
33891 3740 -3657 -3878 0
4290 -3740 3657 3878 0
31317 -3740 3657 -3878 0
15873 -3740 -3657 3878 0
34792 -3740 -3657 -3878 0
744 3762 2520 3814 -1949 0
4960 3762 2520 -3814 1949 0
5109 3762 2520 -3814 -1949 0
4960 3762 -2520 3814 1949 0
5109 3762 -2520 3814 -1949 0
5952 3762 -2520 -3814 1949 0
5982 3762 -2520 -3814 -1949 0
5890 -3762 2520 3814 1949 0
5927 -3762 2520 3814 -1949 0
6138 -3762 2520 -3814 1949 0
6145 -3762 2520 -3814 -1949 0
6138 -3762 -2520 3814 1949 0
6145 -3762 -2520 3814 -1949 0
6188 -3762 -2520 -3814 1949 0
6189 -3762 -2520 -3814 -1949 0
214 3669 2699 -1825 0
9630 3669 -2699 1825 0
9651 3669 -2699 -1825 0
3424 -3669 2699 1825 0
3570 -3669 2699 -1825 0
9972 -3669 -2699 1825 0
9987 -3669 -2699 -1825 0
36465 3050 2298 1244 2956 -3087 0
19305 3050 2298 1244 -2956 3087 0
39361 3050 2298 1244 -2956 -3087 0
36465 3050 2298 -1244 2956 3087 0
41935 3050 2298 -1244 2956 -3087 0
39361 3050 2298 -1244 -2956 3087 0
42369 3050 2298 -1244 -2956 -3087 0
15015 3050 -2298 1244 2956 3087 0
38717 3050 -2298 1244 2956 -3087 0
27563 3050 -2298 1244 -2956 3087 0
40599 3050 -2298 1244 -2956 -3087 0
38717 3050 -2298 -1244 2956 3087 0
42273 3050 -2298 -1244 2956 -3087 0
40599 3050 -2298 -1244 -2956 3087 0
42555 3050 -2298 -1244 -2956 -3087 0
858 -3050 2298 1244 2956 3087 0
36594 -3050 2298 1244 2956 -3087 0
19777 -3050 2298 1244 -2956 3087 0
39432 -3050 2298 1244 -2956 -3087 0
36594 -3050 2298 -1244 2956 3087 0
41954 -3050 2298 -1244 2956 -3087 0
39432 -3050 2298 -1244 -2956 3087 0
42380 -3050 2298 -1244 -2956 -3087 0
15573 -3050 -2298 1244 2956 3087 0
38801 -3050 -2298 1244 2956 -3087 0
27870 -3050 -2298 1244 -2956 3087 0
40645 -3050 -2298 1244 -2956 -3087 0
38801 -3050 -2298 -1244 2956 3087 0
42285 -3050 -2298 -1244 2956 -3087 0
40645 -3050 -2298 -1244 -2956 3087 0
42562 -3050 -2298 -1244 -2956 -3087 0
535 2466 1701 1862 3821 -2014 0
1926 2466 1701 1862 -3821 2014 0
2365 2466 1701 1862 -3821 -2014 0
3424 2466 1701 -1862 3821 2014 0
3788 2466 1701 -1862 3821 -2014 0
4734 2466 1701 -1862 -3821 2014 0
5032 2466 1701 -1862 -3821 -2014 0
8560 2466 -1701 1862 3821 2014 0
8667 2466 -1701 1862 3821 -2014 0
8945 2466 -1701 1862 -3821 2014 0
9033 2466 -1701 1862 -3821 -2014 0
9245 2466 -1701 -1862 3821 2014 0
9318 2466 -1701 -1862 3821 -2014 0
9507 2466 -1701 -1862 -3821 2014 0
9566 2466 -1701 -1862 -3821 -2014 0
1926 -2466 1701 1862 3821 2014 0
2365 -2466 1701 1862 3821 -2014 0
3505 -2466 1701 1862 -3821 2014 0
3865 -2466 1701 1862 -3821 -2014 0
4734 -2466 1701 -1862 3821 2014 0
5032 -2466 1701 -1862 3821 -2014 0
5808 -2466 1701 -1862 -3821 2014 0
6052 -2466 1701 -1862 -3821 -2014 0
8945 -2466 -1701 1862 3821 2014 0
9033 -2466 -1701 1862 3821 -2014 0
9261 -2466 -1701 1862 -3821 2014 0
9333 -2466 -1701 1862 -3821 -2014 0
9507 -2466 -1701 -1862 3821 2014 0
9566 -2466 -1701 -1862 3821 -2014 0
9722 -2466 -1701 -1862 -3821 2014 0
9770 -2466 -1701 -1862 -3821 -2014 0
744 2334 2828 -2136 0
4030 2334 -2828 2136 0
4290 2334 -2828 -2136 0
2170 -2334 2828 2136 0
2654 -2334 2828 -2136 0
4789 -2334 -2828 2136 0
4959 -2334 -2828 -2136 0
3770 3553 1775 3898 -2669 0
32045 3553 1775 -3898 2669 0
32611 3553 1775 -3898 -2669 0
1885 3553 -1775 3898 2669 0
5467 3553 -1775 3898 -2669 0
32328 3553 -1775 -3898 2669 0
32865 3553 -1775 -3898 -2669 0
24505 -3553 1775 3898 2669 0
25825 -3553 1775 3898 -2669 0
35721 -3553 1775 -3898 2669 0
35919 -3553 1775 -3898 -2669 0
25165 -3553 -1775 3898 2669 0
26418 -3553 -1775 3898 -2669 0
35820 -3553 -1775 -3898 2669 0
36008 -3553 -1775 -3898 -2669 0
9630 1201 -1863 0
9630 -1201 1863 0
10593 -1201 -1863 0
13300 1252 1592 -1988 0
380 1252 -1592 1988 0
13414 1252 -1592 -1988 0
17100 -1252 1592 1988 0
18430 -1252 1592 -1988 0
17138 -1252 -1592 1988 0
18441 -1252 -1592 -1988 0
4030 2268 3127 3244 -3222 0
5270 2268 3127 -3244 3222 0
5874 2268 3127 -3244 -3222 0
2356 2268 -3127 3244 3222 0
4855 2268 -3127 3244 -3222 0
5623 2268 -3127 -3244 3222 0
5998 2268 -3127 -3244 -3222 0
1116 -2268 3127 3244 3222 0
4421 -2268 3127 3244 -3222 0
5437 -2268 3127 -3244 3222 0
5933 -2268 3127 -3244 -3222 0
3048 -2268 -3127 3244 3222 0
5097 -2268 -3127 3244 -3222 0
5727 -2268 -3127 -3244 3222 0
6035 -2268 -3127 -3244 -3222 0
8580 -2088 0
3420 3258 2835 3407 -1764 0
6080 3258 2835 -3407 1764 0
8406 3258 2835 -3407 -1764 0
3420 3258 -2835 3407 1764 0
6224 3258 -2835 3407 -1764 0
8406 3258 -2835 -3407 1764 0
10313 3258 -2835 -3407 -1764 0
10450 -3258 2835 3407 1764 0
11989 -3258 2835 3407 -1764 0
13186 -3258 2835 -3407 1764 0
14233 -3258 2835 -3407 -1764 0
11989 -3258 -2835 3407 1764 0
13251 -3258 -2835 3407 -1764 0
14233 -3258 -2835 -3407 1764 0
15091 -3258 -2835 -3407 -1764 0
3210 3764 -3576 0
1605 -3764 3576 0
4334 -3764 -3576 0
620 2879 -2871 0
1984 -2879 2871 0
2406 -2879 -2871 0
4750 1918 2934 3929 -2826 0
2280 1918 2934 -3929 2826 0
6460 1918 2934 -3929 -2826 0
4750 1918 -2934 3929 2826 0
8312 1918 -2934 3929 -2826 0
6460 1918 -2934 -3929 2826 0
9595 1918 -2934 -3929 -2826 0
1900 -1918 2934 3929 2826 0
6175 -1918 2934 3929 -2826 0
3952 -1918 2934 -3929 2826 0
7714 -1918 2934 -3929 -2826 0
6175 -1918 -2934 3929 2826 0
9381 -1918 -2934 3929 -2826 0
7714 -1918 -2934 -3929 2826 0
10536 -1918 -2934 -3929 -2826 0
4815 2919 -1601 0
214 -2919 1601 0
4933 -2919 -1601 0
6420 3651 -3882 0
6420 -3651 3882 0
8988 -3651 -3882 0
1284 3666 2337 2282 -2138 0
1284 3666 2337 -2282 2138 0
2414 3666 2337 -2282 -2138 0
1605 3666 -2337 2282 2138 0
2696 3666 -2337 2282 -2138 0
2696 3666 -2337 -2282 2138 0
3657 3666 -2337 -2282 -2138 0
8560 -3666 2337 2282 2138 0
8817 -3666 2337 2282 -2138 0
8817 -3666 2337 -2282 2138 0
9043 -3666 2337 -2282 -2138 0
8881 -3666 -2337 2282 2138 0
9099 -3666 -2337 2282 -2138 0
9099 -3666 -2337 -2282 2138 0
9291 -3666 -2337 -2282 -2138 0
2140 2780 3558 2763 1934 -3434 0
7490 2780 3558 2763 -1934 3434 0
8132 2780 3558 2763 -1934 -3434 0
3210 2780 3558 -2763 1934 3434 0
4708 2780 3558 -2763 1934 -3434 0
8453 2780 3558 -2763 -1934 3434 0
8902 2780 3558 -2763 -1934 -3434 0
1070 2780 -3558 2763 1934 3434 0
2996 2780 -3558 2763 1934 -3434 0
7811 2780 -3558 2763 -1934 3434 0
8389 2780 -3558 2763 -1934 -3434 0
3959 2780 -3558 -2763 1934 3434 0
5307 2780 -3558 -2763 1934 -3434 0
8678 2780 -3558 -2763 -1934 3434 0
9082 2780 -3558 -2763 -1934 -3434 0
8025 -2780 3558 2763 1934 3434 0
8560 -2780 3558 2763 1934 -3434 0
9898 -2780 3558 2763 -1934 3434 0
10058 -2780 3558 2763 -1934 -3434 0
8827 -2780 3558 -2763 1934 3434 0
9202 -2780 3558 -2763 1934 -3434 0
10138 -2780 3558 -2763 -1934 3434 0
10251 -2780 3558 -2763 -1934 -3434 0
8292 -2780 -3558 2763 1934 3434 0
8774 -2780 -3558 2763 1934 -3434 0
9978 -2780 -3558 2763 -1934 3434 0
10122 -2780 -3558 2763 -1934 -3434 0
9015 -2780 -3558 -2763 1934 3434 0
9352 -2780 -3558 -2763 1934 -3434 0
10194 -2780 -3558 -2763 -1934 3434 0
10296 -2780 -3558 -2763 -1934 -3434 0
6080 -2781 0
9425 -3404 0
11400 -3188 0
23595 2346 -2675 0
38610 -2346 2675 0
40970 -2346 -2675 0
1605 1280 -1565 0
6420 -1280 1565 0
7062 -1280 -1565 0
11310 -2860 0
30160 2198 -3881 0
26390 -2198 3881 0
35438 -2198 -3881 0
1284 3237 3139 -3356 0
1070 3237 -3139 3356 0
2226 3237 -3139 -3356 0
9630 -3237 3139 3356 0
9758 -3237 3139 -3356 0
9737 -3237 -3139 3356 0
9853 -3237 -3139 -3356 0
12350 -3640 0
15200 2107 1955 1398 3381 2805 -1827 0
6650 2107 1955 1398 3381 -2805 1827 0
16530 2107 1955 1398 3381 -2805 -1827 0
3420 2107 1955 1398 -3381 2805 1827 0
15884 2107 1955 1398 -3381 2805 -1827 0
8873 2107 1955 1398 -3381 -2805 1827 0
16975 2107 1955 1398 -3381 -2805 -1827 0
9500 2107 1955 -1398 3381 2805 1827 0
17100 2107 1955 -1398 3381 2805 -1827 0
12825 2107 1955 -1398 3381 -2805 1827 0
17765 2107 1955 -1398 3381 -2805 -1827 0
11210 2107 1955 -1398 -3381 2805 1827 0
17442 2107 1955 -1398 -3381 2805 -1827 0
13937 2107 1955 -1398 -3381 -2805 1827 0
17987 2107 1955 -1398 -3381 -2805 -1827 0
16150 2107 -1955 1398 3381 2805 1827 0
18430 2107 -1955 1398 3381 2805 -1827 0
17147 2107 -1955 1398 3381 -2805 1827 0
18630 2107 -1955 1398 3381 -2805 -1827 0
16663 2107 -1955 1398 -3381 2805 1827 0
18533 2107 -1955 1398 -3381 2805 -1827 0
17481 2107 -1955 1398 -3381 -2805 1827 0
18696 2107 -1955 1398 -3381 -2805 -1827 0
17575 2107 -1955 -1398 3381 2805 1827 0
18715 2107 -1955 -1398 3381 2805 -1827 0
18074 2107 -1955 -1398 3381 -2805 1827 0
18815 2107 -1955 -1398 3381 -2805 -1827 0
17831 2107 -1955 -1398 -3381 2805 1827 0
18766 2107 -1955 -1398 -3381 2805 -1827 0
18240 2107 -1955 -1398 -3381 -2805 1827 0
18848 2107 -1955 -1398 -3381 -2805 -1827 0
13300 -2107 1955 1398 3381 2805 1827 0
17860 -2107 1955 1398 3381 2805 -1827 0
15295 -2107 1955 1398 3381 -2805 1827 0
18259 -2107 1955 1398 3381 -2805 -1827 0
14326 -2107 1955 1398 -3381 2805 1827 0
18065 -2107 1955 1398 -3381 2805 -1827 0
15962 -2107 1955 1398 -3381 -2805 1827 0
18392 -2107 1955 1398 -3381 -2805 -1827 0
16150 -2107 1955 -1398 3381 2805 1827 0
18430 -2107 1955 -1398 3381 2805 -1827 0
17147 -2107 1955 -1398 3381 -2805 1827 0
18630 -2107 1955 -1398 3381 -2805 -1827 0
16663 -2107 1955 -1398 -3381 2805 1827 0
18533 -2107 1955 -1398 -3381 2805 -1827 0
17481 -2107 1955 -1398 -3381 -2805 1827 0
18696 -2107 1955 -1398 -3381 -2805 -1827 0
18145 -2107 -1955 1398 3381 2805 1827 0
18829 -2107 -1955 1398 3381 2805 -1827 0
18444 -2107 -1955 1398 3381 -2805 1827 0
18889 -2107 -1955 1398 3381 -2805 -1827 0
18299 -2107 -1955 1398 -3381 2805 1827 0
18860 -2107 -1955 1398 -3381 2805 -1827 0
18544 -2107 -1955 1398 -3381 -2805 1827 0
18909 -2107 -1955 1398 -3381 -2805 -1827 0
18572 -2107 -1955 -1398 3381 2805 1827 0
18915 -2107 -1955 -1398 3381 2805 -1827 0
18722 -2107 -1955 -1398 3381 -2805 1827 0
18944 -2107 -1955 -1398 3381 -2805 -1827 0
18649 -2107 -1955 -1398 -3381 2805 1827 0
18930 -2107 -1955 -1398 -3381 2805 -1827 0
18772 -2107 -1955 -1398 -3381 -2805 1827 0
18954 -2107 -1955 -1398 -3381 -2805 -1827 0
1885 -1423 0
13728 1864 2211 3118 2068 -2949 0
27885 1864 2211 3118 -2068 2949 0
32690 1864 2211 3118 -2068 -2949 0
19305 1864 2211 -3118 2068 2949 0
26855 1864 2211 -3118 2068 -2949 0
34642 1864 2211 -3118 -2068 2949 0
37284 1864 2211 -3118 -2068 -2949 0
2145 1864 -2211 3118 2068 2949 0
15187 1864 -2211 3118 2068 -2949 0
28636 1864 -2211 3118 -2068 2949 0
33200 1864 -2211 3118 -2068 -2949 0
20485 1864 -2211 -3118 2068 2949 0
27658 1864 -2211 -3118 2068 -2949 0
35055 1864 -2211 -3118 -2068 2949 0
37565 1864 -2211 -3118 -2068 -2949 0
858 -1864 2211 3118 2068 2949 0
14311 -1864 2211 3118 2068 -2949 0
28185 -1864 2211 3118 -2068 2949 0
32894 -1864 2211 3118 -2068 -2949 0
19777 -1864 2211 -3118 2068 2949 0
27176 -1864 2211 -3118 2068 -2949 0
34807 -1864 2211 -3118 -2068 2949 0
37397 -1864 2211 -3118 -2068 -2949 0
2960 -1864 -2211 3118 2068 2949 0
15741 -1864 -2211 3118 2068 -2949 0
28921 -1864 -2211 3118 -2068 2949 0
33394 -1864 -2211 3118 -2068 -2949 0
20933 -1864 -2211 -3118 2068 2949 0
27962 -1864 -2211 -3118 2068 -2949 0
35212 -1864 -2211 -3118 -2068 2949 0
37672 -1864 -2211 -3118 -2068 -2949 0
8550 2168 -2673 0
7600 -2168 2673 0
12730 -2168 -2673 0
8580 3508 2786 1675 1837 -2904 0
32175 3508 2786 1675 -1837 2904 0
34320 3508 2786 1675 -1837 -2904 0
38610 3508 2786 -1675 1837 2904 0
39468 3508 2786 -1675 1837 -2904 0
41827 3508 2786 -1675 -1837 2904 0
42042 3508 2786 -1675 -1837 -2904 0
4290 3508 -2786 1675 1837 2904 0
12012 3508 -2786 1675 1837 -2904 0
33248 3508 -2786 1675 -1837 2904 0
35178 3508 -2786 1675 -1837 -2904 0
39039 3508 -2786 -1675 1837 2904 0
39811 3508 -2786 -1675 1837 -2904 0
41935 3508 -2786 -1675 -1837 2904 0
42128 3508 -2786 -1675 -1837 -2904 0
21450 -3508 2786 1675 1837 2904 0
25740 -3508 2786 1675 1837 -2904 0
37538 -3508 2786 1675 -1837 2904 0
38610 -3508 2786 1675 -1837 -2904 0
40755 -3508 2786 -1675 1837 2904 0
41184 -3508 2786 -1675 1837 -2904 0
42364 -3508 2786 -1675 -1837 2904 0
42471 -3508 2786 -1675 -1837 -2904 0
23595 -3508 -2786 1675 1837 2904 0
27456 -3508 -2786 1675 1837 -2904 0
38074 -3508 -2786 1675 -1837 2904 0
39039 -3508 -2786 1675 -1837 -2904 0
40969 -3508 -2786 -1675 1837 2904 0
41356 -3508 -2786 -1675 1837 -2904 0
42417 -3508 -2786 -1675 -1837 2904 0
42514 -3508 -2786 -1675 -1837 -2904 0
16150 1491 -2569 0
11400 -1491 2569 0
17860 -1491 -2569 0
6080 2364 3059 -1268 0
1900 2364 -3059 1268 0
7372 2364 -3059 -1268 0
12350 -2364 3059 1268 0
14478 -2364 3059 -1268 0
13015 -2364 -3059 1268 0
14930 -2364 -3059 -1268 0
6420 1539 -1436 0
4280 -1539 1436 0
8132 -1539 -1436 0
13728 1957 2881 -3621 0
2145 1957 -2881 3621 0
15187 1957 -2881 -3621 0
36465 -1957 2881 3621 0
38524 -1957 2881 -3621 0
36787 -1957 -2881 3621 0
38743 -1957 -2881 -3621 0
5350 1363 -1606 0
4280 -1363 1606 0
7490 -1363 -1606 0
4960 2053 -2024 0
124 -2053 2024 0
4985 -2053 -2024 0
12350 1235 2192 -1525 0
7600 1235 -2192 1525 0
15010 1235 -2192 -1525 0
5700 -1235 2192 1525 0
14345 -1235 2192 -1525 0
11020 -1235 -2192 1525 0
16207 -1235 -2192 -1525 0
5885 1938 -4020 0
8560 -1938 4020 0
9737 -1938 -4020 0
18850 3896 1479 -3199 0
12064 3896 -1479 3199 0
24882 3896 -1479 -3199 0
35815 -3896 1479 3199 0
36757 -3896 1479 -3199 0
36418 -3896 -1479 3199 0
37059 -3896 -1479 -3199 0
7490 2097 3909 1305 -3148 0
1926 2097 3909 -1305 3148 0
8068 2097 3909 -1305 -3148 0
8025 2097 -3909 1305 3148 0
9898 2097 -3909 1305 -3148 0
8506 2097 -3909 -1305 3148 0
10042 2097 -3909 -1305 -3148 0
1070 -2097 3909 1305 3148 0
7811 -2097 3909 1305 -3148 0
2803 -2097 3909 -1305 3148 0
8331 -2097 3909 -1305 -3148 0
8292 -2097 -3909 1305 3148 0
9978 -2097 -3909 1305 -3148 0
8726 -2097 -3909 -1305 3148 0
10108 -2097 -3909 -1305 -3148 0
744 3053 -3659 0
620 -3053 3659 0
1290 -3053 -3659 0
15080 -1808 0
1926 4038 -1492 0
5350 -4038 1492 0
6313 -4038 -1492 0
3424 1838 -1584 0
9095 -1838 1584 0
9609 -1838 -1584 0
20735 1749 -1789 0
4524 -1749 1789 0
22771 -1749 -1789 0
1550 3692 -3189 0
2170 -3692 3189 0
3177 -3692 -3189 0
16302 2143 1608 2767 -2937 0
36465 2143 1608 -2767 2937 0
38910 2143 1608 -2767 -2937 0
7722 2143 -1608 2767 2937 0
21090 2143 -1608 2767 -2937 0
37623 2143 -1608 -2767 2937 0
39628 2143 -1608 -2767 -2937 0
19305 -2143 1608 2767 2937 0
28271 -2143 1608 2767 -2937 0
39361 -2143 1608 -2767 2937 0
40706 -2143 1608 -2767 -2937 0
23552 -2143 -1608 2767 2937 0
30904 -2143 -1608 2767 -2937 0
39998 -2143 -1608 -2767 2937 0
41101 -2143 -1608 -2767 -2937 0
38610 -4030 0
8550 1772 -1733 0
16150 -1772 1733 0
17432 -1772 -1733 0
13195 -2128 0
12350 -3335 0
33930 2816 3429 2837 -1780 0
24505 2816 3429 -2837 1780 0
36381 2816 3429 -2837 -1780 0
14326 2816 -3429 2837 1780 0
35363 2816 -3429 2837 -1780 0
29519 2816 -3429 -2837 1780 0
36882 2816 -3429 -2837 -1780 0
15080 -2816 3429 2837 1780 0
35438 -2816 3429 2837 -1780 0
29783 -2816 3429 -2837 1780 0
36908 -2816 3429 -2837 -1780 0
23676 -2816 -3429 2837 1780 0
36298 -2816 -3429 2837 -1780 0
32791 -2816 -3429 -2837 1780 0
37209 -2816 -3429 -2837 -1780 0
4340 2135 -2307 0
4340 -2135 2307 0
5642 -2135 -2307 0
17160 -2815 0
4750 -3977 0
1284 2011 2681 -3073 0
1070 2011 -2681 3073 0
2226 2011 -2681 -3073 0
535 -2011 2681 3073 0
1755 -2011 2681 -3073 0
1552 -2011 -2681 3073 0
2649 -2011 -2681 -3073 0
3100 -2662 0
13195 4068 -1212 0
1885 -4068 1212 0
14420 -4068 -1212 0
32175 1520 -2753 0
12870 -1520 2753 0
35392 -1520 -2753 0
15015 2824 4023 1806 1437 -3702 0
40755 2824 4023 1806 -1437 3702 0
41506 2824 4023 1806 -1437 -3702 0
4290 2824 4023 -1806 1437 3702 0
17803 2824 4023 -1806 1437 -3702 0
40969 2824 4023 -1806 -1437 3702 0
41645 2824 4023 -1806 -1437 -3702 0
27885 2824 -4023 1806 1437 3702 0
33140 2824 -4023 1806 1437 -3702 0
42149 2824 -4023 1806 -1437 3702 0
42412 2824 -4023 1806 -1437 -3702 0
29387 2824 -4023 -1806 1437 3702 0
34116 2824 -4023 -1806 1437 -3702 0
42224 2824 -4023 -1806 -1437 3702 0
42461 2824 -4023 -1806 -1437 -3702 0
40755 -2824 4023 1806 1437 3702 0
41506 -2824 4023 1806 1437 -3702 0
42793 -2824 4023 1806 -1437 3702 0
42830 -2824 4023 1806 -1437 -3702 0
40969 -2824 4023 -1806 1437 3702 0
41645 -2824 4023 -1806 1437 -3702 0
42803 -2824 4023 -1806 -1437 3702 0
42837 -2824 4023 -1806 -1437 -3702 0
42149 -2824 -4023 1806 1437 3702 0
42412 -2824 -4023 1806 1437 -3702 0
42862 -2824 -4023 1806 -1437 3702 0
42876 -2824 -4023 1806 -1437 -3702 0
42224 -2824 -4023 -1806 1437 3702 0
42461 -2824 -4023 -1806 1437 -3702 0
42866 -2824 -4023 -1806 -1437 3702 0
42878 -2824 -4023 -1806 -1437 -3702 0
950 -2039 0
6435 1740 -3561 0
27885 -1740 3561 0
30137 -1740 -3561 0
28275 3389 1813 1874 -1569 0
12064 3389 1813 -1874 1569 0
31291 3389 1813 -1874 -1569 0
13195 3389 -1813 1874 1569 0
31574 3389 -1813 1874 -1569 0
21037 3389 -1813 -1874 1569 0
33534 3389 -1813 -1874 -1569 0
7540 -3389 1813 1874 1569 0
30160 -3389 1813 1874 -1569 0
17191 -3389 1813 -1874 1569 0
32573 -3389 1813 -1874 -1569 0
18096 -3389 -1813 1874 1569 0
32799 -3389 -1813 1874 -1569 0
24369 -3389 -1813 -1874 1569 0
34367 -3389 -1813 -1874 -1569 0
858 2713 3019 1833 2277 3871 -2220 0
34320 2713 3019 1833 2277 -3871 2220 0
34492 2713 3019 1833 2277 -3871 -2220 0
25740 2713 3019 1833 -2277 3871 2220 0
26083 2713 3019 1833 -2277 3871 -2220 0
39468 2713 3019 1833 -2277 -3871 2220 0
39537 2713 3019 1833 -2277 -3871 -2220 0
34320 2713 3019 -1833 2277 3871 2220 0
34492 2713 3019 -1833 2277 3871 -2220 0
41184 2713 3019 -1833 2277 -3871 2220 0
41218 2713 3019 -1833 2277 -3871 -2220 0
39468 2713 3019 -1833 -2277 3871 2220 0
39537 2713 3019 -1833 -2277 3871 -2220 0
42214 2713 3019 -1833 -2277 -3871 2220 0
42227 2713 3019 -1833 -2277 -3871 -2220 0
38610 2713 -3019 1833 2277 3871 2220 0
38696 2713 -3019 1833 2277 3871 -2220 0
42042 2713 -3019 1833 2277 -3871 2220 0
42059 2713 -3019 1833 2277 -3871 -2220 0
41184 2713 -3019 1833 -2277 3871 2220 0
41218 2713 -3019 1833 -2277 3871 -2220 0
42557 2713 -3019 1833 -2277 -3871 2220 0
42564 2713 -3019 1833 -2277 -3871 -2220 0
42042 2713 -3019 -1833 2277 3871 2220 0
42059 2713 -3019 -1833 2277 3871 -2220 0
42728 2713 -3019 -1833 2277 -3871 2220 0
42732 2713 -3019 -1833 2277 -3871 -2220 0
42557 2713 -3019 -1833 -2277 3871 2220 0
42564 2713 -3019 -1833 -2277 3871 -2220 0
42831 2713 -3019 -1833 -2277 -3871 2220 0
42833 2713 -3019 -1833 -2277 -3871 -2220 0
32175 -2713 3019 1833 2277 3871 2220 0
32389 -2713 3019 1833 2277 3871 -2220 0
40755 -2713 3019 1833 2277 -3871 2220 0
40798 -2713 3019 1833 2277 -3871 -2220 0
38610 -2713 3019 1833 -2277 3871 2220 0
38696 -2713 3019 1833 -2277 3871 -2220 0
42042 -2713 3019 1833 -2277 -3871 2220 0
42059 -2713 3019 1833 -2277 -3871 -2220 0
40755 -2713 3019 -1833 2277 3871 2220 0
40798 -2713 3019 -1833 2277 3871 -2220 0
42471 -2713 3019 -1833 2277 -3871 2220 0
42480 -2713 3019 -1833 2277 -3871 -2220 0
42042 -2713 3019 -1833 -2277 3871 2220 0
42059 -2713 3019 -1833 -2277 3871 -2220 0
42728 -2713 3019 -1833 -2277 -3871 2220 0
42732 -2713 3019 -1833 -2277 -3871 -2220 0
41827 -2713 -3019 1833 2277 3871 2220 0
41849 -2713 -3019 1833 2277 3871 -2220 0
42686 -2713 -3019 1833 2277 -3871 2220 0
42690 -2713 -3019 1833 2277 -3871 -2220 0
42471 -2713 -3019 1833 -2277 3871 2220 0
42480 -2713 -3019 1833 -2277 3871 -2220 0
42814 -2713 -3019 1833 -2277 -3871 2220 0
42816 -2713 -3019 1833 -2277 -3871 -2220 0
42686 -2713 -3019 -1833 2277 3871 2220 0
42690 -2713 -3019 -1833 2277 3871 -2220 0
42857 -2713 -3019 -1833 2277 -3871 2220 0
42858 -2713 -3019 -1833 2277 -3871 -2220 0
42814 -2713 -3019 -1833 -2277 3871 2220 0
42816 -2713 -3019 -1833 -2277 3871 -2220 0
42883 -2713 -3019 -1833 -2277 -3871 2220 0
42883 -2713 -3019 -1833 -2277 -3871 -2220 0
36465 2283 -2831 0
10725 -2283 2831 0
38074 -2283 -2831 0
5580 3716 -3564 0
5270 -3716 3564 0
6107 -3716 -3564 0
1284 2809 2111 -1650 0
8560 2809 -2111 1650 0
8817 2809 -2111 -1650 0
214 -2809 2111 1650 0
1472 -2809 2111 -1650 0
8603 -2809 -2111 1650 0
8854 -2809 -2111 -1650 0
1550 3921 -2935 0
3100 -3921 2935 0
3875 -3921 -2935 0
38610 2813 -1382 0
12870 -2813 1382 0
39897 -2813 -1382 0
10725 1948 2572 -2658 0
5148 1948 -2572 2658 0
14586 1948 -2572 -2658 0
19305 -1948 2572 2658 0
25204 -1948 2572 -2658 0
22136 -1948 -2572 2658 0
27327 -1948 -2572 -2658 0
6786 1559 2303 1840 -2838 0
7540 1559 2303 -1840 2838 0
12969 1559 2303 -1840 -2838 0
754 1559 -2303 1840 2838 0
7404 1559 -2303 1840 -2838 0
8143 1559 -2303 -1840 2838 0
13463 1559 -2303 -1840 -2838 0
9425 -1559 2303 1840 2838 0
14515 -1559 2303 1840 -2838 0
15080 -1559 2303 -1840 2838 0
19152 -1559 2303 -1840 -2838 0
9991 -1559 -2303 1840 2838 0
14978 -1559 -2303 1840 -2838 0
15532 -1559 -2303 -1840 2838 0
19523 -1559 -2303 -1840 -2838 0
2850 1277 3787 -2578 0
18050 1277 -3787 2578 0
18193 1277 -3787 -2578 0
9500 -1277 3787 2578 0
10925 -1277 3787 -2578 0
18525 -1277 -3787 2578 0
18596 -1277 -3787 -2578 0
5270 1801 2559 -1303 0
3410 1801 -2559 1303 0
5781 1801 -2559 -1303 0
744 -1801 2559 1303 0
5382 -1801 2559 -1303 0
3745 -1801 -2559 1303 0
5832 -1801 -2559 -1303 0
35815 4075 4019 -1653 0
24505 4075 -4019 1653 0
37040 4075 -4019 -1653 0
12064 -4075 4019 1653 0
36418 -4075 4019 -1653 0
28727 -4075 -4019 1653 0
37251 -4075 -4019 -1653 0
22620 1845 2730 3068 -2264 0
18850 1845 2730 -3068 2264 0
30160 1845 2730 -3068 -2264 0
6786 1845 -2730 3068 2264 0
25334 1845 -2730 3068 -2264 0
22243 1845 -2730 -3068 2264 0
31517 1845 -2730 -3068 -2264 0
26390 -1845 2730 3068 2264 0
33176 -1845 2730 3068 -2264 0
32045 -1845 2730 -3068 2264 0
35438 -1845 2730 -3068 -2264 0
28426 -1845 -2730 3068 2264 0
33990 -1845 -2730 3068 -2264 0
33063 -1845 -2730 -3068 2264 0
35845 -1845 -2730 -3068 -2264 0
8025 -3592 0
9425 2851 -2296 0
3770 -2851 2296 0
12252 -2851 -2296 0
3745 1841 4079 4012 -1537 0
8025 1841 4079 -4012 1537 0
8961 1841 4079 -4012 -1537 0
1926 1841 -4079 4012 1537 0
4997 1841 -4079 4012 -1537 0
8506 1841 -4079 -4012 1537 0
9274 1841 -4079 -4012 -1537 0
1070 -1841 4079 4012 1537 0
4440 -1841 4079 4012 -1537 0
8292 -1841 4079 -4012 1537 0
9135 -1841 4079 -4012 -1537 0
2803 -1841 -4079 4012 1537 0
5567 -1841 -4079 4012 -1537 0
8726 -1841 -4079 -4012 1537 0
9417 -1841 -4079 -4012 -1537 0
33930 2366 2465 1666 2872 -1475 0
20735 2366 2465 1666 -2872 1475 0
36004 2366 2465 1666 -2872 -1475 0
1885 2366 2465 -1666 2872 1475 0
34119 2366 2465 -1666 2872 -1475 0
21583 2366 2465 -1666 -2872 1475 0
36088 2366 2465 -1666 -2872 -1475 0
30160 2366 -2465 1666 2872 1475 0
36946 2366 -2465 1666 2872 -1475 0
34307 2366 -2465 1666 -2872 1475 0
37361 2366 -2465 1666 -2872 -1475 0
30537 2366 -2465 -1666 2872 1475 0
36984 2366 -2465 -1666 2872 -1475 0
34477 2366 -2465 -1666 -2872 1475 0
37378 2366 -2465 -1666 -2872 -1475 0
28275 -2366 2465 1666 2872 1475 0
36757 -2366 2465 1666 2872 -1475 0
33459 -2366 2465 1666 -2872 1475 0
37276 -2366 2465 1666 -2872 -1475 0
28746 -2366 2465 -1666 2872 1475 0
36805 -2366 2465 -1666 2872 -1475 0
33671 -2366 2465 -1666 -2872 1475 0
37297 -2366 2465 -1666 -2872 -1475 0
35815 -2366 -2465 1666 2872 1475 0
37512 -2366 -2465 1666 2872 -1475 0
36852 -2366 -2465 1666 -2872 1475 0
37615 -2366 -2465 1666 -2872 -1475 0
35909 -2366 -2465 -1666 2872 1475 0
37521 -2366 -2465 -1666 2872 -1475 0
36894 -2366 -2465 -1666 -2872 1475 0
37619 -2366 -2465 -1666 -2872 -1475 0
214 3321 1647 -1233 0
4066 3321 -1647 1233 0
4199 3321 -1647 -1233 0
5350 -3321 1647 1233 0
5457 -3321 1647 -1233 0
7383 -3321 -1647 1233 0
7449 -3321 -1647 -1233 0
3410 3615 -4025 0
4030 -3615 4025 0
5223 -3615 -4025 0
1605 2461 -3346 0
5885 -2461 3346 0
6607 -2461 -3346 0
1885 2785 2332 -2232 0
33930 2785 -2332 2232 0
34119 2785 -2332 -2232 0
20735 -2785 2332 2232 0
21583 -2785 2332 -2232 0
36004 -2785 -2332 2232 0
36088 -2785 -2332 -2232 0
4815 2310 3364 2758 -3550 0
3210 2310 3364 -2758 3550 0
6580 2310 3364 -2758 -3550 0
4815 2310 -3364 2758 3550 0
7463 2310 -3364 2758 -3550 0
6580 2310 -3364 -2758 3550 0
8434 2310 -3364 -2758 -3550 0
7490 -2310 3364 2758 3550 0
8934 -2310 3364 2758 -3550 0
8453 -2310 3364 -2758 3550 0
9464 -2310 3364 -2758 -3550 0
8934 -2310 -3364 2758 3550 0
9729 -2310 -3364 2758 -3550 0
9464 -2310 -3364 -2758 3550 0
10020 -2310 -3364 -2758 -3550 0
32045 3499 3033 -1865 0
7540 3499 -3033 1865 0
33176 3499 -3033 -1865 0
28275 -3499 3033 1865 0
36286 -3499 3033 -1865 0
30160 -3499 -3033 1865 0
36569 -3499 -3033 -1865 0
5270 -3515 0
17160 1435 -2964 0
10725 -1435 2964 0
23595 -1435 -2964 0
1284 2380 2412 -3633 0
3210 2380 -2412 3633 0
4109 2380 -2412 -3633 0
214 -2380 2412 3633 0
1472 -2380 2412 -3633 0
3360 -2380 -2412 3633 0
4241 -2380 -2412 -3633 0
8560 -4080 0
2790 -4009 0
4750 1779 -2548 0
18050 -1779 2548 0
18287 -1779 -2548 0
17100 2524 -1693 0
7220 -2524 1693 0
17822 -2524 -1693 0
4030 -3754 0
2790 -1704 0
4030 3667 1242 -1921 0
2790 3667 -1242 1921 0
5006 3667 -1242 -1921 0
4030 -3667 1242 1921 0
5441 -3667 1242 -1921 0
5006 -3667 -1242 1921 0
5782 -3667 -1242 -1921 0
5148 1499 3177 -3022 0
25740 1499 -3177 3022 0
27799 1499 -3177 -3022 0
10725 -1499 3177 3022 0
14586 -1499 3177 -3022 0
30030 -1499 -3177 3022 0
31574 -1499 -3177 -3022 0
18850 3012 3042 2120 -2052 0
9425 3012 3042 -2120 2052 0
23562 3012 3042 -2120 -2052 0
1885 3012 -3042 2120 2052 0
19793 3012 -3042 2120 -2052 0
10839 3012 -3042 -2120 2052 0
24269 3012 -3042 -2120 -2052 0
32045 -3012 3042 2120 2052 0
34873 -3012 3042 2120 -2052 0
33459 -3012 3042 -2120 2052 0
35579 -3012 3042 -2120 -2052 0
32328 -3012 -3042 2120 2052 0
35014 -3012 -3042 2120 -2052 0
33671 -3012 -3042 -2120 2052 0
35685 -3012 -3042 -2120 -2052 0
2356 -3647 0
19305 -2468 0
7722 3284 2033 3803 -3654 0
16302 3284 2033 -3803 3654 0
21090 3284 2033 -3803 -3654 0
4290 3284 -2033 3803 3654 0
11240 3284 -2033 3803 -3654 0
18962 3284 -2033 -3803 3654 0
23271 3284 -2033 -3803 -3654 0
21450 -3284 2033 3803 3654 0
25311 -3284 2033 3803 -3654 0
29601 -3284 2033 -3803 3654 0
31995 -3284 2033 -3803 -3654 0
23595 -3284 -2033 3803 3654 0
27070 -3284 -2033 3803 -3654 0
30931 -3284 -2033 -3803 3654 0
33085 -3284 -2033 -3803 -3654 0
14250 2047 1673 1264 -3729 0
7220 2047 1673 -1264 3729 0
16055 2047 1673 -1264 -3729 0
3420 2047 -1673 1264 3729 0
15105 2047 -1673 1264 -3729 0
9340 2047 -1673 -1264 3729 0
16585 2047 -1673 -1264 -3729 0
6080 -2047 1673 1264 3729 0
15770 -2047 1673 1264 -3729 0
10990 -2047 1673 -1264 3729 0
16997 -2047 1673 -1264 -3729 0
8406 -2047 -1673 1264 3729 0
16351 -2047 -1673 1264 -3729 0
12431 -2047 -1673 -1264 3729 0
17358 -2047 -1673 -1264 -3729 0
3720 1433 3011 -2100 0
2790 1433 -3011 2100 0
4836 1433 -3011 -2100 0
744 -1433 3011 2100 0
4018 -1433 3011 -2100 0
3199 -1433 -3011 2100 0
5000 -1433 -3011 -2100 0
6650 2840 2498 -3185 0
6080 2840 -2498 3185 0
10602 2840 -2498 -3185 0
2280 -2840 2498 3185 0
8132 -2840 2498 -3185 0
7630 -2840 -2498 3185 0
11610 -2840 -2498 -3185 0
16302 -3628 0
6080 2862 -1389 0
6080 -2862 1389 0
10214 -2862 -1389 0
535 -2644 0
6786 2585 -1754 0
30160 -2585 1754 0
31517 -2585 -1754 0
4290 2473 1642 1434 2129 -3200 0
21450 2473 1642 1434 -2129 3200 0
23595 2473 1642 1434 -2129 -3200 0
12870 2473 1642 -1434 2129 3200 0
15873 2473 1642 -1434 2129 -3200 0
27885 2473 1642 -1434 -2129 3200 0
29387 2473 1642 -1434 -2129 -3200 0
10725 2473 -1642 1434 2129 3200 0
13942 2473 -1642 1434 2129 -3200 0
26812 2473 -1642 1434 -2129 3200 0
28421 2473 -1642 1434 -2129 -3200 0
20378 2473 -1642 -1434 2129 3200 0
22630 2473 -1642 -1434 2129 -3200 0
31639 2473 -1642 -1434 -2129 3200 0
32765 2473 -1642 -1434 -2129 -3200 0
8580 -2473 1642 1434 2129 3200 0
12012 -2473 1642 1434 2129 -3200 0
25740 -2473 1642 1434 -2129 3200 0
27456 -2473 1642 1434 -2129 -3200 0
18876 -2473 1642 -1434 2129 3200 0
21278 -2473 1642 -1434 2129 -3200 0
30888 -2473 1642 -1434 -2129 3200 0
32089 -2473 1642 -1434 -2129 -3200 0
17160 -2473 -1642 1434 2129 3200 0
19734 -2473 -1642 1434 2129 -3200 0
30030 -2473 -1642 1434 -2129 3200 0
31317 -2473 -1642 1434 -2129 -3200 0
24882 -2473 -1642 -1434 2129 3200 0
26684 -2473 -1642 -1434 2129 -3200 0
33891 -2473 -1642 -1434 -2129 3200 0
34792 -2473 -1642 -1434 -2129 -3200 0
12870 -4007 0
38610 -1550 0
34320 1283 2091 -2789 0
19305 1283 -2091 2789 0
38181 1283 -2091 -2789 0
858 -1283 2091 2789 0
34492 -1283 2091 -2789 0
19777 -1283 -2091 2789 0
38275 -1283 -2091 -2789 0
1070 -3195 0
3720 -3945 0
2170 -3810 0
2280 1993 3092 1713 1497 -3446 0
8550 1993 3092 1713 -1497 3446 0
9804 1993 3092 1713 -1497 -3446 0
5700 1993 3092 -1713 1497 3446 0
7296 1993 3092 -1713 1497 -3446 0
11685 1993 3092 -1713 -1497 3446 0
12563 1993 3092 -1713 -1497 -3446 0
9500 1993 -3092 1713 1497 3446 0
10640 1993 -3092 1713 1497 -3446 0
13775 1993 -3092 1713 -1497 3446 0
14402 1993 -3092 1713 -1497 -3446 0
12350 1993 -3092 -1713 1497 3446 0
13148 1993 -3092 -1713 1497 -3446 0
15343 1993 -3092 -1713 -1497 3446 0
15781 1993 -3092 -1713 -1497 -3446 0
11400 -1993 3092 1713 1497 3446 0
12312 -1993 3092 1713 1497 -3446 0
14820 -1993 3092 1713 -1497 3446 0
15322 -1993 3092 1713 -1497 -3446 0
13680 -1993 3092 -1713 1497 3446 0
14318 -1993 3092 -1713 1497 -3446 0
16074 -1993 3092 -1713 -1497 3446 0
16425 -1993 3092 -1713 -1497 -3446 0
15200 -1993 -3092 1713 1497 3446 0
15656 -1993 -3092 1713 1497 -3446 0
16910 -1993 -3092 1713 -1497 3446 0
17161 -1993 -3092 1713 -1497 -3446 0
16340 -1993 -3092 -1713 1497 3446 0
16659 -1993 -3092 -1713 1497 -3446 0
17537 -1993 -3092 -1713 -1497 3446 0
17713 -1993 -3092 -1713 -1497 -3446 0
4960 3588 -1819 0
4030 -3588 1819 0
5766 -3588 -1819 0
4750 -2272 0
15080 1729 2287 -1908 0
24505 1729 -2287 1908 0
29783 1729 -2287 -1908 0
3770 -1729 2287 1908 0
17342 -1729 2287 -1908 0
25825 -1729 -2287 1908 0
30575 -1729 -2287 -1908 0
15015 3214 2755 2439 -2270 0
10725 3214 2755 -2439 2270 0
21986 3214 2755 -2439 -2270 0
38610 3214 -2755 2439 2270 0
40112 3214 -2755 2439 -2270 0
39683 3214 -2755 -2439 2270 0
40809 3214 -2755 -2439 -2270 0
27885 -3214 2755 2439 2270 0
33140 -3214 2755 2439 -2270 0
31639 -3214 2755 -2439 2270 0
35580 -3214 2755 -2439 -2270 0
41399 -3214 -2755 2439 2270 0
41924 -3214 -2755 2439 -2270 0
41774 -3214 -2755 -2439 2270 0
42168 -3214 -2755 -2439 -2270 0
1284 1599 -1558 0
8560 -1599 1558 0
8817 -1599 -1558 0
36465 -3919 0
13195 1573 3890 -3718 0
22620 1573 -3890 3718 0
27898 1573 -3890 -3718 0
16965 -1573 3890 3718 0
24222 -1573 3890 -3718 0
29406 -1573 -3890 3718 0
32309 -1573 -3890 -3718 0
6420 1484 -1928 0
3745 -1484 1928 0
7918 -1484 -1928 0
3210 -2173 0
6650 3741 -1429 0
380 -3741 1429 0
6897 -3741 -1429 0
3800 2989 -1328 0
16150 -2989 1328 0
16720 -2989 -1328 0
4290 2223 -1397 0
19305 -2223 1397 0
21664 -2223 -1397 0
13300 1866 3305 -2973 0
2280 1866 -3305 2973 0
13984 1866 -3305 -2973 0
6080 -1866 3305 2973 0
15124 -1866 3305 -2973 0
7630 -1866 -3305 2973 0
15589 -1866 -3305 -2973 0
13728 1541 1752 1231 -1204 0
17160 1541 1752 -1231 1204 0
25397 1541 1752 -1231 -1204 0
858 1541 -1752 1231 1204 0
14311 1541 -1752 1231 -1204 0
17675 1541 -1752 -1231 1204 0
25747 1541 -1752 -1231 -1204 0
17160 -1541 1752 1231 1204 0
25397 -1541 1752 1231 -1204 0
27456 -1541 1752 -1231 1204 0
32398 -1541 1752 -1231 -1204 0
17675 -1541 -1752 1231 1204 0
25747 -1541 -1752 1231 -1204 0
27765 -1541 -1752 -1231 1204 0
32608 -1541 -1752 -1231 -1204 0
5270 -3625 0
1070 4053 1980 4063 -3537 0
3210 4053 1980 -4063 3537 0
3959 4053 1980 -4063 -3537 0
214 4053 -1980 4063 3537 0
1263 4053 -1980 4063 -3537 0
3360 4053 -1980 -4063 3537 0
4094 4053 -1980 -4063 -3537 0
4280 -4053 1980 4063 3537 0
4922 -4053 1980 4063 -3537 0
6206 -4053 1980 -4063 3537 0
6655 -4053 1980 -4063 -3537 0
4408 -4053 -1980 4063 3537 0
5038 -4053 -1980 4063 -3537 0
6296 -4053 -1980 -4063 3537 0
6736 -4053 -1980 -4063 -3537 0
17100 1727 -1799 0
17100 -1727 1799 0
18810 -1727 -1799 0
1284 3480 2250 -1272 0
8560 3480 -2250 1272 0
8817 3480 -2250 -1272 0
1926 -3480 2250 1272 0
2979 -3480 2250 -1272 0
8945 -3480 -2250 1272 0
9156 -3480 -2250 -1272 0
7722 3862 3688 3289 1591 -2574 0
16302 3862 3688 3289 -1591 2574 0
21090 3862 3688 3289 -1591 -2574 0
23595 3862 3688 -3289 1591 2574 0
27070 3862 3688 -3289 1591 -2574 0
30931 3862 3688 -3289 -1591 2574 0
33085 3862 3688 -3289 -1591 -2574 0
8580 3862 -3688 3289 1591 2574 0
14758 3862 -3688 3289 1591 -2574 0
21622 3862 -3688 3289 -1591 2574 0
25452 3862 -3688 3289 -1591 -2574 0
27456 3862 -3688 -3289 1591 2574 0
30236 3862 -3688 -3289 1591 -2574 0
33325 3862 -3688 -3289 -1591 2574 0
35048 3862 -3688 -3289 -1591 -2574 0
40755 -3862 3688 3289 1591 2574 0
41141 -3862 3688 3289 1591 -2574 0
41570 -3862 3688 3289 -1591 2574 0
41809 -3862 3688 3289 -1591 -2574 0
41935 -3862 3688 -3289 1591 2574 0
42108 -3862 3688 -3289 1591 -2574 0
42302 -3862 3688 -3289 -1591 2574 0
42409 -3862 3688 -3289 -1591 -2574 0
41184 -3862 -3688 3289 1591 2574 0
41493 -3862 -3688 3289 1591 -2574 0
41836 -3862 -3688 3289 -1591 2574 0
42028 -3862 -3688 3289 -1591 -2574 0
42128 -3862 -3688 -3289 1591 2574 0
42267 -3862 -3688 -3289 1591 -2574 0
42421 -3862 -3688 -3289 -1591 2574 0
42507 -3862 -3688 -3289 -1591 -2574 0
6650 1254 3098 -2127 0
6650 1254 -3098 2127 0
10972 1254 -3098 -2127 0
1900 -1254 3098 2127 0
7885 -1254 3098 -2127 0
7885 -1254 -3098 2127 0
11775 -1254 -3098 -2127 0
1900 3771 1369 1223 1632 3388 -1985 0
6080 3771 1369 1223 1632 -3388 1985 0
7372 3771 1369 1223 1632 -3388 -1985 0
12350 3771 1369 1223 -1632 3388 1985 0
13015 3771 1369 1223 -1632 3388 -1985 0
14478 3771 1369 1223 -1632 -3388 1985 0
14930 3771 1369 1223 -1632 -3388 -1985 0
2280 3771 1369 -1223 1632 3388 1985 0
3952 3771 1369 -1223 1632 3388 -1985 0
7630 3771 1369 -1223 1632 -3388 1985 0
8767 3771 1369 -1223 1632 -3388 -1985 0
13148 3771 1369 -1223 -1632 3388 1985 0
13733 3771 1369 -1223 -1632 3388 -1985 0
15021 3771 1369 -1223 -1632 -3388 1985 0
15419 3771 1369 -1223 -1632 -3388 -1985 0
3800 3771 -1369 1223 1632 3388 1985 0
5320 3771 -1369 1223 1632 3388 -1985 0
8664 3771 -1369 1223 1632 -3388 1985 0
9698 3771 -1369 1223 1632 -3388 -1985 0
13680 3771 -1369 1223 -1632 3388 1985 0
14212 3771 -1369 1223 -1632 3388 -1985 0
15382 3771 -1369 1223 -1632 -3388 1985 0
15744 3771 -1369 1223 -1632 -3388 -1985 0
5624 3771 -1369 -1223 1632 3388 1985 0
6962 3771 -1369 -1223 1632 3388 -1985 0
9904 3771 -1369 -1223 1632 -3388 1985 0
10814 3771 -1369 -1223 1632 -3388 -1985 0
14318 3771 -1369 -1223 -1632 3388 1985 0
14787 3771 -1369 -1223 -1632 3388 -1985 0
15817 3771 -1369 -1223 -1632 -3388 1985 0
16135 3771 -1369 -1223 -1632 -3388 -1985 0
11400 -3771 1369 1223 1632 3388 1985 0
12160 -3771 1369 1223 1632 3388 -1985 0
13832 -3771 1369 1223 1632 -3388 1985 0
14349 -3771 1369 1223 1632 -3388 -1985 0
16340 -3771 1369 1223 -1632 3388 1985 0
16606 -3771 1369 1223 -1632 3388 -1985 0
17191 -3771 1369 1223 -1632 -3388 1985 0
17372 -3771 1369 1223 -1632 -3388 -1985 0
12312 -3771 1369 -1223 1632 3388 1985 0
12981 -3771 1369 -1223 1632 3388 -1985 0
14452 -3771 1369 -1223 1632 -3388 1985 0
14907 -3771 1369 -1223 1632 -3388 -1985 0
16659 -3771 1369 -1223 -1632 3388 1985 0
16893 -3771 1369 -1223 -1632 3388 -1985 0
17408 -3771 1369 -1223 -1632 -3388 1985 0
17567 -3771 1369 -1223 -1632 -3388 -1985 0
12920 -3771 -1369 1223 1632 3388 1985 0
13528 -3771 -1369 1223 1632 3388 -1985 0
14866 -3771 -1369 1223 1632 -3388 1985 0
15279 -3771 -1369 1223 1632 -3388 -1985 0
16872 -3771 -1369 1223 -1632 3388 1985 0
17085 -3771 -1369 1223 -1632 3388 -1985 0
17553 -3771 -1369 1223 -1632 -3388 1985 0
17698 -3771 -1369 1223 -1632 -3388 -1985 0
13650 -3771 -1369 -1223 1632 3388 1985 0
14185 -3771 -1369 -1223 1632 3388 -1985 0
15362 -3771 -1369 -1223 1632 -3388 1985 0
15726 -3771 -1369 -1223 1632 -3388 -1985 0
17127 -3771 -1369 -1223 -1632 3388 1985 0
17315 -3771 -1369 -1223 -1632 3388 -1985 0
17727 -3771 -1369 -1223 -1632 -3388 1985 0
17854 -3771 -1369 -1223 -1632 -3388 -1985 0
754 1560 3617 2149 -1961 0
12064 1560 3617 -2149 1961 0
12577 1560 3617 -2149 -1961 0
5655 1560 -3617 2149 1961 0
6296 1560 -3617 2149 -1961 0
15909 1560 -3617 -2149 1961 0
16345 1560 -3617 -2149 -1961 0
12064 -1560 3617 2149 1961 0
12577 -1560 3617 2149 -1961 0
20268 -1560 3617 -2149 1961 0
20616 -1560 3617 -2149 -1961 0
15909 -1560 -3617 2149 1961 0
16345 -1560 -3617 2149 -1961 0
22882 -1560 -3617 -2149 1961 0
23179 -1560 -3617 -2149 -1961 0
5890 -3444 0
9095 2369 -3365 0
9095 -2369 3365 0
10459 -2369 -3365 0
6080 1213 2078 3568 -3497 0
1900 1213 2078 -3568 3497 0
7372 1213 2078 -3568 -3497 0
17100 1213 -2078 3568 3497 0
17708 1213 -2078 3568 -3497 0
17290 1213 -2078 -3568 3497 0
17837 1213 -2078 -3568 -3497 0
7600 -1213 2078 3568 3497 0
11248 -1213 2078 3568 -3497 0
8740 -1213 2078 -3568 3497 0
12023 -1213 2078 -3568 -3497 0
17860 -1213 -2078 3568 3497 0
18225 -1213 -2078 3568 -3497 0
17974 -1213 -2078 -3568 3497 0
18302 -1213 -2078 -3568 -3497 0
22620 2897 -2927 0
6786 -2897 2927 0
25334 -2897 -2927 0
13300 2323 -1610 0
380 -2323 1610 0
13414 -2323 -1610 0
4280 2796 3339 -3411 0
2140 2796 -3339 3411 0
5564 2796 -3339 -3411 0
3424 -2796 3339 3411 0
6334 -2796 3339 -3411 0
4879 -2796 -3339 3411 0
7208 -2796 -3339 -3411 0
17160 4047 -1697 0
32175 -4047 1697 0
36465 -4047 -1697 0
15080 -2941 0
17160 1404 1508 1986 2278 -1567 0
16302 1404 1508 1986 -2278 1567 0
26941 1404 1508 1986 -2278 -1567 0
12870 1404 1508 -1986 2278 1567 0
24882 1404 1508 -1986 2278 -1567 0
24281 1404 1508 -1986 -2278 1567 0
31729 1404 1508 -1986 -2278 -1567 0
858 1404 -1508 1986 2278 1567 0
17675 1404 -1508 1986 2278 -1567 0
16834 1404 -1508 1986 -2278 1567 0
27260 1404 -1508 1986 -2278 -1567 0
13471 1404 -1508 -1986 2278 1567 0
25242 1404 -1508 -1986 2278 -1567 0
24654 1404 -1508 -1986 -2278 1567 0
31952 1404 -1508 -1986 -2278 -1567 0
25740 -1404 1508 1986 2278 1567 0
32604 -1404 1508 1986 2278 -1567 0
32261 -1404 1508 1986 -2278 1567 0
36516 -1404 1508 1986 -2278 -1567 0
30888 -1404 1508 -1986 2278 1567 0
35693 -1404 1508 -1986 2278 -1567 0
35453 -1404 1508 -1986 -2278 1567 0
38432 -1404 1508 -1986 -2278 -1567 0
26083 -1404 -1508 1986 2278 1567 0
32810 -1404 -1508 1986 2278 -1567 0
32474 -1404 -1508 1986 -2278 1567 0
36644 -1404 -1508 1986 -2278 -1567 0
31128 -1404 -1508 -1986 2278 1567 0
35837 -1404 -1508 -1986 2278 -1567 0
35602 -1404 -1508 -1986 -2278 1567 0
38521 -1404 -1508 -1986 -2278 -1567 0
2356 2627 -4011 0
4650 -2627 4011 0
5239 -2627 -4011 0
15080 1637 3934 1348 -3192 0
33930 1637 3934 -1348 3192 0
35438 1637 3934 -1348 -3192 0
32045 1637 -3934 1348 3192 0
34307 1637 -3934 1348 -3192 0
37134 1637 -3934 -1348 3192 0
37361 1637 -3934 -1348 -3192 0
7540 -1637 3934 1348 3192 0
19604 -1637 3934 1348 -3192 0
34684 -1637 3934 -1348 3192 0
35890 -1637 3934 -1348 -3192 0
33176 -1637 -3934 1348 3192 0
34986 -1637 -3934 1348 -3192 0
37248 -1637 -3934 -1348 3192 0
37429 -1637 -3934 -1348 -3192 0
7722 2343 1735 3131 -4021 0
40755 2343 1735 -3131 4021 0
41141 2343 1735 -3131 -4021 0
23595 2343 -1735 3131 4021 0
27070 2343 -1735 3131 -4021 0
41935 2343 -1735 -3131 4021 0
42108 2343 -1735 -3131 -4021 0
16302 -2343 1735 3131 4021 0
21090 -2343 1735 3131 -4021 0
41570 -2343 1735 -3131 4021 0
41809 -2343 1735 -3131 -4021 0
30931 -2343 -1735 3131 4021 0
33085 -2343 -1735 3131 -4021 0
42302 -2343 -1735 -3131 4021 0
42409 -2343 -1735 -3131 -4021 0
33930 2511 -3856 0
20735 -2511 3856 0
36004 -2511 -3856 0
26390 -1208 0
16965 1636 3569 1907 2300 -3039 0
33930 1636 3569 1907 -2300 3039 0
35627 1636 3569 1907 -2300 -3039 0
1885 1636 3569 -1907 2300 3039 0
18002 1636 3569 -1907 2300 -3039 0
34119 1636 3569 -1907 -2300 3039 0
35730 1636 3569 -1907 -2300 -3039 0
1885 1636 -3569 1907 2300 3039 0
18002 1636 -3569 1907 2300 -3039 0
34119 1636 -3569 1907 -2300 3039 0
35730 1636 -3569 1907 -2300 -3039 0
3676 1636 -3569 -1907 2300 3039 0
18987 1636 -3569 -1907 2300 -3039 0
34298 1636 -3569 -1907 -2300 3039 0
35829 1636 -3569 -1907 -2300 -3039 0
24505 -1636 3569 1907 2300 3039 0
30443 -1636 3569 1907 2300 -3039 0
36381 -1636 3569 1907 -2300 3039 0
36974 -1636 3569 1907 -2300 -3039 0
25165 -1636 3569 -1907 2300 3039 0
30806 -1636 3569 -1907 2300 -3039 0
36446 -1636 3569 -1907 -2300 3039 0
37011 -1636 3569 -1907 -2300 -3039 0
25165 -1636 -3569 1907 2300 3039 0
30806 -1636 -3569 1907 2300 -3039 0
36446 -1636 -3569 1907 -2300 3039 0
37011 -1636 -3569 1907 -2300 -3039 0
25792 -1636 -3569 -1907 2300 3039 0
31150 -1636 -3569 -1907 2300 -3039 0
36509 -1636 -3569 -1907 -2300 3039 0
37045 -1636 -3569 -1907 -2300 -3039 0
3420 1869 -1959 0
14250 -1869 1959 0
15105 -1869 -1959 0
1885 -2289 0
22620 -3146 0
4290 2189 3338 2092 2055 -1925 0
8580 2189 3338 2092 -2055 1925 0
12012 2189 3338 2092 -2055 -1925 0
23595 2189 3338 -2092 2055 1925 0
25525 2189 3338 -2092 2055 -1925 0
27456 2189 3338 -2092 -2055 1925 0
29000 2189 3338 -2092 -2055 -1925 0
8580 2189 -3338 2092 2055 1925 0
12012 2189 -3338 2092 2055 -1925 0
15444 2189 -3338 2092 -2055 1925 0
18190 2189 -3338 2092 -2055 -1925 0
27456 2189 -3338 -2092 2055 1925 0
29000 2189 -3338 -2092 2055 -1925 0
30545 2189 -3338 -2092 -2055 1925 0
31780 2189 -3338 -2092 -2055 -1925 0
10725 -2189 3338 2092 2055 1925 0
13942 -2189 3338 2092 2055 -1925 0
17160 -2189 3338 2092 -2055 1925 0
19734 -2189 3338 2092 -2055 -1925 0
28421 -2189 3338 -2092 2055 1925 0
29869 -2189 3338 -2092 2055 -1925 0
31317 -2189 3338 -2092 -2055 1925 0
32475 -2189 3338 -2092 -2055 -1925 0
17160 -2189 -3338 2092 2055 1925 0
19734 -2189 -3338 2092 2055 -1925 0
22308 -2189 -3338 2092 -2055 1925 0
24367 -2189 -3338 2092 -2055 -1925 0
31317 -2189 -3338 -2092 2055 1925 0
32475 -2189 -3338 -2092 2055 -1925 0
33634 -2189 -3338 -2092 -2055 1925 0
34560 -2189 -3338 -2092 -2055 -1925 0
380 2561 -2073 0
1900 -2561 2073 0
2242 -2561 -2073 0
7600 -2256 0
7722 3204 -2527 0
5148 -3204 2527 0
11943 -3204 -2527 0
15200 1510 3474 2056 -3547 0
6080 1510 3474 -2056 3547 0
16416 1510 3474 -2056 -3547 0
7220 1510 -3474 2056 3547 0
16644 1510 -3474 2056 -3547 0
10990 1510 -3474 -2056 3547 0
17398 1510 -3474 -2056 -3547 0
14250 -1510 3474 2056 3547 0
18050 -1510 3474 2056 -3547 0
15770 -1510 3474 -2056 3547 0
18354 -1510 3474 -2056 -3547 0
16055 -1510 -3474 2056 3547 0
18411 -1510 -3474 2056 -3547 0
16997 -1510 -3474 -2056 3547 0
18599 -1510 -3474 -2056 -3547 0
930 3178 3123 -3786 0
3100 3178 -3123 3786 0
3565 3178 -3123 -3786 0
3410 -3178 3123 3786 0
3829 -3178 3123 -3786 0
4805 -3178 -3123 3786 0
5014 -3178 -3123 -3786 0
3770 -4061 0
33930 3453 -1450 0
5655 -3453 1450 0
34496 -3453 -1450 0
9095 1453 -3078 0
4066 -1453 3078 0
9705 -1453 -3078 0
5270 2976 -3414 0
744 -2976 3414 0
5382 -2976 -3414 0
1926 -1828 0
16150 1773 2454 -2836 0
18050 1773 -2454 2836 0
18857 1773 -2454 -2836 0
15200 -1773 2454 2836 0
18430 -1773 2454 -2836 0
18810 -1773 -2454 2836 0
18971 -1773 -2454 -2836 0
7540 4024 -2822 0
24505 -4024 2822 0
27144 -4024 -2822 0
6080 1346 -3368 0
6650 -1346 3368 0
10602 -1346 -3368 0
14326 2421 -3959 0
754 -2421 3959 0
14793 -2421 -3959 0
1860 -2267 0
32175 2385 -2769 0
2145 -2385 2769 0
32711 -2385 -2769 0
5885 2869 1294 -3057 0
4815 2869 -1294 3057 0
8052 2869 -1294 -3057 0
7490 -2869 1294 3057 0
9255 -2869 1294 -3057 0
8934 -2869 -1294 3057 0
9906 -2869 -1294 -3057 0
3420 1809 -1503 0
1900 -1809 1503 0
4978 -1809 -1503 0
9095 1205 -3506 0
1926 -1205 3506 0
9384 -1205 -3506 0
2280 1844 2686 3813 1478 -1531 0
1900 1844 2686 3813 -1478 1531 0
3952 1844 2686 3813 -1478 -1531 0
11400 1844 2686 -3813 1478 1531 0
12312 1844 2686 -3813 1478 -1531 0
12160 1844 2686 -3813 -1478 1531 0
12981 1844 2686 -3813 -1478 -1531 0
2850 1844 -2686 3813 1478 1531 0
4788 1844 -2686 3813 1478 -1531 0
4465 1844 -2686 3813 -1478 1531 0
6209 1844 -2686 3813 -1478 -1531 0
12540 1844 -2686 -3813 1478 1531 0
13315 1844 -2686 -3813 1478 -1531 0
13186 1844 -2686 -3813 -1478 1531 0
13884 1844 -2686 -3813 -1478 -1531 0
2280 -1844 2686 3813 1478 1531 0
4286 -1844 2686 3813 1478 -1531 0
3952 -1844 2686 3813 -1478 1531 0
5758 -1844 2686 3813 -1478 -1531 0
12312 -1844 2686 -3813 1478 1531 0
13115 -1844 2686 -3813 1478 -1531 0
12981 -1844 2686 -3813 -1478 1531 0
13703 -1844 2686 -3813 -1478 -1531 0
4788 -1844 -2686 3813 1478 1531 0
6493 -1844 -2686 3813 1478 -1531 0
6209 -1844 -2686 3813 -1478 1531 0
7744 -1844 -2686 3813 -1478 -1531 0
13315 -1844 -2686 -3813 1478 1531 0
13997 -1844 -2686 -3813 1478 -1531 0
13884 -1844 -2686 -3813 -1478 1531 0
14498 -1844 -2686 -3813 -1478 -1531 0
5885 -3838 0
4066 2642 2988 -4065 0
535 2642 -2988 4065 0
4398 2642 -2988 -4065 0
9630 -2642 2988 4065 0
10037 -2642 2988 -4065 0
9684 -2642 -2988 4065 0
10070 -2642 -2988 -4065 0
1070 1910 1587 1639 -2946 0
1284 1910 1587 -1639 2946 0
2226 1910 1587 -1639 -2946 0
3745 1910 -1587 1639 2946 0
4440 1910 -1587 1639 -2946 0
4580 1910 -1587 -1639 2946 0
5192 1910 -1587 -1639 -2946 0
3424 -1910 1587 1639 2946 0
4152 -1910 1587 1639 -2946 0
4297 -1910 1587 -1639 2946 0
4937 -1910 1587 -1639 -2946 0
5971 -1910 -1587 1639 2946 0
6444 -1910 -1587 1639 -2946 0
6538 -1910 -1587 -1639 2946 0
6954 -1910 -1587 -1639 -2946 0
18050 -1846 0
2280 -2657 0
5148 1219 -1482 0
25740 -1219 1482 0
27799 -1219 -1482 0
1860 1291 2814 -2096 0
2790 1291 -2814 2096 0
3813 1291 -2814 -2096 0
2480 -1291 2814 2096 0
3596 -1291 2814 -2096 0
4154 -1291 -2814 2096 0
4768 -1291 -2814 -2096 0
3100 3455 -3438 0
4340 -3455 3438 0
5270 -3455 -3438 0
13728 -2766 0
950 3709 -2335 0
17100 -3709 2335 0
17195 -3709 -2335 0
40755 -3618 0
5700 2342 3699 -2200 0
13300 2342 -3699 2200 0
15010 2342 -3699 -2200 0
11400 -2342 3699 2200 0
13680 -2342 3699 -2200 0
16720 -2342 -3699 2200 0
17404 -2342 -3699 -2200 0
15080 3279 -3619 0
30160 -3279 3619 0
33176 -3279 -3619 0
6080 -3470 0
35815 -3419 0
1550 1293 2117 -2854 0
2790 1293 -2117 2854 0
3642 1293 -2117 -2854 0
1984 -1293 2117 2854 0
3038 -1293 2117 -2854 0
3881 -1293 -2117 2854 0
4461 -1293 -2117 -2854 0
4280 3229 2737 -3519 0
2140 3229 -2737 3519 0
5564 3229 -2737 -3519 0
535 -3229 2737 3519 0
4601 -3229 2737 -3519 0
2568 -3229 -2737 3519 0
5821 -3229 -2737 -3519 0
19305 -1914 0
3210 -3672 0
27885 2558 -2480 0
10725 -2558 2480 0
31639 -2558 -2480 0
30030 4027 1671 -2057 0
32175 4027 -1671 2057 0
39683 4027 -1671 -2057 0
13728 -4027 1671 2057 0
34148 -4027 1671 -2057 0
35607 -4027 -1671 2057 0
40712 -4027 -1671 -2057 0
17160 1540 -3609 0
32175 -1540 3609 0
36465 -1540 -3609 0
3100 -3071 0
18850 2153 -1588 0
3770 -2153 1588 0
20735 -2153 -1588 0
4960 2633 4078 3362 -3580 0
5270 2633 4078 -3362 3580 0
6014 2633 4078 -3362 -3580 0
310 2633 -4078 3362 3580 0
5022 2633 -4078 3362 -3580 0
5316 2633 -4078 -3362 3580 0
6023 2633 -4078 -3362 -3580 0
930 -2633 4078 3362 3580 0
5146 -2633 4078 3362 -3580 0
5410 -2633 4078 -3362 3580 0
6042 -2633 4078 -3362 -3580 0
1194 -2633 -4078 3362 3580 0
5199 -2633 -4078 3362 -3580 0
5449 -2633 -4078 -3362 3580 0
6050 -2633 -4078 -3362 -3580 0
23595 3384 1534 1225 -1583 0
10725 3384 1534 -1225 1583 0
28421 3384 1534 -1225 -1583 0
23595 3384 -1534 1225 1583 0
34213 3384 -1534 1225 -1583 0
28421 3384 -1534 -1225 1583 0
36385 3384 -1534 -1225 -1583 0
12870 -3384 1534 1225 1583 0
29387 -3384 1534 1225 -1583 0
20378 -3384 1534 -1225 1583 0
32765 -3384 1534 -1225 -1583 0
29387 -3384 -1534 1225 1583 0
36819 -3384 -1534 1225 -1583 0
32765 -3384 -1534 -1225 1583 0
38339 -3384 -1534 -1225 -1583 0
5148 1445 -3811 0
16302 -1445 3811 0
19494 -1445 -3811 0
950 2286 3129 1444 -3376 0
9500 2286 3129 -1444 3376 0
9975 2286 3129 -1444 -3376 0
380 2286 -3129 1444 3376 0
1311 2286 -3129 1444 -3376 0
9690 2286 -3129 -1444 3376 0
10155 2286 -3129 -1444 -3376 0
5700 -2286 3129 1444 3376 0
6365 -2286 3129 1444 -3376 0
12350 -2286 3129 -1444 3376 0
12683 -2286 3129 -1444 -3376 0
5966 -2286 -3129 1444 3376 0
6618 -2286 -3129 1444 -3376 0
12483 -2286 -3129 -1444 3376 0
12809 -2286 -3129 -1444 -3376 0
22620 2545 2185 -1535 0
5655 2545 -2185 1535 0
24882 2545 -2185 -1535 0
24505 -2545 2185 1535 0
32422 -2545 2185 -1535 0
26484 -2545 -2185 1535 0
33214 -2545 -2185 -1535 0
2356 -2494 0
13728 3066 2070 -2509 0
6435 3066 -2070 2509 0
18104 3066 -2070 -2509 0
34320 -3066 2070 2509 0
37066 -3066 2070 -2509 0
35607 -3066 -2070 2509 0
37941 -3066 -2070 -2509 0
22620 3993 3147 -3767 0
35815 3993 -3147 3767 0
36946 3993 -3147 -3767 0
754 -3993 3147 3767 0
22922 -3993 3147 -3767 0
35853 -3993 -3147 3767 0
36961 -3993 -3147 -3767 0
11400 3521 -2042 0
12350 -3521 2042 0
16340 -3521 -2042 0
7540 -2928 0
5890 -2808 0
21450 -3196 0
20735 3653 1868 -1717 0
22620 3653 -1868 1717 0
30914 3653 -1868 -1717 0
6786 -3653 1868 1717 0
23789 -3653 1868 -1717 0
25334 -3653 -1868 1717 0
32135 -3653 -1868 -1717 0
11400 1463 1312 1458 -2565 0
8550 1463 1312 -1458 2565 0
14820 1463 1312 -1458 -2565 0
1900 1463 -1312 1458 2565 0
12160 1463 -1312 1458 -2565 0
9595 1463 -1312 -1458 2565 0
15238 1463 -1312 -1458 -2565 0
7220 -1463 1312 1458 2565 0
14288 -1463 1312 1458 -2565 0
12521 -1463 1312 -1458 2565 0
16408 -1463 1312 -1458 -2565 0
8398 -1463 -1312 1458 2565 0
14759 -1463 -1312 1458 -2565 0
13169 -1463 -1312 -1458 2565 0
16668 -1463 -1312 -1458 -2565 0
2790 -1568 0
12870 1942 1370 1759 -2228 0
8580 1942 1370 -1759 2228 0
18876 1942 1370 -1759 -2228 0
30030 1942 -1370 1759 2228 0
33891 1942 -1370 1759 -2228 0
32604 1942 -1370 -1759 2228 0
35693 1942 -1370 -1759 -2228 0
19305 -1942 1370 1759 2228 0
26383 -1942 1370 1759 -2228 0
24024 -1942 1370 -1759 2228 0
29687 -1942 1370 -1759 -2228 0
35821 -1942 -1370 1759 2228 0
37945 -1942 -1370 1759 -2228 0
37237 -1942 -1370 -1759 2228 0
38936 -1942 -1370 -1759 -2228 0
13300 2080 2463 1281 -2382 0
8550 2080 2463 -1281 2382 0
15865 2080 2463 -1281 -2382 0
380 2080 -2463 1281 2382 0
13414 2080 -2463 1281 -2382 0
8759 2080 -2463 -1281 2382 0
15928 2080 -2463 -1281 -2382 0
6650 -2080 2463 1281 2382 0
15295 -2080 2463 1281 -2382 0
12207 -2080 2463 -1281 2382 0
16962 -2080 2463 -1281 -2382 0
6897 -2080 -2463 1281 2382 0
15369 -2080 -2463 1281 -2382 0
12343 -2080 -2463 -1281 2382 0
17003 -2080 -2463 -1281 -2382 0
3424 2963 -1815 0
1926 -2963 1815 0
4734 -2963 -1815 0
32045 -2540 0
3770 1320 -3978 0
14326 -1320 3978 0
16663 -1320 -3978 0
26390 -3662 0
9425 2933 3186 1513 2231 3082 -2013 0
4524 2933 3186 1513 2231 -3082 2013 0
12818 2933 3186 1513 2231 -3082 -2013 0
5655 2933 3186 1513 -2231 3082 2013 0
13666 2933 3186 1513 -2231 3082 -2013 0
9500 2933 3186 1513 -2231 -3082 2013 0
16550 2933 3186 1513 -2231 -3082 -2013 0
26390 2933 3186 -1513 2231 3082 2013 0
29217 2933 3186 -1513 2231 3082 -2013 0
27747 2933 3186 -1513 2231 -3082 2013 0
30235 2933 3186 -1513 2231 -3082 -2013 0
28087 2933 3186 -1513 -2231 3082 2013 0
30490 2933 3186 -1513 -2231 3082 -2013 0
29240 2933 3186 -1513 -2231 -3082 2013 0
31355 2933 3186 -1513 -2231 -3082 -2013 0
11310 2933 -3186 1513 2231 3082 2013 0
17908 2933 -3186 1513 2231 3082 -2013 0
14477 2933 -3186 1513 2231 -3082 2013 0
20283 2933 -3186 1513 2231 -3082 -2013 0
15269 2933 -3186 1513 -2231 3082 2013 0
20876 2933 -3186 1513 -2231 3082 -2013 0
17960 2933 -3186 1513 -2231 -3082 2013 0
22895 2933 -3186 1513 -2231 -3082 -2013 0
29783 2933 -3186 -1513 2231 3082 2013 0
31762 2933 -3186 -1513 2231 3082 -2013 0
30733 2933 -3186 -1513 2231 -3082 2013 0
32475 2933 -3186 -1513 2231 -3082 -2013 0
30971 2933 -3186 -1513 -2231 3082 2013 0
32653 2933 -3186 -1513 -2231 3082 -2013 0
31778 2933 -3186 -1513 -2231 -3082 2013 0
33259 2933 -3186 -1513 -2231 -3082 -2013 0
35815 -2933 3186 1513 2231 3082 2013 0
36286 -2933 3186 1513 2231 3082 -2013 0
36041 -2933 3186 1513 2231 -3082 2013 0
36456 -2933 3186 1513 2231 -3082 -2013 0
36098 -2933 3186 1513 -2231 3082 2013 0
36498 -2933 3186 1513 -2231 3082 -2013 0
36290 -2933 3186 1513 -2231 -3082 2013 0
36643 -2933 3186 1513 -2231 -3082 -2013 0
37134 -2933 3186 -1513 2231 3082 2013 0
37276 -2933 3186 -1513 2231 3082 -2013 0
37202 -2933 3186 -1513 2231 -3082 2013 0
37327 -2933 3186 -1513 2231 -3082 -2013 0
37219 -2933 3186 -1513 -2231 3082 2013 0
37339 -2933 3186 -1513 -2231 3082 -2013 0
37277 -2933 3186 -1513 -2231 -3082 2013 0
37383 -2933 3186 -1513 -2231 -3082 -2013 0
36381 -2933 -3186 1513 2231 3082 2013 0
36710 -2933 -3186 1513 2231 3082 -2013 0
36539 -2933 -3186 1513 2231 -3082 2013 0
36829 -2933 -3186 1513 2231 -3082 -2013 0
36578 -2933 -3186 1513 -2231 3082 2013 0
36859 -2933 -3186 1513 -2231 3082 -2013 0
36713 -2933 -3186 1513 -2231 -3082 2013 0
36960 -2933 -3186 1513 -2231 -3082 -2013 0
37304 -2933 -3186 -1513 2231 3082 2013 0
37403 -2933 -3186 -1513 2231 3082 -2013 0
37352 -2933 -3186 -1513 2231 -3082 2013 0
37439 -2933 -3186 -1513 2231 -3082 -2013 0
37364 -2933 -3186 -1513 -2231 3082 2013 0
37448 -2933 -3186 -1513 -2231 3082 -2013 0
37404 -2933 -3186 -1513 -2231 -3082 2013 0
37478 -2933 -3186 -1513 -2231 -3082 -2013 0
7490 -1741 0
744 -1543 0
620 2095 -1226 0
5580 -2095 1226 0
5642 -2095 -1226 0
30030 1976 3539 2940 -2616 0
5148 1976 3539 -2940 2616 0
31574 1976 3539 -2940 -2616 0
7722 1976 -3539 2940 2616 0
32347 1976 -3539 2940 -2616 0
11943 1976 -3539 -2940 2616 0
33613 1976 -3539 -2940 -2616 0
40755 -1976 3539 2940 2616 0
42256 -1976 3539 2940 -2616 0
41012 -1976 3539 -2940 2616 0
42334 -1976 3539 -2940 -2616 0
41141 -1976 -3539 2940 2616 0
42372 -1976 -3539 2940 -2616 0
41352 -1976 -3539 -2940 2616 0
42436 -1976 -3539 -2940 -2616 0
5885 2601 -1805 0
214 -2601 1805 0
5981 -2601 -1805 0
1284 -3135 0
1900 3387 -1939 0
17100 -3387 1939 0
17290 -3387 -1939 0
535 1676 -3256 0
3424 -1676 3256 0
3788 -1676 -3256 0
930 -1256 0
19305 3350 2666 2183 -2357 0
21450 3350 2666 -2183 2357 0
31102 3350 2666 -2183 -2357 0
19305 3350 -2666 2183 2357 0
29923 3350 -2666 2183 -2357 0
31102 3350 -2666 -2183 2357 0
36411 3350 -2666 -2183 -2357 0
25740 -3350 2666 2183 2357 0
33462 -3350 2666 2183 -2357 0
34320 -3350 2666 -2183 2357 0
38181 -3350 2666 -2183 -2357 0
33462 -3350 -2666 2183 2357 0
37709 -3350 -2666 2183 -2357 0
38181 -3350 -2666 -2183 2357 0
40305 -3350 -2666 -2183 -2357 0
3800 2705 -2797 0
7600 -2705 2797 0
9880 -2705 -2797 0
4524 2688 -1880 0
26390 -2688 1880 0
27747 -2688 -1880 0
1116 -1488 0
2280 -2002 0
21450 2089 -1476 0
25740 -2089 1476 0
34320 -2089 -1476 0
27885 -1624 0
2356 2794 -2720 0
5580 -2794 2720 0
5816 -2794 -2720 0
7600 2265 2273 -3769 0
380 2265 -2273 3769 0
7828 2265 -2273 -3769 0
6650 -2265 2273 3769 0
11590 -2265 2273 -3769 0
6897 -2265 -2273 3769 0
11738 -2265 -2273 -3769 0
930 1621 1850 2406 -1331 0
5270 1621 1850 -2406 1331 0
5410 1621 1850 -2406 -1331 0
2170 1621 -1850 2406 1331 0
2775 1621 -1850 2406 -1331 0
5595 1621 -1850 -2406 1331 0
5686 1621 -1850 -2406 -1331 0
4340 -1621 1850 2406 1331 0
4619 -1621 1850 2406 -1331 0
5921 -1621 1850 -2406 1331 0
5963 -1621 1850 -2406 -1331 0
4991 -1621 -1850 2406 1331 0
5172 -1621 -1850 2406 -1331 0
6019 -1621 -1850 -2406 1331 0
6046 -1621 -1850 -2406 -1331 0
8560 2311 -2360 0
2140 -2311 2360 0
8988 -2311 -2360 0
214 -1797 0
6435 2350 -1761 0
5148 -2350 1761 0
10811 -2350 -1761 0
858 2795 1427 -3208 0
34320 2795 -1427 3208 0
34492 2795 -1427 -3208 0
34320 -2795 1427 3208 0
34492 -2795 1427 -3208 0
41184 -2795 -1427 3208 0
41218 -2795 -1427 -3208 0
32175 -3025 0
3210 2446 1241 -1364 0
4280 2446 -1241 1364 0
6206 2446 -1241 -1364 0
3745 -2446 1241 1364 0
5832 -2446 1241 -1364 0
6527 -2446 -1241 1364 0
7779 -2446 -1241 -1364 0
14326 2538 -1830 0
5655 -2538 1830 0
17832 -2538 -1830 0
6080 1743 2487 -2483 0
950 1743 -2487 2483 0
6726 1743 -2487 -2483 0
13300 -1743 2487 2483 0
15124 -1743 2487 -2483 0
13585 -1743 -2487 2483 0
15318 -1743 -2487 -2483 0
24505 2447 1222 -2521 0
1885 2447 -1222 2521 0
25165 2447 -1222 -2521 0
11310 -2447 1222 2521 0
28463 -2447 1222 -2521 0
12630 -2447 -1222 2521 0
28925 -2447 -1222 -2521 0
858 1349 -2269 0
8580 -1349 2269 0
9266 -1349 -2269 0
16302 3533 1811 -2761 0
5148 3533 -1811 2761 0
19494 3533 -1811 -2761 0
34320 -3533 1811 2761 0
37580 -3533 1811 -2761 0
35350 -3533 -1811 2761 0
38219 -3533 -1811 -2761 0
3210 3085 3137 -3034 0
5350 3085 -3137 3034 0
6955 3085 -3137 -3034 0
214 -3085 3137 3034 0
3360 -3085 3137 -3034 0
5457 -3085 -3137 3034 0
7030 -3085 -3137 -3034 0
1284 1705 2594 -3518 0
6955 1705 -2594 3518 0
7404 1705 -2594 -3518 0
4280 -1705 2594 3518 0
5050 -1705 2594 -3518 0
8453 -1705 -2594 3518 0
8723 -1705 -2594 -3518 0
744 2059 2694 1999 -2707 0
2356 2059 2694 -1999 2707 0
2817 2059 2694 -1999 -2707 0
1550 2059 -2694 1999 2707 0
2108 2059 -2694 1999 -2707 0
3317 2059 -2694 -1999 2707 0
3663 2059 -2694 -1999 -2707 0
5890 -2059 2694 1999 2707 0
5927 -2059 2694 1999 -2707 0
6008 -2059 2694 -1999 2707 0
6031 -2059 2694 -1999 -2707 0
5967 -2059 -2694 1999 2707 0
5995 -2059 -2694 1999 -2707 0
6056 -2059 -2694 -1999 2707 0
6073 -2059 -2694 -1999 -2707 0
32175 1694 3524 2671 -3512 0
21450 1694 3524 -2671 3512 0
37538 1694 3524 -2671 -3512 0
858 1694 -3524 2671 3512 0
32389 1694 -3524 2671 -3512 0
21879 1694 -3524 -2671 3512 0
37645 1694 -3524 -2671 -3512 0
15015 -1694 3524 2671 3512 0
35929 -1694 3524 2671 -3512 0
28958 -1694 3524 -2671 3512 0
39414 -1694 3524 -2671 -3512 0
15573 -1694 -3524 2671 3512 0
36068 -1694 -3524 2671 -3512 0
29236 -1694 -3524 -2671 3512 0
39484 -1694 -3524 -2671 -3512 0
1240 3554 3095 -1518 0
5890 3554 -3095 1518 0
5952 3554 -3095 -1518 0
5580 -3554 3095 1518 0
5704 -3554 3095 -1518 0
6169 -3554 -3095 1518 0
6175 -3554 -3095 -1518 0
950 -3886 0
5270 3370 -3145 0
124 -3370 3145 0
5289 -3370 -3145 0
38610 3768 2987 3357 -1216 0
16302 3768 2987 -3357 1216 0
40240 3768 2987 -3357 -1216 0
32175 3768 -2987 3357 1216 0
41827 3768 -2987 3357 -1216 0
36250 3768 -2987 -3357 1216 0
42235 3768 -2987 -3357 -1216 0
4290 -3768 2987 3357 1216 0
39039 -3768 2987 3357 -1216 0
18962 -3768 2987 -3357 1216 0
40506 -3768 2987 -3357 -1216 0
33248 -3768 -2987 3357 1216 0
41935 -3768 -2987 3357 -1216 0
36915 -3768 -2987 -3357 1216 0
42302 -3768 -2987 -3357 -1216 0
30160 3323 4018 -2196 0
24505 3323 -4018 2196 0
35061 3323 -4018 -2196 0
5655 -3323 4018 2196 0
31291 -3323 4018 -2196 0
26484 -3323 -4018 2196 0
35457 -3323 -4018 -2196 0
4066 -2859 0
5270 2544 -1417 0
2356 -2544 1417 0
5623 -2544 -1417 0
5655 -3851 0
11310 -1769 0
35815 -2005 0
2356 3629 2819 -1768 0
4340 3629 -2819 1768 0
5047 3629 -2819 -1768 0
124 -3629 2819 1768 0
2433 -3629 2819 -1768 0
4377 -3629 -2819 1768 0
5070 -3629 -2819 -1768 0
12064 3951 2499 -2238 0
32045 3951 -2499 2238 0
33855 3951 -2499 -2238 0
28275 -3951 2499 2238 0
31291 -3951 2499 -2238 0
36286 -3951 -2499 2238 0
36739 -3951 -2499 -2238 0
14326 2108 1258 -3825 0
33930 2108 -1258 3825 0
35363 2108 -1258 -3825 0
4524 -2108 1258 3825 0
17131 -2108 1258 -3825 0
34382 -2108 -1258 3825 0
35643 -2108 -1258 -3825 0
1116 2547 -3116 0
4340 -2547 3116 0
4675 -2547 -3116 0
3210 3456 -2535 0
3210 -3456 2535 0
5457 -3456 -2535 0
6650 3708 -2361 0
4750 -3708 2361 0
9737 -3708 -2361 0
1284 -2434 0
14326 -2167 0
10725 2179 -2181 0
40755 -2179 2181 0
41291 -2179 -2181 0
9095 3776 -2171 0
9095 -3776 2171 0
10459 -3776 -2171 0
15200 1690 2208 -1777 0
1900 1690 -2208 1777 0
15580 1690 -2208 -1777 0
2850 -1690 2208 1777 0
15770 -1690 2208 -1777 0
4465 -1690 -2208 1777 0
16093 -1690 -2208 -1777 0
8580 2992 -1595 0
858 -2992 1595 0
9266 -2992 -1595 0
30030 -3893 0
22620 2577 3278 3999 2695 3789 -3962 0
20735 2577 3278 3999 2695 -3789 3962 0
30914 2577 3278 3999 2695 -3789 -3962 0
1885 2577 3278 3999 -2695 3789 3962 0
23374 2577 3278 3999 -2695 3789 -3962 0
21583 2577 3278 3999 -2695 -3789 3962 0
31253 2577 3278 3999 -2695 -3789 -3962 0
16965 2577 3278 -3999 2695 3789 3962 0
29406 2577 3278 -3999 2695 3789 -3962 0
28369 2577 3278 -3999 2695 -3789 3962 0
33968 2577 3278 -3999 2695 -3789 -3962 0
18002 2577 3278 -3999 -2695 3789 3962 0
29821 2577 3278 -3999 -2695 3789 -3962 0
28836 2577 3278 -3999 -2695 -3789 3962 0
34154 2577 3278 -3999 -2695 -3789 -3962 0
1885 2577 -3278 3999 2695 3789 3962 0
23374 2577 -3278 3999 2695 3789 -3962 0
21583 2577 -3278 3999 2695 -3789 3962 0
31253 2577 -3278 3999 2695 -3789 -3962 0
3676 2577 -3278 3999 -2695 3789 3962 0
24090 2577 -3278 3999 -2695 3789 -3962 0
22389 2577 -3278 3999 -2695 -3789 3962 0
31576 2577 -3278 3999 -2695 -3789 -3962 0
18002 2577 -3278 -3999 2695 3789 3962 0
29821 2577 -3278 -3999 2695 3789 -3962 0
28836 2577 -3278 -3999 2695 -3789 3962 0
34154 2577 -3278 -3999 2695 -3789 -3962 0
18987 2577 -3278 -3999 -2695 3789 3962 0
30215 2577 -3278 -3999 -2695 3789 -3962 0
29279 2577 -3278 -3999 -2695 -3789 3962 0
34332 2577 -3278 -3999 -2695 -3789 -3962 0
7540 -2577 3278 3999 2695 3789 3962 0
25636 -2577 3278 3999 2695 3789 -3962 0
24128 -2577 3278 3999 2695 -3789 3962 0
32271 -2577 3278 3999 2695 -3789 -3962 0
9048 -2577 3278 3999 -2695 3789 3962 0
26239 -2577 3278 3999 -2695 3789 -3962 0
24807 -2577 3278 3999 -2695 -3789 3962 0
32543 -2577 3278 3999 -2695 -3789 -3962 0
21112 -2577 3278 -3999 2695 3789 3962 0
31065 -2577 3278 -3999 2695 3789 -3962 0
30235 -2577 3278 -3999 2695 -3789 3962 0
34714 -2577 3278 -3999 2695 -3789 -3962 0
21941 -2577 3278 -3999 -2695 3789 3962 0
31397 -2577 3278 -3999 -2695 3789 -3962 0
30609 -2577 3278 -3999 -2695 -3789 3962 0
34863 -2577 3278 -3999 -2695 -3789 -3962 0
9048 -2577 -3278 3999 2695 3789 3962 0
26239 -2577 -3278 3999 2695 3789 -3962 0
24807 -2577 -3278 3999 2695 -3789 3962 0
32543 -2577 -3278 3999 2695 -3789 -3962 0
10481 -2577 -3278 3999 -2695 3789 3962 0
26812 -2577 -3278 3999 -2695 3789 -3962 0
25451 -2577 -3278 3999 -2695 -3789 3962 0
32801 -2577 -3278 3999 -2695 -3789 -3962 0
21941 -2577 -3278 -3999 2695 3789 3962 0
31397 -2577 -3278 -3999 2695 3789 -3962 0
30609 -2577 -3278 -3999 2695 -3789 3962 0
34863 -2577 -3278 -3999 2695 -3789 -3962 0
22729 -2577 -3278 -3999 -2695 3789 3962 0
31712 -2577 -3278 -3999 -2695 3789 -3962 0
30963 -2577 -3278 -3999 -2695 -3789 3962 0
35005 -2577 -3278 -3999 -2695 -3789 -3962 0
25740 2410 3840 -3328 0
858 2410 -3840 3328 0
26083 2410 -3840 -3328 0
21450 -2410 3840 3328 0
34320 -2410 3840 -3328 0
21879 -2410 -3840 3328 0
34492 -2410 -3840 -3328 0
7600 -3578 0
21450 2531 -3226 0
21450 -2531 3226 0
32175 -2531 -3226 0
7220 -1974 0
8580 3869 -2584 0
30030 -3869 2584 0
32604 -3869 -2584 0
7722 3784 1751 1894 2132 -2847 0
4290 3784 1751 1894 -2132 2847 0
11240 3784 1751 1894 -2132 -2847 0
16302 3784 1751 -1894 2132 2847 0
21090 3784 1751 -1894 2132 -2847 0
18962 3784 1751 -1894 -2132 2847 0
23271 3784 1751 -1894 -2132 -2847 0
21450 3784 -1751 1894 2132 2847 0
25311 3784 -1751 1894 2132 -2847 0
23595 3784 -1751 1894 -2132 2847 0
27070 3784 -1751 1894 -2132 -2847 0
29601 3784 -1751 -1894 2132 2847 0
31995 3784 -1751 -1894 2132 -2847 0
30931 3784 -1751 -1894 -2132 2847 0
33085 3784 -1751 -1894 -2132 -2847 0
30030 -3784 1751 1894 2132 2847 0
32347 -3784 1751 1894 2132 -2847 0
31317 -3784 1751 1894 -2132 2847 0
33402 -3784 1751 1894 -2132 -2847 0
34921 -3784 1751 -1894 2132 2847 0
36357 -3784 1751 -1894 2132 -2847 0
35719 -3784 1751 -1894 -2132 2847 0
37011 -3784 1751 -1894 -2132 -2847 0
36465 -3784 -1751 1894 2132 2847 0
37623 -3784 -1751 1894 2132 -2847 0
37108 -3784 -1751 1894 -2132 2847 0
38151 -3784 -1751 1894 -2132 -2847 0
38910 -3784 -1751 -1894 2132 2847 0
39628 -3784 -1751 -1894 2132 -2847 0
39309 -3784 -1751 -1894 -2132 2847 0
39956 -3784 -1751 -1894 -2132 -2847 0
2675 -1299 0
19305 3274 -2248 0
38610 -3274 2248 0
40541 -3274 -2248 0
15015 3535 2613 1853 -2351 0
12870 3535 2613 -1853 2351 0
23381 3535 2613 -1853 -2351 0
30030 3535 -2613 1853 2351 0
34534 3535 -2613 1853 -2351 0
33891 3535 -2613 -1853 2351 0
37044 3535 -2613 -1853 -2351 0
15015 -3535 2613 1853 2351 0
24775 -3535 2613 1853 -2351 0
23381 -3535 2613 -1853 2351 0
30212 -3535 2613 -1853 -2351 0
34534 -3535 -2613 1853 2351 0
37462 -3535 -2613 1853 -2351 0
37044 -3535 -2613 -1853 2351 0
39094 -3535 -2613 -1853 -2351 0
9500 1336 -3197 0
14250 -1336 3197 0
16625 -1336 -3197 0
3720 1924 -2741 0
1860 -1924 2741 0
4464 -1924 -2741 0
19305 1493 1774 -3982 0
7722 1493 -1774 3982 0
23552 1493 -1774 -3982 0
27885 -1493 1774 3982 0
34642 -1493 1774 -3982 0
30588 -1493 -1774 3982 0
36128 -1493 -1774 -3982 0
18050 2243 3169 -1860 0
7600 2243 -3169 1860 0
18430 2243 -3169 -1860 0
950 -2243 3169 1860 0
18097 -2243 3169 -1860 0
8170 -2243 -3169 1860 0
18459 -2243 -3169 -1860 0
6786 -2690 0
25740 3689 -1970 0
15015 -3689 1970 0
31746 -3689 -1970 0
3100 2744 -1447 0
124 -2744 1447 0
3162 -2744 -1447 0
2675 2863 -1781 0
5350 -2863 1781 0
6688 -2863 -1781 0
2356 3523 -1771 0
1984 -3523 1771 0
3586 -3523 -1771 0
2140 1399 2983 -3868 0
3210 1399 -2983 3868 0
4708 1399 -2983 -3868 0
8025 -1399 2983 3868 0
8560 -1399 2983 -3868 0
8827 -1399 -2983 3868 0
9202 -1399 -2983 -3868 0
6420 1274 2383 -2679 0
4280 1274 -2383 2679 0
8132 1274 -2383 -2679 0
1070 -1274 2383 2679 0
6848 -1274 2383 -2679 0
4922 -1274 -2383 2679 0
8389 -1274 -2383 -2679 0
35815 3733 2756 1661 1903 -2425 0
754 3733 2756 1661 -1903 2425 0
35853 3733 2756 1661 -1903 -2425 0
6786 3733 2756 -1661 1903 2425 0
36154 3733 2756 -1661 1903 -2425 0
7404 3733 2756 -1661 -1903 2425 0
36185 3733 2756 -1661 -1903 -2425 0
33930 3733 -2756 1661 1903 2425 0
37512 3733 -2756 1661 1903 -2425 0
34005 3733 -2756 1661 -1903 2425 0
37515 3733 -2756 1661 -1903 -2425 0
34609 3733 -2756 -1661 1903 2425 0
37545 3733 -2756 -1661 1903 -2425 0
34670 3733 -2756 -1661 -1903 2425 0
37549 3733 -2756 -1661 -1903 -2425 0
24505 -3733 2756 1661 1903 2425 0
37040 -3733 2756 1661 1903 -2425 0
24769 -3733 2756 1661 -1903 2425 0
37053 -3733 2756 1661 -1903 -2425 0
26880 -3733 2756 -1661 1903 2425 0
37159 -3733 2756 -1661 1903 -2425 0
27096 -3733 2756 -1661 -1903 2425 0
37170 -3733 2756 -1661 -1903 -2425 0
36381 -3733 -2756 1661 1903 2425 0
37634 -3733 -2756 1661 1903 -2425 0
36407 -3733 -2756 1661 -1903 2425 0
37635 -3733 -2756 1661 -1903 -2425 0
36618 -3733 -2756 -1661 1903 2425 0
37646 -3733 -2756 -1661 1903 -2425 0
36640 -3733 -2756 -1661 -1903 2425 0
37647 -3733 -2756 -1661 -1903 -2425 0
21450 -1473 0
4030 2224 1822 -3398 0
620 2224 -1822 3398 0
4247 2224 -1822 -3398 0
1116 -2224 1822 3398 0
4421 -2224 1822 -3398 0
1624 -2224 -1822 3398 0
4599 -2224 -1822 -3398 0
20735 1992 2825 3250 3486 -1455 0
24505 1992 2825 3250 -3486 1455 0
31762 1992 2825 3250 -3486 -1455 0
12064 1992 2825 -3250 3486 1455 0
26164 1992 2825 -3250 3486 -1455 0
28727 1992 2825 -3250 -3486 1455 0
33662 1992 2825 -3250 -3486 -1455 0
33930 1992 -2825 3250 3486 1455 0
36004 1992 -2825 3250 3486 -1455 0
36381 1992 -2825 3250 -3486 1455 0
37106 1992 -2825 3250 -3486 -1455 0
35136 1992 -2825 -3250 3486 1455 0
36546 1992 -2825 -3250 3486 -1455 0
36803 1992 -2825 -3250 -3486 1455 0
37296 1992 -2825 -3250 -3486 -1455 0
18850 -1992 2825 3250 3486 1455 0
29218 -1992 2825 3250 3486 -1455 0
31102 -1992 2825 3250 -3486 1455 0
34731 -1992 2825 3250 -3486 -1455 0
24882 -1992 2825 -3250 3486 1455 0
31932 -1992 2825 -3250 3486 -1455 0
33214 -1992 2825 -3250 -3486 1455 0
35681 -1992 2825 -3250 -3486 -1455 0
35815 -1992 -2825 3250 3486 1455 0
36852 -1992 -2825 3250 3486 -1455 0
37040 -1992 -2825 3250 -3486 1455 0
37403 -1992 -2825 3250 -3486 -1455 0
36418 -1992 -2825 -3250 3486 1455 0
37123 -1992 -2825 -3250 3486 -1455 0
37251 -1992 -2825 -3250 -3486 1455 0
37498 -1992 -2825 -3250 -3486 -1455 0
1550 4034 -2320 0
5270 -4034 2320 0
5502 -4034 -2320 0
214 -2411 0
6080 2394 -1332 0
10450 -2394 1332 0
13186 -2394 -1332 0
3720 3624 -2768 0
1984 -3624 2768 0
4514 -3624 -2768 0
3720 2314 -3221 0
1984 -2314 3221 0
4514 -2314 -3221 0
4030 3816 3870 3913 -3431 0
4650 3816 3870 -3913 3431 0
5657 3816 3870 -3913 -3431 0
1116 3816 -3870 3913 3431 0
4421 3816 -3870 3913 -3431 0
4929 3816 -3870 -3913 3431 0
5755 3816 -3870 -3913 -3431 0
5890 -3816 3870 3913 3431 0
6091 -3816 3870 3913 -3431 0
6123 -3816 3870 -3913 3431 0
6173 -3816 3870 -3913 -3431 0
5946 -3816 -3870 3913 3431 0
6111 -3816 -3870 3913 -3431 0
6136 -3816 -3870 -3913 3431 0
6178 -3816 -3870 -3913 -3431 0
17160 1342 -3610 0
34320 -1342 3610 0
37752 -1342 -3610 0
1860 -2664 0
3410 -2261 0
40755 -2845 0
2140 2062 -3492 0
5350 -2062 3492 0
6420 -2062 -3492 0
3210 -2533 0
7722 1623 -3879 0
23595 -1623 3879 0
27070 -1623 -3879 0
18050 1306 -1356 0
2850 -1306 1356 0
18193 -1306 -1356 0
23595 2732 -3120 0
8580 -2732 3120 0
27456 -2732 -3120 0
6650 -2027 0
1240 3270 -2503 0
2480 -3270 2503 0
3224 -3270 -2503 0
930 3891 3292 -3757 0
5890 3891 -3292 3757 0
5937 3891 -3292 -3757 0
2480 -3891 3292 3757 0
3038 -3891 3292 -3757 0
6014 -3891 -3292 3757 0
6042 -3891 -3292 -3757 0
2790 2170 2728 1745 2429 -2916 0
3410 2170 2728 1745 -2429 2916 0
4665 2170 2728 1745 -2429 -2916 0
2170 2170 2728 -1745 2429 2916 0
3984 2170 2728 -1745 2429 -2916 0
4387 2170 2728 -1745 -2429 2916 0
5203 2170 2728 -1745 -2429 -2916 0
2480 2170 -2728 1745 2429 2916 0
4154 2170 -2728 1745 2429 -2916 0
4526 2170 -2728 1745 -2429 2916 0
5279 2170 -2728 1745 -2429 -2916 0
3782 2170 -2728 -1745 2429 2916 0
4870 2170 -2728 -1745 2429 -2916 0
5112 2170 -2728 -1745 -2429 2916 0
5602 2170 -2728 -1745 -2429 -2916 0
310 -2170 2728 1745 2429 2916 0
2961 -2170 2728 1745 2429 -2916 0
3549 -2170 2728 1745 -2429 2916 0
4742 -2170 2728 1745 -2429 -2916 0
2372 -2170 2728 -1745 2429 2916 0
4094 -2170 2728 -1745 2429 -2916 0
4477 -2170 2728 -1745 -2429 2916 0
5252 -2170 2728 -1745 -2429 -2916 0
2666 -2170 -2728 1745 2429 2916 0
4256 -2170 -2728 1745 2429 -2916 0
4610 -2170 -2728 1745 -2429 2916 0
5325 -2170 -2728 1745 -2429 -2916 0
3903 -2170 -2728 -1745 2429 2916 0
4937 -2170 -2728 -1745 2429 -2916 0
5166 -2170 -2728 -1745 -2429 2916 0
5631 -2170 -2728 -1745 -2429 -2916 0
1284 -1753 0
8550 3393 3426 -1758 0
17100 3393 -3426 1758 0
17955 3393 -3426 -1758 0
9500 -3393 3426 1758 0
13775 -3393 3426 -1758 0
18050 -3393 -3426 1758 0
18478 -3393 -3426 -1758 0
14250 -3942 0
3420 2501 3906 2918 -2453 0
7600 2501 3906 -2918 2453 0
9652 2501 3906 -2918 -2453 0
3420 2501 -3906 2918 2453 0
6224 2501 -3906 2918 -2453 0
9652 2501 -3906 -2918 2453 0
11335 2501 -3906 -2918 -2453 0
14250 -2501 3906 2918 2453 0
15105 -2501 3906 2918 -2453 0
16150 -2501 3906 -2918 2453 0
16663 -2501 3906 -2918 -2453 0
15105 -2501 -3906 2918 2453 0
15806 -2501 -3906 2918 -2453 0
16663 -2501 -3906 -2918 2453 0
17084 -2501 -3906 -2918 -2453 0
13195 2866 -4045 0
1885 -2866 4045 0
14420 -2866 -4045 0
34320 2608 -2982 0
19305 -2608 2982 0
38181 -2608 -2982 0
3720 3765 -1451 0
3100 -3765 1451 0
4960 -3765 -1451 0
5655 2745 2818 -2659 0
1885 2745 -2818 2659 0
7257 2745 -2818 -2659 0
20735 -2745 2818 2659 0
23280 -2745 2818 -2659 0
21583 -2745 -2818 2659 0
24001 -2745 -2818 -2659 0
18850 -2441 0
7722 1891 2576 1877 3834 -2371 0
17160 1891 2576 1877 -3834 2371 0
21793 1891 2576 1877 -3834 -2371 0
10725 1891 2576 -1877 3834 2371 0
16516 1891 2576 -1877 3834 -2371 0
23595 1891 2576 -1877 -3834 2371 0
27070 1891 2576 -1877 -3834 -2371 0
8580 1891 -2576 1877 3834 2371 0
14758 1891 -2576 1877 3834 -2371 0
22308 1891 -2576 1877 -3834 2371 0
26015 1891 -2576 1877 -3834 -2371 0
17160 1891 -2576 -1877 3834 2371 0
21793 1891 -2576 -1877 3834 -2371 0
27456 1891 -2576 -1877 -3834 2371 0
30236 1891 -2576 -1877 -3834 -2371 0
17160 -1891 2576 1877 3834 2371 0
21793 -1891 2576 1877 3834 -2371 0
27456 -1891 2576 1877 -3834 2371 0
30236 -1891 2576 1877 -3834 -2371 0
23595 -1891 2576 -1877 3834 2371 0
27070 -1891 2576 -1877 3834 -2371 0
31317 -1891 2576 -1877 -3834 2371 0
33402 -1891 2576 -1877 -3834 -2371 0
22308 -1891 -2576 1877 3834 2371 0
26015 -1891 -2576 1877 3834 -2371 0
30545 -1891 -2576 1877 -3834 2371 0
32769 -1891 -2576 1877 -3834 -2371 0
27456 -1891 -2576 -1877 3834 2371 0
30236 -1891 -2576 -1877 3834 -2371 0
33634 -1891 -2576 -1877 -3834 2371 0
35302 -1891 -2576 -1877 -3834 -2371 0
1284 2526 -2864 0
4066 -2526 2864 0
4862 -2526 -2864 0
8025 3923 3425 -1228 0
8560 3923 -3425 1228 0
10165 3923 -3425 -1228 0
7490 -3923 3425 1228 0
9898 -3923 3425 -1228 0
10058 -3923 -3425 1228 0
10539 -3923 -3425 -1228 0
930 1512 2900 -1963 0
310 1512 -2900 1963 0
1194 1512 -2900 -1963 0
3100 -1512 2900 1963 0
3565 -1512 2900 -1963 0
3255 -1512 -2900 1963 0
3697 -1512 -2900 -1963 0
15200 3115 -2253 0
950 -3115 2253 0
15390 -3115 -2253 0
2675 3528 -2414 0
6420 -3528 2414 0
7490 -3528 -2414 0
11310 -3752 0
16150 3973 2746 -1385 0
2850 3973 -2746 1385 0
16578 3973 -2746 -1385 0
8550 -3973 2746 1385 0
17432 -3973 2746 -1385 0
10117 -3973 -2746 1385 0
17668 -3973 -2746 -1385 0
5580 1218 3048 -3156 0
2170 1218 -3048 3156 0
5797 1218 -3048 -3156 0
620 -1218 3048 3156 0
5642 -1218 3048 -3156 0
2573 -1218 -3048 3156 0
5837 -1218 -3048 -3156 0
4650 1763 3298 -2953 0
3720 1763 -3298 2953 0
5580 1763 -3298 -2953 0
1984 -1763 3298 2953 0
5146 -1763 3298 -2953 0
4514 -1763 -3298 2953 0
5778 -1763 -3298 -2953 0
10725 1206 2772 3090 -3859 0
15015 1206 2772 -3090 3859 0
21986 1206 2772 -3090 -3859 0
5148 1206 -2772 3090 3859 0
14586 1206 -2772 3090 -3859 0
18361 1206 -2772 -3090 3859 0
24496 1206 -2772 -3090 -3859 0
30030 -1206 2772 3090 3859 0
33247 -1206 2772 3090 -3859 0
34534 -1206 2772 -3090 3859 0
36626 -1206 2772 -3090 -3859 0
31574 -1206 -2772 3090 3859 0
34406 -1206 -2772 3090 -3859 0
35538 -1206 -2772 -3090 3859 0
37379 -1206 -2772 -3090 -3859 0
744 3002 1670 1702 -2486 0
1860 3002 1670 -1702 2486 0
2381 3002 1670 -1702 -2486 0
1860 3002 -1670 1702 2486 0
2381 3002 -1670 1702 -2486 0
3162 3002 -1670 -1702 2486 0
3527 3002 -1670 -1702 -2486 0
3410 -3002 1670 1702 2486 0
3745 -3002 1670 1702 -2486 0
4247 -3002 1670 -1702 2486 0
4481 -3002 1670 -1702 -2486 0
4247 -3002 -1670 1702 2486 0
4481 -3002 -1670 1702 -2486 0
4833 -3002 -1670 -1702 2486 0
4997 -3002 -1670 -1702 -2486 0
5270 1372 3658 2778 -1746 0
4960 1372 3658 -2778 1746 0
6014 1372 3658 -2778 -1746 0
1240 1372 -3658 2778 1746 0
5456 1372 -3658 2778 -1746 0
5208 1372 -3658 -2778 1746 0
6051 1372 -3658 -2778 -1746 0
1116 -1372 3658 2778 1746 0
5437 -1372 3658 2778 -1746 0
5183 -1372 3658 -2778 1746 0
6047 -1372 3658 -2778 -1746 0
2133 -1372 -3658 2778 1746 0
5590 -1372 -3658 2778 -1746 0
5387 -1372 -3658 -2778 1746 0
6078 -1372 -3658 -2778 -1746 0
5270 3990 -3161 0
3720 -3990 3161 0
5828 -3990 -3161 0
744 2975 -2995 0
1116 -2975 2995 0
1726 -2975 -2995 0
20735 3887 2519 -3866 0
3770 3887 -2519 3866 0
22431 3887 -2519 -3866 0
6786 -3887 2519 3866 0
23789 -3887 2519 -3866 0
9877 -3887 -2519 3866 0
25180 -3887 -2519 -3866 0
15015 2106 -3310 0
4290 -2106 3310 0
17803 -2106 -3310 0
535 1897 -3596 0
1926 -1897 3596 0
2365 -1897 -3596 0
6650 1461 -2353 0
18050 -1461 2353 0
18383 -1461 -2353 0
4524 3029 -3394 0
4524 -3029 3394 0
8505 -3029 -3394 0
1284 -3264 0
2850 2105 3477 -1344 0
6650 2105 -3477 1344 0
8503 2105 -3477 -1344 0
18050 -2105 3477 1344 0
18193 -2105 3477 -1344 0
18383 -2105 -3477 1344 0
18475 -2105 -3477 -1344 0
2850 2166 2885 3526 -3086 0
7220 2166 2885 -3526 3086 0
8987 2166 2885 -3526 -3086 0
6650 2166 -2885 3526 3086 0
8503 2166 -2885 3526 -3086 0
11343 2166 -2885 -3526 3086 0
12492 2166 -2885 -3526 -3086 0
4750 -2166 2885 3526 3086 0
6888 -2166 2885 3526 -3086 0
10165 -2166 2885 -3526 3086 0
11490 -2166 2885 -3526 -3086 0
9737 -2166 -2885 3526 3086 0
11127 -2166 -2885 3526 -3086 0
13257 -2166 -2885 -3526 3086 0
14119 -2166 -2885 -3526 -3086 0
4280 1533 -1353 0
9095 -1533 1353 0
9737 -1533 -1353 0
6955 2626 -1240 0
7490 -2626 1240 0
9577 -2626 -1240 0
9095 1923 1722 -2517 0
1070 1923 -1722 2517 0
9255 1923 -1722 -2517 0
1605 -1923 1722 2517 0
9336 -1923 1722 -2517 0
2514 -1923 -1722 2517 0
9472 -1923 -1722 -2517 0
15200 3809 -2896 0
15200 -3809 2896 0
18240 -3809 -2896 0
3745 1542 3864 2309 -3678 0
1605 1542 3864 -2309 3678 0
4788 1542 3864 -2309 -3678 0
5885 1542 -3864 2309 3678 0
7570 1542 -3864 2309 -3678 0
6607 1542 -3864 -2309 3678 0
8040 1542 -3864 -2309 -3678 0
7490 -1542 3864 2309 3678 0
8613 -1542 3864 2309 -3678 0
7972 -1542 3864 -2309 3678 0
8926 -1542 3864 -2309 -3678 0
9255 -1542 -3864 2309 3678 0
9761 -1542 -3864 2309 -3678 0
9472 -1542 -3864 -2309 3678 0
9902 -1542 -3864 -2309 -3678 0
10450 3254 3091 -2316 0
7220 3254 -3091 2316 0
13699 3254 -3091 -2316 0
17100 -3254 3091 2316 0
18145 -3254 3091 -2316 0
17822 -3254 -3091 2316 0
18470 -3254 -3091 -2316 0
5350 3686 -1649 0
8025 -3686 1649 0
9362 -3686 -1649 0
5655 1800 -1699 0
13195 -1800 1699 0
16871 -1800 -1699 0
4340 -3361 0
3210 2905 -3888 0
1926 -2905 3888 0
4558 -2905 -3888 0
5655 2867 3963 -3715 0
16965 2867 -3963 3715 0
20075 2867 -3963 -3715 0
30160 -2867 3963 3715 0
31291 -2867 3963 -3715 0
33553 -2867 -3963 3715 0
34175 -2867 -3963 -3715 0
3770 3590 3899 -3475 0
12064 3590 -3899 3475 0
14628 3590 -3899 -3475 0
30160 -3590 3899 3475 0
30914 -3590 3899 -3475 0
32573 -3590 -3899 3475 0
33086 -3590 -3899 -3475 0
38610 1471 4000 3227 3427 -3406 0
38610 1471 4000 3227 -3427 3406 0
42471 1471 4000 3227 -3427 -3406 0
15015 1471 4000 -3227 3427 3406 0
40112 1471 4000 -3227 3427 -3406 0
40112 1471 4000 -3227 -3427 3406 0
42621 1471 4000 -3227 -3427 -3406 0
16302 1471 -4000 3227 3427 3406 0
40240 1471 -4000 3227 3427 -3406 0
40240 1471 -4000 3227 -3427 3406 0
42634 1471 -4000 3227 -3427 -3406 0
25611 1471 -4000 -3227 3427 3406 0
41171 1471 -4000 -3227 3427 -3406 0
41171 1471 -4000 -3227 -3427 3406 0
42727 1471 -4000 -3227 -3427 -3406 0
23595 -1471 4000 3227 3427 3406 0
40970 -1471 4000 3227 3427 -3406 0
40970 -1471 4000 3227 -3427 3406 0
42707 -1471 4000 3227 -3427 -3406 0
30352 -1471 4000 -3227 3427 3406 0
41645 -1471 4000 -3227 3427 -3406 0
41645 -1471 4000 -3227 -3427 3406 0
42775 -1471 4000 -3227 -3427 -3406 0
30931 -1471 -4000 3227 3427 3406 0
41703 -1471 -4000 3227 3427 -3406 0
41703 -1471 -4000 3227 -3427 3406 0
42780 -1471 -4000 3227 -3427 -3406 0
35120 -1471 -4000 -3227 3427 3406 0
42122 -1471 -4000 -3227 3427 -3406 0
42122 -1471 -4000 -3227 -3427 3406 0
42822 -1471 -4000 -3227 -3427 -3406 0
32045 -3238 0
3720 3889 -3525 0
1116 -3889 3525 0
4166 -3889 -3525 0
5655 3968 -3004 0
26390 -3968 3004 0
28087 -3968 -3004 0
1070 3907 -2113 0
2675 -3907 2113 0
3477 -3907 -2113 0
7540 3409 2549 -2191 0
24505 3409 -2549 2191 0
27144 3409 -2549 -2191 0
32045 -3409 2549 2191 0
33176 -3409 2549 -2191 0
35721 -3409 -2549 2191 0
36117 -3409 -2549 -2191 0
4750 -3832 0
1885 -3514 0
13728 3162 -2484 0
40755 -3162 2484 0
41441 -3162 -2484 0
10725 3806 -1322 0
21450 -3806 1322 0
26812 -3806 -1322 0
16302 -2776 0
13728 3165 3331 -2376 0
27885 3165 -3331 2376 0
32690 3165 -3331 -2376 0
16302 -3165 3331 2376 0
24813 -3165 3331 -2376 0
33591 -3165 -3331 2376 0
36570 -3165 -3331 -2376 0
35815 1662 -2665 0
28275 -1662 2665 0
37229 -1662 -2665 0
10165 -2356 0
310 -3943 0
13300 -2308 0
1860 3833 3076 -2130 0
1984 3833 -3076 2130 0
3249 3833 -3076 -2130 0
3720 -3833 3076 2130 0
4464 -3833 3076 -2130 0
4514 -3833 -3076 2130 0
5020 -3833 -3076 -2130 0
15200 3994 -3503 0
7600 -3994 3503 0
16720 -3994 -3503 0
30030 -3055 0
17160 -2770 0
13195 -2959 0
950 4010 2850 3205 -2920 0
10450 4010 2850 -3205 2920 0
10878 4010 2850 -3205 -2920 0
15200 4010 -2850 3205 2920 0
15390 4010 -2850 3205 -2920 0
17290 4010 -2850 -3205 2920 0
17376 4010 -2850 -3205 -2920 0
13300 -4010 2850 3205 2920 0
13585 -4010 2850 3205 -2920 0
16435 -4010 2850 -3205 2920 0
16563 -4010 2850 -3205 -2920 0
17860 -4010 -2850 3205 2920 0
17917 -4010 -2850 3205 -2920 0
18487 -4010 -2850 -3205 2920 0
18513 -4010 -2850 -3205 -2920 0
1605 2646 2696 4013 1932 -3842 0
3745 2646 2696 4013 -1932 3842 0
4788 2646 2696 4013 -1932 -3842 0
3210 2646 2696 -4013 1932 3842 0
4334 2646 2696 -4013 1932 -3842 0
5832 2646 2696 -4013 -1932 3842 0
6562 2646 2696 -4013 -1932 -3842 0
5350 2646 -2696 4013 1932 3842 0
6152 2646 -2696 4013 1932 -3842 0
7223 2646 -2696 4013 -1932 3842 0
7744 2646 -2696 4013 -1932 -3842 0
6955 2646 -2696 -4013 1932 3842 0
7517 2646 -2696 -4013 1932 -3842 0
8266 2646 -2696 -4013 -1932 3842 0
8631 2646 -2696 -4013 -1932 -3842 0
5885 -2646 2696 4013 1932 3842 0
6607 -2646 2696 4013 1932 -3842 0
7570 -2646 2696 4013 -1932 3842 0
8040 -2646 2696 4013 -1932 -3842 0
7330 -2646 2696 -4013 1932 3842 0
7835 -2646 2696 -4013 1932 -3842 0
8509 -2646 2696 -4013 -1932 3842 0
8838 -2646 2696 -4013 -1932 -3842 0
8292 -2646 -2696 4013 1932 3842 0
8654 -2646 -2696 4013 1932 -3842 0
9135 -2646 -2696 4013 -1932 3842 0
9370 -2646 -2696 4013 -1932 -3842 0
9015 -2646 -2696 -4013 1932 3842 0
9268 -2646 -2696 -4013 1932 -3842 0
9605 -2646 -2696 -4013 -1932 3842 0
9769 -2646 -2696 -4013 -1932 -3842 0
6955 2469 1611 -2921 0
214 2469 -1611 2921 0
7030 2469 -1611 -2921 0
1926 -2469 1611 2921 0
7629 -2469 1611 -2921 0
2101 -2469 -1611 2921 0
7691 -2469 -1611 -2921 0
30030 2938 -2731 0
13728 -2938 2731 0
34148 -2938 -2731 0
33930 -1803 0
1984 -1613 0
3410 1239 -1575 0
2356 -1239 1575 0
4470 -1239 -1575 0
32175 3960 1536 3181 -2634 0
4290 3960 1536 -3181 2634 0
33248 3960 1536 -3181 -2634 0
34320 3960 -1536 3181 2634 0
40755 3960 -1536 3181 -2634 0
35178 3960 -1536 -3181 2634 0
40969 3960 -1536 -3181 -2634 0
2145 -3960 1536 3181 2634 0
32711 -3960 1536 3181 -2634 0
6221 -3960 1536 -3181 2634 0
33730 -3960 1536 -3181 -2634 0
34749 -3960 -1536 3181 2634 0
40862 -3960 -1536 3181 -2634 0
35564 -3960 -1536 -3181 2634 0
41066 -3960 -1536 -3181 -2634 0
5655 2424 3947 2415 -2610 0
33930 2424 3947 -2415 2610 0
34496 2424 3947 -2415 -2610 0
3770 2424 -3947 2415 2610 0
8859 2424 -3947 2415 -2610 0
34307 2424 -3947 -2415 2610 0
34816 2424 -3947 -2415 -2610 0
18850 -2424 3947 2415 2610 0
21677 -2424 3947 2415 -2610 0
35815 -2424 3947 -2415 2610 0
36098 -2424 3947 -2415 -2610 0
20735 -2424 -3947 2415 2610 0
23280 -2424 -3947 2415 -2610 0
36003 -2424 -3947 -2415 2610 0
36258 -2424 -3947 -2415 -2610 0
1885 2945 2340 2322 -2550 0
9425 2945 2340 -2322 2550 0
10839 2945 2340 -2322 -2550 0
5655 2945 -2340 2322 2550 0
7257 2945 -2340 2322 -2550 0
13666 2945 -2340 -2322 2550 0
14868 2945 -2340 -2322 -2550 0
6786 -2945 2340 2322 2550 0
8332 -2945 2340 2322 -2550 0
14515 -2945 2340 -2322 2550 0
15674 -2945 2340 -2322 -2550 0
11423 -2945 -2340 2322 2550 0
12737 -2945 -2340 2322 -2550 0
17992 -2945 -2340 -2322 2550 0
18978 -2945 -2340 -2322 -2550 0
4340 2440 3382 -4028 0
1984 2440 -3382 4028 0
4935 2440 -3382 -4028 0
1116 -2440 3382 4028 0
4675 -2440 3382 -4028 0
2743 -2440 -3382 4028 0
5163 -2440 -3382 -4028 0
4750 -3798 0
6080 1750 -3695 0
15200 -1750 3695 0
16416 -1750 -3695 0
14326 1943 2007 -3392 0
9425 1943 -2007 3392 0
20170 1943 -2007 -3392 0
35815 -1943 2007 3392 0
36531 -1943 2007 -3392 0
36286 -1943 -2007 3392 0
36823 -1943 -2007 -3392 0
19305 3575 -2857 0
10725 -3575 2857 0
25204 -3575 -2857 0
7540 2590 -3337 0
35815 -2590 3337 0
36192 -2590 -3337 0
3800 3396 2225 3939 1707 3360 -3271 0
13300 3396 2225 3939 1707 -3360 3271 0
14440 3396 2225 3939 1707 -3360 -3271 0
1900 3396 2225 3939 -1707 3360 3271 0
5320 3396 2225 3939 -1707 3360 -3271 0
13870 3396 2225 3939 -1707 -3360 3271 0
14896 3396 2225 3939 -1707 -3360 -3271 0
3420 3396 2225 -3939 1707 3360 3271 0
6536 3396 2225 -3939 1707 3360 -3271 0
14326 3396 2225 -3939 1707 -3360 3271 0
15261 3396 2225 -3939 1707 -3360 -3271 0
4978 3396 2225 -3939 -1707 3360 3271 0
7782 3396 2225 -3939 -1707 3360 -3271 0
14793 3396 2225 -3939 -1707 -3360 3271 0
15635 3396 2225 -3939 -1707 -3360 -3271 0
7220 3396 -2225 3939 1707 3360 3271 0
9576 3396 -2225 3939 1707 3360 -3271 0
15466 3396 -2225 3939 1707 -3360 3271 0
16173 3396 -2225 3939 1707 -3360 -3271 0
8398 3396 -2225 3939 -1707 3360 3271 0
10518 3396 -2225 3939 -1707 3360 -3271 0
15819 3396 -2225 3939 -1707 -3360 3271 0
16456 3396 -2225 3939 -1707 -3360 -3271 0
9340 3396 -2225 -3939 1707 3360 3271 0
11272 3396 -2225 -3939 1707 3360 -3271 0
16102 3396 -2225 -3939 1707 -3360 3271 0
16682 3396 -2225 -3939 1707 -3360 -3271 0
10306 3396 -2225 -3939 -1707 3360 3271 0
12045 3396 -2225 -3939 -1707 3360 -3271 0
16392 3396 -2225 -3939 -1707 -3360 3271 0
16914 3396 -2225 -3939 -1707 -3360 -3271 0
16150 -3396 2225 3939 1707 3360 3271 0
16720 -3396 2225 3939 1707 3360 -3271 0
18145 -3396 2225 3939 1707 -3360 3271 0
18316 -3396 2225 3939 1707 -3360 -3271 0
16435 -3396 2225 3939 -1707 3360 3271 0
16948 -3396 2225 3939 -1707 3360 -3271 0
18231 -3396 2225 3939 -1707 -3360 3271 0
18384 -3396 2225 3939 -1707 -3360 -3271 0
16663 -3396 2225 -3939 1707 3360 3271 0
17130 -3396 2225 -3939 1707 3360 -3271 0
18299 -3396 2225 -3939 1707 -3360 3271 0
18439 -3396 2225 -3939 1707 -3360 -3271 0
16897 -3396 2225 -3939 -1707 3360 3271 0
17317 -3396 2225 -3939 -1707 3360 -3271 0
18369 -3396 2225 -3939 -1707 -3360 3271 0
18495 -3396 2225 -3939 -1707 -3360 -3271 0
17233 -3396 -2225 3939 1707 3360 3271 0
17586 -3396 -2225 3939 1707 3360 -3271 0
18470 -3396 -2225 3939 1707 -3360 3271 0
18576 -3396 -2225 3939 1707 -3360 -3271 0
17410 -3396 -2225 3939 -1707 3360 3271 0
17728 -3396 -2225 3939 -1707 3360 -3271 0
18523 -3396 -2225 3939 -1707 -3360 3271 0
18618 -3396 -2225 3939 -1707 -3360 -3271 0
17551 -3396 -2225 -3939 1707 3360 3271 0
17841 -3396 -2225 -3939 1707 3360 -3271 0
18565 -3396 -2225 -3939 1707 -3360 3271 0
18652 -3396 -2225 -3939 1707 -3360 -3271 0
17696 -3396 -2225 -3939 -1707 3360 3271 0
17957 -3396 -2225 -3939 -1707 3360 -3271 0
18609 -3396 -2225 -3939 -1707 -3360 3271 0
18687 -3396 -2225 -3939 -1707 -3360 -3271 0
1885 2474 2820 1962 -1747 0
33930 2474 2820 -1962 1747 0
34119 2474 2820 -1962 -1747 0
33930 2474 -2820 1962 1747 0
34119 2474 -2820 1962 -1747 0
37323 2474 -2820 -1962 1747 0
37342 2474 -2820 -1962 -1747 0
7540 -2474 2820 1962 1747 0
9048 -2474 2820 1962 -1747 0
34684 -2474 2820 -1962 1747 0
34835 -2474 2820 -1962 -1747 0
34684 -2474 -2820 1962 1747 0
34835 -2474 -2820 1962 -1747 0
37398 -2474 -2820 -1962 1747 0
37413 -2474 -2820 -1962 -1747 0
6955 3807 4070 -1920 0
4280 3807 -4070 1920 0
8453 3807 -4070 -1920 0
535 -3807 4070 1920 0
7142 -3807 4070 -1920 0
4601 -3807 -4070 1920 0
8565 -3807 -4070 -1920 0
17160 1250 -2430 0
13728 -1250 2430 0
25397 -1250 -2430 0
30160 1570 2244 2618 -1501 0
12064 1570 2244 -2618 1501 0
32573 1570 2244 -2618 -1501 0
3770 1570 -2244 2618 1501 0
30914 1570 -2244 2618 -1501 0
14628 1570 -2244 -2618 1501 0
33086 1570 -2244 -2618 -1501 0
5655 -1570 2244 2618 1501 0
31291 -1570 2244 2618 -1501 0
15909 -1570 2244 -2618 1501 0
33342 -1570 2244 -2618 -1501 0
8859 -1570 -2244 2618 1501 0
31932 -1570 -2244 2618 -1501 0
18088 -1570 -2244 -2618 1501 0
33778 -1570 -2244 -2618 -1501 0
14250 3612 -3093 0
380 -3612 3093 0
14345 -3612 -3093 0
620 1421 3548 -2404 0
1240 1421 -3548 2404 0
1736 1421 -3548 -2404 0
4960 -1421 3548 2404 0
5084 -1421 3548 -2404 0
5208 -1421 -3548 2404 0
5307 -1421 -3548 -2404 0
5148 2216 2567 -3269 0
25740 2216 -2567 3269 0
27799 2216 -2567 -3269 0
19305 -2216 2567 3269 0
22136 -2216 2567 -3269 0
33462 -2216 -2567 3269 0
34595 -2216 -2567 -3269 0
2280 1395 -2152 0
8550 -1395 2152 0
9804 -1395 -2152 0
14250 2692 -3309 0
3800 -2692 3309 0
15200 -2692 -3309 0
3410 2481 -1603 0
1860 -2481 1603 0
4247 -2481 -1603 0
5270 2437 1660 -2775 0
2790 2437 -1660 2775 0
5688 2437 -1660 -2775 0
4960 -2437 1660 2775 0
6014 -2437 1660 -2775 0
5518 -2437 -1660 2775 0
6098 -2437 -1660 -2775 0
2790 -1224 0
1550 2354 2566 -3491 0
4340 2354 -2566 3491 0
4805 2354 -2566 -3491 0
930 -2354 2566 3491 0
2248 -2354 2566 -3491 0
4619 -2354 -2566 3491 0
5014 -2354 -2566 -3491 0
5885 2315 -3905 0
1926 -2315 3905 0
6752 -2315 -3905 0
38610 -3997 0
32045 3841 3234 -3493 0
28275 3841 -3234 3493 0
36286 3841 -3234 -3493 0
22620 -3841 3234 3493 0
35438 -3841 3234 -3493 0
33930 -3841 -3234 3493 0
37134 -3841 -3234 -3493 0
7220 3901 -3967 0
3800 -3901 3967 0
9576 -3901 -3967 0
19305 3599 -2496 0
16302 -3599 2496 0
28271 -3599 -2496 0
2675 2581 3110 3347 -2751 0
9630 2581 3110 -3347 2751 0
9898 2581 3110 -3347 -2751 0
1926 2581 -3110 3347 2751 0
4120 2581 -3110 3347 -2751 0
9823 2581 -3110 -3347 2751 0
10042 2581 -3110 -3347 -2751 0
1070 -2581 3110 3347 2751 0
3477 -2581 3110 3347 -2751 0
9737 -2581 3110 -3347 2751 0
9978 -2581 3110 -3347 -2751 0
2803 -2581 -3110 3347 2751 0
4778 -2581 -3110 3347 -2751 0
9910 -2581 -3110 -3347 2751 0
10108 -2581 -3110 -3347 -2751 0
1550 2620 3109 -4037 0
4960 2620 -3109 4037 0
5270 2620 -3109 -4037 0
2356 -2620 3109 4037 0
3317 -2620 3109 -4037 0
5431 -2620 -3109 4037 0
5623 -2620 -3109 -4037 0
4750 3724 -1881 0
10450 -3724 1881 0
12588 -3724 -1881 0
24505 2726 -3233 0
12064 -2726 3233 0
28727 -2726 -3233 0
4750 3329 -2090 0
6080 -3329 2090 0
9310 -3329 -2090 0
1885 3282 -2098 0
4524 -3282 2098 0
6183 -3282 -2098 0
21450 2008 -3231 0
40755 -2008 3231 0
41827 -2008 -3231 0
25740 1629 1314 -3311 0
19305 1629 -1314 3311 0
33462 1629 -1314 -3311 0
12870 -1629 1314 3311 0
30888 -1629 1314 -3311 0
26383 -1629 -1314 3311 0
36293 -1629 -1314 -3311 0
10165 -1831 0
4524 -3083 0
15080 3559 1952 1987 3207 -2083 0
30160 3559 1952 1987 -3207 2083 0
33176 3559 1952 1987 -3207 -2083 0
33930 3559 1952 -1987 3207 2083 0
35438 3559 1952 -1987 3207 -2083 0
36946 3559 1952 -1987 -3207 2083 0
37248 3559 1952 -1987 -3207 -2083 0
28275 3559 -1952 1987 3207 2083 0
32045 3559 -1952 1987 3207 -2083 0
35815 3559 -1952 1987 -3207 2083 0
36569 3559 -1952 1987 -3207 -2083 0
36757 3559 -1952 -1987 3207 2083 0
37134 3559 -1952 -1987 3207 -2083 0
37512 3559 -1952 -1987 -3207 2083 0
37587 3559 -1952 -1987 -3207 -2083 0
35815 -3559 1952 1987 3207 2083 0
36569 -3559 1952 1987 3207 -2083 0
37323 -3559 1952 1987 -3207 2083 0
37474 -3559 1952 1987 -3207 -2083 0
37512 -3559 1952 -1987 3207 2083 0
37587 -3559 1952 -1987 3207 -2083 0
37662 -3559 1952 -1987 -3207 2083 0
37677 -3559 1952 -1987 -3207 -2083 0
37229 -3559 -1952 1987 3207 2083 0
37417 -3559 -1952 1987 3207 -2083 0
37606 -3559 -1952 1987 -3207 2083 0
37643 -3559 -1952 1987 -3207 -2083 0
37653 -3559 -1952 -1987 3207 2083 0
37672 -3559 -1952 -1987 3207 -2083 0
37691 -3559 -1952 -1987 -3207 2083 0
37694 -3559 -1952 -1987 -3207 -2083 0
5700 -2791 0
5890 1300 2279 2416 3650 -4069 0
4960 1300 2279 2416 -3650 4069 0
6138 1300 2279 2416 -3650 -4069 0
620 1300 2279 -2416 3650 4069 0
5921 1300 2279 -2416 3650 -4069 0
5084 1300 2279 -2416 -3650 4069 0
6144 1300 2279 -2416 -3650 -4069 0
4340 1300 -2279 2416 3650 4069 0
6107 1300 -2279 2416 3650 -4069 0
5828 1300 -2279 2416 -3650 4069 0
6181 1300 -2279 2416 -3650 -4069 0
4526 1300 -2279 -2416 3650 4069 0
6116 1300 -2279 -2416 3650 -4069 0
5865 1300 -2279 -2416 -3650 4069 0
6183 1300 -2279 -2416 -3650 -4069 0
4340 -1300 2279 2416 3650 4069 0
6107 -1300 2279 2416 3650 -4069 0
5828 -1300 2279 2416 -3650 4069 0
6181 -1300 2279 2416 -3650 -4069 0
4526 -1300 2279 -2416 3650 4069 0
6116 -1300 2279 -2416 3650 -4069 0
5865 -1300 2279 -2416 -3650 4069 0
6183 -1300 2279 -2416 -3650 -4069 0
5642 -1300 -2279 2416 3650 4069 0
6172 -1300 -2279 2416 3650 -4069 0
6088 -1300 -2279 2416 -3650 4069 0
6194 -1300 -2279 2416 -3650 -4069 0
5698 -1300 -2279 -2416 3650 4069 0
6175 -1300 -2279 -2416 3650 -4069 0
6100 -1300 -2279 -2416 -3650 4069 0
6195 -1300 -2279 -2416 -3650 -4069 0
19305 2029 1345 2301 -1341 0
16302 2029 1345 -2301 1341 0
28271 2029 1345 -2301 -1341 0
13728 2029 -1345 2301 1341 0
26855 2029 -1345 2301 -1341 0
24813 2029 -1345 -2301 1341 0
32952 2029 -1345 -2301 -1341 0
19305 -2029 1345 2301 1341 0
29923 -2029 1345 2301 -1341 0
28271 -2029 1345 -2301 1341 0
34854 -2029 1345 -2301 -1341 0
26855 -2029 -1345 2301 1341 0
34075 -2029 -1345 2301 -1341 0
32952 -2029 -1345 -2301 1341 0
37429 -2029 -1345 -2301 -1341 0
32045 3424 -2806 0
9425 -3424 2806 0
33459 -3424 -2806 0
4340 -2370 0
8560 -3088 0
2170 3451 2568 -2049 0
4340 3451 -2568 2049 0
4991 3451 -2568 -2049 0
4030 -3451 2568 2049 0
4789 -3451 2568 -2049 0
5549 -3451 -2568 2049 0
5777 -3451 -2568 -2049 0
26390 3571 2485 3047 -2821 0
20735 3571 2485 -3047 2821 0
32611 3571 2485 -3047 -2821 0
9425 3571 -2485 3047 2821 0
29217 3571 -2485 3047 -2821 0
24976 3571 -2485 -3047 2821 0
33883 3571 -2485 -3047 -2821 0
11310 -3571 2485 3047 2821 0
29783 -3571 2485 3047 -2821 0
25825 -3571 2485 -3047 2821 0
34137 -3571 2485 -3047 -2821 0
17908 -3571 -2485 3047 2821 0
31762 -3571 -2485 3047 -2821 0
28793 -3571 -2485 -3047 2821 0
35028 -3571 -2485 -3047 -2821 0
36465 -1448 0
4290 3983 2653 1633 -1770 0
2145 3983 2653 -1633 1770 0
6221 3983 2653 -1633 -1770 0
12870 3983 -2653 1633 1770 0
15873 3983 -2653 1633 -1770 0
14372 3983 -2653 -1633 1770 0
17224 3983 -2653 -1633 -1770 0
12870 -3983 2653 1633 1770 0
15873 -3983 2653 1633 -1770 0
14372 -3983 2653 -1633 1770 0
17224 -3983 2653 -1633 -1770 0
21879 -3983 -2653 1633 1770 0
23981 -3983 -2653 1633 -1770 0
22930 -3983 -2653 -1633 1770 0
24927 -3983 -2653 -1633 -1770 0
1926 4060 -3912 0
4815 -4060 3912 0
5874 -4060 -3912 0
5270 1308 3412 1251 -3914 0
1550 1308 3412 -1251 3914 0
5502 1308 3412 -1251 -3914 0
2480 1308 -3412 1251 3914 0
5642 1308 -3412 1251 -3914 0
3410 1308 -3412 -1251 3914 0
5781 1308 -3412 -1251 -3914 0
1984 -1308 3412 1251 3914 0
5568 -1308 3412 1251 -3914 0
3038 -1308 3412 -1251 3914 0
5726 -1308 3412 -1251 -3914 0
3670 -1308 -3412 1251 3914 0
5821 -1308 -3412 1251 -3914 0
4303 -1308 -3412 -1251 3914 0
5915 -1308 -3412 -1251 -3914 0
15080 2141 -2623 0
18850 -2141 2623 0
26390 -2141 -2623 0
7722 3995 2134 2036 -4052 0
5148 3995 2134 -2036 4052 0
11943 3995 2134 -2036 -4052 0
6435 3995 -2134 2036 4052 0
12999 3995 -2134 2036 -4052 0
10811 3995 -2134 -2036 4052 0
16587 3995 -2134 -2036 -4052 0
34320 -3995 2134 2036 4052 0
35864 -3995 2134 2036 -4052 0
35350 -3995 2134 -2036 4052 0
36709 -3995 2134 -2036 -4052 0
35607 -3995 -2134 2036 4052 0
36920 -3995 -2134 2036 -4052 0
36482 -3995 -2134 -2036 4052 0
37637 -3995 -2134 -2036 -4052 0
2480 3472 3777 -2915 0
1116 3472 -3777 2915 0
3150 3472 -3777 -2915 0
4340 -3472 3777 2915 0
5084 -3472 3777 -2915 0
4675 -3472 -3777 2915 0
5285 -3472 -3777 -2915 0
7220 -2832 0
858 2184 2596 -3562 0
27885 2184 -2596 3562 0
28185 2184 -2596 -3562 0
5148 -2184 2596 3562 0
5903 -2184 2596 -3562 0
29687 -2184 -2596 3562 0
29951 -2184 -2596 -3562 0
16302 3600 4016 -2924 0
8580 3600 -4016 2924 0
21622 3600 -4016 -2924 0
25740 -3600 4016 2924 0
32261 -3600 4016 -2924 0
29172 -3600 -4016 2924 0
34389 -3600 -4016 -2924 0
3410 1521 -1318 0
5580 -1521 1318 0
5921 -1521 -1318 0
950 2222 3252 -1408 0
11400 2222 -3252 1408 0
11780 2222 -3252 -1408 0
16150 -2222 3252 1408 0
16292 -2222 3252 -1408 0
17860 -2222 -3252 1408 0
17917 -2222 -3252 -1408 0
124 3897 3089 -3290 0
1116 3897 -3089 3290 0
1218 3897 -3089 -3290 0
5890 -3897 3089 3290 0
5896 -3897 3089 -3290 0
5946 -3897 -3089 3290 0
5951 -3897 -3089 -3290 0
33930 3696 -2936 0
33930 -3696 2936 0
37323 -3696 -2936 0
13300 2640 -3700 0
7600 -2640 3700 0
15580 -2640 -3700 0
24505 -3725 0
1240 2355 -2226 0
1116 -2355 2226 0
2133 -2355 -2226 0
5350 1626 2402 -1635 0
1926 1626 -2402 1635 0
6313 1626 -2402 -1635 0
1284 -1626 2402 1635 0
5992 -1626 2402 -1635 0
2979 -1626 -2402 1635 0
6839 -1626 -2402 -1635 0
1605 1572 1724 3051 -2163 0
214 1572 1724 -3051 2163 0
1787 1572 1724 -3051 -2163 0
5350 1572 -1724 3051 2163 0
6152 1572 -1724 3051 -2163 0
5457 1572 -1724 -3051 2163 0
6243 1572 -1724 -3051 -2163 0
4280 -1572 1724 3051 2163 0
5243 -1572 1724 3051 -2163 0
4408 -1572 1724 -3051 2163 0
5352 -1572 1724 -3051 -2163 0
7490 -1572 -1724 3051 2163 0
7972 -1572 -1724 3051 -2163 0
7554 -1572 -1724 -3051 2163 0
8026 -1572 -1724 -3051 -2163 0
22620 1679 -3035 0
11310 -1679 3035 0
27144 -1679 -3035 0
1070 1672 1262 -1790 0
4280 1672 -1262 1790 0
4922 1672 -1262 -1790 0
6955 -1672 1262 1790 0
7330 -1672 1262 -1790 0
8453 -1672 -1262 1790 0
8678 -1672 -1262 -1790 0
5890 1275 -2085 0
1116 -1275 2085 0
5946 -1275 -2085 0
2140 -1665 0
9095 -3052 0
2675 3065 -3399 0
3210 -3065 3399 0
5083 -3065 -3399 0
13195 -2858 0
30030 3332 -3826 0
15015 -3332 3826 0
34534 -3332 -3826 0
7220 3583 -2417 0
6650 -3583 2417 0
11343 -3583 -2417 0
27885 1483 2274 -2846 0
12870 1483 -2274 2846 0
32389 1483 -2274 -2846 0
858 -1483 2274 2846 0
28185 -1483 2274 -2846 0
13471 -1483 -2274 2846 0
32600 -1483 -2274 -2846 0
4750 2497 2345 1544 2157 2703 -3151 0
9500 2497 2345 1544 2157 -2703 3151 0
11875 2497 2345 1544 2157 -2703 -3151 0
17100 2497 2345 1544 -2157 2703 3151 0
17575 2497 2345 1544 -2157 2703 -3151 0
18050 2497 2345 1544 -2157 -2703 3151 0
18288 2497 2345 1544 -2157 -2703 -3151 0
7220 2497 2345 -1544 2157 2703 3151 0
10165 2497 2345 -1544 2157 2703 -3151 0
13110 2497 2345 -1544 2157 -2703 3151 0
14583 2497 2345 -1544 2157 -2703 -3151 0
17822 2497 2345 -1544 -2157 2703 3151 0
18116 2497 2345 -1544 -2157 2703 -3151 0
18411 2497 2345 -1544 -2157 -2703 3151 0
18558 2497 2345 -1544 -2157 -2703 -3151 0
7220 2497 -2345 1544 2157 2703 3151 0
10165 2497 -2345 1544 2157 2703 -3151 0
13110 2497 -2345 1544 2157 -2703 3151 0
14583 2497 -2345 1544 2157 -2703 -3151 0
17822 2497 -2345 1544 -2157 2703 3151 0
18116 2497 -2345 1544 -2157 2703 -3151 0
18411 2497 -2345 1544 -2157 -2703 3151 0
18558 2497 -2345 1544 -2157 -2703 -3151 0
11696 2497 -2345 -1544 2157 2703 3151 0
13522 2497 -2345 -1544 2157 2703 -3151 0
15348 2497 -2345 -1544 2157 -2703 3151 0
16261 2497 -2345 -1544 2157 -2703 -3151 0
18270 2497 -2345 -1544 -2157 2703 3151 0
18452 2497 -2345 -1544 -2157 2703 -3151 0
18635 2497 -2345 -1544 -2157 -2703 3151 0
18726 2497 -2345 -1544 -2157 -2703 -3151 0
1900 -2497 2345 1544 2157 2703 3151 0
6175 -2497 2345 1544 2157 2703 -3151 0
10450 -2497 2345 1544 2157 -2703 3151 0
12588 -2497 2345 1544 2157 -2703 -3151 0
17290 -2497 2345 1544 -2157 2703 3151 0
17718 -2497 2345 1544 -2157 2703 -3151 0
18145 -2497 2345 1544 -2157 -2703 3151 0
18359 -2497 2345 1544 -2157 -2703 -3151 0
8398 -2497 2345 -1544 2157 2703 3151 0
11048 -2497 2345 -1544 2157 2703 -3151 0
13699 -2497 2345 -1544 2157 -2703 3151 0
15024 -2497 2345 -1544 2157 -2703 -3151 0
17940 -2497 2345 -1544 -2157 2703 3151 0
18205 -2497 2345 -1544 -2157 2703 -3151 0
18470 -2497 2345 -1544 -2157 -2703 3151 0
18602 -2497 2345 -1544 -2157 -2703 -3151 0
8398 -2497 -2345 1544 2157 2703 3151 0
11048 -2497 -2345 1544 2157 2703 -3151 0
13699 -2497 -2345 1544 2157 -2703 3151 0
15024 -2497 -2345 1544 2157 -2703 -3151 0
17940 -2497 -2345 1544 -2157 2703 3151 0
18205 -2497 -2345 1544 -2157 2703 -3151 0
18470 -2497 -2345 1544 -2157 -2703 3151 0
18602 -2497 -2345 1544 -2157 -2703 -3151 0
12427 -2497 -2345 -1544 2157 2703 3151 0
14070 -2497 -2345 -1544 2157 2703 -3151 0
15713 -2497 -2345 -1544 2157 -2703 3151 0
16535 -2497 -2345 -1544 2157 -2703 -3151 0
18343 -2497 -2345 -1544 -2157 2703 3151 0
18507 -2497 -2345 -1544 -2157 2703 -3151 0
18671 -2497 -2345 -1544 -2157 -2703 3151 0
18754 -2497 -2345 -1544 -2157 -2703 -3151 0
11400 3731 2467 -3992 0
14250 3731 -2467 3992 0
17100 3731 -2467 -3992 0
5700 -3731 2467 3992 0
13680 -3731 2467 -3992 0
15675 -3731 -2467 3992 0
17670 -3731 -2467 -3992 0
2170 1843 1438 -3516 0
3720 1843 -1438 3516 0
4588 1843 -1438 -3516 0
930 -1843 1438 3516 0
2775 -1843 1438 -3516 0
4092 -1843 -1438 3516 0
4830 -1843 -1438 -3516 0
11310 -4006 0
1550 -2290 0
13300 3976 -1440 0
10450 -3976 1440 0
16435 -3976 -1440 0
13300 3855 1413 -3697 0
15200 3855 -1413 3697 0
17860 3855 -1413 -3697 0
14250 -3855 1413 3697 0
17575 -3855 1413 -3697 0
18050 -3855 -1413 3697 0
18715 -3855 -1413 -3697 0
858 2240 2214 -2972 0
7722 2240 -2214 2972 0
8426 2240 -2214 -2972 0
19305 -2240 2214 2972 0
19777 -2240 2214 -2972 0
23552 -2240 -2214 2972 0
23939 -2240 -2214 -2972 0
26390 3970 -2436 0
33930 -3970 2436 0
36569 -3970 -2436 0
1550 -1416 0
30160 4008 2532 -2757 0
18850 4008 -2532 2757 0
33930 4008 -2532 -2757 0
24505 -4008 2532 2757 0
35061 -4008 2532 -2757 0
31102 -4008 -2532 2757 0
36381 -4008 -2532 -2757 0
18050 3980 2063 -2288 0
7220 3980 -2063 2288 0
18411 3980 -2063 -2288 0
14250 -3980 2063 2288 0
18762 -3980 2063 -2288 0
16055 -3980 -2063 2288 0
18853 -3980 -2063 -2288 0
13300 2637 -1245 0
17100 -2637 1245 0
18430 -2637 -1245 0
3770 -2909 0
4750 2067 1247 -2967 0
7600 2067 -1247 2967 0
10450 2067 -1247 -2967 0
18050 -2067 1247 2967 0
18287 -2067 1247 -2967 0
18430 -2067 -1247 2967 0
18572 -2067 -1247 -2967 0
5580 3430 -3113 0
4340 -3430 3113 0
6014 -3430 -3113 0
2280 -3863 0
4524 -2144 0
1860 2302 3664 -2788 0
4030 2302 -3664 2788 0
4681 2302 -3664 -2788 0
4340 -2302 3664 2788 0
4898 -2302 3664 -2788 0
5549 -2302 -3664 2788 0
5744 -2302 -3664 -2788 0
18850 -1546 0
5885 2041 -2065 0
2675 -2041 2065 0
7089 -2041 -2065 0
32175 2234 -2587 0
32175 -2234 2587 0
40219 -2234 -2587 0
16150 -3800 0
3745 3788 1688 1376 -1557 0
10165 3788 1688 -1376 1557 0
10352 3788 1688 -1376 -1557 0
1605 3788 -1688 1376 1557 0
4788 3788 -1688 1376 -1557 0
10245 3788 -1688 -1376 1557 0
10404 3788 -1688 -1376 -1557 0
10165 -3788 1688 1376 1557 0
10352 -3788 1688 1376 -1557 0
10673 -3788 1688 -1376 1557 0
10683 -3788 1688 -1376 -1557 0
10245 -3788 -1688 1376 1557 0
10404 -3788 -1688 1376 -1557 0
10677 -3788 -1688 -1376 1557 0
10685 -3788 -1688 -1376 -1557 0
4030 1362 3000 -3351 0
4030 1362 -3000 3351 0
5441 1362 -3000 -3351 0
2170 -1362 3000 3351 0
4789 -1362 3000 -3351 0
4789 -1362 -3000 3351 0
5706 -1362 -3000 -3351 0
5270 3260 2652 2235 -1795 0
4650 3260 2652 -2235 1795 0
5968 3260 2652 -2235 -1795 0
1984 3260 -2652 2235 1795 0
5568 3260 -2652 2235 -1795 0
5146 3260 -2652 -2235 1795 0
6042 3260 -2652 -2235 -1795 0
5580 -3260 2652 2235 1795 0
6107 -3260 2652 2235 -1795 0
6045 -3260 2652 -2235 1795 0
6177 -3260 2652 -2235 -1795 0
5778 -3260 -2652 2235 1795 0
6137 -3260 -2652 2235 -1795 0
6095 -3260 -2652 -2235 1795 0
6184 -3260 -2652 -2235 -1795 0
18850 3677 2630 -2230 0
6786 3677 -2630 2230 0
22243 3677 -2630 -2230 0
20735 -3677 2630 2230 0
29218 -3677 2630 -2230 0
23789 -3677 -2630 2230 0
30744 -3677 -2630 -2230 0
310 2518 2471 1202 -2213 0
2480 2518 2471 -1202 2213 0
2666 2518 2471 -1202 -2213 0
744 2518 -2471 1202 2213 0
1017 2518 -2471 1202 -2213 0
2926 2518 -2471 -1202 2213 0
3090 2518 -2471 -1202 -2213 0
1860 -2518 2471 1202 2213 0
2077 -2518 2471 1202 -2213 0
3596 -2518 2471 -1202 2213 0
3726 -2518 2471 -1202 -2213 0
2381 -2518 -2471 1202 2213 0
2572 -2518 -2471 1202 -2213 0
3908 -2518 -2471 -1202 2213 0
4023 -2518 -2471 -1202 -2213 0
12064 1857 -1926 0
24505 -1857 1926 0
28727 -1857 -1926 0
17160 1465 2284 3852 -4015 0
7722 1465 2284 -3852 4015 0
21793 1465 2284 -3852 -4015 0
36465 1465 -2284 3852 4015 0
39039 1465 -2284 3852 -4015 0
37623 1465 -2284 -3852 4015 0
39734 1465 -2284 -3852 -4015 0
15015 -1465 2284 3852 4015 0
26169 -1465 2284 3852 -4015 0
20034 -1465 2284 -3852 4015 0
29181 -1465 2284 -3852 -4015 0
38717 -1465 -2284 3852 4015 0
40390 -1465 -2284 3852 -4015 0
39470 -1465 -2284 -3852 4015 0
40842 -1465 -2284 -3852 -4015 0
1900 2890 1854 -1296 0
15200 2890 -1854 1296 0
15580 2890 -1854 -1296 0
6650 -2890 1854 1296 0
7885 -2890 1854 -1296 0
16530 -2890 -1854 1296 0
16777 -2890 -1854 -1296 0
5270 2552 3441 -3383 0
620 2552 -3441 3383 0
5363 2552 -3441 -3383 0
3720 -2552 3441 3383 0
5828 -2552 3441 -3383 0
3968 -2552 -3441 3383 0
5865 -2552 -3441 -3383 0
3424 -2660 0
1240 3710 -1511 0
5890 -3710 1511 0
5952 -3710 -1511 0
5148 1489 2126 4067 -2617 0
32175 1489 2126 -4067 2617 0
33462 1489 2126 -4067 -2617 0
40755 1489 -2126 4067 2617 0
41012 1489 -2126 4067 -2617 0
42364 1489 -2126 -4067 2617 0
42428 1489 -2126 -4067 -2617 0
40755 -1489 2126 4067 2617 0
41012 -1489 2126 4067 -2617 0
42364 -1489 2126 -4067 2617 0
42428 -1489 2126 -4067 -2617 0
42793 -1489 -2126 4067 2617 0
42806 -1489 -2126 4067 -2617 0
42873 -1489 -2126 -4067 2617 0
42876 -1489 -2126 -4067 -2617 0
12064 -2812 0
19305 1430 -2072 0
19305 -1430 2072 0
29923 -1430 -2072 0
5580 1940 -3460 0
1984 -1940 3460 0
5778 -1940 -3460 0
18050 3119 -2478 0
13300 -3119 2478 0
18715 -3119 -2478 0
38610 2962 2889 3570 -2305 0
7722 2962 2889 -3570 2305 0
39382 2962 2889 -3570 -2305 0
6435 2962 -2889 3570 2305 0
39254 2962 -2889 3570 -2305 0
12999 2962 -2889 -3570 2305 0
39910 2962 -2889 -3570 -2305 0
8580 -2962 2889 3570 2305 0
39468 -2962 2889 3570 -2305 0
14758 -2962 2889 -3570 2305 0
40086 -2962 2889 -3570 -2305 0
13728 -2962 -2889 3570 2305 0
39983 -2962 -2889 3570 -2305 0
18979 -2962 -2889 -3570 2305 0
40508 -2962 -2889 -3570 -2305 0
12064 3607 3861 3140 -1457 0
11310 3607 3861 -3140 1457 0
19755 3607 3861 -3140 -1457 0
13195 3607 -3861 3140 1457 0
21037 3607 -3861 3140 -1457 0
20547 3607 -3861 -3140 1457 0
26036 3607 -3861 -3140 -1457 0
12064 -3607 3861 3140 1457 0
20268 -3607 3861 3140 -1457 0
19755 -3607 3861 -3140 1457 0
25497 -3607 3861 -3140 -1457 0
21037 -3607 -3861 3140 1457 0
26369 -3607 -3861 3140 -1457 0
26036 -3607 -3861 -3140 1457 0
29768 -3607 -3861 -3140 -1457 0
10165 2145 1953 -2374 0
535 2145 -1953 2374 0
10192 2145 -1953 -2374 0
6955 -2145 1953 2374 0
10513 -2145 1953 -2374 0
7142 -2145 -1953 2374 0
10522 -2145 -1953 -2374 0
2790 -2546 0
8580 -2413 0
2140 -3379 0
744 1912 2060 -1431 0
4650 1912 -2060 1431 0
4836 1912 -2060 -1431 0
5580 -1912 2060 1431 0
5654 -1912 2060 -1431 0
6045 -1912 -2060 1431 0
6064 -1912 -2060 -1431 0
14326 3504 -1563 0
754 -3504 1563 0
14793 -3504 -1563 0
2280 3112 -2087 0
2850 -3112 2087 0
4788 -3112 -2087 0
11400 3478 -3481 0
11400 -3478 3481 0
15960 -3478 -3481 0
1116 4071 3018 -1313 0
4650 4071 -3018 1313 0
4929 4071 -3018 -1313 0
2480 -4071 3018 1313 0
3150 -4071 3018 -1313 0
5270 -4071 -3018 1313 0
5437 -4071 -3018 -1313 0
950 -2443 0
40755 2037 2206 -3646 0
21450 2037 -2206 3646 0
41827 2037 -2206 -3646 0
25740 -2037 2206 3646 0
42042 -2037 2206 -3646 0
34320 -2037 -2206 3646 0
42471 -2037 -2206 -3646 0
8560 -2391 0
11400 1257 -2324 0
7600 -1257 2324 0
14440 -1257 -2324 0
4066 2379 2727 -1715 0
214 2379 -2727 1715 0
4199 2379 -2727 -1715 0
10165 -2379 2727 1715 0
10368 -2379 2727 -1715 0
10176 -2379 -2727 1715 0
10375 -2379 -2727 -1715 0
30160 1644 -1989 0
1885 -1644 1989 0
30537 -1644 -1989 0
2675 3353 2842 -3794 0
1605 3353 -2842 3794 0
3879 3353 -2842 -3794 0
8560 -3353 2842 3794 0
9095 -3353 2842 -3794 0
8881 -3353 -2842 3794 0
9336 -3353 -2842 -3794 0
17100 2293 3723 -2158 0
6080 2293 -3723 2158 0
17708 2293 -3723 -2158 0
7220 -2293 3723 2158 0
17822 -2293 3723 -2158 0
10990 -2293 -3723 2158 0
18199 -2293 -3723 -2158 0
19305 1726 2074 3001 1227 1368 -1802 0
30030 1726 2074 3001 1227 -1368 1802 0
35821 1726 2074 3001 1227 -1368 -1802 0
15015 1726 2074 3001 -1227 1368 1802 0
27563 1726 2074 3001 -1227 1368 -1802 0
34534 1726 2074 3001 -1227 -1368 1802 0
38299 1726 2074 3001 -1227 -1368 -1802 0
12870 1726 2074 -3001 1227 1368 1802 0
26383 1726 2074 -3001 1227 1368 -1802 0
33891 1726 2074 -3001 1227 -1368 1802 0
37945 1726 2074 -3001 1227 -1368 -1802 0
23381 1726 2074 -3001 -1227 1368 1802 0
32164 1726 2074 -3001 -1227 1368 -1802 0
37044 1726 2074 -3001 -1227 -1368 1802 0
39679 1726 2074 -3001 -1227 -1368 -1802 0
10725 1726 -2074 3001 1227 1368 1802 0
25204 1726 -2074 3001 1227 1368 -1802 0
33247 1726 -2074 3001 1227 -1368 1802 0
37591 1726 -2074 3001 1227 -1368 -1802 0
21986 1726 -2074 3001 -1227 1368 1802 0
31397 1726 -2074 3001 -1227 1368 -1802 0
36626 1726 -2074 3001 -1227 -1368 1802 0
39449 1726 -2074 3001 -1227 -1368 -1802 0
20378 1726 -2074 -3001 1227 1368 1802 0
30513 1726 -2074 -3001 1227 1368 -1802 0
36143 1726 -2074 -3001 1227 -1368 1802 0
39184 1726 -2074 -3001 1227 -1368 -1802 0
28260 1726 -2074 -3001 -1227 1368 1802 0
34848 1726 -2074 -3001 -1227 1368 -1802 0
38508 1726 -2074 -3001 -1227 -1368 1802 0
40484 1726 -2074 -3001 -1227 -1368 -1802 0
36465 -1726 2074 3001 1227 1368 1802 0
39361 -1726 2074 3001 1227 1368 -1802 0
40969 -1726 2074 3001 1227 -1368 1802 0
41838 -1726 2074 3001 1227 -1368 -1802 0
38717 -1726 2074 3001 -1227 1368 1802 0
40599 -1726 2074 3001 -1227 1368 -1802 0
41645 -1726 2074 3001 -1227 -1368 1802 0
42210 -1726 2074 3001 -1227 -1368 -1802 0
38395 -1726 2074 -3001 1227 1368 1802 0
40423 -1726 2074 -3001 1227 1368 -1802 0
41549 -1726 2074 -3001 1227 -1368 1802 0
42157 -1726 2074 -3001 1227 -1368 -1802 0
39972 -1726 2074 -3001 -1227 1368 1802 0
41290 -1726 2074 -3001 -1227 1368 -1802 0
42022 -1726 2074 -3001 -1227 -1368 1802 0
42417 -1726 2074 -3001 -1227 -1368 -1802 0
38074 -1726 -2074 3001 1227 1368 1802 0
40246 -1726 -2074 3001 1227 1368 -1802 0
41452 -1726 -2074 3001 1227 -1368 1802 0
42104 -1726 -2074 3001 1227 -1368 -1802 0
39763 -1726 -2074 3001 -1227 1368 1802 0
41175 -1726 -2074 3001 -1227 1368 -1802 0
41959 -1726 -2074 3001 -1227 -1368 1802 0
42382 -1726 -2074 3001 -1227 -1368 -1802 0
39522 -1726 -2074 -3001 1227 1368 1802 0
41042 -1726 -2074 -3001 1227 1368 -1802 0
41886 -1726 -2074 -3001 1227 -1368 1802 0
42343 -1726 -2074 -3001 1227 -1368 -1802 0
40704 -1726 -2074 -3001 -1227 1368 1802 0
41692 -1726 -2074 -3001 -1227 1368 -1802 0
42241 -1726 -2074 -3001 -1227 -1368 1802 0
42538 -1726 -2074 -3001 -1227 -1368 -1802 0
9095 3371 1524 1598 -3949 0
6420 3371 1524 -1598 3949 0
10058 3371 1524 -1598 -3949 0
1284 3371 -1524 1598 3949 0
9288 3371 -1524 1598 -3949 0
6934 3371 -1524 -1598 3949 0
10135 3371 -1524 -1598 -3949 0
6420 -3371 1524 1598 3949 0
10058 -3371 1524 1598 -3949 0
8988 -3371 1524 -1598 3949 0
10443 -3371 1524 -1598 -3949 0
6934 -3371 -1524 1598 3949 0
10135 -3371 -1524 1598 -3949 0
9193 -3371 -1524 -1598 3949 0
10474 -3371 -1524 -1598 -3949 0
858 1517 2955 1664 -1965 0
8580 1517 2955 -1664 1965 0
9266 1517 2955 -1664 -1965 0
15015 1517 -2955 1664 1965 0
15573 1517 -2955 1664 -1965 0
20592 1517 -2955 -1664 1965 0
21038 1517 -2955 -1664 -1965 0
38610 -1517 2955 1664 1965 0
38696 -1517 2955 1664 -1965 0
39468 -1517 2955 -1664 1965 0
39537 -1517 2955 -1664 -1965 0
40112 -1517 -2955 1664 1965 0
40167 -1517 -2955 1664 -1965 0
40669 -1517 -2955 -1664 1965 0
40714 -1517 -2955 -1664 -1965 0
1926 3984 3437 -2451 0
3424 3984 -3437 2451 0
4734 3984 -3437 -2451 0
2140 -3984 3437 2451 0
3681 -3984 3437 -2451 0
4879 -3984 -3437 2451 0
5927 -3984 -3437 -2451 0
12350 1553 -3251 0
13300 -1553 3251 0
17005 -1553 -3251 0
27885 -1730 0
10725 -3067 0
858 -2709 0
5885 3235 -3133 0
8025 -3235 3133 0
9496 -3235 -3133 0
1284 -2182 0
33930 3173 2259 -1964 0
20735 3173 -2259 1964 0
36004 3173 -2259 -1964 0
1885 -3173 2259 1964 0
34119 -3173 2259 -1964 0
21583 -3173 -2259 1964 0
36088 -3173 -2259 -1964 0
744 1232 -3111 0
2170 -1232 3111 0
2654 -1232 -3111 0
20735 3069 -2515 0
12064 -3069 2515 0
26164 -3069 -2515 0
7220 -2054 0
5890 3603 -2299 0
5270 -3603 2299 0
6153 -3603 -2299 0
8560 1968 -4073 0
4066 -1968 4073 0
9373 -1968 -4073 0
380 2341 2715 -3589 0
3420 2341 -2715 3589 0
3732 2341 -2715 -3589 0
2280 -2341 2715 3589 0
2614 -2341 2715 -3589 0
5290 -2341 -2715 3589 0
5564 -2341 -2715 -3589 0
5148 2579 4076 2476 -3673 0
38610 2579 4076 -2476 3673 0
39125 2579 4076 -2476 -3673 0
38610 2579 -4076 2476 3673 0
39125 2579 -4076 2476 -3673 0
42471 2579 -4076 -2476 3673 0
42522 2579 -4076 -2476 -3673 0
2145 -2579 4076 2476 3673 0
7036 -2579 4076 2476 -3673 0
38825 -2579 4076 -2476 3673 0
39314 -2579 4076 -2476 -3673 0
38825 -2579 -4076 2476 3673 0
39314 -2579 -4076 2476 -3673 0
42492 -2579 -4076 -2476 3673 0
42541 -2579 -4076 -2476 -3673 0
4280 1617 3463 -3747 0
1605 1617 -3463 3747 0
5243 1617 -3463 -3747 0
6955 -1617 3463 3747 0
8453 -1617 3463 -3747 0
7517 -1617 -3463 3747 0
8790 -1617 -3463 -3747 0
930 1937 -2018 0
5270 -1937 2018 0
5410 -1937 -2018 0
40755 -2084 0
11400 3149 -3957 0
18050 -3149 3957 0
18620 -3149 -3957 0
40755 -3206 0
4960 -2747 0
3410 2670 2148 3304 -3904 0
930 2670 2148 -3304 3904 0
3829 2670 2148 -3304 -3904 0
3100 2670 -2148 3304 3904 0
4805 2670 -2148 3304 -3904 0
3565 2670 -2148 -3304 3904 0
5014 2670 -2148 -3304 -3904 0
1240 -2670 2148 3304 3904 0
3968 -2670 2148 3304 -3904 0
1984 -2670 2148 -3304 3904 0
4303 -2670 2148 -3304 -3904 0
3720 -2670 -2148 3304 3904 0
5084 -2670 -2148 3304 -3904 0
4092 -2670 -2148 -3304 3904 0
5251 -2670 -2148 -3304 -3904 0
4650 2621 2186 -1347 0
744 2621 -2186 1347 0
4836 2621 -2186 -1347 0
2790 -2621 2186 1347 0
5348 -2621 2186 -1347 0
3199 -2621 -2186 1347 0
5450 -2621 -2186 -1347 0
8560 1333 -3711 0
214 -1333 3711 0
8603 -1333 -3711 0
38610 1605 1765 2553 3935 3106 -3961 0
38610 1605 1765 2553 3935 -3106 3961 0
42471 1605 1765 2553 3935 -3106 -3961 0
19305 1605 1765 2553 -3935 3106 3961 0
40541 1605 1765 2553 -3935 3106 -3961 0
40541 1605 1765 2553 -3935 -3106 3961 0
42664 1605 1765 2553 -3935 -3106 -3961 0
19305 1605 1765 -2553 3935 3106 3961 0
40541 1605 1765 -2553 3935 3106 -3961 0
40541 1605 1765 -2553 3935 -3106 3961 0
42664 1605 1765 -2553 3935 -3106 -3961 0
29923 1605 1765 -2553 -3935 3106 3961 0
41602 1605 1765 -2553 -3935 3106 -3961 0
41602 1605 1765 -2553 -3935 -3106 3961 0
42770 1605 1765 -2553 -3935 -3106 -3961 0
12870 1605 -1765 2553 3935 3106 3961 0
39897 1605 -1765 2553 3935 3106 -3961 0
39897 1605 -1765 2553 3935 -3106 3961 0
42600 1605 -1765 2553 3935 -3106 -3961 0
26383 1605 -1765 2553 -3935 3106 3961 0
41248 1605 -1765 2553 -3935 3106 -3961 0
41248 1605 -1765 2553 -3935 -3106 3961 0
42735 1605 -1765 2553 -3935 -3106 -3961 0
26383 1605 -1765 -2553 3935 3106 3961 0
41248 1605 -1765 -2553 3935 3106 -3961 0
41248 1605 -1765 -2553 3935 -3106 3961 0
42735 1605 -1765 -2553 3935 -3106 -3961 0
33816 1605 -1765 -2553 -3935 3106 3961 0
41992 1605 -1765 -2553 -3935 3106 -3961 0
41992 1605 -1765 -2553 -3935 -3106 3961 0
42809 1605 -1765 -2553 -3935 -3106 -3961 0
38610 -1605 1765 2553 3935 3106 3961 0
42471 -1605 1765 2553 3935 3106 -3961 0
42471 -1605 1765 2553 3935 -3106 3961 0
42857 -1605 1765 2553 3935 -3106 -3961 0
40541 -1605 1765 2553 -3935 3106 3961 0
42664 -1605 1765 2553 -3935 3106 -3961 0
42664 -1605 1765 2553 -3935 -3106 3961 0
42876 -1605 1765 2553 -3935 -3106 -3961 0
40541 -1605 1765 -2553 3935 3106 3961 0
42664 -1605 1765 -2553 3935 3106 -3961 0
42664 -1605 1765 -2553 3935 -3106 3961 0
42876 -1605 1765 -2553 3935 -3106 -3961 0
41602 -1605 1765 -2553 -3935 3106 3961 0
42770 -1605 1765 -2553 -3935 3106 -3961 0
42770 -1605 1765 -2553 -3935 -3106 3961 0
42887 -1605 1765 -2553 -3935 -3106 -3961 0
39897 -1605 -1765 2553 3935 3106 3961 0
42600 -1605 -1765 2553 3935 3106 -3961 0
42600 -1605 -1765 2553 3935 -3106 3961 0
42870 -1605 -1765 2553 3935 -3106 -3961 0
41248 -1605 -1765 2553 -3935 3106 3961 0
42735 -1605 -1765 2553 -3935 3106 -3961 0
42735 -1605 -1765 2553 -3935 -3106 3961 0
42883 -1605 -1765 2553 -3935 -3106 -3961 0
41248 -1605 -1765 -2553 3935 3106 3961 0
42735 -1605 -1765 -2553 3935 3106 -3961 0
42735 -1605 -1765 -2553 3935 -3106 3961 0
42883 -1605 -1765 -2553 3935 -3106 -3961 0
41992 -1605 -1765 -2553 -3935 3106 3961 0
42809 -1605 -1765 -2553 -3935 3106 -3961 0
42809 -1605 -1765 -2553 -3935 -3106 3961 0
42891 -1605 -1765 -2553 -3935 -3106 -3961 0
2675 3867 -2069 0
5885 -3867 2069 0
7089 -3867 -2069 0
12870 1578 -3735 0
38610 -1578 3735 0
39897 -1578 -3735 0
4524 3748 -2875 0
26390 -3748 2875 0
27747 -3748 -2875 0
14326 4051 3179 2748 2010 3749 -1409 0
7540 4051 3179 2748 2010 -3749 1409 0
19001 4051 3179 2748 2010 -3749 -1409 0
754 4051 3179 2748 -2010 3749 1409 0
14793 4051 3179 2748 -2010 3749 -1409 0
8143 4051 3179 2748 -2010 -3749 1409 0
19375 4051 3179 2748 -2010 -3749 -1409 0
6786 4051 3179 -2748 2010 3749 1409 0
18533 4051 3179 -2748 2010 3749 -1409 0
12969 4051 3179 -2748 2010 -3749 1409 0
22367 4051 3179 -2748 2010 -3749 -1409 0
7404 4051 3179 -2748 -2010 3749 1409 0
18917 4051 3179 -2748 -2010 3749 -1409 0
13463 4051 3179 -2748 -2010 -3749 1409 0
22673 4051 3179 -2748 -2010 -3749 -1409 0
20735 4051 -3179 2748 2010 3749 1409 0
27182 4051 -3179 2748 2010 3749 -1409 0
24128 4051 -3179 2748 2010 -3749 1409 0
29285 4051 -3179 2748 2010 -3749 -1409 0
21074 4051 -3179 2748 -2010 3749 1409 0
27392 4051 -3179 2748 -2010 3749 -1409 0
24399 4051 -3179 2748 -2010 -3749 1409 0
29454 4051 -3179 2748 -2010 -3749 -1409 0
23789 4051 -3179 -2748 2010 3749 1409 0
29075 4051 -3179 -2748 2010 3749 -1409 0
26571 4051 -3179 -2748 2010 -3749 1409 0
30800 4051 -3179 -2748 2010 -3749 -1409 0
24067 4051 -3179 -2748 -2010 3749 1409 0
29247 4051 -3179 -2748 -2010 3749 -1409 0
26794 4051 -3179 -2748 -2010 -3749 1409 0
30938 4051 -3179 -2748 -2010 -3749 -1409 0
1885 -4051 3179 2748 2010 3749 1409 0
15495 -4051 3179 2748 2010 3749 -1409 0
9048 -4051 3179 2748 2010 -3749 1409 0
19936 -4051 3179 2748 2010 -3749 -1409 0
2601 -4051 3179 2748 -2010 3749 1409 0
15939 -4051 3179 2748 -2010 3749 -1409 0
9621 -4051 3179 2748 -2010 -3749 1409 0
20291 -4051 3179 2748 -2010 -3749 -1409 0
8332 -4051 3179 -2748 2010 3749 1409 0
19492 -4051 3179 -2748 2010 3749 -1409 0
14205 -4051 3179 -2748 2010 -3749 1409 0
23133 -4051 3179 -2748 2010 -3749 -1409 0
8919 -4051 3179 -2748 -2010 3749 1409 0
19856 -4051 3179 -2748 -2010 3749 -1409 0
14675 -4051 3179 -2748 -2010 -3749 1409 0
23425 -4051 3179 -2748 -2010 -3749 -1409 0
21583 -4051 -3179 2748 2010 3749 1409 0
27708 -4051 -3179 2748 2010 3749 -1409 0
24807 -4051 -3179 2748 2010 -3749 1409 0
29706 -4051 -3179 2748 2010 -3749 -1409 0
21906 -4051 -3179 2748 -2010 3749 1409 0
27907 -4051 -3179 2748 -2010 3749 -1409 0
25064 -4051 -3179 2748 -2010 -3749 1409 0
29866 -4051 -3179 2748 -2010 -3749 -1409 0
24484 -4051 -3179 -2748 2010 3749 1409 0
29506 -4051 -3179 -2748 2010 3749 -1409 0
27127 -4051 -3179 -2748 2010 -3749 1409 0
31145 -4051 -3179 -2748 2010 -3749 -1409 0
24749 -4051 -3179 -2748 -2010 3749 1409 0
29670 -4051 -3179 -2748 -2010 3749 -1409 0
27339 -4051 -3179 -2748 -2010 -3749 1409 0
31276 -4051 -3179 -2748 -2010 -3749 -1409 0
8560 2207 1261 -3467 0
10165 2207 -1261 3467 0
10593 2207 -1261 -3467 0
1605 -2207 1261 3467 0
8881 -2207 1261 -3467 0
10245 -2207 -1261 3467 0
10609 -2207 -1261 -3467 0
16150 2022 3242 -2783 0
2280 2022 -3242 2783 0
16492 2022 -3242 -2783 0
17100 -2022 3242 2783 0
18715 -2022 3242 -2783 0
17328 -2022 -3242 2783 0
18749 -2022 -3242 -2783 0
18850 -1706 0
1070 2246 1443 -3489 0
2675 2246 -1443 3489 0
3477 2246 -1443 -3489 0
4280 -2246 1443 3489 0
4922 -2246 1443 -3489 0
5885 -2246 -1443 3489 0
6366 -2246 -1443 -3489 0
22620 3306 3655 -2952 0
9425 3306 -3655 2952 0
26390 3306 -3655 -2952 0
15080 -3306 3655 2952 0
28652 -3306 3655 -2952 0
20735 -3306 -3655 2952 0
30914 -3306 -3655 -2952 0
14250 2958 -2985 0
2850 -2958 2985 0
14962 -2958 -2985 0
13195 1669 -2663 0
24505 -1669 2663 0
29123 -1669 -2663 0
13728 3986 -2513 0
38610 -3986 2513 0
39983 -3986 -2513 0
7540 -2922 0
7220 2045 3922 2280 3422 -2103 0
14250 2045 3922 2280 -3422 2103 0
16055 2045 3922 2280 -3422 -2103 0
4750 2045 3922 -2280 3422 2103 0
10165 2045 3922 -2280 3422 -2103 0
15438 2045 3922 -2280 -3422 2103 0
16791 2045 3922 -2280 -3422 -2103 0
14250 2045 -3922 2280 3422 2103 0
16055 2045 -3922 2280 3422 -2103 0
17812 2045 -3922 2280 -3422 2103 0
18264 2045 -3922 2280 -3422 -2103 0
15438 2045 -3922 -2280 3422 2103 0
16791 2045 -3922 -2280 3422 -2103 0
18109 2045 -3922 -2280 -3422 2103 0
18448 2045 -3922 -2280 -3422 -2103 0
1900 -2045 3922 2280 3422 2103 0
8398 -2045 3922 2280 3422 -2103 0
14725 -2045 3922 2280 -3422 2103 0
16350 -2045 3922 2280 -3422 -2103 0
6175 -2045 3922 -2280 3422 2103 0
11048 -2045 3922 -2280 3422 -2103 0
15794 -2045 3922 -2280 -3422 2103 0
17012 -2045 3922 -2280 -3422 -2103 0
14725 -2045 -3922 2280 3422 2103 0
16350 -2045 -3922 2280 3422 -2103 0
17931 -2045 -3922 2280 -3422 2103 0
18337 -2045 -3922 2280 -3422 -2103 0
15794 -2045 -3922 -2280 3422 2103 0
17012 -2045 -3922 -2280 3422 -2103 0
18198 -2045 -3922 -2280 -3422 2103 0
18503 -2045 -3922 -2280 -3422 -2103 0
8560 1379 -1919 0
2140 -1379 1919 0
8988 -1379 -1919 0
32045 -4049 0
10165 -3739 0
8560 -3428 0
11310 3215 1211 3611 1818 1929 -1315 0
7540 3215 1211 3611 1818 -1929 1315 0
16588 3215 1211 3611 1818 -1929 -1315 0
5655 3215 1211 3611 -1818 1929 1315 0
15269 3215 1211 3611 -1818 1929 -1315 0
12064 3215 1211 3611 -1818 -1929 1315 0
19755 3215 1211 3611 -1818 -1929 -1315 0
32045 3215 1211 -3611 1818 1929 1315 0
33742 3215 1211 -3611 1818 1929 -1315 0
33176 3215 1211 -3611 1818 -1929 1315 0
34533 3215 1211 -3611 1818 -1929 -1315 0
32893 3215 1211 -3611 -1818 1929 1315 0
34335 3215 1211 -3611 -1818 1929 -1315 0
33855 3215 1211 -3611 -1818 -1929 1315 0
35008 3215 1211 -3611 -1818 -1929 -1315 0
24505 3215 -1211 3611 1818 1929 1315 0
28463 3215 -1211 3611 1818 1929 -1315 0
27144 3215 -1211 3611 1818 -1929 1315 0
30311 3215 -1211 3611 1818 -1929 -1315 0
26484 3215 -1211 3611 -1818 1929 1315 0
29849 3215 -1211 3611 -1818 1929 -1315 0
28727 3215 -1211 3611 -1818 -1929 1315 0
31419 3215 -1211 3611 -1818 -1929 -1315 0
35721 3215 -1211 -3611 1818 1929 1315 0
36315 3215 -1211 -3611 1818 1929 -1315 0
36117 3215 -1211 -3611 1818 -1929 1315 0
36592 3215 -1211 -3611 1818 -1929 -1315 0
36018 3215 -1211 -3611 -1818 1929 1315 0
36522 3215 -1211 -3611 -1818 1929 -1315 0
36354 3215 -1211 -3611 -1818 -1929 1315 0
36758 3215 -1211 -3611 -1818 -1929 -1315 0
754 -3215 1211 3611 1818 1929 1315 0
11838 -3215 1211 3611 1818 1929 -1315 0
8143 -3215 1211 3611 1818 -1929 1315 0
17010 -3215 1211 3611 1818 -1929 -1315 0
6296 -3215 1211 3611 -1818 1929 1315 0
15717 -3215 1211 3611 -1818 1929 -1315 0
12577 -3215 1211 3611 -1818 -1929 1315 0
20114 -3215 1211 3611 -1818 -1929 -1315 0
32158 -3215 1211 -3611 1818 1929 1315 0
33821 -3215 1211 -3611 1818 1929 -1315 0
33266 -3215 1211 -3611 1818 -1929 1315 0
34597 -3215 1211 -3611 1818 -1929 -1315 0
32989 -3215 1211 -3611 -1818 1929 1315 0
34403 -3215 1211 -3611 -1818 1929 -1315 0
33932 -3215 1211 -3611 -1818 -1929 1315 0
35062 -3215 1211 -3611 -1818 -1929 -1315 0
24769 -3215 -1211 3611 1818 1929 1315 0
28648 -3215 -1211 3611 1818 1929 -1315 0
27355 -3215 -1211 3611 1818 -1929 1315 0
30459 -3215 -1211 3611 1818 -1929 -1315 0
26709 -3215 -1211 3611 -1818 1929 1315 0
30006 -3215 -1211 3611 -1818 1929 -1315 0
28907 -3215 -1211 3611 -1818 -1929 1315 0
31545 -3215 -1211 3611 -1818 -1929 -1315 0
35760 -3215 -1211 -3611 1818 1929 1315 0
36342 -3215 -1211 -3611 1818 1929 -1315 0
36148 -3215 -1211 -3611 1818 -1929 1315 0
36614 -3215 -1211 -3611 1818 -1929 -1315 0
36051 -3215 -1211 -3611 -1818 1929 1315 0
36546 -3215 -1211 -3611 -1818 1929 -1315 0
36381 -3215 -1211 -3611 -1818 -1929 1315 0
36777 -3215 -1211 -3611 -1818 -1929 -1315 0
124 3167 2787 1686 -1516 0
1860 3167 2787 -1686 1516 0
1947 3167 2787 -1686 -1516 0
2170 3167 -2787 1686 1516 0
2251 3167 -2787 1686 -1516 0
3379 3167 -2787 -1686 1516 0
3435 3167 -2787 -1686 -1516 0
5270 -3167 2787 1686 1516 0
5289 -3167 2787 1686 -1516 0
5549 -3167 2787 -1686 1516 0
5562 -3167 2787 -1686 -1516 0
5595 -3167 -2787 1686 1516 0
5608 -3167 -2787 1686 -1516 0
5777 -3167 -2787 -1686 1516 0
5785 -3167 -2787 -1686 -1516 0
380 3591 2762 -2689 0
9500 3591 -2762 2689 0
9690 3591 -2762 -2689 0
18050 -3591 2762 2689 0
18069 -3591 2762 -2689 0
18525 -3591 -2762 2689 0
18534 -3591 -2762 -2689 0
7600 2602 3742 3638 3223 3602 -2433 0
6080 2602 3742 3638 3223 -3602 2433 0
11248 2602 3742 3638 3223 -3602 -2433 0
3800 2602 3742 3638 -3223 3602 2433 0
9880 2602 3742 3638 -3223 3602 -2433 0
8664 2602 3742 3638 -3223 -3602 2433 0
12798 2602 3742 3638 -3223 -3602 -2433 0
7600 2602 3742 -3638 3223 3602 2433 0
12160 2602 3742 -3638 3223 3602 -2433 0
11248 2602 3742 -3638 3223 -3602 2433 0
14349 2602 3742 -3638 3223 -3602 -2433 0
9880 2602 3742 -3638 -3223 3602 2433 0
13528 2602 3742 -3638 -3223 3602 -2433 0
12798 2602 3742 -3638 -3223 -3602 2433 0
15279 2602 3742 -3638 -3223 -3602 -2433 0
11400 2602 -3742 3638 3223 3602 2433 0
14440 2602 -3742 3638 3223 3602 -2433 0
13832 2602 -3742 3638 3223 -3602 2433 0
15899 2602 -3742 3638 3223 -3602 -2433 0
12920 2602 -3742 3638 -3223 3602 2433 0
15352 2602 -3742 3638 -3223 3602 -2433 0
14866 2602 -3742 3638 -3223 -3602 2433 0
16519 2602 -3742 3638 -3223 -3602 -2433 0
14440 2602 -3742 -3638 3223 3602 2433 0
16264 2602 -3742 -3638 3223 3602 -2433 0
15899 2602 -3742 -3638 3223 -3602 2433 0
17140 2602 -3742 -3638 3223 -3602 -2433 0
15352 2602 -3742 -3638 -3223 3602 2433 0
16811 2602 -3742 -3638 -3223 3602 -2433 0
16519 2602 -3742 -3638 -3223 -3602 2433 0
17512 2602 -3742 -3638 -3223 -3602 -2433 0
17100 -2602 3742 3638 3223 3602 2433 0
17860 -2602 3742 3638 3223 3602 -2433 0
17708 -2602 3742 3638 3223 -3602 2433 0
18225 -2602 3742 3638 3223 -3602 -2433 0
17480 -2602 3742 3638 -3223 3602 2433 0
18088 -2602 3742 3638 -3223 3602 -2433 0
17966 -2602 3742 3638 -3223 -3602 2433 0
18380 -2602 3742 3638 -3223 -3602 -2433 0
17860 -2602 3742 -3638 3223 3602 2433 0
18316 -2602 3742 -3638 3223 3602 -2433 0
18225 -2602 3742 -3638 3223 -3602 2433 0
18535 -2602 3742 -3638 3223 -3602 -2433 0
18088 -2602 3742 -3638 -3223 3602 2433 0
18453 -2602 3742 -3638 -3223 3602 -2433 0
18380 -2602 3742 -3638 -3223 -3602 2433 0
18628 -2602 3742 -3638 -3223 -3602 -2433 0
18240 -2602 -3742 3638 3223 3602 2433 0
18544 -2602 -3742 3638 3223 3602 -2433 0
18483 -2602 -3742 3638 3223 -3602 2433 0
18690 -2602 -3742 3638 3223 -3602 -2433 0
18392 -2602 -3742 3638 -3223 3602 2433 0
18635 -2602 -3742 3638 -3223 3602 -2433 0
18587 -2602 -3742 3638 -3223 -3602 2433 0
18752 -2602 -3742 3638 -3223 -3602 -2433 0
18544 -2602 -3742 -3638 3223 3602 2433 0
18726 -2602 -3742 -3638 3223 3602 -2433 0
18690 -2602 -3742 -3638 3223 -3602 2433 0
18814 -2602 -3742 -3638 3223 -3602 -2433 0
18635 -2602 -3742 -3638 -3223 3602 2433 0
18781 -2602 -3742 -3638 -3223 3602 -2433 0
18752 -2602 -3742 -3638 -3223 -3602 2433 0
18851 -2602 -3742 -3638 -3223 -3602 -2433 0
858 2717 -3457 0
30030 -2717 3457 0
30287 -2717 -3457 0
14326 2877 -2648 0
15080 -2877 2648 0
23676 -2877 -2648 0
124 -1267 0
24505 3937 1927 -2619 0
3770 3937 -1927 2619 0
25825 3937 -1927 -2619 0
28275 -3937 1927 2619 0
34401 -3937 1927 -2619 0
29218 -3937 -1927 2619 0
34731 -3937 -1927 -2619 0
26390 3038 3190 -3745 0
24505 3038 -3190 3745 0
33742 3038 -3190 -3745 0
33930 -3038 3190 3745 0
36569 -3038 3190 -3745 0
36381 -3038 -3190 3745 0
37304 -3038 -3190 -3745 0
14326 2040 -2719 0
6786 -2040 2719 0
18533 -2040 -2719 0
124 1528 -2649 0
2170 -1528 2649 0
2251 -1528 -2649 0
124 3582 3594 -3744 0
5890 3582 -3594 3744 0
5896 3582 -3594 -3744 0
2790 -3582 3594 3744 0
2858 -3582 3594 -3744 0
6029 -3582 -3594 3744 0
6033 -3582 -3594 -3744 0
2140 1826 3184 1403 3755 1325 -3005 0
5885 1826 3184 1403 3755 -1325 3005 0
6848 1826 3184 1403 3755 -1325 -3005 0
5885 1826 3184 1403 -3755 1325 3005 0
6848 1826 3184 1403 -3755 1325 -3005 0
8533 1826 3184 1403 -3755 -1325 3005 0
8967 1826 3184 1403 -3755 -1325 -3005 0
6955 1826 3184 -1403 3755 1325 3005 0
7704 1826 3184 -1403 3755 1325 -3005 0
9015 1826 3184 -1403 3755 -1325 3005 0
9352 1826 3184 -1403 3755 -1325 -3005 0
9015 1826 3184 -1403 -3755 1325 3005 0
9352 1826 3184 -1403 -3755 1325 -3005 0
9942 1826 3184 -1403 -3755 -1325 3005 0
10093 1826 3184 -1403 -3755 -1325 -3005 0
2675 1826 -3184 1403 3755 1325 3005 0
4280 1826 -3184 1403 3755 1325 -3005 0
7089 1826 -3184 1403 3755 -1325 3005 0
7811 1826 -3184 1403 3755 -1325 -3005 0
7089 1826 -3184 1403 -3755 1325 3005 0
7811 1826 -3184 1403 -3755 1325 -3005 0
9075 1826 -3184 1403 -3755 -1325 3005 0
9400 1826 -3184 1403 -3755 -1325 -3005 0
7891 1826 -3184 -1403 3755 1325 3005 0
8453 1826 -3184 -1403 3755 1325 -3005 0
9436 1826 -3184 -1403 3755 -1325 3005 0
9689 1826 -3184 -1403 3755 -1325 -3005 0
9436 1826 -3184 -1403 -3755 1325 3005 0
9689 1826 -3184 -1403 -3755 1325 -3005 0
10131 1826 -3184 -1403 -3755 -1325 3005 0
10245 1826 -3184 -1403 -3755 -1325 -3005 0
8025 -1826 3184 1403 3755 1325 3005 0
8560 -1826 3184 1403 3755 1325 -3005 0
9496 -1826 3184 1403 3755 -1325 3005 0
9737 -1826 3184 1403 3755 -1325 -3005 0
9496 -1826 3184 1403 -3755 1325 3005 0
9737 -1826 3184 1403 -3755 1325 -3005 0
10158 -1826 3184 1403 -3755 -1325 3005 0
10267 -1826 3184 1403 -3755 -1325 -3005 0
9764 -1826 3184 -1403 3755 1325 3005 0
9951 -1826 3184 -1403 3755 1325 -3005 0
10279 -1826 3184 -1403 3755 -1325 3005 0
10363 -1826 3184 -1403 3755 -1325 -3005 0
10279 -1826 3184 -1403 -3755 1325 3005 0
10363 -1826 3184 -1403 -3755 1325 -3005 0
10510 -1826 3184 -1403 -3755 -1325 3005 0
10548 -1826 3184 -1403 -3755 -1325 -3005 0
8694 -1826 -3184 1403 3755 1325 3005 0
9095 -1826 -3184 1403 3755 1325 -3005 0
9797 -1826 -3184 1403 3755 -1325 3005 0
9978 -1826 -3184 1403 3755 -1325 -3005 0
9797 -1826 -3184 1403 -3755 1325 3005 0
9978 -1826 -3184 1403 -3755 1325 -3005 0
10294 -1826 -3184 1403 -3755 -1325 3005 0
10375 -1826 -3184 1403 -3755 -1325 -3005 0
9998 -1826 -3184 -1403 3755 1325 3005 0
10138 -1826 -3184 -1403 3755 1325 -3005 0
10384 -1826 -3184 -1403 3755 -1325 3005 0
10447 -1826 -3184 -1403 3755 -1325 -3005 0
10384 -1826 -3184 -1403 -3755 1325 3005 0
10447 -1826 -3184 -1403 -3755 1325 -3005 0
10558 -1826 -3184 -1403 -3755 -1325 3005 0
10586 -1826 -3184 -1403 -3755 -1325 -3005 0
40755 1656 3681 -2971 0
36465 1656 -3681 2971 0
42578 1656 -3681 -2971 0
16302 -1656 3681 2971 0
41570 -1656 3681 -2971 0
38910 -1656 -3681 2971 0
42701 -1656 -3681 -2971 0
10725 1804 1931 -3163 0
27885 1804 -1931 3163 0
31639 1804 -1931 -3163 0
6435 -1804 1931 3163 0
15551 -1804 1931 -3163 0
30137 -1804 -1931 3163 0
33328 -1804 -1931 -3163 0
5350 3643 -1377 0
2140 -3643 1377 0
6420 -3643 -1377 0
17160 -3102 0
10165 2529 2368 3815 -3327 0
3210 2529 2368 -3815 3327 0
10325 2529 2368 -3815 -3327 0
2675 2529 -2368 3815 3327 0
10299 2529 -2368 3815 -3327 0
5083 2529 -2368 -3815 3327 0
10419 2529 -2368 -3815 -3327 0
535 -2529 2368 3815 3327 0
10192 -2529 2368 3815 -3327 0
3585 -2529 2368 -3815 3327 0
10344 -2529 2368 -3815 -3327 0
3076 -2529 -2368 3815 3327 0
10319 -2529 -2368 3815 -3327 0
5363 -2529 -2368 -3815 3327 0
10433 -2529 -2368 -3815 -3327 0
6420 2156 2023 -3915 0
10165 2156 -2023 3915 0
10486 2156 -2023 -3915 0
3424 -2156 2023 3915 0
7790 -2156 2023 -3915 0
10336 -2156 -2023 3915 0
10554 -2156 -2023 -3915 0
4650 1873 -1326 0
2480 -1873 1326 0
5270 -1873 -1326 0
950 2295 -2947 0
3420 -2295 2947 0
4199 -2295 -2947 0
15200 2399 2702 3750 -1703 0
950 2399 2702 -3750 1703 0
15390 2399 2702 -3750 -1703 0
7220 2399 -2702 3750 1703 0
16644 2399 -2702 3750 -1703 0
7809 2399 -2702 -3750 1703 0
16762 2399 -2702 -3750 -1703 0
4750 -2399 2702 3750 1703 0
16150 -2399 2702 3750 -1703 0
5463 -2399 2702 -3750 1703 0
16293 -2399 2702 -3750 -1703 0
10165 -2399 -2702 3750 1703 0
17233 -2399 -2702 3750 -1703 0
10607 -2399 -2702 -3750 1703 0
17321 -2399 -2702 -3750 -1703 0
30160 -1911 0
5885 2131 -3805 0
2675 -2131 3805 0
7089 -2131 -3805 0
24505 1858 -3390 0
28275 -1858 3390 0
34401 -1858 -3390 0
3720 3125 -3291 0
4650 -3125 3291 0
5580 -3125 -3291 0
1984 -2086 0
25740 3637 1678 3198 -3527 0
30030 3637 1678 -3198 3527 0
37752 3637 1678 -3198 -3527 0
30030 3637 -1678 3198 3527 0
37752 3637 -1678 3198 -3527 0
39039 3637 -1678 -3198 3527 0
41356 3637 -1678 -3198 -3527 0
32175 -3637 1678 3198 3527 0
38610 -3637 1678 3198 -3527 0
39683 -3637 1678 -3198 3527 0
41613 -3637 1678 -3198 -3527 0
39683 -3637 -1678 3198 3527 0
41613 -3637 -1678 3198 -3527 0
41935 -3637 -1678 -3198 3527 0
42514 -3637 -1678 -3198 -3527 0
32175 1698 1220 3541 -2603 0
27885 1698 1220 -3541 2603 0
39146 1698 1220 -3541 -2603 0
40755 1698 -1220 3541 2603 0
42364 1698 -1220 3541 -2603 0
42149 1698 -1220 -3541 2603 0
42712 1698 -1220 -3541 -2603 0
23595 -1698 1220 3541 2603 0
38074 -1698 1220 3541 -2603 0
36143 -1698 1220 -3541 2603 0
41211 -1698 1220 -3541 -2603 0
41935 -1698 -1220 3541 2603 0
42659 -1698 -1220 3541 -2603 0
42562 -1698 -1220 -3541 2603 0
42816 -1698 -1220 -3541 -2603 0
4066 1514 1793 -2367 0
2675 1514 -1793 2367 0
5725 1514 -1793 -2367 0
4815 -1514 1793 2367 0
7051 -1514 1793 -2367 0
6286 -1514 -1793 2367 0
7963 -1514 -1793 -2367 0
8580 2317 -2873 0
2145 -2317 2873 0
10296 -2317 -2873 0
5700 3028 -1321 0
2280 -3028 1321 0
7296 -3028 -1321 0
28275 3031 1459 1776 1359 -3266 0
20735 3031 1459 1776 -1359 3266 0
33459 3031 1459 1776 -1359 -3266 0
15080 3031 1459 -1776 1359 3266 0
32045 3031 1459 -1776 1359 -3266 0
27521 3031 1459 -1776 -1359 3266 0
35155 3031 1459 -1776 -1359 -3266 0
3770 3031 -1459 1776 1359 3266 0
29218 3031 -1459 1776 1359 -3266 0
22431 3031 -1459 1776 -1359 3266 0
33883 3031 -1459 1776 -1359 -3266 0
17342 3031 -1459 -1776 1359 3266 0
32611 3031 -1459 -1776 1359 -3266 0
28539 3031 -1459 -1776 -1359 3266 0
35410 3031 -1459 -1776 -1359 -3266 0
7540 -3031 1459 1776 1359 3266 0
30160 -3031 1459 1776 1359 -3266 0
24128 -3031 1459 1776 -1359 3266 0
34307 -3031 1459 1776 -1359 -3266 0
19604 -3031 1459 -1776 1359 3266 0
33176 -3031 1459 -1776 1359 -3266 0
29557 -3031 1459 -1776 -1359 3266 0
35664 -3031 1459 -1776 -1359 -3266 0
10556 -3031 -1459 1776 1359 3266 0
30914 -3031 -1459 1776 1359 -3266 0
25485 -3031 -1459 1776 -1359 3266 0
34646 -3031 -1459 1776 -1359 -3266 0
21414 -3031 -1459 -1776 1359 3266 0
33628 -3031 -1459 -1776 1359 -3266 0
30371 -3031 -1459 -1776 -1359 3266 0
35868 -3031 -1459 -1776 -1359 -3266 0
12064 3423 3872 3049 -1381 0
9425 3423 3872 -3049 1381 0
18473 3423 3872 -3049 -1381 0
16965 3423 -3872 3049 1381 0
23600 3423 -3872 3049 -1381 0
22149 3423 -3872 -3049 1381 0
27125 3423 -3872 -3049 -1381 0
18850 -3423 3872 3049 1381 0
24882 -3423 3872 3049 -1381 0
23562 -3423 3872 -3049 1381 0
28087 -3423 3872 -3049 -1381 0
27332 -3423 -3872 3049 1381 0
30650 -3423 -3872 3049 -1381 0
29924 -3423 -3872 -3049 1381 0
32413 -3423 -3872 -3049 -1381 0
4280 -1731 0
2170 4031 -3183 0
2480 -4031 3183 0
3782 -4031 -3183 0
4340 -2612 0
4030 1323 2330 4066 -3981 0
620 1323 2330 -4066 3981 0
4247 1323 2330 -4066 -3981 0
930 1323 -2330 4066 3981 0
4355 1323 -2330 4066 -3981 0
1457 1323 -2330 -4066 3981 0
4540 1323 -2330 -4066 -3981 0
5890 -1323 2330 4066 3981 0
6091 -1323 2330 4066 -3981 0
5921 -1323 2330 -4066 3981 0
6102 -1323 2330 -4066 -3981 0
5937 -1323 -2330 4066 3981 0
6108 -1323 -2330 4066 -3981 0
5963 -1323 -2330 -4066 3981 0
6117 -1323 -2330 -4066 -3981 0
17160 4050 -3831 0
38610 -4050 3831 0
40326 -4050 -3831 0
23595 -3948 0
13195 2506 -2823 0
7540 -2506 2823 0
18096 -2506 -2823 0
744 -1486 0
38610 2849 1590 -2462 0
2145 2849 -1590 2462 0
38825 2849 -1590 -2462 0
15015 -2849 1590 2462 0
40112 -2849 1590 -2462 0
16409 -2849 -1590 2462 0
40251 -2849 -1590 -2462 0
3770 -1522 0
21450 -2140 0
5350 2764 3471 3792 -2046 0
2675 2764 3471 -3792 2046 0
6688 2764 3471 -3792 -2046 0
5885 2764 -3471 3792 2046 0
8292 2764 -3471 3792 -2046 0
7089 2764 -3471 -3792 2046 0
8894 2764 -3471 -3792 -2046 0
2140 -2764 3471 3792 2046 0
6420 -2764 3471 3792 -2046 0
4280 -2764 3471 -3792 2046 0
7490 -2764 3471 -3792 -2046 0
6848 -2764 -3471 3792 2046 0
8774 -2764 -3471 3792 -2046 0
7811 -2764 -3471 -3792 2046 0
9255 -2764 -3471 -3792 -2046 0
10165 3824 3641 2993 -3062 0
535 3824 3641 -2993 3062 0
10192 3824 3641 -2993 -3062 0
1070 3824 -3641 2993 3062 0
10219 3824 -3641 2993 -3062 0
1552 3824 -3641 -2993 3062 0
10243 3824 -3641 -2993 -3062 0
4280 -3824 3641 2993 3062 0
10379 -3824 3641 2993 -3062 0
4601 -3824 3641 -2993 3062 0
10395 -3824 3641 -2993 -3062 0
4922 -3824 -3641 2993 3062 0
10411 -3824 -3641 2993 -3062 0
5211 -3824 -3641 -2993 3062 0
10426 -3824 -3641 -2993 -3062 0
17160 3728 -3374 0
34320 -3728 3374 0
37752 -3728 -3374 0
30160 2249 -1725 0
7540 -2249 1725 0
31668 -2249 -1725 0
1116 2514 2427 -1243 0
1116 2514 -2427 1243 0
2031 2514 -2427 -1243 0
2480 -2514 2427 1243 0
3150 -2514 2427 -1243 0
3150 -2514 -2427 1243 0
3699 -2514 -2427 -1243 0
7600 2868 2843 2895 -1847 0
6650 2868 2843 -2895 1847 0
11590 2868 2843 -2895 -1847 0
18050 2868 -2843 2895 1847 0
18430 2868 -2843 2895 -1847 0
18383 2868 -2843 -2895 1847 0
18629 2868 -2843 -2895 -1847 0
13300 -2868 2843 2895 1847 0
15580 -2868 2843 2895 -1847 0
15295 -2868 2843 -2895 1847 0
16777 -2868 2843 -2895 -1847 0
18715 -2868 -2843 2895 1847 0
18829 -2868 -2843 2895 -1847 0
18815 -2868 -2843 -2895 1847 0
18889 -2868 -2843 -2895 -1847 0
8560 -3008 0
5890 1581 -1958 0
4030 -1581 1958 0
6091 -1581 -1958 0
1885 4041 -2980 0
4524 -4041 2980 0
6183 -4041 -2980 0
2280 2901 3375 -2990 0
2850 2901 -3375 2990 0
4788 2901 -3375 -2990 0
380 -2901 3375 2990 0
2614 -2901 3375 -2990 0
3173 -2901 -3375 2990 0
5072 -2901 -3375 -2990 0
1240 2292 -1867 0
2480 -2292 1867 0
3224 -2292 -1867 0
5885 3026 -2312 0
1284 -3026 2312 0
6463 -3026 -2312 0
13195 1820 1311 -3565 0
5655 1820 -1311 3565 0
16871 1820 -1311 -3565 0
32045 -1820 1311 3565 0
34024 -1820 1311 -3565 0
32893 -1820 -1311 3565 0
34576 -1820 -1311 -3565 0
40755 2482 -1723 0
36465 -2482 1723 0
42578 -2482 -1723 0
14250 2906 2387 -2911 0
14250 2906 -2387 2911 0
17812 2906 -2387 -2911 0
13300 -2906 2387 2911 0
17575 -2906 2387 -2911 0
17575 -2906 -2387 2911 0
18644 -2906 -2387 -2911 0
1860 1593 3159 -2418 0
744 1593 -3159 2418 0
2381 1593 -3159 -2418 0
3410 -1593 3159 2418 0
4247 -1593 3159 -2418 0
3745 -1593 -3159 2418 0
4481 -1593 -3159 -2418 0
3210 3445 -3520 0
6420 -3445 3520 0
7704 -3445 -3520 0
2170 2215 1576 -3153 0
4960 2215 -1576 3153 0
5394 2215 -1576 -3153 0
4340 -2215 1576 3153 0
4991 -2215 1576 -3153 0
5828 -2215 -1576 3153 0
5958 -2215 -1576 -3153 0
27885 -3213 0
8560 3574 4001 -3756 0
1284 3574 -4001 3756 0
8817 3574 -4001 -3756 0
7490 -3574 4001 3756 0
10058 -3574 4001 -3756 0
7875 -3574 -4001 3756 0
10135 -3574 -4001 -3756 0
21450 2677 3860 -1716 0
19305 2677 -3860 1716 0
31102 2677 -3860 -1716 0
16302 -2677 3860 1716 0
29601 -2677 3860 -1716 0
28271 -2677 -3860 1716 0
35586 -2677 -3860 -1716 0
10725 -3479 0
3410 2536 2784 -3044 0
744 2536 -2784 3044 0
3745 2536 -2784 -3044 0
4340 -2536 2784 3044 0
5363 -2536 2784 -3044 0
4563 -2536 -2784 3044 0
5463 -2536 -2784 -3044 0
28275 3294 2151 1236 -1289 0
18850 3294 2151 -1236 1289 0
32988 3294 2151 -1236 -1289 0
11310 3294 -2151 1236 1289 0
31102 3294 -2151 1236 -1289 0
24505 3294 -2151 -1236 1289 0
34401 3294 -2151 -1236 -1289 0
24505 -3294 2151 1236 1289 0
34401 -3294 2151 1236 -1289 0
31102 -3294 2151 -1236 1289 0
36051 -3294 2151 -1236 -1289 0
28463 -3294 -2151 1236 1289 0
35391 -3294 -2151 1236 -1289 0
33082 -3294 -2151 -1236 1289 0
36545 -3294 -2151 -1236 -1289 0
1860 3180 -1391 0
1116 -3180 1391 0
2641 -3180 -1391 0
2140 2001 -1529 0
3210 -2001 1529 0
4708 -2001 -1529 0
8560 4074 1309 -2624 0
3210 4074 -1309 2624 0
9202 4074 -1309 -2624 0
6420 -4074 1309 2624 0
9844 -4074 1309 -2624 0
7704 -4074 -1309 2624 0
10101 -4074 -1309 -2624 0
7220 -3228 0
3745 2542 3781 3243 -1674 0
1284 2542 3781 -3243 1674 0
4580 2542 3781 -3243 -1674 0
1926 2542 -3781 3243 1674 0
4997 2542 -3781 3243 -1674 0
2979 2542 -3781 -3243 1674 0
5681 2542 -3781 -3243 -1674 0
1070 -2542 3781 3243 1674 0
4440 -2542 3781 3243 -1674 0
2226 -2542 3781 -3243 1674 0
5192 -2542 3781 -3243 -1674 0
2803 -2542 -3781 3243 1674 0
5567 -2542 -3781 3243 -1674 0
3751 -2542 -3781 -3243 1674 0
6183 -2542 -3781 -3243 -1674 0
9630 -3003 0
9425 1549 2682 3671 -3774 0
3770 1549 2682 -3671 3774 0
12252 1549 2682 -3671 -3774 0
12064 1549 -2682 3671 3774 0
18473 1549 -2682 3671 -3774 0
14628 1549 -2682 -3671 3774 0
20396 1549 -2682 -3671 -3774 0
32045 -1549 2682 3671 3774 0
33459 -1549 2682 3671 -3774 0
32611 -1549 2682 -3671 3774 0
33883 -1549 2682 -3671 -3774 0
33855 -1549 -2682 3671 3774 0
34816 -1549 -2682 3671 -3774 0
34239 -1549 -2682 -3671 3774 0
35104 -1549 -2682 -3671 -3774 0
7220 3465 3319 -2711 0
6650 3465 -3319 2711 0
11343 3465 -3319 -2711 0
14250 -3465 3319 2711 0
16055 -3465 3319 -2711 0
15912 -3465 -3319 2711 0
17086 -3465 -3319 -2711 0
7220 1230 3268 -2258 0
3800 1230 -3268 2258 0
9576 1230 -3268 -2258 0
14250 -1230 3268 2258 0
16055 -1230 3268 -2258 0
15200 -1230 -3268 2258 0
16644 -1230 -3268 -2258 0
6786 3476 -2680 0
33930 -3476 2680 0
34609 -3476 -2680 0
30030 3892 1896 3288 2457 -3877 0
4290 3892 1896 3288 -2457 3877 0
31317 3892 1896 3288 -2457 -3877 0
6435 3892 1896 -3288 2457 3877 0
31961 3892 1896 -3288 2457 -3877 0
10081 3892 1896 -3288 -2457 3877 0
33054 3892 1896 -3288 -2457 -3877 0
36465 3892 -1896 3288 2457 3877 0
40969 3892 -1896 3288 2457 -3877 0
37108 3892 -1896 3288 -2457 3877 0
41163 3892 -1896 3288 -2457 -3877 0
37430 3892 -1896 -3288 2457 3877 0
41259 3892 -1896 -3288 2457 -3877 0
37977 3892 -1896 -3288 -2457 3877 0
41423 3892 -1896 -3288 -2457 -3877 0
32175 -3892 1896 3288 2457 3877 0
39683 -3892 1896 3288 2457 -3877 0
33248 -3892 1896 3288 -2457 3877 0
40004 -3892 1896 3288 -2457 -3877 0
33784 -3892 1896 -3288 2457 3877 0
40165 -3892 1896 -3288 2457 -3877 0
34695 -3892 1896 -3288 -2457 3877 0
40439 -3892 1896 -3288 -2457 -3877 0
41291 -3892 -1896 3288 2457 3877 0
42417 -3892 -1896 3288 2457 -3877 0
41452 -3892 -1896 3288 -2457 3877 0
42466 -3892 -1896 3288 -2457 -3877 0
41533 -3892 -1896 -3288 2457 3877 0
42490 -3892 -1896 -3288 2457 -3877 0
41669 -3892 -1896 -3288 -2457 3877 0
42531 -3892 -1896 -3288 -2457 -3877 0
36465 -3954 0
6435 3972 1616 -3632 0
10725 3972 -1616 3632 0
15551 3972 -1616 -3632 0
5148 -3972 1616 3632 0
10811 -3972 1616 -3632 0
14586 -3972 -1616 3632 0
18833 -3972 -1616 -3632 0
754 -2255 0
930 1895 2721 3420 3342 -4057 0
1984 1895 2721 3420 -3342 4057 0
2616 1895 2721 3420 -3342 -4057 0
1860 1895 2721 -3420 3342 4057 0
2511 1895 2721 -3420 3342 -4057 0
3249 1895 2721 -3420 -3342 4057 0
3691 1895 2721 -3420 -3342 -4057 0
1116 1895 -2721 3420 3342 4057 0
1879 1895 -2721 3420 3342 -4057 0
2743 1895 -2721 3420 -3342 4057 0
3261 1895 -2721 3420 -3342 -4057 0
2641 1895 -2721 -3420 3342 4057 0
3175 1895 -2721 -3420 3342 -4057 0
3780 1895 -2721 -3420 -3342 4057 0
4143 1895 -2721 -3420 -3342 -4057 0
4030 -1895 2721 3420 3342 4057 0
4355 -1895 2721 3420 3342 -4057 0
4724 -1895 2721 3420 -3342 4057 0
4946 -1895 2721 3420 -3342 -4057 0
4681 -1895 2721 -3420 3342 4057 0
4909 -1895 2721 -3420 3342 -4057 0
5167 -1895 2721 -3420 -3342 4057 0
5322 -1895 2721 -3420 -3342 -4057 0
4421 -1895 -2721 3420 3342 4057 0
4688 -1895 -2721 3420 3342 -4057 0
4990 -1895 -2721 3420 -3342 4057 0
5172 -1895 -2721 3420 -3342 -4057 0
4954 -1895 -2721 -3420 3342 4057 0
5141 -1895 -2721 -3420 3342 -4057 0
5353 -1895 -2721 -3420 -3342 4057 0
5480 -1895 -2721 -3420 -3342 -4057 0
19305 2774 -3449 0
25740 -2774 3449 0
33462 -2774 -3449 0
15200 -1259 0
15200 -3141 0
214 1696 1855 3761 3498 -2773 0
2140 1696 1855 3761 -3498 2773 0
2311 1696 1855 3761 -3498 -2773 0
7490 1696 1855 -3761 3498 2773 0
7554 1696 1855 -3761 3498 -2773 0
8132 1696 1855 -3761 -3498 2773 0
8183 1696 1855 -3761 -3498 -2773 0
1070 1696 -1855 3761 3498 2773 0
1263 1696 -1855 3761 3498 -2773 0
2996 1696 -1855 3761 -3498 2773 0
3150 1696 -1855 3761 -3498 -2773 0
7811 1696 -1855 -3761 3498 2773 0
7869 1696 -1855 -3761 3498 -2773 0
8389 1696 -1855 -3761 -3498 2773 0
8435 1696 -1855 -3761 -3498 -2773 0
9095 -1696 1855 3761 3498 2773 0
9127 -1696 1855 3761 3498 -2773 0
9416 -1696 1855 3761 -3498 2773 0
9442 -1696 1855 3761 -3498 -2773 0
10219 -1696 1855 -3761 3498 2773 0
10228 -1696 1855 -3761 3498 -2773 0
10315 -1696 1855 -3761 -3498 2773 0
10323 -1696 1855 -3761 -3498 -2773 0
9255 -1696 -1855 3761 3498 2773 0
9284 -1696 -1855 3761 3498 -2773 0
9544 -1696 -1855 3761 -3498 2773 0
9568 -1696 -1855 3761 -3498 -2773 0
10267 -1696 -1855 -3761 3498 2773 0
10275 -1696 -1855 -3761 3498 -2773 0
10353 -1696 -1855 -3761 -3498 2773 0
10360 -1696 -1855 -3761 -3498 -2773 0
6420 -2251 0
9425 1646 -1856 0
11310 -1646 1856 0
17908 -1646 -1856 0
16150 1842 1467 -2876 0
3800 1842 -1467 2876 0
16720 1842 -1467 -2876 0
2280 -1842 1467 2876 0
16492 -1842 1467 -2876 0
5624 -1842 -1467 2876 0
16994 -1842 -1467 -2876 0
7490 -3286 0
9095 -3007 0
16150 3900 3721 -3130 0
9500 3900 -3721 3130 0
17575 3900 -3721 -3130 0
1900 -3900 3721 3130 0
16435 -3900 3721 -3130 0
10450 -3900 -3721 3130 0
17718 -3900 -3721 -3130 0
28275 2917 -1658 0
20735 -2917 1658 0
33459 -2917 -1658 0
6080 -2856 0
2356 3461 3626 1681 3517 2142 -3722 0
2170 3461 3626 1681 3517 -2142 3722 0
3701 3461 3626 1681 3517 -2142 -3722 0
2480 3461 3626 1681 -3517 2142 3722 0
3894 3461 3626 1681 -3517 2142 -3722 0
3782 3461 3626 1681 -3517 -2142 3722 0
4701 3461 3626 1681 -3517 -2142 -3722 0
5270 3461 3626 -1681 3517 2142 3722 0
5623 3461 3626 -1681 3517 2142 -3722 0
5595 3461 3626 -1681 3517 -2142 3722 0
5825 3461 3626 -1681 3517 -2142 -3722 0
5642 3461 3626 -1681 -3517 2142 3722 0
5854 3461 3626 -1681 -3517 2142 -3722 0
5837 3461 3626 -1681 -3517 -2142 3722 0
5975 3461 3626 -1681 -3517 -2142 -3722 0
5890 3461 -3626 1681 3517 2142 3722 0
6008 3461 -3626 1681 3517 2142 -3722 0
5998 3461 -3626 1681 3517 -2142 3722 0
6075 3461 -3626 1681 3517 -2142 -3722 0
6014 3461 -3626 1681 -3517 2142 3722 0
6085 3461 -3626 1681 -3517 2142 -3722 0
6079 3461 -3626 1681 -3517 -2142 3722 0
6125 3461 -3626 1681 -3517 -2142 -3722 0
6153 3461 -3626 -1681 3517 2142 3722 0
6171 3461 -3626 -1681 3517 2142 -3722 0
6170 3461 -3626 -1681 3517 -2142 3722 0
6181 3461 -3626 -1681 3517 -2142 -3722 0
6172 3461 -3626 -1681 -3517 2142 3722 0
6183 3461 -3626 -1681 -3517 2142 -3722 0
6182 3461 -3626 -1681 -3517 -2142 3722 0
6189 3461 -3626 -1681 -3517 -2142 -3722 0
930 -3461 3626 1681 3517 2142 3722 0
2933 -3461 3626 1681 3517 2142 -3722 0
2775 -3461 3626 1681 3517 -2142 3722 0
4076 -3461 3626 1681 3517 -2142 -3722 0
3038 -3461 3626 1681 -3517 2142 3722 0
4240 -3461 3626 1681 -3517 2142 -3722 0
4145 -3461 3626 1681 -3517 -2142 3722 0
4926 -3461 3626 1681 -3517 -2142 -3722 0
5410 -3461 3626 -1681 3517 2142 3722 0
5710 -3461 3626 -1681 3517 2142 -3722 0
5686 -3461 3626 -1681 3517 -2142 3722 0
5881 -3461 3626 -1681 3517 -2142 -3722 0
5726 -3461 3626 -1681 -3517 2142 3722 0
5906 -3461 3626 -1681 -3517 2142 -3722 0
5892 -3461 3626 -1681 -3517 -2142 3722 0
6009 -3461 3626 -1681 -3517 -2142 -3722 0
5937 -3461 -3626 1681 3517 2142 3722 0
6037 -3461 -3626 1681 3517 2142 -3722 0
6029 -3461 -3626 1681 3517 -2142 3722 0
6094 -3461 -3626 1681 3517 -2142 -3722 0
6042 -3461 -3626 1681 -3517 2142 3722 0
6102 -3461 -3626 1681 -3517 2142 -3722 0
6097 -3461 -3626 1681 -3517 -2142 3722 0
6136 -3461 -3626 1681 -3517 -2142 -3722 0
6160 -3461 -3626 -1681 3517 2142 3722 0
6175 -3461 -3626 -1681 3517 2142 -3722 0
6174 -3461 -3626 -1681 3517 -2142 3722 0
6184 -3461 -3626 -1681 3517 -2142 -3722 0
6176 -3461 -3626 -1681 -3517 2142 3722 0
6185 -3461 -3626 -1681 -3517 2142 -3722 0
6185 -3461 -3626 -1681 -3517 -2142 3722 0
6190 -3461 -3626 -1681 -3517 -2142 -3722 0
4524 -2512 0
6955 2101 2479 1371 -3540 0
6955 2101 2479 -1371 3540 0
9389 2101 2479 -1371 -3540 0
10165 2101 -2479 1371 3540 0
10513 2101 -2479 1371 -3540 0
10513 2101 -2479 -1371 3540 0
10634 2101 -2479 -1371 -3540 0
4815 -2101 2479 1371 3540 0
8640 -2101 2479 1371 -3540 0
8640 -2101 2479 -1371 3540 0
9979 -2101 2479 -1371 -3540 0
10406 -2101 -2479 1371 3540 0
10597 -2101 -2479 1371 -3540 0
10597 -2101 -2479 -1371 3540 0
10664 -2101 -2479 -1371 -3540 0
12350 3543 1214 -1374 0
18050 3543 -1214 1374 0
18667 3543 -1214 -1374 0
15200 -3543 1214 1374 0
17670 -3543 1214 -1374 0
18810 -3543 -1214 1374 0
18934 -3543 -1214 -1374 0
14250 -2802 0
8550 1652 -2580 0
3800 -1652 2580 0
10640 -1652 -2580 0
18050 3932 2266 -3736 0
7600 3932 -2266 3736 0
18430 3932 -2266 -3736 0
11400 -3932 2266 3736 0
18620 -3932 2266 -3736 0
14440 -3932 -2266 3736 0
18772 -3932 -2266 -3736 0
5655 2076 -3385 0
14326 -2076 3385 0
17832 -2076 -3385 0
17100 2435 -1441 0
10450 -2435 1441 0
18145 -2435 -1441 0
535 3975 2393 -3466 0
1284 3975 -2393 3466 0
1755 3975 -2393 -3466 0
3210 -3975 2393 3466 0
3585 -3975 2393 -3466 0
4109 -3975 -2393 3466 0
4438 -3975 -2393 -3466 0
7722 1973 -3442 0
7722 -1973 3442 0
14054 -1973 -3442 0
24505 3217 -3819 0
28275 -3217 3819 0
34401 -3217 -3819 0
10450 3829 1945 -3613 0
950 3829 -1945 3613 0
10878 3829 -1945 -3613 0
11400 -3829 1945 3613 0
15580 -3829 1945 -3613 0
11780 -3829 -1945 3613 0
15751 -3829 -1945 -3613 0
1550 -3964 0
21450 -2150 0
20735 -2276 0
535 3827 2799 2898 3531 -2629 0
535 3827 2799 2898 -3531 2629 0
1043 3827 2799 2898 -3531 -2629 0
3745 3827 2799 -2898 3531 2629 0
4093 3827 2799 -2898 3531 -2629 0
4093 3827 2799 -2898 -3531 2629 0
4423 3827 2799 -2898 -3531 -2629 0
6420 3827 -2799 2898 3531 2629 0
6634 3827 -2799 2898 3531 -2629 0
6634 3827 -2799 2898 -3531 2629 0
6837 3827 -2799 2898 -3531 -2629 0
7918 3827 -2799 -2898 3531 2629 0
8057 3827 -2799 -2898 3531 -2629 0
8057 3827 -2799 -2898 -3531 2629 0
8189 3827 -2799 -2898 -3531 -2629 0
8560 -3827 2799 2898 3531 2629 0
8667 -3827 2799 2898 3531 -2629 0
8667 -3827 2799 2898 -3531 2629 0
8769 -3827 2799 2898 -3531 -2629 0
9309 -3827 2799 -2898 3531 2629 0
9379 -3827 2799 -2898 3531 -2629 0
9379 -3827 2799 -2898 -3531 2629 0
9445 -3827 2799 -2898 -3531 -2629 0
9844 -3827 -2799 2898 3531 2629 0
9887 -3827 -2799 2898 3531 -2629 0
9887 -3827 -2799 2898 -3531 2629 0
9927 -3827 -2799 2898 -3531 -2629 0
10144 -3827 -2799 -2898 3531 2629 0
10171 -3827 -2799 -2898 3531 -2629 0
10171 -3827 -2799 -2898 -3531 2629 0
10198 -3827 -2799 -2898 -3531 -2629 0
34320 2043 2884 -1875 0
8580 2043 -2884 1875 0
36036 2043 -2884 -1875 0
2145 -2043 2884 1875 0
34749 -2043 2884 -1875 0
10296 -2043 -2884 1875 0
36379 -2043 -2884 -1875 0
3410 3203 3707 -1967 0
1550 3203 -3707 1967 0
4108 3203 -3707 -1967 0
2170 -3203 3707 1967 0
4387 -3203 3707 -1967 0
3177 -3203 -3707 1967 0
4840 -3203 -3707 -1967 0
2480 1888 -2632 0
2356 -1888 2632 0
3894 -1888 -2632 0
930 2493 3230 -2377 0
1550 2493 -3230 2377 0
2248 2493 -3230 -2377 0
310 -2493 3230 2377 0
1194 -2493 3230 -2377 0
1783 -2493 -3230 2377 0
2445 -2493 -3230 -2377 0
620 -2725 0
6420 2384 3369 -2109 0
4815 2384 -3369 2109 0
8346 2384 -3369 -2109 0
7490 -2384 3369 2109 0
9416 -2384 3369 -2109 0
8934 -2384 -3369 2109 0
9994 -2384 -3369 -2109 0
13300 -2392 0
2480 2009 3121 -2452 0
4340 2009 -3121 2452 0
5084 2009 -3121 -2452 0
3720 -2009 3121 2452 0
4712 -2009 3121 -2452 0
5456 -2009 -3121 2452 0
5754 -2009 -3121 -2452 0
35815 2313 -1474 0
24505 -2313 1474 0
37040 -2313 -1474 0
2140 -1732 0
15080 3400 3402 -1402 0
24505 3400 -3402 1402 0
29783 3400 -3402 -1402 0
35815 -3400 3402 1402 0
36569 -3400 3402 -1402 0
37040 -3400 -3402 1402 0
37304 -3400 -3402 -1402 0
2145 -3875 0
7722 1710 2683 -3782 0
38610 1710 -2683 3782 0
39382 1710 -2683 -3782 0
17160 -1710 2683 3782 0
21793 -1710 2683 -3782 0
40326 -1710 -2683 3782 0
40789 -1710 -2683 -3782 0
6420 2502 3542 -1909 0
214 2502 -3542 1909 0
6506 2502 -3542 -1909 0
5885 -2502 3542 1909 0
8774 -2502 3542 -1909 0
5981 -2502 -3542 1909 0
8813 -2502 -3542 -1909 0
1900 3224 -1709 0
15200 -3224 1709 0
15580 -3224 -1709 0
1284 3432 2470 -1979 0
535 3432 -2470 1979 0
1755 3432 -2470 -1979 0
10165 -3432 2470 1979 0
10229 -3432 2470 -1979 0
10192 -3432 -2470 1979 0
10253 -3432 -2470 -1979 0
19305 3567 -2606 0
4290 -3567 2606 0
21664 -3567 -2606 0
17160 -1596 0
1550 3979 -1651 0
1984 -3979 1651 0
3038 -3979 -1651 0
9425 1618 3950 -2285 0
5655 1618 -3950 2285 0
13666 1618 -3950 -2285 0
12064 -1618 3950 2285 0
18473 -1618 3950 -2285 0
15909 -1618 -3950 2285 0
21357 -1618 -3950 -2285 0
1900 3413 -3738 0
8550 -3413 3738 0
9595 -3413 -3738 0
8560 2887 2742 -4054 0
214 2887 -2742 4054 0
8603 2887 -2742 -4054 0
7490 -2887 2742 4054 0
10058 -2887 2742 -4054 0
7554 -2887 -2742 4054 0
10071 -2887 -2742 -4054 0
620 -3828 0
3100 1577 2422 -3283 0
310 1577 -2422 3283 0
3255 1577 -2422 -3283 0
4030 -1577 2422 3283 0
5115 -1577 2422 -3283 0
4138 -1577 -2422 3283 0
5169 -1577 -2422 -3283 0
7722 3717 -2019 0
40755 -3717 2019 0
41141 -3717 -2019 0
3770 1663 2883 -4056 0
5655 1663 -2883 4056 0
8859 1663 -2883 -4056 0
5655 -1663 2883 4056 0
8859 -1663 2883 -4056 0
10462 -1663 -2883 4056 0
13186 -1663 -2883 -4056 0
32175 3075 -2667 0
2145 -3075 2667 0
32711 -3075 -2667 0
3720 3074 3142 -2942 0
2170 3074 -3142 2942 0
4588 3074 -3142 -2942 0
1116 -3074 3142 2942 0
4166 -3074 3142 -2942 0
2895 -3074 -3142 2942 0
4878 -3074 -3142 -2942 0
27885 2492 -4046 0
6435 -2492 4046 0
30137 -2492 -4046 0
38610 1365 2589 -3326 0
15015 1365 -2589 3326 0
40112 1365 -2589 -3326 0
17160 -1365 2589 3326 0
40326 -1365 2589 -3326 0
26169 -1365 -2589 3326 0
41227 -1365 -2589 -3326 0
2280 1249 2913 -1460 0
15200 1249 -2913 1460 0
15656 1249 -2913 -1460 0
14250 -1249 2913 1460 0
14820 -1249 2913 -1460 0
18050 -1249 -2913 1460 0
18164 -1249 -2913 -1460 0
11400 2000 -1823 0
3420 -2000 1823 0
12768 -2000 -1823 0
16302 3193 3719 -3077 0
23595 3193 -3719 3077 0
30931 3193 -3719 -3077 0
17160 -3193 3719 3077 0
26941 -3193 3719 -3077 0
31317 -3193 -3719 3077 0
35719 -3193 -3719 -3077 0
16150 -2827 0
3420 4002 -2386 0
2850 -4002 2386 0
5757 -4002 -2386 0
15080 3802 -1396 0
22620 -3802 1396 0
28652 -3802 -1396 0
9425 3152 1614 -2252 0
1885 3152 -1614 2252 0
10839 3152 -1614 -2252 0
32045 -3152 1614 2252 0
33459 -3152 1614 -2252 0
32328 -3152 -1614 2252 0
33671 -3152 -1614 -2252 0
5270 3194 2970 -2736 0
1240 3194 -2970 2736 0
5456 3194 -2970 -2736 0
1550 -3194 2970 2736 0
5502 -3194 2970 -2736 0
2480 -3194 -2970 2736 0
5642 -3194 -2970 -2736 0
4340 3308 -3989 0
4650 -3308 3989 0
5735 -3308 -3989 0
1284 -3551 0
10725 1685 2508 -3513 0
34320 1685 -2508 3513 0
36465 1685 -2508 -3513 0
2145 -1685 2508 3513 0
12334 -1685 2508 -3513 0
34749 -1685 -2508 3513 0
36787 -1685 -2508 -3513 0
4524 2968 2882 1757 -3209 0
754 2968 2882 -1757 3209 0
5188 2968 2882 -1757 -3209 0
5655 2968 -2882 1757 3209 0
9500 2968 -2882 1757 -3209 0
6296 2968 -2882 -1757 3209 0
10064 2968 -2882 -1757 -3209 0
35815 -2968 2882 1757 3209 0
36041 -2968 2882 1757 -3209 0
35853 -2968 2882 -1757 3209 0
36074 -2968 2882 -1757 -3209 0
36098 -2968 -2882 1757 3209 0
36290 -2968 -2882 1757 -3209 0
36130 -2968 -2882 -1757 3209 0
36318 -2968 -2882 -1757 -3209 0
4340 2035 2218 -2114 0
2480 2035 -2218 2114 0
5084 2035 -2218 -2114 0
2356 -2035 2218 2114 0
5047 -2035 2218 -2114 0
3894 -2035 -2218 2114 0
5508 -2035 -2218 -2114 0
7600 2115 3496 -2044 0
7220 2115 -3496 2044 0
11932 2115 -3496 -2044 0
13300 -2115 3496 2044 0
15580 -2115 3496 -2044 0
15466 -2115 -3496 2044 0
16880 -2115 -3496 -2044 0
7600 1728 -1500 0
7220 -1728 1500 0
11932 -1728 -1500 0
7490 2326 2190 -1449 0
1605 2326 -2190 1449 0
7972 2326 -2190 -1449 0
214 -2326 2190 1449 0
7554 -2326 2190 -1449 0
1787 -2326 -2190 1449 0
8026 -2326 -2190 -1449 0
7600 2082 2912 -3312 0
8550 2082 -2912 3312 0
12730 2082 -2912 -3312 0
16150 -2082 2912 3312 0
17290 -2082 2912 -3312 0
17432 -2082 -2912 3312 0
18059 -2082 -2912 -3312 0
40755 -4036 0
1984 2522 2777 -3010 0
4030 2522 -2777 3010 0
4724 2522 -2777 -3010 0
2480 -2522 2777 3010 0
3670 -2522 2777 -3010 0
4898 -2522 -2777 3010 0
5315 -2522 -2777 -3010 0
10450 2607 3006 1406 4058 -2359 0
10450 2607 3006 1406 -4058 2359 0
15153 2607 3006 1406 -4058 -2359 0
8550 2607 3006 -1406 4058 2359 0
14297 2607 3006 -1406 4058 -2359 0
14297 2607 3006 -1406 -4058 2359 0
16884 2607 3006 -1406 -4058 -2359 0
17100 2607 -3006 1406 4058 2359 0
18145 2607 -3006 1406 4058 -2359 0
18145 2607 -3006 1406 -4058 2359 0
18615 2607 -3006 1406 -4058 -2359 0
17955 2607 -3006 -1406 4058 2359 0
18530 2607 -3006 -1406 4058 -2359 0
18530 2607 -3006 -1406 -4058 2359 0
18788 2607 -3006 -1406 -4058 -2359 0
2280 -2607 3006 1406 4058 2359 0
11476 -2607 3006 1406 4058 -2359 0
11476 -2607 3006 1406 -4058 2359 0
15614 -2607 3006 1406 -4058 -2359 0
9804 -2607 3006 -1406 4058 2359 0
14862 -2607 3006 -1406 4058 -2359 0
14862 -2607 3006 -1406 -4058 2359 0
17138 -2607 3006 -1406 -4058 -2359 0
17328 -2607 -3006 1406 4058 2359 0
18248 -2607 -3006 1406 4058 -2359 0
18248 -2607 -3006 1406 -4058 2359 0
18661 -2607 -3006 1406 -4058 -2359 0
18080 -2607 -3006 -1406 4058 2359 0
18586 -2607 -3006 -1406 4058 -2359 0
18586 -2607 -3006 -1406 -4058 2359 0
18814 -2607 -3006 -1406 -4058 -2359 0
10450 1597 4033 -3793 0
2850 1597 -4033 3793 0
11733 1597 -4033 -3793 0
12350 -1597 4033 3793 0
16008 -1597 4033 -3793 0
13347 -1597 -4033 3793 0
16456 -1597 -4033 -3793 0
16150 1792 -2194 0
13300 -1792 2194 0
18145 -1792 -2194 0
18850 1407 -3902 0
24505 -1407 3902 0
31102 -1407 -3902 0
15080 3170 -3759 0
5655 -3170 3759 0
18473 -3170 -3759 0
18050 1378 -3261 0
17100 -1378 3261 0
18905 -1378 -3261 0
28275 2750 -3395 0
754 -2750 3395 0
28463 -2750 -3395 0
310 -1995 0
5700 2693 2929 2204 -2631 0
3800 2693 2929 -2204 2631 0
8360 2693 2929 -2204 -2631 0
380 2693 -2929 2204 2631 0
5966 2693 -2929 2204 -2631 0
4104 2693 -2929 -2204 2631 0
8573 2693 -2929 -2204 -2631 0
950 -2693 2929 2204 2631 0
6365 -2693 2929 2204 -2631 0
4560 -2693 2929 -2204 2631 0
8892 -2693 2929 -2204 -2631 0
1311 -2693 -2929 2204 2631 0
6618 -2693 -2929 2204 -2631 0
4849 -2693 -2929 -2204 2631 0
9094 -2693 -2929 -2204 -2631 0
15080 1265 -2112 0
4524 -1265 2112 0
17794 -1265 -2112 0
8025 3058 1339 -3468 0
5350 3058 -1339 3468 0
9362 3058 -1339 -3468 0
1605 -3058 1339 3468 0
8426 -3058 1339 -3468 0
6152 -3058 -1339 3468 0
9563 -3058 -1339 -3468 0
3800 3737 2031 -2161 0
6650 3737 -2031 2161 0
9120 3737 -2031 -2161 0
15200 -3737 2031 2161 0
15960 -3737 2031 -2161 0
16530 -3737 -2031 2161 0
17024 -3737 -2031 -2161 0
38610 -3341 0
1284 -3726 0
11310 4072 -1736 0
28275 -4072 1736 0
31102 -4072 -1736 0
30030 3176 -3818 0
7722 -3176 3818 0
32347 -3176 -3818 0
214 -2925 0
1070 -1902 0
3420 -1998 0
12064 1405 -2839 0
33930 -1405 2839 0
35136 -1405 -2839 0
9500 -1380 0
5270 -3056 0
30030 2556 3705 2668 -1424 0
34320 2556 3705 -2668 1424 0
40326 2556 3705 -2668 -1424 0
858 2556 -3705 2668 1424 0
30287 2556 -3705 2668 -1424 0
34492 2556 -3705 -2668 1424 0
40377 2556 -3705 -2668 -1424 0
23595 -2556 3705 2668 1424 0
37108 -2556 3705 2668 -1424 0
39039 -2556 3705 -2668 1424 0
41742 -2556 3705 -2668 -1424 0
23981 -2556 -3705 2668 1424 0
37224 -2556 -3705 2668 -1424 0
39116 -2556 -3705 -2668 1424 0
41765 -2556 -3705 -2668 -1424 0
4650 -1547 0
23595 -2516 0
4030 1561 3636 -3753 0
4340 1561 -3636 3753 0
5549 1561 -3636 -3753 0
744 -1561 3636 3753 0
4290 -1561 3636 -3753 0
4563 -1561 -3636 3753 0
5627 -1561 -3636 -3753 0
5270 -1246 0
535 1456 1337 -3799 0
4280 1456 -1337 3799 0
4601 1456 -1337 -3799 0
1284 -1456 1337 3799 0
1755 -1456 1337 -3799 0
5050 -1456 -1337 3799 0
5333 -1456 -1337 -3799 0
2170 2678 -3458 0
310 -2678 3458 0
2372 -2678 -3458 0
1605 3586 1692 1545 1870 -1975 0
6420 3586 1692 1545 -1870 1975 0
7062 3586 1692 1545 -1870 -1975 0
4066 3586 1692 -1545 1870 1975 0
5061 3586 1692 -1545 1870 -1975 0
8046 3586 1692 -1545 -1870 1975 0
8444 3586 1692 -1545 -1870 -1975 0
1605 3586 -1692 1545 1870 1975 0
2969 3586 -1692 1545 1870 -1975 0
7062 3586 -1692 1545 -1870 1975 0
7608 3586 -1692 1545 -1870 -1975 0
5061 3586 -1692 -1545 1870 1975 0
5907 3586 -1692 -1545 1870 -1975 0
8444 3586 -1692 -1545 -1870 1975 0
8783 3586 -1692 -1545 -1870 -1975 0
9095 -3586 1692 1545 1870 1975 0
9336 -3586 1692 1545 1870 -1975 0
10058 -3586 1692 1545 -1870 1975 0
10154 -3586 1692 1545 -1870 -1975 0
9705 -3586 1692 -1545 1870 1975 0
9854 -3586 1692 -1545 1870 -1975 0
10302 -3586 1692 -1545 -1870 1975 0
10362 -3586 1692 -1545 -1870 -1975 0
9336 -3586 -1692 1545 1870 1975 0
9540 -3586 -1692 1545 1870 -1975 0
10154 -3586 -1692 1545 -1870 1975 0
10236 -3586 -1692 1545 -1870 -1975 0
9854 -3586 -1692 -1545 1870 1975 0
9981 -3586 -1692 -1545 1870 -1975 0
10362 -3586 -1692 -1545 -1870 1975 0
10412 -3586 -1692 -1545 -1870 -1975 0
1240 1935 3101 -3045 0
2480 1935 -3101 3045 0
3224 1935 -3101 -3045 0
4960 -1935 3101 3045 0
5208 -1935 3101 -3045 0
5456 -1935 -3101 3045 0
5605 -1935 -3101 -3045 0
5350 1494 2500 -1796 0
8560 1494 -2500 1796 0
9630 1494 -2500 -1796 0
1926 -1494 2500 1796 0
6313 -1494 2500 -1796 0
8945 -1494 -2500 1796 0
9823 -1494 -2500 -1796 0
25740 2260 -1711 0
27885 -2260 1711 0
36894 -2260 -1711 0
5580 3969 -3240 0
5890 -3969 3240 0
6169 -3969 -3240 0
1860 4062 3036 -3104 0
1240 4062 -3036 3104 0
2728 4062 -3036 -3104 0
620 -4062 3036 3104 0
2294 -4062 3036 -3104 0
1736 -4062 -3036 3104 0
3075 -4062 -3036 -3104 0
3800 3257 1287 -3273 0
1900 3257 -1287 3273 0
5320 3257 -1287 -3273 0
3420 -3257 1287 3273 0
6536 -3257 1287 -3273 0
4978 -3257 -1287 3273 0
7782 -3257 -1287 -3273 0
32175 3450 2081 -1951 0
858 3450 -2081 1951 0
32389 3450 -2081 -1951 0
12870 -3450 2081 1951 0
35392 -3450 2081 -1951 0
13471 -3450 -2081 1951 0
35543 -3450 -2081 -1951 0
38610 3873 1284 -3046 0
4290 3873 -1284 3046 0
39039 3873 -1284 -3046 0
858 -3873 1284 3046 0
38696 -3873 1284 -3046 0
5062 -3873 -1284 3046 0
39116 -3873 -1284 -3046 0
1926 1468 -2892 0
6420 -1468 2892 0
7190 -1468 -2892 0
1860 1619 -3380 0
1116 -1619 3380 0
2641 -1619 -3380 0
28275 3605 -3172 0
28275 -3605 3172 0
35344 -3605 -3172 0
25740 2641 -1566 0
15015 -2641 1566 0
31746 -2641 -1566 0
16302 -3835 0
12350 3845 -3502 0
4750 -3845 3502 0
14012 -3845 -3502 0
7600 2176 2930 3300 -2685 0
17100 2176 2930 -3300 2685 0
17860 2176 2930 -3300 -2685 0
16150 2176 -2930 3300 2685 0
17290 2176 -2930 3300 -2685 0
18715 2176 -2930 -3300 2685 0
18829 2176 -2930 -3300 -2685 0
7600 -2176 2930 3300 2685 0
12160 -2176 2930 3300 -2685 0
17860 -2176 2930 -3300 2685 0
18316 -2176 2930 -3300 -2685 0
17290 -2176 -2930 3300 2685 0
17974 -2176 -2930 3300 -2685 0
18829 -2176 -2930 -3300 2685 0
18897 -2176 -2930 -3300 -2685 0
1284 3563 -2541 0
5350 -3563 2541 0
5992 -3563 -2541 0
13300 4039 2349 -2034 0
13300 4039 -2349 2034 0
17290 4039 -2349 -2034 0
17100 -4039 2349 2034 0
18430 -4039 2349 -2034 0
18430 -4039 -2349 2034 0
18829 -4039 -2349 -2034 0
5655 1824 -1851 0
26390 -1824 1851 0
28087 -1824 -1851 0
9500 1936 3157 -2888 0
17100 1936 -3157 2888 0
18050 1936 -3157 -2888 0
15200 -1936 3157 2888 0
17100 -1936 3157 -2888 0
18620 -1936 -3157 2888 0
18810 -1936 -3157 -2888 0
214 1682 -2187 0
1284 -1682 2187 0
1472 -1682 -2187 0
858 -4055 0
21450 4005 1600 -1645 0
23595 4005 -1600 1645 0
33248 4005 -1600 -1645 0
30030 -4005 1600 1645 0
36465 -4005 1600 -1645 0
37108 -4005 -1600 1645 0
40004 -4005 -1600 -1645 0
4066 -1221 0
13300 2704 3532 -2199 0
6080 2704 -3532 2199 0
15124 2704 -3532 -2199 0
11400 -2704 3532 2199 0
16720 -2704 3532 -2199 0
13832 -2704 -3532 2199 0
17450 -2704 -3532 -2199 0
3424 1767 2139 2202 2444 -1317 0
3424 1767 2139 2202 -2444 1317 0
5752 1767 2139 2202 -2444 -1317 0
214 1767 2139 -2202 2444 1317 0
3570 1767 2139 -2202 2444 -1317 0
3570 1767 2139 -2202 -2444 1317 0
5851 1767 2139 -2202 -2444 -1317 0
1926 1767 -2139 2202 2444 1317 0
4734 1767 -2139 2202 2444 -1317 0
4734 1767 -2139 2202 -2444 1317 0
6643 1767 -2139 2202 -2444 -1317 0
2101 1767 -2139 -2202 2444 1317 0
4853 1767 -2139 -2202 2444 -1317 0
4853 1767 -2139 -2202 -2444 1317 0
6724 1767 -2139 -2202 -2444 -1317 0
8560 -1767 2139 2202 2444 1317 0
9245 -1767 2139 2202 2444 -1317 0
9245 -1767 2139 2202 -2444 1317 0
9710 -1767 2139 2202 -2444 -1317 0
8603 -1767 2139 -2202 2444 1317 0
9274 -1767 2139 -2202 2444 -1317 0
9274 -1767 2139 -2202 -2444 1317 0
9730 -1767 2139 -2202 -2444 -1317 0
8945 -1767 -2139 2202 2444 1317 0
9507 -1767 -2139 2202 2444 -1317 0
9507 -1767 -2139 2202 -2444 1317 0
9889 -1767 -2139 2202 -2444 -1317 0
8980 -1767 -2139 -2202 2444 1317 0
9531 -1767 -2139 -2202 2444 -1317 0
9531 -1767 -2139 -2202 -2444 1317 0
9905 -1767 -2139 -2202 -2444 -1317 0
5148 1330 -2006 0
5148 -1330 2006 0
9678 -1330 -2006 0
214 -1720 0
1116 3408 3770 1589 1960 -2523 0
744 3408 3770 1589 -1960 2523 0
1726 3408 3770 1589 -1960 -2523 0
4650 3408 3770 -1589 1960 2523 0
4929 3408 3770 -1589 1960 -2523 0
4836 3408 3770 -1589 -1960 2523 0
5082 3408 3770 -1589 -1960 -2523 0
2356 3408 -3770 1589 1960 2523 0
3048 3408 -3770 1589 1960 -2523 0
2817 3408 -3770 1589 -1960 2523 0
3426 3408 -3770 1589 -1960 -2523 0
5239 3408 -3770 -1589 1960 2523 0
5412 3408 -3770 -1589 1960 -2523 0
5354 3408 -3770 -1589 -1960 2523 0
5507 3408 -3770 -1589 -1960 -2523 0
5580 -3408 3770 1589 1960 2523 0
5692 -3408 3770 1589 1960 -2523 0
5654 -3408 3770 1589 -1960 2523 0
5753 -3408 3770 1589 -1960 -2523 0
6045 -3408 3770 -1589 1960 2523 0
6073 -3408 3770 -1589 1960 -2523 0
6064 -3408 3770 -1589 -1960 2523 0
6088 -3408 3770 -1589 -1960 -2523 0
5816 -3408 -3770 1589 1960 2523 0
5885 -3408 -3770 1589 1960 -2523 0
5862 -3408 -3770 1589 -1960 2523 0
5923 -3408 -3770 1589 -1960 -2523 0
6104 -3408 -3770 -1589 1960 2523 0
6121 -3408 -3770 -1589 1960 -2523 0
6115 -3408 -3770 -1589 -1960 2523 0
6131 -3408 -3770 -1589 -1960 -2523 0
13195 -1739 0
28275 4042 2177 -2870 0
18850 4042 -2177 2870 0
32988 4042 -2177 -2870 0
7540 -4042 2177 2870 0
30160 -4042 2177 -2870 0
22620 -4042 -2177 2870 0
33930 -4042 -2177 -2870 0
5885 2217 3168 1270 -2712 0
4066 2217 3168 -1270 2712 0
7715 2217 3168 -1270 -2712 0
8560 2217 -3168 1270 2712 0
9737 2217 -3168 1270 -2712 0
9373 2217 -3168 -1270 2712 0
10103 2217 -3168 -1270 -2712 0
10165 -2217 3168 1270 2712 0
10459 -2217 3168 1270 -2712 0
10368 -2217 3168 -1270 2712 0
10551 -2217 3168 -1270 -2712 0
10593 -2217 -3168 1270 2712 0
10652 -2217 -3168 1270 -2712 0
10634 -2217 -3168 -1270 2712 0
10670 -2217 -3168 -1270 -2712 0
16965 3573 -3324 0
3770 -3573 3324 0
19038 -3573 -3324 0
9095 3530 -2636 0
5885 -3530 2636 0
9978 -3530 -2636 0
4815 1276 3797 -3958 0
4066 1276 -3797 3958 0
7051 1276 -3797 -3958 0
4815 -1276 3797 3958 0
7463 -1276 3797 -3958 0
7051 -1276 -3797 3958 0
8693 -1276 -3797 -3958 0
28275 2555 3795 -1288 0
3770 2555 -3795 1288 0
29218 2555 -3795 -1288 0
32045 -2555 3795 1288 0
36286 -2555 3795 -1288 0
32611 -2555 -3795 1288 0
36428 -2555 -3795 -1288 0
2145 3330 1885 2800 -2093 0
10725 3330 1885 -2800 2093 0
12334 3330 1885 -2800 -2093 0
4290 3330 -1885 2800 2093 0
6221 3330 -1885 2800 -2093 0
13942 3330 -1885 -2800 2093 0
15390 3330 -1885 -2800 -2093 0
38610 -3330 1885 2800 2093 0
38825 -3330 1885 2800 -2093 0
39683 -3330 1885 -2800 2093 0
39843 -3330 1885 -2800 -2093 0
39039 -3330 -1885 2800 2093 0
39232 -3330 -1885 2800 -2093 0
40004 -3330 -1885 -2800 2093 0
40149 -3330 -1885 -2800 -2093 0
9630 2966 3377 -1941 0
9095 2966 -3377 1941 0
10539 2966 -3377 -1941 0
2675 -2966 3377 1941 0
9898 -2966 3377 -1941 0
9496 -2966 -3377 1941 0
10580 -2966 -3377 -1941 0
1116 3500 -2575 0
3720 -3500 2575 0
4166 -3500 -2575 0
11310 1627 3916 1217 -2530 0
35815 1627 3916 -1217 2530 0
36381 1627 3916 -1217 -2530 0
11310 1627 -3916 1217 2530 0
19227 1627 -3916 1217 -2530 0
36381 1627 -3916 -1217 2530 0
36776 1627 -3916 -1217 -2530 0
26390 -1627 3916 1217 2530 0
29783 -1627 3916 1217 -2530 0
37134 -1627 3916 -1217 2530 0
37304 -1627 3916 -1217 -2530 0
29783 -1627 -3916 1217 2530 0
32158 -1627 -3916 1217 -2530 0
37304 -1627 -3916 -1217 2530 0
37423 -1627 -3916 -1217 -2530 0
17100 2398 -1785 0
1900 -2398 1785 0
17290 -2398 -1785 0
744 3021 -3276 0
2790 -3021 3276 0
3199 -3021 -3276 0
3420 3555 -1562 0
18050 -3555 1562 0
18221 -3555 -1562 0
3210 3773 3239 1343 -2598 0
8025 3773 3239 -1343 2598 0
8827 3773 3239 -1343 -2598 0
4066 3773 -3239 1343 2598 0
6056 3773 -3239 1343 -2598 0
9041 3773 -3239 -1343 2598 0
9539 3773 -3239 -1343 -2598 0
9095 -3773 3239 1343 2598 0
9577 -3773 3239 1343 -2598 0
10299 -3773 3239 -1343 2598 0
10419 -3773 3239 -1343 -2598 0
9705 -3773 -3239 1343 2598 0
10003 -3773 -3239 1343 -2598 0
10451 -3773 -3239 -1343 2598 0
10526 -3773 -3239 -1343 -2598 0
17160 -3581 0
35815 -1640 0
13728 3801 -2944 0
8580 -3801 2944 0
19562 -3801 -2944 0
3210 2528 -2647 0
5350 -2528 2647 0
6955 -2528 -2647 0
930 2075 2957 -3974 0
5270 2075 -2957 3974 0
5410 2075 -2957 -3974 0
4030 -2075 2957 3974 0
4355 -2075 2957 -3974 0
5874 -2075 -2957 3974 0
5923 -2075 -2957 -3974 0
1900 2886 3732 -3606 0
2850 2886 -3732 3606 0
4465 2886 -3732 -3606 0
8550 -2886 3732 3606 0
9595 -2886 3732 -3606 0
10117 -2886 -3732 3606 0
11006 -2886 -3732 -3606 0
2675 2241 3706 1234 -2733 0
8560 2241 3706 -1234 2733 0
9095 2241 3706 -1234 -2733 0
3745 2241 -3706 1234 2733 0
5484 2241 -3706 1234 -2733 0
9309 2241 -3706 -1234 2733 0
9657 2241 -3706 -1234 -2733 0
6955 -2241 3706 1234 2733 0
7891 -2241 3706 1234 -2733 0
9951 -2241 3706 -1234 2733 0
10138 -2241 3706 -1234 -2733 0
8266 -2241 -3706 1234 2733 0
8874 -2241 -3706 1234 -2733 0
10213 -2241 -3706 -1234 2733 0
10335 -2241 -3706 -1234 -2733 0
12870 2015 3620 -3817 0
27885 2015 -3620 3817 0
32389 2015 -3620 -3817 0
23595 -2015 3620 3817 0
29387 -2015 3620 -3817 0
36143 -2015 -3620 3817 0
38170 -2015 -3620 -3817 0
15200 3439 4029 -2237 0
7220 3439 -4029 2237 0
16644 3439 -4029 -2237 0
3420 -3439 4029 2237 0
15884 -3439 4029 -2237 0
9340 -3439 -4029 2237 0
17068 -3439 -4029 -2237 0
5148 -3857 0
1070 2137 1340 -2203 0
3745 2137 -1340 2203 0
4440 2137 -1340 -2203 0
1605 -2137 1340 2203 0
2514 -2137 1340 -2203 0
4788 -2137 -1340 2203 0
5379 -2137 -1340 -2203 0
40755 3448 3366 3685 -1956 0
13728 3448 3366 -3685 1956 0
41441 3448 3366 -3685 -1956 0
40755 3448 -3366 3685 1956 0
42793 3448 -3366 3685 -1956 0
41441 3448 -3366 -3685 1956 0
42827 3448 -3366 -3685 -1956 0
2145 -3448 3366 3685 1956 0
40862 -3448 3366 3685 -1956 0
15187 -3448 3366 -3685 1956 0
41514 -3448 3366 -3685 -1956 0
40862 -3448 -3366 3685 1956 0
42798 -3448 -3366 3685 -1956 0
41514 -3448 -3366 -3685 1956 0
42831 -3448 -3366 -3685 -1956 0
9630 -1689 0
27885 2164 -1298 0
4290 -2164 1298 0
29387 -2164 -1298 0
1116 3783 -3484 0
4340 -3783 3484 0
4675 -3783 -3484 0
4960 1817 -1388 0
2480 -1817 1388 0
5456 -1817 -1388 0
5700 -2701 0
2356 3175 3164 -1527 0
3410 3175 -3164 1527 0
4470 3175 -3164 -1527 0
4960 -3175 3164 1527 0
5431 -3175 3164 -1527 0
5642 -3175 -3164 1527 0
5854 -3175 -3164 -1527 0
35815 1415 -2723 0
4524 -1415 2723 0
36041 -1415 -2723 0
4290 2998 3297 -2591 0
23595 2998 -3297 2591 0
25525 2998 -3297 -2591 0
17160 -2998 3297 2591 0
19734 -2998 3297 -2591 0
31317 -2998 -3297 2591 0
32475 -2998 -3297 -2591 0
17160 4032 3128 1657 -1507 0
38610 4032 3128 -1657 1507 0
40326 4032 3128 -1657 -1507 0
32175 4032 -3128 1657 1507 0
36465 4032 -3128 1657 -1507 0
41827 4032 -3128 -1657 1507 0
42256 4032 -3128 -1657 -1507 0
40755 -4032 3128 1657 1507 0
41613 -4032 3128 1657 -1507 0
42686 -4032 3128 -1657 1507 0
42771 -4032 3128 -1657 -1507 0
42364 -4032 -3128 1657 1507 0
42578 -4032 -3128 1657 -1507 0
42846 -4032 -3128 -1657 1507 0
42868 -4032 -3128 -1657 -1507 0
5580 -2724 0
620 -3598 0
7490 3417 3883 -2557 0
535 3417 -3883 2557 0
7650 3417 -3883 -2557 0
535 -3417 3883 2557 0
7650 -3417 3883 -2557 0
1043 -3417 -3883 2557 0
7803 -3417 -3883 -2557 0
2675 -3760 0
6435 2582 3265 -2910 0
12870 2582 -3265 2910 0
17375 2582 -3265 -2910 0
36465 -2582 3265 2910 0
37430 -2582 3265 -2910 0
38395 -2582 -3265 2910 0
39071 -2582 -3265 -2910 0
7600 3403 -3318 0
7600 -3403 3318 0
12160 -3403 -3318 0
3420 2807 -3041 0
2850 -2807 3041 0
5757 -2807 -3041 0
2280 3635 3941 -3054 0
14250 3635 -3941 3054 0
14820 3635 -3941 -3054 0
380 -3635 3941 3054 0
2614 -3635 3941 -3054 0
14345 -3635 -3941 3054 0
14904 -3635 -3941 -3054 0
3745 1480 3645 -1290 0
10165 1480 -3645 1290 0
10352 1480 -3645 -1290 0
535 -1480 3645 1290 0
4093 -1480 3645 -1290 0
10192 -1480 -3645 1290 0
10370 -1480 -3645 -1290 0
5700 2400 -3094 0
7220 -2400 3094 0
10754 -2400 -3094 0
24505 2327 1839 -1279 0
18850 2327 -1839 1279 0
31102 2327 -1839 -1279 0
13195 -2327 1839 1279 0
29123 -2327 1839 -1279 0
25448 -2327 -1839 1279 0
33412 -2327 -1839 -1279 0
14250 -3158 0
24505 1579 -2432 0
30160 -1579 2432 0
35061 -1579 -2432 0
4524 1887 2212 -3946 0
18850 1887 -2212 3946 0
21112 1887 -2212 -3946 0
754 -1887 2212 3946 0
5188 -1887 2212 -3946 0
19227 -1887 -2212 3946 0
21444 -1887 -2212 -3946 0
7220 2752 -1470 0
5700 -2752 1470 0
10754 -2752 -1470 0
1605 -3652 0
4066 3315 2504 -2961 0
1284 3315 -2504 2961 0
4862 3315 -2504 -2961 0
9630 -3315 2504 2961 0
10037 -3315 2504 -2961 0
9758 -3315 -2504 2961 0
10116 -3315 -2504 -2961 0
7600 2803 1712 -3210 0
18050 2803 -1712 3210 0
18430 2803 -1712 -3210 0
7600 -2803 1712 3210 0
12160 -2803 1712 -3210 0
18430 -2803 -1712 3210 0
18658 -2803 -1712 -3210 0
1284 3373 2491 2477 -2999 0
6955 3373 2491 -2477 2999 0
7404 3373 2491 -2477 -2999 0
5885 3373 -2491 2477 2999 0
6463 3373 -2491 2477 -2999 0
9015 3373 -2491 -2477 2999 0
9217 3373 -2491 -2477 -2999 0
214 -3373 2491 2477 2999 0
1472 -3373 2491 2477 -2999 0
7030 -3373 2491 -2477 2999 0
7470 -3373 2491 -2477 -2999 0
5981 -3373 -2491 2477 2999 0
6548 -3373 -2491 2477 -2999 0
9048 -3373 -2491 -2477 2999 0
9247 -3373 -2491 -2477 -2999 0
16302 -2853 0
17100 3924 3023 -3355 0
11400 3924 -3023 3355 0
18240 3924 -3023 -3355 0
1900 -3924 3023 3355 0
17290 -3924 3023 -3355 0
12160 -3924 -3023 3355 0
18316 -3924 -3023 -3355 0
5655 2960 -1683 0
20735 -2960 1683 0
23280 -2960 -1683 0
17100 1966 -1357 0
3420 -1966 1357 0
17442 -1966 -1357 0
7220 3103 3918 -1366 0
18050 3103 -3918 1366 0
18411 3103 -3918 -1366 0
9500 -3103 3918 1366 0
13110 -3103 3918 -1366 0
18525 -3103 -3918 1366 0
18705 -3103 -3918 -1366 0
858 2600 -2012 0
21450 -2600 2012 0
21879 -2600 -2012 0
3410 -1310 0
5148 1791 2754 -4035 0
13728 1791 -2754 4035 0
17229 1791 -2754 -4035 0
6435 -1791 2754 4035 0
10811 -1791 2754 -4035 0
18104 -1791 -2754 4035 0
21079 -1791 -2754 -4035 0
11310 -1255 0
950 3325 3436 -3212 0
3800 3325 -3436 3212 0
4560 3325 -3436 -3212 0
14250 -3325 3436 3212 0
14488 -3325 3436 -3212 0
15200 -3325 -3436 3212 0
15390 -3325 -3436 -3212 0
17160 2573 -2124 0
21450 -2573 2124 0
30030 -2573 -2124 0
33930 -1655 0
5655 2543 -1215 0
32045 -2543 1215 0
32893 -2543 -1215 0
13195 4064 -2388 0
9425 -4064 2388 0
19321 -4064 -2388 0
7722 -1502 0
4290 2861 2716 1604 -2050 0
19305 2861 2716 -1604 2050 0
21664 2861 2716 -1604 -2050 0
23595 2861 -2716 1604 2050 0
25525 2861 -2716 1604 -2050 0
32282 2861 -2716 -1604 2050 0
33344 2861 -2716 -1604 -2050 0
30030 -2861 2716 1604 2050 0
31317 -2861 2716 1604 -2050 0
35821 -2861 2716 -1604 2050 0
36529 -2861 2716 -1604 -2050 0
37108 -2861 -2716 1604 2050 0
37688 -2861 -2716 1604 -2050 0
39715 -2861 -2716 -1604 2050 0
40033 -2861 -2716 -1604 -2050 0
1926 2948 3249 -1548 0
8560 2948 -3249 1548 0
8945 2948 -3249 -1548 0
3424 -2948 3249 1548 0
4734 -2948 3249 -1548 0
9245 -2948 -3249 1548 0
9507 -2948 -3249 -1548 0
23595 3320 -2830 0
13728 -3320 2830 0
29773 -3320 -2830 0
858 1472 -3772 0
5148 -1472 3772 0
5903 -1472 -3772 0
25740 1812 3674 -3287 0
8580 1812 -3674 3287 0
29172 1812 -3674 -3287 0
5148 -1812 3674 3287 0
27799 -1812 3674 -3287 0
12698 -1812 -3674 3287 0
30819 -1812 -3674 -3287 0
6080 2834 2595 -2782 0
7600 2834 -2595 2782 0
11248 2834 -2595 -2782 0
6080 -2834 2595 2782 0
10214 -2834 2595 -2782 0
11248 -2834 -2595 2782 0
13729 -2834 -2595 -2782 0
3100 1271 -3529 0
1860 -1271 3529 0
4030 -1271 -3529 0
950 2257 -3072 0
17100 -2257 3072 0
17195 -2257 -3072 0
8025 3584 3182 2162 3452 -1422 0
3210 3584 3182 2162 -3452 1422 0
8827 3584 3182 2162 -3452 -1422 0
3745 3584 3182 -2162 3452 1422 0
8961 3584 3182 -2162 3452 -1422 0
5832 3584 3182 -2162 -3452 1422 0
9483 3584 3182 -2162 -3452 -1422 0
5885 3584 -3182 2162 3452 1422 0
9496 3584 -3182 2162 3452 -1422 0
7330 3584 -3182 2162 -3452 1422 0
9857 3584 -3182 2162 -3452 -1422 0
7570 3584 -3182 -2162 3452 1422 0
9918 3584 -3182 -2162 3452 -1422 0
8509 3584 -3182 -2162 -3452 1422 0
10152 3584 -3182 -2162 -3452 -1422 0
214 -3584 3182 2162 3452 1422 0
8078 -3584 3182 2162 3452 -1422 0
3360 -3584 3182 2162 -3452 1422 0
8865 -3584 3182 2162 -3452 -1422 0
3884 -3584 3182 -2162 3452 1422 0
8996 -3584 3182 -2162 3452 -1422 0
5929 -3584 3182 -2162 -3452 1422 0
9507 -3584 3182 -2162 -3452 -1422 0
5981 -3584 -3182 2162 3452 1422 0
9520 -3584 -3182 2162 3452 -1422 0
7397 -3584 -3182 2162 -3452 1422 0
9874 -3584 -3182 2162 -3452 -1422 0
7633 -3584 -3182 -2162 3452 1422 0
9933 -3584 -3182 -2162 3452 -1422 0
8553 -3584 -3182 -2162 -3452 1422 0
10163 -3584 -3182 -2162 -3452 -1422 0
6955 -3487 0
13195 -3354 0
19305 1307 2297 -1316 0
30030 1307 -2297 1316 0
35821 1307 -2297 -1316 0
12870 -1307 2297 1316 0
26383 -1307 2297 -1316 0
33891 -1307 -2297 1316 0
37945 -1307 -2297 -1316 0
2850 2903 -1387 0
5700 -2903 1387 0
7695 -2903 -1387 0
5148 4026 3895 3040 -3117 0
13728 4026 3895 -3040 3117 0
17229 4026 3895 -3040 -3117 0
858 4026 -3895 3040 3117 0
5903 4026 -3895 3040 -3117 0
14311 4026 -3895 -3040 3117 0
17742 4026 -3895 -3040 -3117 0
12870 -4026 3895 3040 3117 0
16474 -4026 3895 3040 -3117 0
22480 -4026 3895 -3040 3117 0
24930 -4026 3895 -3040 -3117 0
13471 -4026 -3895 3040 3117 0
17002 -4026 -3895 3040 -3117 0
22888 -4026 -3895 -3040 3117 0
25289 -4026 -3895 -3040 -3117 0
1070 3885 -1609 0
1605 -3885 1609 0
2514 -3885 -1609 0
3210 -1532 0
12064 3124 -2058 0
6786 -3124 2058 0
16678 -3124 -2058 0
23595 2281 -2811 0
7722 -2281 2811 0
27070 -2281 -2811 0
35815 -3334 0
20735 -3359 0
12064 1481 1996 -1778 0
20735 1481 -1996 1778 0
26164 1481 -1996 -1778 0
33930 -1481 1996 1778 0
35136 -1481 1996 -1778 0
36004 -1481 -1996 1778 0
36546 -1481 -1996 -1778 0
9425 3557 2405 -2534 0
33930 3557 -2405 2534 0
34873 3557 -2405 -2534 0
30160 -3557 2405 2534 0
32045 -3557 2405 -2534 0
36946 -3557 -2405 2534 0
37134 -3557 -2405 -2534 0
32045 3779 -1602 0
5655 -3779 1602 0
32893 -3779 -1602 0
3424 -1954 0
32045 1821 -2438 0
5655 -1821 2438 0
32893 -1821 -2438 0
3720 1991 3876 3931 -2954 0
1240 1991 3876 -3931 2954 0
4216 1991 3876 -3931 -2954 0
930 1991 -3876 3931 2954 0
4092 1991 -3876 3931 -2954 0
1984 1991 -3876 -3931 2954 0
4514 1991 -3876 -3931 -2954 0
3410 -1991 3876 3931 2954 0
5084 -1991 3876 3931 -2954 0
3968 -1991 3876 -3931 2954 0
5307 -1991 3876 -3931 -2954 0
3829 -1991 -3876 3931 2954 0
5251 -1991 -3876 3931 -2954 0
4303 -1991 -3876 -3931 2954 0
5441 -1991 -3876 -3931 -2954 0
6650 3663 2236 -3920 0
4750 3663 -2236 3920 0
9737 3663 -2236 -3920 0
950 -3663 2236 3920 0
7268 -3663 2236 -3920 0
5463 -3663 -2236 3920 0
10201 -3663 -2236 -3920 0
380 3013 3037 3796 3386 -2445 0
950 3013 3037 3796 -3386 2445 0
1311 3013 3037 3796 -3386 -2445 0
5700 3013 3037 -3796 3386 2445 0
5966 3013 3037 -3796 3386 -2445 0
6365 3013 3037 -3796 -3386 2445 0
6618 3013 3037 -3796 -3386 -2445 0
7220 3013 -3037 3796 3386 2445 0
7456 3013 -3037 3796 3386 -2445 0
7809 3013 -3037 3796 -3386 2445 0
8033 3013 -3037 3796 -3386 -2445 0
10754 3013 -3037 -3796 3386 2445 0
10919 3013 -3037 -3796 3386 -2445 0
11166 3013 -3037 -3796 -3386 2445 0
11323 3013 -3037 -3796 -3386 -2445 0
2280 -3013 3037 3796 3386 2445 0
2614 -3013 3037 3796 3386 -2445 0
3116 -3013 3037 3796 -3386 2445 0
3434 -3013 3037 3796 -3386 -2445 0
7296 -3013 3037 -3796 3386 2445 0
7530 -3013 3037 -3796 3386 -2445 0
7881 -3013 3037 -3796 -3386 2445 0
8104 -3013 3037 -3796 -3386 -2445 0
8634 -3013 -3037 3796 3386 2445 0
8841 -3013 -3037 3796 3386 -2445 0
9152 -3013 -3037 3796 -3386 2445 0
9349 -3013 -3037 3796 -3386 -2445 0
11744 -3013 -3037 -3796 3386 2445 0
11889 -3013 -3037 -3796 3386 -2445 0
12106 -3013 -3037 -3796 -3386 2445 0
12244 -3013 -3037 -3796 -3386 -2445 0
3720 3447 1981 4003 -2169 0
2790 3447 1981 -4003 2169 0
4836 3447 1981 -4003 -2169 0
2170 3447 -1981 4003 2169 0
4588 3447 -1981 4003 -2169 0
3984 3447 -1981 -4003 2169 0
5313 3447 -1981 -4003 -2169 0
2480 -3447 1981 4003 2169 0
4712 -3447 1981 4003 -2169 0
4154 -3447 1981 -4003 2169 0
5382 -3447 1981 -4003 -2169 0
3782 -3447 -1981 4003 2169 0
5233 -3447 -1981 4003 -2169 0
4870 -3447 -1981 -4003 2169 0
5668 -3447 -1981 -4003 -2169 0
6420 -1680 0
12350 2706 3847 -2554 0
11400 2706 -3847 2554 0
16340 2706 -3847 -2554 0
15200 -2706 3847 2554 0
17670 -2706 3847 -2554 0
17480 -2706 -3847 2554 0
18468 -2706 -3847 -2554 0
620 -1784 0
2850 -2110 0
8560 -1687 0
4290 3660 -1947 0
7722 -3660 1947 0
11240 -3660 -1947 0
22620 -3933 0
40755 3030 -3675 0
23595 -3030 3675 0
41935 -3030 -3675 0
4960 2790 3910 -3848 0
930 2790 -3910 3848 0
5146 2790 -3910 -3848 0
2170 -2790 3910 3848 0
5394 -2790 3910 -3848 0
2775 -2790 -3910 3848 0
5515 -2790 -3910 -3848 0
30030 3241 -2943 0
21450 -3241 2943 0
36465 -3241 -2943 0
16302 1454 1571 2030 -2262 0
40755 1454 1571 -2030 2262 0
41570 1454 1571 -2030 -2262 0
30030 1454 -1571 2030 2262 0
34921 1454 -1571 2030 -2262 0
42256 1454 -1571 -2030 2262 0
42501 1454 -1571 -2030 -2262 0
858 -1454 1571 2030 2262 0
16834 -1454 1571 2030 -2262 0
40798 -1454 1571 -2030 2262 0
41597 -1454 1571 -2030 -2262 0
30287 -1454 -1571 2030 2262 0
35080 -1454 -1571 2030 -2262 0
42269 -1454 -1571 -2030 2262 0
42509 -1454 -1571 -2030 -2262 0
8550 2739 -3703 0
15200 -2739 3703 0
16910 -2739 -3703 0
1070 1420 -3096 0
1926 -1420 3096 0
2803 -1420 -3096 0
535 -3634 0
14326 3262 -1668 0
35815 -3262 1668 0
36531 -3262 -1668 0
34320 1375 1890 -2077 0
6435 1375 -1890 2077 0
35607 1375 -1890 -2077 0
858 -1375 1890 2077 0
34492 -1375 1890 -2077 0
7164 -1375 -1890 2077 0
35753 -1375 -1890 -2077 0
535 3495 3577 -3391 0
4815 3495 -3577 3391 0
5109 3495 -3577 -3391 0
3745 -3495 3577 3391 0
4093 -3495 3577 -3391 0
6875 -3495 -3577 3391 0
7066 -3495 -3577 -3391 0
2170 2564 -1718 0
310 -2564 1718 0
2372 -2564 -1718 0
30160 3545 1585 -3955 0
5655 3545 -1585 3955 0
31291 3545 -1585 -3955 0
7540 -3545 1585 3955 0
31668 -3545 1585 -3955 0
12064 -3545 -1585 3955 0
32573 -3545 -1585 -3955 0
5580 2408 -2539 0
5890 -2408 2539 0
6169 -2408 -2539 0
9630 -3812 0
38610 -2891 0
8550 -3649 0
28275 3746 -3511 0
26390 -3746 3511 0
34873 -3746 -3511 0
380 1338 -2495 0
6650 -1338 2495 0
6897 -1338 -2495 0
950 2570 -2160 0
14250 -2570 2160 0
14488 -2570 -2160 0
1070 3014 1594 -2318 0
1605 3014 -1594 2318 0
2514 3014 -1594 -2318 0
9095 -3014 1594 2318 0
9255 -3014 1594 -2318 0
9336 -3014 -1594 2318 0
9472 -3014 -1594 -2318 0
5270 3844 2562 -3469 0
2480 3844 -2562 3469 0
5642 3844 -2562 -3469 0
1116 -3844 2562 3469 0
5437 -3844 2562 -3469 0
3150 -3844 -2562 3469 0
5742 -3844 -2562 -3469 0
754 1426 -1900 0
32045 -1426 1900 0
32158 -1426 -1900 0
8560 3713 -3622 0
3210 -3713 3622 0
9202 -3713 -3622 0
16965 3079 1551 -2880 0
12064 3079 -1551 2880 0
23600 3079 -1551 -2880 0
13195 -3079 1551 2880 0
24222 -3079 1551 -2880 0
21037 -3079 -1551 2880 0
28535 -3079 -1551 -2880 0
21450 2146 2672 1302 1469 -3665 0
23595 2146 2672 1302 -1469 3665 0
33248 2146 2672 1302 -1469 -3665 0
7722 2146 2672 -1302 1469 3665 0
25311 2146 2672 -1302 1469 -3665 0
27070 2146 2672 -1302 -1469 3665 0
34985 2146 2672 -1302 -1469 -3665 0
8580 2146 -2672 1302 1469 3665 0
25740 2146 -2672 1302 1469 -3665 0
27456 2146 -2672 1302 -1469 3665 0
35178 2146 -2672 1302 -1469 -3665 0
14758 2146 -2672 -1302 1469 3665 0
28829 2146 -2672 -1302 1469 -3665 0
30236 2146 -2672 -1302 -1469 3665 0
36568 2146 -2672 -1302 -1469 -3665 0
16302 -2146 2672 1302 1469 3665 0
29601 -2146 2672 1302 1469 -3665 0
30931 -2146 2672 1302 -1469 3665 0
36915 -2146 2672 1302 -1469 -3665 0
21090 -2146 2672 -1302 1469 3665 0
31995 -2146 2672 -1302 1469 -3665 0
33085 -2146 2672 -1302 -1469 3665 0
37993 -2146 2672 -1302 -1469 -3665 0
21622 -2146 -2672 1302 1469 3665 0
32261 -2146 -2672 1302 1469 -3665 0
33325 -2146 -2672 1302 -1469 3665 0
38112 -2146 -2672 1302 -1469 -3665 0
25452 -2146 -2672 -1302 1469 3665 0
34176 -2146 -2672 -1302 1469 -3665 0
35048 -2146 -2672 -1302 -1469 3665 0
38974 -2146 -2672 -1302 -1469 -3665 0
8550 2472 -2740 0
6650 -2472 2740 0
12207 -2472 -2740 0
40755 1238 -1971 0
10725 -1238 1971 0
41291 -1238 -1971 0
18050 2722 2459 -2951 0
14250 2722 -2459 2951 0
18762 2722 -2459 -2951 0
5700 -2722 2459 2951 0
18335 -2722 2459 -2951 0
15675 -2722 -2459 2951 0
18834 -2722 -2459 -2951 0
1240 1852 2242 -3996 0
3410 1852 -2242 3996 0
3968 1852 -2242 -3996 0
1550 -1852 2242 3996 0
2480 -1852 2242 -3996 0
4108 -1852 -2242 3996 0
4526 -1852 -2242 -3996 0
13300 3614 -3884 0
3420 -3614 3884 0
14326 -3614 -3884 0
4340 1392 2401 -2611 0
2170 1392 -2401 2611 0
4991 1392 -2401 -2611 0
5270 -1392 2401 2611 0
5921 -1392 2401 -2611 0
5595 -1392 -2401 2611 0
6019 -1392 -2401 -2611 0
7600 3566 -3926 0
950 -3566 3926 0
8170 -3566 -3926 0
6435 2656 -1462 0
36465 -2656 1462 0
37430 -2656 -1462 0
15015 2708 -1351 0
36465 -2708 1351 0
38717 -2708 -1351 0
2356 1972 -2016 0
1860 -1972 2016 0
3509 -1972 -2016 0
930 -3132 0
14326 3144 -3790 0
33930 -3144 3790 0
35363 -3144 -3790 0
4280 2779 -2760 0
8025 -2779 2760 0
9095 -2779 -2760 0
22620 -3766 0
13300 -2003 0
8580 3507 -2691 0
16302 -3507 2691 0
21622 -3507 -2691 0
3745 1439 1917 -1737 0
4280 1439 -1917 1737 0
6527 1439 -1917 -1737 0
6955 -1439 1917 1737 0
8266 -1439 1917 -1737 0
8453 -1439 -1917 1737 0
9239 -1439 -1917 -1737 0
10725 1555 -1490 0
36465 -1555 1490 0
38074 -1555 -1490 0
1284 -1367 0
2790 1814 3956 -3313 0
2790 1814 -3956 3313 0
4324 1814 -3956 -3313 0
2356 -1814 3956 3313 0
4086 -1814 3956 -3313 0
4086 -1814 -3956 3313 0
5037 -1814 -3956 -3313 0
6435 3293 2229 2094 3301 3267 -3928 0
8580 3293 2229 2094 3301 -3267 3928 0
13728 3293 2229 2094 3301 -3267 -3928 0
30030 3293 2229 2094 -3301 3267 3928 0
31961 3293 2229 2094 -3301 3267 -3928 0
32604 3293 2229 2094 -3301 -3267 3928 0
34148 3293 2229 2094 -3301 -3267 -3928 0
6435 3293 2229 -2094 3301 3267 3928 0
11905 3293 2229 -2094 3301 3267 -3928 0
13728 3293 2229 -2094 3301 -3267 3928 0
18104 3293 2229 -2094 3301 -3267 -3928 0
31961 3293 2229 -2094 -3301 3267 3928 0
33601 3293 2229 -2094 -3301 3267 -3928 0
34148 3293 2229 -2094 -3301 -3267 3928 0
35461 3293 2229 -2094 -3301 -3267 -3928 0
12870 3293 -2229 2094 3301 3267 3928 0
17375 3293 -2229 2094 3301 3267 -3928 0
18876 3293 -2229 2094 3301 -3267 3928 0
22480 3293 -2229 2094 3301 -3267 -3928 0
33891 3293 -2229 2094 -3301 3267 3928 0
35242 3293 -2229 2094 -3301 3267 -3928 0
35693 3293 -2229 2094 -3301 -3267 3928 0
36774 3293 -2229 2094 -3301 -3267 -3928 0
17375 3293 -2229 -2094 3301 3267 3928 0
21203 3293 -2229 -2094 3301 3267 -3928 0
22480 3293 -2229 -2094 3301 -3267 3928 0
25543 3293 -2229 -2094 3301 -3267 -3928 0
35242 3293 -2229 -2094 -3301 3267 3928 0
36391 3293 -2229 -2094 -3301 3267 -3928 0
36774 3293 -2229 -2094 -3301 -3267 3928 0
37693 3293 -2229 -2094 -3301 -3267 -3928 0
2145 -3293 2229 2094 3301 3267 3928 0
8258 -3293 2229 2094 3301 3267 -3928 0
10296 -3293 2229 2094 3301 -3267 3928 0
15187 -3293 2229 2094 3301 -3267 -3928 0
30674 -3293 2229 2094 -3301 3267 3928 0
32507 -3293 2229 2094 -3301 3267 -3928 0
33119 -3293 2229 2094 -3301 -3267 3928 0
34586 -3293 2229 2094 -3301 -3267 -3928 0
8258 -3293 2229 -2094 3301 3267 3928 0
13455 -3293 2229 -2094 3301 3267 -3928 0
15187 -3293 2229 -2094 3301 -3267 3928 0
19344 -3293 2229 -2094 3301 -3267 -3928 0
32507 -3293 2229 -2094 -3301 3267 3928 0
34066 -3293 2229 -2094 -3301 3267 -3928 0
34586 -3293 2229 -2094 -3301 -3267 3928 0
35833 -3293 2229 -2094 -3301 -3267 -3928 0
14372 -3293 -2229 2094 3301 3267 3928 0
18651 -3293 -2229 2094 3301 3267 -3928 0
20077 -3293 -2229 2094 3301 -3267 3928 0
23501 -3293 -2229 2094 3301 -3267 -3928 0
34341 -3293 -2229 2094 -3301 3267 3928 0
35625 -3293 -2229 2094 -3301 3267 -3928 0
36053 -3293 -2229 2094 -3301 -3267 3928 0
37080 -3293 -2229 2094 -3301 -3267 -3928 0
18651 -3293 -2229 -2094 3301 3267 3928 0
22288 -3293 -2229 -2094 3301 3267 -3928 0
23501 -3293 -2229 -2094 3301 -3267 3928 0
26411 -3293 -2229 -2094 3301 -3267 -3928 0
35625 -3293 -2229 -2094 -3301 3267 3928 0
36716 -3293 -2229 -2094 -3301 3267 -3928 0
37080 -3293 -2229 -2094 -3301 -3267 3928 0
37953 -3293 -2229 -2094 -3301 -3267 -3928 0
27885 3778 3187 -2456 0
2145 3778 -3187 2456 0
28636 3778 -3187 -2456 0
25740 -3778 3187 2456 0
36894 -3778 3187 -2456 0
26598 -3778 -3187 2456 0
37194 -3778 -3187 -2456 0
2790 3676 -1782 0
4340 -3676 1782 0
5177 -3676 -1782 0
1900 3775 3639 3299 2450 -3482 0
6650 3775 3639 3299 -2450 3482 0
7885 3775 3639 3299 -2450 -3482 0
3420 3775 3639 -3299 2450 3482 0
4978 3775 3639 -3299 2450 -3482 0
8873 3775 3639 -3299 -2450 3482 0
9886 3775 3639 -3299 -2450 -3482 0
12350 3775 -3639 3299 2450 3482 0
13015 3775 -3639 3299 2450 -3482 0
14678 3775 -3639 3299 -2450 3482 0
15110 3775 -3639 3299 -2450 -3482 0
13547 3775 -3639 -3299 2450 3482 0
14092 3775 -3639 -3299 2450 -3482 0
15456 3775 -3639 -3299 -2450 3482 0
15810 3775 -3639 -3299 -2450 -3482 0
14250 -3775 3639 3299 2450 3482 0
14725 -3775 3639 3299 2450 -3482 0
15912 -3775 3639 3299 -2450 3482 0
16221 -3775 3639 3299 -2450 -3482 0
15105 -3775 3639 -3299 2450 3482 0
15494 -3775 3639 -3299 2450 -3482 0
16468 -3775 3639 -3299 -2450 3482 0
16721 -3775 3639 -3299 -2450 -3482 0
17338 -3775 -3639 3299 2450 3482 0
17504 -3775 -3639 3299 2450 -3482 0
17919 -3775 -3639 3299 -2450 3482 0
18027 -3775 -3639 3299 -2450 -3482 0
17637 -3775 -3639 -3299 2450 3482 0
17773 -3775 -3639 -3299 2450 -3482 0
18114 -3775 -3639 -3299 -2450 3482 0
18202 -3775 -3639 -3299 -2450 -3482 0
14250 3378 3024 -3656 0
18050 3378 -3024 3656 0
18762 3378 -3024 -3656 0
950 -3378 3024 3656 0
14488 -3378 3024 -3656 0
18097 -3378 -3024 3656 0
18774 -3378 -3024 -3656 0
24505 3488 2378 1394 2325 -1411 0
20735 3488 2378 1394 -2325 1411 0
31762 3488 2378 1394 -2325 -1411 0
33930 3488 2378 -1394 2325 1411 0
36381 3488 2378 -1394 2325 -1411 0
36004 3488 2378 -1394 -2325 1411 0
37106 3488 2378 -1394 -2325 -1411 0
6786 3488 -2378 1394 2325 1411 0
26880 3488 -2378 1394 2325 -1411 0
23789 3488 -2378 1394 -2325 1411 0
32831 3488 -2378 1394 -2325 -1411 0
34609 3488 -2378 -1394 2325 1411 0
36618 3488 -2378 -1394 2325 -1411 0
36309 3488 -2378 -1394 -2325 1411 0
37213 3488 -2378 -1394 -2325 -1411 0
15080 -3488 2378 1394 2325 1411 0
29783 -3488 2378 1394 2325 -1411 0
27521 -3488 2378 1394 -2325 1411 0
34137 -3488 2378 1394 -2325 -1411 0
35438 -3488 2378 -1394 2325 1411 0
36908 -3488 2378 -1394 2325 -1411 0
36682 -3488 2378 -1394 -2325 1411 0
37344 -3488 2378 -1394 -2325 -1411 0
19152 -3488 -2378 1394 2325 1411 0
31208 -3488 -2378 1394 2325 -1411 0
29353 -3488 -2378 1394 -2325 1411 0
34779 -3488 -2378 1394 -2325 -1411 0
35845 -3488 -2378 -1394 2325 1411 0
37051 -3488 -2378 -1394 2325 -1411 0
36865 -3488 -2378 -1394 -2325 1411 0
37408 -3488 -2378 -1394 -2325 -1411 0
7540 3155 2939 -3552 0
5655 3155 -2939 3552 0
12064 3155 -2939 -3552 0
22620 -3155 2939 3552 0
25636 -3155 2939 -3552 0
24882 -3155 -2939 3552 0
27446 -3155 -2939 -3552 0
13195 2428 -2650 0
16965 -2428 2650 0
24222 -2428 -2650 0
25740 -1886 0
5885 3987 3084 3751 -3940 0
6955 3987 3084 -3751 3940 0
9015 3987 3084 -3751 -3940 0
535 3987 -3084 3751 3940 0
6126 3987 -3084 3751 -3940 0
7142 3987 -3084 -3751 3940 0
9099 3987 -3084 -3751 -3940 0
10165 -3987 3084 3751 3940 0
10459 -3987 3084 3751 -3940 0
10513 -3987 3084 -3751 3940 0
10616 -3987 3084 -3751 -3940 0
10192 -3987 -3084 3751 3940 0
10471 -3987 -3084 3751 -3940 0
10522 -3987 -3084 -3751 3940 0
10620 -3987 -3084 -3751 -3940 0
4815 1580 1496 3690 -1893 0
5885 1580 1496 -3690 1893 0
8052 1580 1496 -3690 -1893 0
6955 1580 -1496 3690 1893 0
8640 1580 -1496 3690 -1893 0
9015 1580 -1496 -3690 1893 0
9773 1580 -1496 -3690 -1893 0
1926 -1580 1496 3690 1893 0
5874 -1580 1496 3690 -1893 0
6752 -1580 1496 -3690 1893 0
8528 -1580 1496 -3690 -1893 0
7629 -1580 -1496 3690 1893 0
9011 -1580 -1496 3690 -1893 0
9318 -1580 -1496 -3690 1893 0
9940 -1580 -1496 -3690 -1893 0
16150 -2038 0
14326 -1994 0
6650 3397 1950 -3247 0
9500 3397 -1950 3247 0
12825 3397 -1950 -3247 0
18050 -3397 1950 3247 0
18383 -3397 1950 -3247 0
18525 -3397 -1950 3247 0
18691 -3397 -1950 -3247 0
2145 2604 -2639 0
30030 -2604 2639 0
30674 -2604 -2639 0
4750 -1946 0
6786 -1526 0
4340 2271 2926 2329 -2489 0
1240 2271 2926 -2329 2489 0
4712 2271 2926 -2329 -2489 0
2170 2271 -2926 2329 2489 0
4991 2271 -2926 2329 -2489 0
2976 2271 -2926 -2329 2489 0
5233 2271 -2926 -2329 -2489 0
4650 -2271 2926 2329 2489 0
5735 -2271 2926 2329 -2489 0
4960 -2271 2926 -2329 2489 0
5828 -2271 2926 -2329 -2489 0
5193 -2271 -2926 2329 2489 0
5898 -2271 -2926 2329 -2489 0
5394 -2271 -2926 -2329 2489 0
5958 -2271 -2926 -2329 -2489 0
4340 3236 3277 -3911 0
2790 3236 -3277 3911 0
5177 3236 -3277 -3911 0
3410 -3236 3277 3911 0
5363 -3236 3277 -3911 0
4665 -3236 -3277 3911 0
5740 -3236 -3277 -3911 0
15015 2986 3780 -3232 0
21450 2986 -3780 3232 0
28958 2986 -3780 -3232 0
2145 -2986 3780 3232 0
16409 -2986 3780 -3232 0
22523 -2986 -3780 3232 0
29655 -2986 -3780 -3232 0
3424 3322 2984 -3220 0
6955 3322 -2984 3220 0
8153 3322 -2984 -3220 0
1605 -3322 2984 3220 0
4515 -3322 2984 -3220 0
7517 -3322 -2984 3220 0
8535 -3322 -2984 -3220 0
30160 2061 3593 1913 -1708 0
22620 2061 3593 -1913 1708 0
34684 2061 3593 -1913 -1708 0
3770 2061 -3593 1913 1708 0
30914 2061 -3593 1913 -1708 0
24128 2061 -3593 -1913 1708 0
34986 2061 -3593 -1913 -1708 0
9425 -2061 3593 1913 1708 0
32045 -2061 3593 1913 -1708 0
26390 -2061 3593 -1913 1708 0
35438 -2061 3593 -1913 -1708 0
12252 -2061 -3593 1913 1708 0
32611 -2061 -3593 1913 -1708 0
27521 -2061 -3593 -1913 1708 0
35664 -2061 -3593 -1913 -1708 0
7490 1334 2852 3490 -1700 0
4066 1334 2852 -3490 1700 0
8710 1334 2852 -3490 -1700 0
2675 1334 -2852 3490 1700 0
8292 1334 -2852 3490 -1700 0
5725 1334 -2852 -3490 1700 0
9207 1334 -2852 -3490 -1700 0
4280 -1334 2852 3490 1700 0
8774 -1334 2852 3490 -1700 0
6720 -1334 2852 -3490 1700 0
9506 -1334 2852 -3490 -1700 0
5885 -1334 -2852 3490 1700 0
9255 -1334 -2852 3490 -1700 0
7715 -1334 -2852 -3490 1700 0
9804 -1334 -2852 -3490 -1700 0
9500 2099 1554 -2997 0
1900 2099 -1554 2997 0
10450 2099 -1554 -2997 0
4750 -2099 1554 2997 0
11875 -2099 1554 -2997 0
6175 -2099 -1554 2997 0
12588 -2099 -1554 -2997 0
4960 3443 2201 -2205 0
620 3443 -2201 2205 0
5084 3443 -2201 -2205 0
1116 -3443 2201 2205 0
5183 -3443 2201 -2205 0
1624 -3443 -2201 2205 0
5285 -3443 -2201 -2205 0
36465 2599 -1373 0
25740 -2599 1373 0
40326 -2599 -1373 0
12870 2333 -1904 0
7722 -2333 1904 0
18275 -2333 -1904 0
8025 3150 -1412 0
7490 -3150 1412 0
9898 -3150 -1412 0
4280 2551 2123 -1304 0
3745 2551 -2123 1304 0
6527 2551 -2123 -1304 0
4280 -2551 2123 1304 0
6848 -2551 2123 -1304 0
6527 -2551 -2123 1304 0
8196 -2551 -2123 -1304 0
28275 3644 -1327 0
35815 -3644 1327 0
37229 -3644 -1327 0
15080 3684 -2017 0
4524 -3684 2017 0
17794 -3684 -2017 0
7722 -2227 0
7722 3202 -3853 0
21450 -3202 3853 0
25311 -3202 -3853 0
28275 -1859 0
6786 2743 -1586 0
32045 -2743 1586 0
33063 -2743 -1586 0
34320 3064 4040 -3510 0
7722 3064 -4040 3510 0
35864 3064 -4040 -3510 0
5148 -3064 4040 3510 0
35350 -3064 4040 -3510 0
11943 -3064 -4040 3510 0
36709 -3064 -4040 -3510 0
1860 1530 -2122 0
3100 -1530 2122 0
4030 -1530 -2122 0
14326 3114 -1285 0
35815 -3114 1285 0
36531 -3114 -1285 0
30160 3680 -1641 0
5655 -3680 1641 0
31291 -3680 -1641 0
1900 2389 -2893 0
14250 -2389 2893 0
14725 -2389 -2893 0
20735 2071 -3501 0
754 -2071 3501 0
21074 -2071 -3501 0
4960 -2899 0
6650 2239 -2209 0
10450 -2239 2209 0
13443 -2239 -2209 0
7490 3880 3105 -1719 0
4280 3880 -3105 1719 0
8774 3880 -3105 -1719 0
1605 -3880 3105 1719 0
7972 -3880 3105 -1719 0
5243 -3880 -3105 1719 0
9063 -3880 -3105 -1719 0
4650 1358 -2749 0
4960 -1358 2749 0
5890 -1358 -2749 0
2140 1832 -1788 0
2140 -1832 1788 0
3852 -1832 -1788 0
