p wcnf 7900 22712 1000000
1000000 992 -5835 -3883 0
1000000 1001 -5835 -3883 0
1000000 82 -5312 -5967 -4120 -4362 -4144 0
1000000 1002 -5312 -5967 -4120 -4362 -4144 0
1000000 5 -4111 -4454 -6234 0
1000000 1003 -4111 -4454 -6234 0
1000000 139 -6248 -4934 -5390 -677 0
1000000 1004 -6248 -4934 -5390 -677 0
1000000 8 -3892 -4424 -4774 0
1000000 1005 -3892 -4424 -4774 0
1000000 392 -4525 -4802 -5994 0
1000000 1006 -4525 -4802 -5994 0
1000000 852 -4398 -5925 -4062 -4336 -5828 0
1000000 1007 -4398 -5925 -4062 -4336 -5828 0
1000000 787 -6327 -4163 -5016 -3766 0
1000000 1008 -6327 -4163 -5016 -3766 0
1000000 455 -3599 -5377 -485 0
1000000 1009 -3599 -5377 -485 0
1000000 495 -6255 -4430 -3675 -4143 -4115 0
1000000 1010 -6255 -4430 -3675 -4143 -4115 0
1000000 436 -6263 -4444 -3690 -500 0
1000000 1011 -6263 -4444 -3690 -500 0
1000000 587 -3592 -5213 0
1000000 1012 -3592 -5213 0
1000000 635 -5509 -4623 -5603 0
1000000 1013 -5509 -4623 -5603 0
1000000 571 -6054 -5116 -3564 -4831 0
1000000 1014 -6054 -5116 -3564 -4831 0
1000000 594 -4220 -5107 -4482 -5143 -5775 0
1000000 1015 -4220 -5107 -4482 -5143 -5775 0
1000000 323 -3733 -5868 -3568 -750 0
1000000 1016 -3733 -5868 -3568 -750 0
1000000 698 -5018 -5886 0
1000000 1017 -5018 -5886 0
1000000 319 -4954 -3945 0
1000000 1018 -4954 -3945 0
1000000 597 -5493 -5563 -5608 -4452 -5332 0
1000000 1019 -5493 -5563 -5608 -4452 -5332 0
1000000 789 -3649 -4442 0
1000000 1020 -3649 -4442 0
1000000 551 -4356 -3501 0
1000000 1021 -4356 -3501 0
1000000 745 -5907 -4277 0
1000000 1022 -5907 -4277 0
1000000 433 -4017 -5706 -6156 -4362 -3852 0
1000000 1023 -4017 -5706 -6156 -4362 -3852 0
1000000 189 -5046 -5311 -6240 0
1000000 1024 -5046 -5311 -6240 0
1000000 478 -5328 -5900 -6241 -3503 -5052 0
1000000 1025 -5328 -5900 -6241 -3503 -5052 0
1000000 223 -5650 -725 0
1000000 1026 -5650 -725 0
1000000 299 -4196 -5663 -5353 0
1000000 1027 -4196 -5663 -5353 0
1000000 528 -5116 -4774 -4770 -5646 0
1000000 1028 -5116 -4774 -4770 -5646 0
1000000 251 -3856 -5200 -4404 -4101 -4711 0
1000000 1029 -3856 -5200 -4404 -4101 -4711 0
1000000 124 -4561 -5096 -3471 -3648 -734 0
1000000 1030 -4561 -5096 -3471 -3648 -734 0
1000000 627 -4934 -4437 -4884 -4123 -5633 0
1000000 1031 -4934 -4437 -4884 -4123 -5633 0
1000000 198 -3645 -6217 -6275 0
1000000 1032 -3645 -6217 -6275 0
1000000 889 -3677 -5376 -3908 -3770 0
1000000 1033 -3677 -5376 -3908 -3770 0
1000000 271 -5147 -5397 -849 0
1000000 1034 -5147 -5397 -849 0
1000000 443 -5720 -4012 -5610 0
1000000 1035 -5720 -4012 -5610 0
1000000 997 -3717 -4824 -6355 0
1000000 1036 -3717 -4824 -6355 0
1000000 143 -3581 -6181 0
1000000 1037 -3581 -6181 0
1000000 278 -4550 -6332 -3523 0
1000000 1038 -4550 -6332 -3523 0
1000000 399 -3533 -5607 -4726 -5196 0
1000000 1039 -3533 -5607 -4726 -5196 0
1000000 294 -3566 -4675 -6288 0
1000000 1040 -3566 -4675 -6288 0
1000000 497 -4228 -582 0
1000000 1041 -4228 -582 0
1000000 227 -5609 -4831 0
1000000 1042 -5609 -4831 0
1000000 735 -5809 -4383 -5569 0
1000000 1043 -5809 -4383 -5569 0
1000000 471 -6131 -5206 -917 0
1000000 1044 -6131 -5206 -917 0
1000000 6 -5942 -4589 -4905 -3490 -6340 0
1000000 1045 -5942 -4589 -4905 -3490 -6340 0
1000000 92 -5895 -4800 -4128 -5261 -834 0
1000000 1046 -5895 -4800 -4128 -5261 -834 0
1000000 792 -5650 -3611 0
1000000 1047 -5650 -3611 0
1000000 524 -4422 -5714 -4904 -4894 0
1000000 1048 -4422 -5714 -4904 -4894 0
1000000 313 -5765 -4310 -4729 -4152 -3840 0
1000000 1049 -5765 -4310 -4729 -4152 -3840 0
1000000 122 -5486 -5641 0
1000000 1050 -5486 -5641 0
1000000 782 -4992 -4066 -6184 -4050 0
1000000 1051 -4992 -4066 -6184 -4050 0
1000000 588 -3406 -5670 -5870 -5275 -4587 0
1000000 1052 -3406 -5670 -5870 -5275 -4587 0
1000000 479 -4143 -4129 -671 0
1000000 1053 -4143 -4129 -671 0
1000000 824 -4161 -5920 -5185 0
1000000 1054 -4161 -5920 -5185 0
1000000 526 -4743 -5322 -3988 -4907 -3994 0
1000000 1055 -4743 -5322 -3988 -4907 -3994 0
1000000 562 -4315 -4235 -5637 0
1000000 1056 -4315 -4235 -5637 0
1000000 584 -5066 -4900 0
1000000 1057 -5066 -4900 0
1000000 679 -3489 -6266 -4797 -5159 -3658 0
1000000 1058 -3489 -6266 -4797 -5159 -3658 0
1000000 423 -4455 -3798 -5371 -3708 -5283 0
1000000 1059 -4455 -3798 -5371 -3708 -5283 0
1000000 975 -5429 -5155 0
1000000 1060 -5429 -5155 0
1000000 608 -5863 -4524 -4972 0
1000000 1061 -5863 -4524 -4972 0
1000000 916 -5336 -3810 0
1000000 1062 -5336 -3810 0
1000000 997 -5216 -5243 -998 0
1000000 1063 -5216 -5243 -998 0
1000000 17 -3410 -3519 -4470 -5810 -5518 0
1000000 1064 -3410 -3519 -4470 -5810 -5518 0
1000000 318 -3468 -4756 -5043 -910 0
1000000 1065 -3468 -4756 -5043 -910 0
1000000 196 -5836 -5471 -5334 0
1000000 1066 -5836 -5471 -5334 0
1000000 657 -4949 -6029 0
1000000 1067 -4949 -6029 0
1000000 981 -5912 -4822 -5929 -4883 0
1000000 1068 -5912 -4822 -5929 -4883 0
1000000 52 -6194 -4507 -3812 -5417 0
1000000 1069 -6194 -4507 -3812 -5417 0
1000000 686 -3748 -4337 -4937 -4617 0
1000000 1070 -3748 -4337 -4937 -4617 0
1000000 302 -5281 -4823 -4331 -4991 0
1000000 1071 -5281 -4823 -4331 -4991 0
1000000 846 -5177 -5948 0
1000000 1072 -5177 -5948 0
1000000 201 -4902 -5360 -617 0
1000000 1073 -4902 -5360 -617 0
1000000 110 -6292 -865 0
1000000 1074 -6292 -865 0
1000000 159 -4596 -5555 -5659 -4984 -4930 0
1000000 1075 -4596 -5555 -5659 -4984 -4930 0
1000000 896 -4657 -4450 -1000 0
1000000 1076 -4657 -4450 -1000 0
1000000 492 -5041 -4903 0
1000000 1077 -5041 -4903 0
1000000 703 -4825 -6100 -4492 0
1000000 1078 -4825 -6100 -4492 0
1000000 404 -5441 -4240 0
1000000 1079 -5441 -4240 0
1000000 629 -4531 -4312 -5919 -6056 0
1000000 1080 -4531 -4312 -5919 -6056 0
1000000 544 -5539 -5328 -584 0
1000000 1081 -5539 -5328 -584 0
1000000 136 -4939 -3689 0
1000000 1082 -4939 -3689 0
1000000 568 -4422 -4200 0
1000000 1083 -4422 -4200 0
1000000 817 -5339 -4000 -4918 0
1000000 1084 -5339 -4000 -4918 0
1000000 217 -4680 -4476 0
1000000 1085 -4680 -4476 0
1000000 539 -4899 -5121 0
1000000 1086 -4899 -5121 0
1000000 366 -5170 -778 0
1000000 1087 -5170 -778 0
1000000 926 -5615 -5510 -956 0
1000000 1088 -5615 -5510 -956 0
1000000 276 -5770 -4798 -4620 -819 0
1000000 1089 -5770 -4798 -4620 -819 0
1000000 691 -5096 -4271 0
1000000 1090 -5096 -4271 0
1000000 451 -4453 -3614 -5406 -3568 -4974 0
1000000 1091 -4453 -3614 -5406 -3568 -4974 0
1000000 44 -4557 -4068 -3508 -4726 -427 0
1000000 1092 -4557 -4068 -3508 -4726 -427 0
1000000 358 -5284 -5310 0
1000000 1093 -5284 -5310 0
1000000 613 -4418 -4492 -5706 -3877 0
1000000 1094 -4418 -4492 -5706 -3877 0
1000000 150 -4985 -225 0
1000000 1095 -4985 -225 0
1000000 925 -4495 -4259 -5719 -5607 0
1000000 1096 -4495 -4259 -5719 -5607 0
1000000 623 -6350 -3584 -4883 -6344 0
1000000 1097 -6350 -3584 -4883 -6344 0
1000000 939 -3728 -4541 0
1000000 1098 -3728 -4541 0
1000000 923 -3993 -982 0
1000000 1099 -3993 -982 0
1000000 43 -4908 -5601 -6072 0
1000000 1100 -4908 -5601 -6072 0
1000000 103 -5762 -6122 -3424 -3622 -5861 0
1000000 1101 -5762 -6122 -3424 -3622 -5861 0
1000000 681 -3817 -4978 -3683 0
1000000 1102 -3817 -4978 -3683 0
1000000 893 -5080 -5023 0
1000000 1103 -5080 -5023 0
1000000 178 -4828 -3804 -4307 0
1000000 1104 -4828 -3804 -4307 0
1000000 238 -5500 -4779 -5286 0
1000000 1105 -5500 -4779 -5286 0
1000000 33 -3402 -3577 -5307 0
1000000 1106 -3402 -3577 -5307 0
1000000 157 -3963 -4170 -4142 0
1000000 1107 -3963 -4170 -4142 0
1000000 156 -5526 -4769 -4924 -5750 0
1000000 1108 -5526 -4769 -4924 -5750 0
1000000 807 -4583 -6314 0
1000000 1109 -4583 -6314 0
1000000 254 -5185 -4418 -498 0
1000000 1110 -5185 -4418 -498 0
1000000 991 -4125 -4650 -5398 -998 0
1000000 1111 -4125 -4650 -5398 -998 0
1000000 458 -4826 -6169 -6215 -4044 0
1000000 1112 -4826 -6169 -6215 -4044 0
1000000 149 -4729 -3876 -5087 0
1000000 1113 -4729 -3876 -5087 0
1000000 801 -4635 -3887 0
1000000 1114 -4635 -3887 0
1000000 808 -4580 -3587 -4705 -6007 -3962 0
1000000 1115 -4580 -3587 -4705 -6007 -3962 0
1000000 230 -6120 -275 0
1000000 1116 -6120 -275 0
1000000 804 -4967 -3522 -4159 0
1000000 1117 -4967 -3522 -4159 0
1000000 960 -5081 -6375 0
1000000 1118 -5081 -6375 0
1000000 146 -5493 -6291 -4787 0
1000000 1119 -5493 -6291 -4787 0
1000000 255 -5330 -3806 0
1000000 1120 -5330 -3806 0
1000000 316 -3699 -5891 -6127 -6353 -5973 0
1000000 1121 -3699 -5891 -6127 -6353 -5973 0
1000000 481 -4584 -3846 -4361 0
1000000 1122 -4584 -3846 -4361 0
1000000 555 -4201 -6297 -5458 -6204 0
1000000 1123 -4201 -6297 -5458 -6204 0
1000000 882 -5311 -5073 0
1000000 1124 -5311 -5073 0
1000000 889 -4869 -3852 0
1000000 1125 -4869 -3852 0
1000000 910 -4828 -3410 -3982 -4361 -4016 0
1000000 1126 -4828 -3410 -3982 -4361 -4016 0
1000000 23 -4923 -5485 -5639 0
1000000 1127 -4923 -5485 -5639 0
1000000 13 -4025 -3728 -5767 0
1000000 1128 -4025 -3728 -5767 0
1000000 72 -3481 -4411 -4086 -3733 0
1000000 1129 -3481 -4411 -4086 -3733 0
1000000 281 -4063 -5514 -568 0
1000000 1130 -4063 -5514 -568 0
1000000 124 -4891 -4287 -4885 -893 0
1000000 1131 -4891 -4287 -4885 -893 0
1000000 454 -4343 -4047 -3808 -4321 -4909 0
1000000 1132 -4343 -4047 -3808 -4321 -4909 0
1000000 773 -5627 -4740 -815 0
1000000 1133 -5627 -4740 -815 0
1000000 898 -3750 -3900 0
1000000 1134 -3750 -3900 0
1000000 578 -4567 -6136 -5070 0
1000000 1135 -4567 -6136 -5070 0
1000000 19 -5929 -5736 -4930 -5148 -255 0
1000000 1136 -5929 -5736 -4930 -5148 -255 0
1000000 359 -3450 -6213 -4323 -3696 -951 0
1000000 1137 -3450 -6213 -4323 -3696 -951 0
1000000 78 -4640 -3707 -4699 -6175 -3975 0
1000000 1138 -4640 -3707 -4699 -6175 -3975 0
1000000 101 -5672 -4260 -5284 0
1000000 1139 -5672 -4260 -5284 0
1000000 373 -6288 -5733 -528 0
1000000 1140 -6288 -5733 -528 0
1000000 595 -4030 -3554 0
1000000 1141 -4030 -3554 0
1000000 930 -6081 -4092 -3687 -3440 -4484 0
1000000 1142 -6081 -4092 -3687 -3440 -4484 0
1000000 514 -5743 -5411 -5755 -5844 -5644 0
1000000 1143 -5743 -5411 -5755 -5844 -5644 0
1000000 771 -6272 -5503 -3983 -4432 0
1000000 1144 -6272 -5503 -3983 -4432 0
1000000 613 -3827 -4202 -4957 -6110 0
1000000 1145 -3827 -4202 -4957 -6110 0
1000000 419 -5411 -5083 0
1000000 1146 -5411 -5083 0
1000000 593 -6105 -4539 -4384 -4348 0
1000000 1147 -6105 -4539 -4384 -4348 0
1000000 821 -5680 -6395 -4992 -4280 -3519 0
1000000 1148 -5680 -6395 -4992 -4280 -3519 0
1000000 270 -6363 -6351 -3784 -4311 -3469 0
1000000 1149 -6363 -6351 -3784 -4311 -3469 0
1000000 881 -5465 -4303 0
1000000 1150 -5465 -4303 0
1000000 534 -4434 -5591 -5773 -6341 -874 0
1000000 1151 -4434 -5591 -5773 -6341 -874 0
1000000 283 -6234 -5726 -4418 -4706 0
1000000 1152 -6234 -5726 -4418 -4706 0
1000000 70 -3707 -4029 -4419 0
1000000 1153 -3707 -4029 -4419 0
1000000 892 -5491 -5222 -5973 0
1000000 1154 -5491 -5222 -5973 0
1000000 948 -4131 -5137 -5265 0
1000000 1155 -4131 -5137 -5265 0
1000000 408 -6397 -4432 -706 0
1000000 1156 -6397 -4432 -706 0
1000000 932 -6272 -4354 -6070 -5336 -4865 0
1000000 1157 -6272 -4354 -6070 -5336 -4865 0
1000000 576 -6090 -6218 -5814 0
1000000 1158 -6090 -6218 -5814 0
1000000 639 -6080 -3580 0
1000000 1159 -6080 -3580 0
1000000 823 -5895 -4621 -888 0
1000000 1160 -5895 -4621 -888 0
1000000 298 -4135 -6281 -3686 -3784 -3925 0
1000000 1161 -4135 -6281 -3686 -3784 -3925 0
1000000 39 -3831 -3657 -6193 -5150 0
1000000 1162 -3831 -3657 -6193 -5150 0
1000000 41 -5093 -4767 0
1000000 1163 -5093 -4767 0
1000000 419 -5242 -3651 -4819 0
1000000 1164 -5242 -3651 -4819 0
1000000 426 -5102 -3518 -804 0
1000000 1165 -5102 -3518 -804 0
1000000 184 -4773 -3772 -5322 -6228 -3789 0
1000000 1166 -4773 -3772 -5322 -6228 -3789 0
1000000 83 -4660 -4167 -3810 0
1000000 1167 -4660 -4167 -3810 0
1000000 586 -5742 -6222 -3513 0
1000000 1168 -5742 -6222 -3513 0
1000000 181 -5048 -6377 -3531 -6068 -693 0
1000000 1169 -5048 -6377 -3531 -6068 -693 0
1000000 573 -6210 -5322 -5681 -5987 0
1000000 1170 -6210 -5322 -5681 -5987 0
1000000 413 -4990 -3549 -5977 -6171 -6377 0
1000000 1171 -4990 -3549 -5977 -6171 -6377 0
1000000 772 -3730 -3612 -5897 0
1000000 1172 -3730 -3612 -5897 0
1000000 724 -5960 -3692 -4351 -3786 -853 0
1000000 1173 -5960 -3692 -4351 -3786 -853 0
1000000 562 -4654 -5591 0
1000000 1174 -4654 -5591 0
1000000 435 -5185 -3607 -5613 -4191 0
1000000 1175 -5185 -3607 -5613 -4191 0
1000000 386 -6278 -407 0
1000000 1176 -6278 -407 0
1000000 643 -4910 -5661 -3802 -849 0
1000000 1177 -4910 -5661 -3802 -849 0
1000000 532 -5328 -5984 -801 0
1000000 1178 -5328 -5984 -801 0
1000000 33 -5145 -6382 -4166 0
1000000 1179 -5145 -6382 -4166 0
1000000 774 -4373 -5042 -4444 0
1000000 1180 -4373 -5042 -4444 0
1000000 210 -5859 -5792 0
1000000 1181 -5859 -5792 0
1000000 702 -3882 -3431 0
1000000 1182 -3882 -3431 0
1000000 426 -3462 -4228 -4099 0
1000000 1183 -3462 -4228 -4099 0
1000000 244 -5584 -984 0
1000000 1184 -5584 -984 0
1000000 601 -5804 -5617 -6249 0
1000000 1185 -5804 -5617 -6249 0
1000000 39 -4827 -4360 -5190 -349 0
1000000 1186 -4827 -4360 -5190 -349 0
1000000 561 -3862 -4645 -4459 0
1000000 1187 -3862 -4645 -4459 0
1000000 525 -3736 -5538 -4291 -3892 -541 0
1000000 1188 -3736 -5538 -4291 -3892 -541 0
1000000 371 -5326 -3739 -5824 -3903 0
1000000 1189 -5326 -3739 -5824 -3903 0
1000000 307 -5915 -5795 0
1000000 1190 -5915 -5795 0
1000000 49 -5281 -5032 -4204 -3607 0
1000000 1191 -5281 -5032 -4204 -3607 0
1000000 251 -3909 -299 0
1000000 1192 -3909 -299 0
1000000 904 -4595 -6222 -4083 -3716 -966 0
1000000 1193 -4595 -6222 -4083 -3716 -966 0
1000000 46 -6032 -6254 -4564 -3880 -5553 0
1000000 1194 -6032 -6254 -4564 -3880 -5553 0
1000000 17 -5905 -5116 -5819 -6383 0
1000000 1195 -5905 -5116 -5819 -6383 0
1000000 15 -4629 -6148 -4805 0
1000000 1196 -4629 -6148 -4805 0
1000000 590 -5038 -813 0
1000000 1197 -5038 -813 0
1000000 367 -6297 -6363 -5130 -5777 0
1000000 1198 -6297 -6363 -5130 -5777 0
1000000 232 -6055 -3802 -4747 0
1000000 1199 -6055 -3802 -4747 0
1000000 707 -3883 -4767 -3796 -5757 0
1000000 1200 -3883 -4767 -3796 -5757 0
1000000 31 -5867 -4406 0
1000000 1201 -5867 -4406 0
1000000 297 -3865 -5903 -783 0
1000000 1202 -3865 -5903 -783 0
1000000 306 -4887 -623 0
1000000 1203 -4887 -623 0
1000000 137 -4428 -848 0
1000000 1204 -4428 -848 0
1000000 339 -3664 -4257 -5778 -5952 0
1000000 1205 -3664 -4257 -5778 -5952 0
1000000 692 -3473 -4595 -4987 -825 0
1000000 1206 -3473 -4595 -4987 -825 0
1000000 113 -5349 -6106 -3780 -4843 0
1000000 1207 -5349 -6106 -3780 -4843 0
1000000 233 -5999 -4178 0
1000000 1208 -5999 -4178 0
1000000 716 -5809 -4786 -4451 -4452 -5330 0
1000000 1209 -5809 -4786 -4451 -4452 -5330 0
1000000 786 -4025 -3709 -5798 0
1000000 1210 -4025 -3709 -5798 0
1000000 17 -6194 -4652 -4808 -5393 0
1000000 1211 -6194 -4652 -4808 -5393 0
1000000 131 -5449 -5423 0
1000000 1212 -5449 -5423 0
1000000 224 -4708 -5546 -3543 -3744 0
1000000 1213 -4708 -5546 -3543 -3744 0
1000000 450 -5706 -4400 -5289 -633 0
1000000 1214 -5706 -4400 -5289 -633 0
1000000 80 -5364 -226 0
1000000 1215 -5364 -226 0
1000000 121 -5097 -4098 -3686 0
1000000 1216 -5097 -4098 -3686 0
1000000 743 -5686 -766 0
1000000 1217 -5686 -766 0
1000000 893 -4613 -5750 -6058 -5317 -907 0
1000000 1218 -4613 -5750 -6058 -5317 -907 0
1000000 237 -4474 -5239 -5936 -4435 0
1000000 1219 -4474 -5239 -5936 -4435 0
1000000 593 -4058 -4921 0
1000000 1220 -4058 -4921 0
1000000 951 -4935 -4711 0
1000000 1221 -4935 -4711 0
1000000 124 -3482 -4895 -6036 -858 0
1000000 1222 -3482 -4895 -6036 -858 0
1000000 901 -5868 -6382 -5157 -5844 0
1000000 1223 -5868 -6382 -5157 -5844 0
1000000 370 -6367 -3846 -5017 -6308 -389 0
1000000 1224 -6367 -3846 -5017 -6308 -389 0
1000000 320 -6025 -6256 -3735 0
1000000 1225 -6025 -6256 -3735 0
1000000 894 -5970 -4674 -5416 -5584 0
1000000 1226 -5970 -4674 -5416 -5584 0
1000000 390 -6277 -6395 -5351 -6097 -4182 0
1000000 1227 -6277 -6395 -5351 -6097 -4182 0
1000000 531 -3452 -4359 0
1000000 1228 -3452 -4359 0
1000000 343 -4253 -965 0
1000000 1229 -4253 -965 0
1000000 150 -3864 -5507 -6388 -3669 -4183 0
1000000 1230 -3864 -5507 -6388 -3669 -4183 0
1000000 308 -5103 -5745 -3811 0
1000000 1231 -5103 -5745 -3811 0
1000000 878 -5113 -4559 -5651 0
1000000 1232 -5113 -4559 -5651 0
1000000 92 -3851 -6396 -3646 0
1000000 1233 -3851 -6396 -3646 0
1000000 744 -6310 -5813 -3816 -901 0
1000000 1234 -6310 -5813 -3816 -901 0
1000000 699 -5925 -4442 -5131 -4175 0
1000000 1235 -5925 -4442 -5131 -4175 0
1000000 555 -4690 -6235 -4331 -4389 0
1000000 1236 -4690 -6235 -4331 -4389 0
1000000 939 -5345 -4583 -6222 -4273 -4436 0
1000000 1237 -5345 -4583 -6222 -4273 -4436 0
1000000 787 -3519 -5756 -4711 -5951 -5846 0
1000000 1238 -3519 -5756 -4711 -5951 -5846 0
1000000 957 -4867 -4083 -5437 -5297 0
1000000 1239 -4867 -4083 -5437 -5297 0
1000000 681 -3996 -720 0
1000000 1240 -3996 -720 0
1000000 105 -4032 -5569 0
1000000 1241 -4032 -5569 0
1000000 861 -5707 -865 0
1000000 1242 -5707 -865 0
1000000 737 -5164 -826 0
1000000 1243 -5164 -826 0
1000000 568 -6190 -5455 -5235 -6135 0
1000000 1244 -6190 -5455 -5235 -6135 0
1000000 592 -5357 -4921 -3960 -709 0
1000000 1245 -5357 -4921 -3960 -709 0
1000000 401 -4375 -5131 -6078 0
1000000 1246 -4375 -5131 -6078 0
1000000 21 -4629 -5778 -189 0
1000000 1247 -4629 -5778 -189 0
1000000 761 -3921 -6234 -4107 0
1000000 1248 -3921 -6234 -4107 0
1000000 975 -4310 -3927 -5448 -3510 -5941 0
1000000 1249 -4310 -3927 -5448 -3510 -5941 0
1000000 176 -6349 -4246 -5409 -5684 -5645 0
1000000 1250 -6349 -4246 -5409 -5684 -5645 0
1000000 560 -5387 -6351 -4909 -5728 0
1000000 1251 -5387 -6351 -4909 -5728 0
1000000 282 -4831 -3765 0
1000000 1252 -4831 -3765 0
1000000 259 -6156 -5924 0
1000000 1253 -6156 -5924 0
1000000 793 -4545 -4927 -5723 -5406 0
1000000 1254 -4545 -4927 -5723 -5406 0
1000000 742 -4667 -4082 -927 0
1000000 1255 -4667 -4082 -927 0
1000000 78 -5456 -3599 -358 0
1000000 1256 -5456 -3599 -358 0
1000000 547 -4775 -4630 -3532 -609 0
1000000 1257 -4775 -4630 -3532 -609 0
1000000 386 -5812 -3657 -692 0
1000000 1258 -5812 -3657 -692 0
1000000 425 -5437 -5389 -5677 -570 0
1000000 1259 -5437 -5389 -5677 -570 0
1000000 721 -3707 -3454 -863 0
1000000 1260 -3707 -3454 -863 0
1000000 422 -5306 -6152 -5823 0
1000000 1261 -5306 -6152 -5823 0
1000000 945 -3973 -5224 -6391 -4583 0
1000000 1262 -3973 -5224 -6391 -4583 0
1000000 118 -3925 -5599 -5128 -4531 0
1000000 1263 -3925 -5599 -5128 -4531 0
1000000 462 -5148 -4446 -705 0
1000000 1264 -5148 -4446 -705 0
1000000 57 -4709 -6391 -4672 0
1000000 1265 -4709 -6391 -4672 0
1000000 360 -5608 -4523 -3603 -5875 -5836 0
1000000 1266 -5608 -4523 -3603 -5875 -5836 0
1000000 745 -4993 -4501 0
1000000 1267 -4993 -4501 0
1000000 142 -3844 -4357 -4889 -5274 0
1000000 1268 -3844 -4357 -4889 -5274 0
1000000 225 -4688 -5157 -4220 -3859 0
1000000 1269 -4688 -5157 -4220 -3859 0
1000000 246 -3658 -4715 -4026 0
1000000 1270 -3658 -4715 -4026 0
1000000 713 -3535 -3731 -4656 0
1000000 1271 -3535 -3731 -4656 0
1000000 750 -5156 -5496 -3483 -4005 -5134 0
1000000 1272 -5156 -5496 -3483 -4005 -5134 0
1000000 221 -5680 -4019 -4105 -5902 -5791 0
1000000 1273 -5680 -4019 -4105 -5902 -5791 0
1000000 177 -6077 -4053 -3433 -3475 -5916 0
1000000 1274 -6077 -4053 -3433 -3475 -5916 0
1000000 465 -5154 -5526 -4686 -3957 0
1000000 1275 -5154 -5526 -4686 -3957 0
1000000 226 -4825 -3519 0
1000000 1276 -4825 -3519 0
1000000 318 -4464 -3697 -5393 -6208 0
1000000 1277 -4464 -3697 -5393 -6208 0
1000000 505 -5207 -4007 -5034 -6061 -3792 0
1000000 1278 -5207 -4007 -5034 -6061 -3792 0
1000000 855 -5844 -4013 -3801 -5111 -4332 0
1000000 1279 -5844 -4013 -3801 -5111 -4332 0
1000000 978 -3492 -5351 -5332 -4234 0
1000000 1280 -3492 -5351 -5332 -4234 0
1000000 565 -4194 -6138 -726 0
1000000 1281 -4194 -6138 -726 0
1000000 666 -6034 -740 0
1000000 1282 -6034 -740 0
1000000 167 -5843 -4267 -5241 0
1000000 1283 -5843 -4267 -5241 0
1000000 679 -5217 -4333 0
1000000 1284 -5217 -4333 0
1000000 148 -5647 -4394 -5881 -3819 0
1000000 1285 -5647 -4394 -5881 -3819 0
1000000 880 -3757 -5492 -996 0
1000000 1286 -3757 -5492 -996 0
1000000 574 -6114 -4712 -6265 0
1000000 1287 -6114 -4712 -6265 0
1000000 289 -4755 -5051 -5894 -3608 -3683 0
1000000 1288 -4755 -5051 -5894 -3608 -3683 0
1000000 355 -6029 -5024 -3839 0
1000000 1289 -6029 -5024 -3839 0
1000000 632 -4072 -3642 -5057 -5978 0
1000000 1290 -4072 -3642 -5057 -5978 0
1000000 756 -4095 -5786 -6259 -4599 -5443 0
1000000 1291 -4095 -5786 -6259 -4599 -5443 0
1000000 75 -5371 -5093 -4676 -3752 -5170 0
1000000 1292 -5371 -5093 -4676 -3752 -5170 0
1000000 188 -5188 -5587 0
1000000 1293 -5188 -5587 0
1000000 758 -6231 -4983 -984 0
1000000 1294 -6231 -4983 -984 0
1000000 900 -4164 -3556 0
1000000 1295 -4164 -3556 0
1000000 280 -5962 -5142 -4143 -4335 -341 0
1000000 1296 -5962 -5142 -4143 -4335 -341 0
1000000 587 -4627 -5168 -4022 0
1000000 1297 -4627 -5168 -4022 0
1000000 79 -5511 -4615 -5219 -5679 0
1000000 1298 -5511 -4615 -5219 -5679 0
1000000 958 -3554 -5846 -6116 -5593 0
1000000 1299 -3554 -5846 -6116 -5593 0
1000000 116 -3891 -5081 0
1000000 1300 -3891 -5081 0
1000000 753 -4426 -6046 0
1000000 1301 -4426 -6046 0
1000000 852 -3968 -4767 -3545 -4807 0
1000000 1302 -3968 -4767 -3545 -4807 0
1000000 49 -3804 -6346 -6044 -3451 -5871 0
1000000 1303 -3804 -6346 -6044 -3451 -5871 0
1000000 210 -4166 -268 0
1000000 1304 -4166 -268 0
1000000 190 -5177 -216 0
1000000 1305 -5177 -216 0
1000000 845 -4225 -5642 -4529 -3600 -3914 0
1000000 1306 -4225 -5642 -4529 -3600 -3914 0
1000000 38 -3449 -3914 -3457 -874 0
1000000 1307 -3449 -3914 -3457 -874 0
1000000 152 -6139 -4636 -5442 -4119 -4858 0
1000000 1308 -6139 -4636 -5442 -4119 -4858 0
1000000 414 -4503 -5207 -4968 -5135 -6400 0
1000000 1309 -4503 -5207 -4968 -5135 -6400 0
1000000 310 -4656 -4304 -5685 -5667 0
1000000 1310 -4656 -4304 -5685 -5667 0
1000000 236 -4513 -321 0
1000000 1311 -4513 -321 0
1000000 756 -3548 -4914 -5235 -967 0
1000000 1312 -3548 -4914 -5235 -967 0
1000000 719 -5060 -3794 0
1000000 1313 -5060 -3794 0
1000000 896 -6266 -3878 -3992 -4490 -915 0
1000000 1314 -6266 -3878 -3992 -4490 -915 0
1000000 454 -4182 -6104 -3857 -6279 -986 0
1000000 1315 -4182 -6104 -3857 -6279 -986 0
1000000 315 -5927 -4359 -5176 -3578 -462 0
1000000 1316 -5927 -4359 -5176 -3578 -462 0
1000000 517 -4041 -4981 -5001 -3426 -4177 0
1000000 1317 -4041 -4981 -5001 -3426 -4177 0
1000000 728 -4468 -863 0
1000000 1318 -4468 -863 0
1000000 473 -3659 -4765 -3691 0
1000000 1319 -3659 -4765 -3691 0
1000000 898 -3947 -5830 0
1000000 1320 -3947 -5830 0
1000000 460 -6241 -4450 0
1000000 1321 -6241 -4450 0
1000000 385 -3976 -600 0
1000000 1322 -3976 -600 0
1000000 546 -5186 -3637 -4137 -3543 -598 0
1000000 1323 -5186 -3637 -4137 -3543 -598 0
1000000 293 -4260 -5443 0
1000000 1324 -4260 -5443 0
1000000 707 -5611 -5449 -3736 -5442 -4215 0
1000000 1325 -5611 -5449 -3736 -5442 -4215 0
1000000 855 -4552 -994 0
1000000 1326 -4552 -994 0
1000000 932 -5104 -3601 -3424 -3676 -5955 0
1000000 1327 -5104 -3601 -3424 -3676 -5955 0
1000000 475 -4612 -5598 -3794 0
1000000 1328 -4612 -5598 -3794 0
1000000 672 -6092 -4988 -4357 -755 0
1000000 1329 -6092 -4988 -4357 -755 0
1000000 371 -5574 -3535 -3528 0
1000000 1330 -5574 -3535 -3528 0
1000000 691 -4656 -5413 -4235 0
1000000 1331 -4656 -5413 -4235 0
1000000 380 -5504 -5012 -5509 0
1000000 1332 -5504 -5012 -5509 0
1000000 972 -5006 -4504 -995 0
1000000 1333 -5006 -4504 -995 0
1000000 300 -3966 -4060 -5351 0
1000000 1334 -3966 -4060 -5351 0
1000000 26 -6348 -4659 -5652 -5536 -5960 0
1000000 1335 -6348 -4659 -5652 -5536 -5960 0
1000000 572 -5992 -5378 -5534 0
1000000 1336 -5992 -5378 -5534 0
1000000 207 -6137 -4180 -3994 -4875 0
1000000 1337 -6137 -4180 -3994 -4875 0
1000000 912 -5588 -4286 -3961 -4601 -1000 0
1000000 1338 -5588 -4286 -3961 -4601 -1000 0
1000000 660 -6039 -4004 -3571 -4284 0
1000000 1339 -6039 -4004 -3571 -4284 0
1000000 765 -3784 -3424 0
1000000 1340 -3784 -3424 0
1000000 987 -6018 -5467 -6100 -3492 -6064 0
1000000 1341 -6018 -5467 -6100 -3492 -6064 0
1000000 725 -3579 -4718 -4697 -4362 0
1000000 1342 -3579 -4718 -4697 -4362 0
1000000 626 -5176 -5202 0
1000000 1343 -5176 -5202 0
1000000 101 -6294 -6044 -5863 0
1000000 1344 -6294 -6044 -5863 0
1000000 579 -4494 -4385 -4446 -4844 0
1000000 1345 -4494 -4385 -4446 -4844 0
1000000 305 -5559 -4594 -5627 0
1000000 1346 -5559 -4594 -5627 0
1000000 629 -4712 -6218 -706 0
1000000 1347 -4712 -6218 -706 0
1000000 401 -5042 -4834 0
1000000 1348 -5042 -4834 0
1000000 945 -5815 -4150 -5903 -3883 -976 0
1000000 1349 -5815 -4150 -5903 -3883 -976 0
1000000 834 -3456 -6233 0
1000000 1350 -3456 -6233 0
1000000 460 -4070 -6059 0
1000000 1351 -4070 -6059 0
1000000 646 -5814 -5182 0
1000000 1352 -5814 -5182 0
1000000 111 -3435 -5570 -4535 0
1000000 1353 -3435 -5570 -4535 0
1000000 803 -4713 -5553 -6183 -5391 0
1000000 1354 -4713 -5553 -6183 -5391 0
1000000 363 -4477 -4065 0
1000000 1355 -4477 -4065 0
1000000 930 -3537 -4607 0
1000000 1356 -3537 -4607 0
1000000 125 -6179 -5343 -6236 0
1000000 1357 -6179 -5343 -6236 0
1000000 869 -4153 -4869 -6109 -4275 0
1000000 1358 -4153 -4869 -6109 -4275 0
1000000 453 -5372 -5467 -3540 -3989 0
1000000 1359 -5372 -5467 -3540 -3989 0
1000000 141 -3480 -4679 0
1000000 1360 -3480 -4679 0
1000000 926 -4231 -942 0
1000000 1361 -4231 -942 0
1000000 502 -4253 -5893 -3622 0
1000000 1362 -4253 -5893 -3622 0
1000000 908 -3779 -5045 0
1000000 1363 -3779 -5045 0
1000000 362 -5920 -6359 -3511 -5700 -4730 0
1000000 1364 -5920 -6359 -3511 -5700 -4730 0
1000000 293 -5626 -5428 -5815 0
1000000 1365 -5626 -5428 -5815 0
1000000 407 -3844 -5560 0
1000000 1366 -3844 -5560 0
1000000 396 -3779 -4464 0
1000000 1367 -3779 -4464 0
1000000 46 -3801 -5747 -3511 -3416 0
1000000 1368 -3801 -5747 -3511 -3416 0
1000000 180 -6204 -3849 -4562 -3925 -5381 0
1000000 1369 -6204 -3849 -4562 -3925 -5381 0
1000000 213 -3873 -4816 -815 0
1000000 1370 -3873 -4816 -815 0
1000000 587 -4500 -4112 -4626 -4726 0
1000000 1371 -4500 -4112 -4626 -4726 0
1000000 550 -3558 -592 0
1000000 1372 -3558 -592 0
1000000 490 -4022 -4776 0
1000000 1373 -4022 -4776 0
1000000 569 -3913 -3858 -5657 0
1000000 1374 -3913 -3858 -5657 0
1000000 53 -5539 -5873 -4984 -5708 -3799 0
1000000 1375 -5539 -5873 -4984 -5708 -3799 0
1000000 421 -6316 -5715 -591 0
1000000 1376 -6316 -5715 -591 0
1000000 883 -3827 -5641 0
1000000 1377 -3827 -5641 0
1000000 830 -6399 -3830 0
1000000 1378 -6399 -3830 0
1000000 190 -6318 -3586 -735 0
1000000 1379 -6318 -3586 -735 0
1000000 182 -6120 -5976 -4534 0
1000000 1380 -6120 -5976 -4534 0
1000000 544 -5425 -4307 -3868 0
1000000 1381 -5425 -4307 -3868 0
1000000 920 -4715 -3485 -4306 -5406 -967 0
1000000 1382 -4715 -3485 -4306 -5406 -967 0
1000000 727 -4073 -4132 -5117 0
1000000 1383 -4073 -4132 -5117 0
1000000 596 -4836 -4693 0
1000000 1384 -4836 -4693 0
1000000 563 -4166 -5683 -5186 -5544 -3688 0
1000000 1385 -4166 -5683 -5186 -5544 -3688 0
1000000 837 -3420 -3496 -4639 -4110 -989 0
1000000 1386 -3420 -3496 -4639 -4110 -989 0
1000000 365 -5651 -4310 -5825 -404 0
1000000 1387 -5651 -4310 -5825 -404 0
1000000 414 -5729 -3794 -829 0
1000000 1388 -5729 -3794 -829 0
1000000 363 -3607 -5595 0
1000000 1389 -3607 -5595 0
1000000 581 -3968 -4103 -6227 0
1000000 1390 -3968 -4103 -6227 0
1000000 597 -4541 -5817 -4498 0
1000000 1391 -4541 -5817 -4498 0
1000000 189 -5684 -3633 -5841 -610 0
1000000 1392 -5684 -3633 -5841 -610 0
1000000 392 -5375 -6110 0
1000000 1393 -5375 -6110 0
1000000 662 -5708 -4838 0
1000000 1394 -5708 -4838 0
1000000 793 -4165 -5154 -5641 0
1000000 1395 -4165 -5154 -5641 0
1000000 287 -5212 -5576 -5099 -3639 -5976 0
1000000 1396 -5212 -5576 -5099 -3639 -5976 0
1000000 481 -3650 -5637 -5799 -4800 -5086 0
1000000 1397 -3650 -5637 -5799 -4800 -5086 0
1000000 331 -5614 -5385 -5032 -4464 -5013 0
1000000 1398 -5614 -5385 -5032 -4464 -5013 0
1000000 563 -4607 -5579 0
1000000 1399 -4607 -5579 0
1000000 233 -3743 -5786 -3974 -6066 0
1000000 1400 -3743 -5786 -3974 -6066 0
1000000 45 -3446 -4578 -4516 0
1000000 1401 -3446 -4578 -4516 0
1000000 472 -5798 -4432 0
1000000 1402 -5798 -4432 0
1000000 439 -5389 -5231 0
1000000 1403 -5389 -5231 0
1000000 92 -6225 -4361 -215 0
1000000 1404 -6225 -4361 -215 0
1000000 790 -5314 -5394 -5581 -6313 -825 0
1000000 1405 -5314 -5394 -5581 -6313 -825 0
1000000 959 -4045 -5592 -4850 -994 0
1000000 1406 -4045 -5592 -4850 -994 0
1000000 941 -4122 -982 0
1000000 1407 -4122 -982 0
1000000 738 -4506 -6192 -5234 -5741 0
1000000 1408 -4506 -6192 -5234 -5741 0
1000000 621 -6053 -6217 0
1000000 1409 -6053 -6217 0
1000000 447 -3835 -3498 -6398 -5569 0
1000000 1410 -3835 -3498 -6398 -5569 0
1000000 847 -4762 -5547 0
1000000 1411 -4762 -5547 0
1000000 279 -3684 -4692 -4406 -5320 0
1000000 1412 -3684 -4692 -4406 -5320 0
1000000 32 -5283 -4218 -241 0
1000000 1413 -5283 -4218 -241 0
1000000 668 -6267 -4772 -5150 0
1000000 1414 -6267 -4772 -5150 0
1000000 752 -4047 -4419 -3780 0
1000000 1415 -4047 -4419 -3780 0
1000000 193 -4454 -6226 -5493 -6087 0
1000000 1416 -4454 -6226 -5493 -6087 0
1000000 490 -6397 -3716 -5936 -6120 -4423 0
1000000 1417 -6397 -3716 -5936 -6120 -4423 0
1000000 168 -3933 -896 0
1000000 1418 -3933 -896 0
1000000 90 -3557 -617 0
1000000 1419 -3557 -617 0
1000000 843 -5263 -4464 0
1000000 1420 -5263 -4464 0
1000000 539 -3548 -760 0
1000000 1421 -3548 -760 0
1000000 211 -4313 -5794 -5454 -3967 0
1000000 1422 -4313 -5794 -5454 -3967 0
1000000 63 -5465 -4791 -4512 0
1000000 1423 -5465 -4791 -4512 0
1000000 424 -5052 -5731 -536 0
1000000 1424 -5052 -5731 -536 0
1000000 74 -3536 -3793 -4837 -4639 0
1000000 1425 -3536 -3793 -4837 -4639 0
1000000 553 -5488 -3544 -4318 0
1000000 1426 -5488 -3544 -4318 0
1000000 58 -6120 -3780 -4945 -4348 -4673 0
1000000 1427 -6120 -3780 -4945 -4348 -4673 0
1000000 749 -4740 -5396 -3910 -4997 0
1000000 1428 -4740 -5396 -3910 -4997 0
1000000 551 -4230 -862 0
1000000 1429 -4230 -862 0
1000000 836 -3834 -5986 0
1000000 1430 -3834 -5986 0
1000000 629 -5068 -3975 -962 0
1000000 1431 -5068 -3975 -962 0
1000000 172 -5000 -5766 -5403 -5099 -3745 0
1000000 1432 -5000 -5766 -5403 -5099 -3745 0
1000000 678 -3831 -4166 -3427 -4510 0
1000000 1433 -3831 -4166 -3427 -4510 0
1000000 787 -4999 -3527 -4789 -4404 0
1000000 1434 -4999 -3527 -4789 -4404 0
1000000 827 -4040 -3830 -3485 0
1000000 1435 -4040 -3830 -3485 0
1000000 69 -4349 -5265 -4538 -4321 -500 0
1000000 1436 -4349 -5265 -4538 -4321 -500 0
1000000 993 -4345 -5417 -4886 0
1000000 1437 -4345 -5417 -4886 0
1000000 84 -3688 -6214 -5272 0
1000000 1438 -3688 -6214 -5272 0
1000000 837 -3923 -929 0
1000000 1439 -3923 -929 0
1000000 876 -4096 -6114 -5535 -4275 -958 0
1000000 1440 -4096 -6114 -5535 -4275 -958 0
1000000 964 -4696 -3459 -5823 0
1000000 1441 -4696 -3459 -5823 0
1000000 184 -6231 -5042 -4430 -5055 0
1000000 1442 -6231 -5042 -4430 -5055 0
1000000 333 -4279 -4946 -5456 -4232 -4146 0
1000000 1443 -4279 -4946 -5456 -4232 -4146 0
1000000 837 -3850 -4647 -3589 -6009 -4811 0
1000000 1444 -3850 -4647 -3589 -6009 -4811 0
1000000 496 -3598 -5037 -4834 0
1000000 1445 -3598 -5037 -4834 0
1000000 186 -4940 -5976 -6123 -4027 -4949 0
1000000 1446 -4940 -5976 -6123 -4027 -4949 0
1000000 329 -4640 -4828 -6325 -3647 -3734 0
1000000 1447 -4640 -4828 -6325 -3647 -3734 0
1000000 112 -4692 -3502 -4250 -4200 -5485 0
1000000 1448 -4692 -3502 -4250 -4200 -5485 0
1000000 546 -3763 -5267 -3589 -4527 -6065 0
1000000 1449 -3763 -5267 -3589 -4527 -6065 0
1000000 378 -5230 -6111 -4540 0
1000000 1450 -5230 -6111 -4540 0
1000000 687 -6077 -6366 -3476 -6320 0
1000000 1451 -6077 -6366 -3476 -6320 0
1000000 425 -5512 -6361 0
1000000 1452 -5512 -6361 0
1000000 810 -5405 -6194 -6350 -3578 -5472 0
1000000 1453 -5405 -6194 -6350 -3578 -5472 0
1000000 570 -6285 -5529 0
1000000 1454 -6285 -5529 0
1000000 987 -5830 -5935 -3894 -4613 0
1000000 1455 -5830 -5935 -3894 -4613 0
1000000 644 -4343 -4932 -4306 -4569 -5407 0
1000000 1456 -4343 -4932 -4306 -4569 -5407 0
1000000 823 -6079 -3996 -981 0
1000000 1457 -6079 -3996 -981 0
1000000 322 -4652 -5637 -942 0
1000000 1458 -4652 -5637 -942 0
1000000 478 -4094 -4942 -4127 -4080 0
1000000 1459 -4094 -4942 -4127 -4080 0
1000000 429 -4284 -6328 -4554 0
1000000 1460 -4284 -6328 -4554 0
1000000 414 -5214 -3531 -4402 -4838 0
1000000 1461 -5214 -3531 -4402 -4838 0
1000000 648 -4731 -875 0
1000000 1462 -4731 -875 0
1000000 4 -4943 -4152 -4608 -5550 -5879 0
1000000 1463 -4943 -4152 -4608 -5550 -5879 0
1000000 497 -5551 -6033 -5580 -4965 -5359 0
1000000 1464 -5551 -6033 -5580 -4965 -5359 0
1000000 967 -5150 -6038 -6059 -5457 -973 0
1000000 1465 -5150 -6038 -6059 -5457 -973 0
1000000 450 -5070 -5654 -576 0
1000000 1466 -5070 -5654 -576 0
1000000 818 -4521 -3876 -3954 -5341 0
1000000 1467 -4521 -3876 -3954 -5341 0
1000000 427 -4953 -4384 -3637 -5211 -620 0
1000000 1468 -4953 -4384 -3637 -5211 -620 0
1000000 94 -5620 -4955 -5199 -5667 -5519 0
1000000 1469 -5620 -4955 -5199 -5667 -5519 0
1000000 922 -6151 -5580 -4600 -5835 -965 0
1000000 1470 -6151 -5580 -4600 -5835 -965 0
1000000 758 -5698 -4057 -5602 -871 0
1000000 1471 -5698 -4057 -5602 -871 0
1000000 339 -4218 -6312 -3544 0
1000000 1472 -4218 -6312 -3544 0
1000000 307 -5199 -4956 0
1000000 1473 -5199 -4956 0
1000000 833 -4018 -6231 -3622 -844 0
1000000 1474 -4018 -6231 -3622 -844 0
1000000 786 -4466 -4774 -5704 0
1000000 1475 -4466 -4774 -5704 0
1000000 548 -5064 -5870 -4364 0
1000000 1476 -5064 -5870 -4364 0
1000000 242 -4725 -5135 0
1000000 1477 -4725 -5135 0
1000000 575 -6213 -5870 -5692 0
1000000 1478 -6213 -5870 -5692 0
1000000 33 -3526 -4239 -4942 0
1000000 1479 -3526 -4239 -4942 0
1000000 179 -4674 -5207 0
1000000 1480 -4674 -5207 0
1000000 153 -5036 -5242 -3888 -4785 -4235 0
1000000 1481 -5036 -5242 -3888 -4785 -4235 0
1000000 312 -3637 -4631 -5085 -4161 0
1000000 1482 -3637 -4631 -5085 -4161 0
1000000 279 -5433 -6055 -5942 -5142 0
1000000 1483 -5433 -6055 -5942 -5142 0
1000000 710 -3731 -3485 -3445 -4579 -3516 0
1000000 1484 -3731 -3485 -3445 -4579 -3516 0
1000000 138 -5021 -4454 -4247 -6177 0
1000000 1485 -5021 -4454 -4247 -6177 0
1000000 417 -5879 -4392 0
1000000 1486 -5879 -4392 0
1000000 321 -5806 -3755 -4447 -5134 0
1000000 1487 -5806 -3755 -4447 -5134 0
1000000 514 -6005 -4671 -4015 -6284 -5220 0
1000000 1488 -6005 -4671 -4015 -6284 -5220 0
1000000 47 -5105 -4498 -5755 -3720 -5087 0
1000000 1489 -5105 -4498 -5755 -3720 -5087 0
1000000 842 -5913 -4881 -5841 0
1000000 1490 -5913 -4881 -5841 0
1000000 121 -6138 -615 0
1000000 1491 -6138 -615 0
1000000 380 -5900 -5898 -6004 -3614 0
1000000 1492 -5900 -5898 -6004 -3614 0
1000000 538 -4261 -3583 -3591 -6048 0
1000000 1493 -4261 -3583 -3591 -6048 0
1000000 872 -4307 -5270 -5876 0
1000000 1494 -4307 -5270 -5876 0
1000000 308 -3825 -6199 0
1000000 1495 -3825 -6199 0
1000000 176 -6332 -4114 -503 0
1000000 1496 -6332 -4114 -503 0
1000000 468 -4963 -4029 -4450 -5237 -5730 0
1000000 1497 -4963 -4029 -4450 -5237 -5730 0
1000000 714 -3751 -5385 -5678 -5074 -3778 0
1000000 1498 -3751 -5385 -5678 -5074 -3778 0
1000000 642 -4631 -4254 -5095 -4096 0
1000000 1499 -4631 -4254 -5095 -4096 0
1000000 958 -4600 -5480 -4260 -6106 -995 0
1000000 1500 -4600 -5480 -4260 -6106 -995 0
1000000 181 -4932 -3475 -6050 -5435 0
1000000 1501 -4932 -3475 -6050 -5435 0
1000000 610 -4501 -4158 -6100 0
1000000 1502 -4501 -4158 -6100 0
1000000 81 -4100 -4195 -4114 -4326 -5506 0
1000000 1503 -4100 -4195 -4114 -4326 -5506 0
1000000 261 -5757 -4453 0
1000000 1504 -5757 -4453 0
1000000 377 -5823 -5751 -5126 -3480 -433 0
1000000 1505 -5823 -5751 -5126 -3480 -433 0
1000000 700 -6198 -3676 -5402 -5642 -786 0
1000000 1506 -6198 -3676 -5402 -5642 -786 0
1000000 474 -6357 -4108 0
1000000 1507 -6357 -4108 0
1000000 220 -6161 -3885 -4009 0
1000000 1508 -6161 -3885 -4009 0
1000000 649 -6289 -870 0
1000000 1509 -6289 -870 0
1000000 777 -5270 -5628 -6354 -3679 -4406 0
1000000 1510 -5270 -5628 -6354 -3679 -4406 0
1000000 450 -5628 -6295 -4318 -5915 0
1000000 1511 -5628 -6295 -4318 -5915 0
1000000 535 -6035 -5525 0
1000000 1512 -6035 -5525 0
1000000 457 -5821 -4736 -5260 0
1000000 1513 -5821 -4736 -5260 0
1000000 239 -5099 -3475 0
1000000 1514 -5099 -3475 0
1000000 243 -4394 -5436 -4279 -5477 -882 0
1000000 1515 -4394 -5436 -4279 -5477 -882 0
1000000 196 -5784 -5741 -5050 -4910 0
1000000 1516 -5784 -5741 -5050 -4910 0
1000000 859 -3562 -5383 0
1000000 1517 -3562 -5383 0
1000000 116 -5112 -6246 -516 0
1000000 1518 -5112 -6246 -516 0
1000000 11 -4466 -3645 -4690 -4345 0
1000000 1519 -4466 -3645 -4690 -4345 0
1000000 894 -5325 -5049 -6104 0
1000000 1520 -5325 -5049 -6104 0
1000000 588 -4249 -4864 -4150 -3640 0
1000000 1521 -4249 -4864 -4150 -3640 0
1000000 469 -4878 -5540 0
1000000 1522 -4878 -5540 0
1000000 729 -6228 -4973 -5136 -780 0
1000000 1523 -6228 -4973 -5136 -780 0
1000000 245 -5750 -5815 -6027 -4477 0
1000000 1524 -5750 -5815 -6027 -4477 0
1000000 482 -3976 -874 0
1000000 1525 -3976 -874 0
1000000 668 -6353 -5325 -5882 -5611 -4969 0
1000000 1526 -6353 -5325 -5882 -5611 -4969 0
1000000 220 -3891 -5849 -6302 -5715 -5333 0
1000000 1527 -3891 -5849 -6302 -5715 -5333 0
1000000 135 -6240 -4390 -895 0
1000000 1528 -6240 -4390 -895 0
1000000 542 -6138 -6278 -5671 0
1000000 1529 -6138 -6278 -5671 0
1000000 725 -6318 -4961 -5391 -3700 -6361 0
1000000 1530 -6318 -4961 -5391 -3700 -6361 0
1000000 251 -4755 -4711 -3991 -4429 0
1000000 1531 -4755 -4711 -3991 -4429 0
1000000 399 -4328 -4790 -5688 -6032 -471 0
1000000 1532 -4328 -4790 -5688 -6032 -471 0
1000000 997 -3645 -5799 0
1000000 1533 -3645 -5799 0
1000000 598 -6258 -4107 -3437 -4181 0
1000000 1534 -6258 -4107 -3437 -4181 0
1000000 814 -5929 -6262 0
1000000 1535 -5929 -6262 0
1000000 121 -3461 -5098 -3599 -6079 0
1000000 1536 -3461 -5098 -3599 -6079 0
1000000 613 -6243 -5612 0
1000000 1537 -6243 -5612 0
1000000 350 -4542 -4323 -5931 0
1000000 1538 -4542 -4323 -5931 0
1000000 340 -5518 -4669 -5829 0
1000000 1539 -5518 -4669 -5829 0
1000000 795 -3738 -6114 -3540 -849 0
1000000 1540 -3738 -6114 -3540 -849 0
1000000 552 -5133 -3713 -3709 -4438 -3571 0
1000000 1541 -5133 -3713 -3709 -4438 -3571 0
1000000 370 -3969 -5063 -4668 -3499 -5243 0
1000000 1542 -3969 -5063 -4668 -3499 -5243 0
1000000 254 -4717 -5086 0
1000000 1543 -4717 -5086 0
1000000 13 -4283 -5405 -4436 -3589 0
1000000 1544 -4283 -5405 -4436 -3589 0
1000000 47 -3569 -6077 -4368 -927 0
1000000 1545 -3569 -6077 -4368 -927 0
1000000 771 -5433 -3803 0
1000000 1546 -5433 -3803 0
1000000 879 -4637 -3889 -4180 -6333 -993 0
1000000 1547 -4637 -3889 -4180 -6333 -993 0
1000000 268 -4486 -5737 -5385 0
1000000 1548 -4486 -5737 -5385 0
1000000 369 -5892 -4969 -6204 -790 0
1000000 1549 -5892 -4969 -6204 -790 0
1000000 461 -4884 -5993 0
1000000 1550 -4884 -5993 0
1000000 727 -4582 -5619 -889 0
1000000 1551 -4582 -5619 -889 0
1000000 211 -4902 -5305 -5652 0
1000000 1552 -4902 -5305 -5652 0
1000000 582 -4111 -4374 -3843 0
1000000 1553 -4111 -4374 -3843 0
1000000 275 -5068 -3572 0
1000000 1554 -5068 -3572 0
1000000 899 -3885 -5027 -6247 -5714 -981 0
1000000 1555 -3885 -5027 -6247 -5714 -981 0
1000000 79 -4601 -5981 -3810 -922 0
1000000 1556 -4601 -5981 -3810 -922 0
1000000 540 -5916 -5824 -5079 -4066 -3627 0
1000000 1557 -5916 -5824 -5079 -4066 -3627 0
1000000 474 -5965 -5425 -5896 -5040 0
1000000 1558 -5965 -5425 -5896 -5040 0
1000000 50 -4118 -4460 -5219 0
1000000 1559 -4118 -4460 -5219 0
1000000 64 -4883 -366 0
1000000 1560 -4883 -366 0
1000000 24 -4867 -5138 -5214 -3807 -173 0
1000000 1561 -4867 -5138 -5214 -3807 -173 0
1000000 689 -6052 -4387 -4114 0
1000000 1562 -6052 -4387 -4114 0
1000000 260 -5467 -5811 -879 0
1000000 1563 -5467 -5811 -879 0
1000000 103 -6237 -6120 -4127 0
1000000 1564 -6237 -6120 -4127 0
1000000 954 -5150 -4934 -5928 -4447 0
1000000 1565 -5150 -4934 -5928 -4447 0
1000000 247 -4233 -5876 -639 0
1000000 1566 -4233 -5876 -639 0
1000000 873 -5965 -4790 -4954 0
1000000 1567 -5965 -4790 -4954 0
1000000 386 -6117 -3728 0
1000000 1568 -6117 -3728 0
1000000 49 -3903 -3471 -5666 -3830 -4058 0
1000000 1569 -3903 -3471 -5666 -3830 -4058 0
1000000 566 -6025 -5450 -5476 0
1000000 1570 -6025 -5450 -5476 0
1000000 67 -5557 -5492 0
1000000 1571 -5557 -5492 0
1000000 590 -5889 -4732 -5523 0
1000000 1572 -5889 -4732 -5523 0
1000000 308 -4380 -3466 -5430 -3896 0
1000000 1573 -4380 -3466 -5430 -3896 0
1000000 314 -6164 -4607 -5794 -5596 0
1000000 1574 -6164 -4607 -5794 -5596 0
1000000 528 -5169 -4883 -6004 -922 0
1000000 1575 -5169 -4883 -6004 -922 0
1000000 914 -3485 -6226 0
1000000 1576 -3485 -6226 0
1000000 107 -3902 -4565 -183 0
1000000 1577 -3902 -4565 -183 0
1000000 698 -5731 -716 0
1000000 1578 -5731 -716 0
1000000 695 -4176 -5400 -5619 0
1000000 1579 -4176 -5400 -5619 0
1000000 774 -5327 -5762 -5978 -3936 -4139 0
1000000 1580 -5327 -5762 -5978 -3936 -4139 0
1000000 55 -5173 -3434 -498 0
1000000 1581 -5173 -3434 -498 0
1000000 931 -6139 -3409 -5906 -5248 0
1000000 1582 -6139 -3409 -5906 -5248 0
1000000 960 -3990 -4725 0
1000000 1583 -3990 -4725 0
1000000 392 -5449 -5835 -3876 0
1000000 1584 -5449 -5835 -3876 0
1000000 258 -4853 -4448 -3408 -975 0
1000000 1585 -4853 -4448 -3408 -975 0
1000000 338 -5037 -5639 -5351 -5542 -5101 0
1000000 1586 -5037 -5639 -5351 -5542 -5101 0
1000000 735 -5052 -5272 -5071 -5287 -3558 0
1000000 1587 -5052 -5272 -5071 -5287 -3558 0
1000000 800 -4473 -6396 -6100 -4731 0
1000000 1588 -4473 -6396 -6100 -4731 0
1000000 306 -4389 -5405 0
1000000 1589 -4389 -5405 0
1000000 227 -6315 -4216 -4643 0
1000000 1590 -6315 -4216 -4643 0
1000000 139 -4236 -4225 -3667 -5741 -5601 0
1000000 1591 -4236 -4225 -3667 -5741 -5601 0
1000000 406 -4235 -3480 -834 0
1000000 1592 -4235 -3480 -834 0
1000000 456 -5369 -5233 -4228 -4200 0
1000000 1593 -5369 -5233 -4228 -4200 0
1000000 697 -3640 -5038 -4825 -3511 0
1000000 1594 -3640 -5038 -4825 -3511 0
1000000 660 -5597 -6195 -5580 -5848 0
1000000 1595 -5597 -6195 -5580 -5848 0
1000000 128 -5094 -6281 -3757 -5633 -186 0
1000000 1596 -5094 -6281 -3757 -5633 -186 0
1000000 748 -6255 -3748 0
1000000 1597 -6255 -3748 0
1000000 122 -4848 -4573 0
1000000 1598 -4848 -4573 0
1000000 609 -3515 -4731 -5868 -5340 -798 0
1000000 1599 -3515 -4731 -5868 -5340 -798 0
1000000 975 -5999 -4796 0
1000000 1600 -5999 -4796 0
1000000 407 -6003 -3686 -3447 -5771 -694 0
1000000 1601 -6003 -3686 -3447 -5771 -694 0
1000000 581 -4044 -4860 -955 0
1000000 1602 -4044 -4860 -955 0
1000000 508 -5239 -5590 0
1000000 1603 -5239 -5590 0
1000000 733 -5740 -5761 -5702 -4586 -5215 0
1000000 1604 -5740 -5761 -5702 -4586 -5215 0
1000000 989 -4278 -4784 -3418 -6191 0
1000000 1605 -4278 -4784 -3418 -6191 0
1000000 707 -4686 -5768 -5300 -4889 -4494 0
1000000 1606 -4686 -5768 -5300 -4889 -4494 0
1000000 516 -6105 -5916 -6158 -3899 -3928 0
1000000 1607 -6105 -5916 -6158 -3899 -3928 0
1000000 249 -5157 -5472 0
1000000 1608 -5157 -5472 0
1000000 542 -4840 -3463 -5241 0
1000000 1609 -4840 -3463 -5241 0
1000000 59 -4766 -3747 0
1000000 1610 -4766 -3747 0
1000000 255 -5942 -418 0
1000000 1611 -5942 -418 0
1000000 385 -6089 -6026 0
1000000 1612 -6089 -6026 0
1000000 776 -4056 -4471 -4522 0
1000000 1613 -4056 -4471 -4522 0
1000000 768 -4529 -4999 -5645 0
1000000 1614 -4529 -4999 -5645 0
1000000 899 -5014 -4367 -5492 -5960 -3971 0
1000000 1615 -5014 -4367 -5492 -5960 -3971 0
1000000 832 -4196 -6318 0
1000000 1616 -4196 -6318 0
1000000 341 -5395 -4739 0
1000000 1617 -5395 -4739 0
1000000 774 -4850 -5959 -4336 -3468 -5776 0
1000000 1618 -4850 -5959 -4336 -3468 -5776 0
1000000 488 -4768 -3727 -5896 -4173 0
1000000 1619 -4768 -3727 -5896 -4173 0
1000000 760 -3841 -4566 -4815 -5099 0
1000000 1620 -3841 -4566 -4815 -5099 0
1000000 521 -5907 -5575 -4925 0
1000000 1621 -5907 -5575 -4925 0
1000000 811 -3552 -6065 -5420 -3956 -6334 0
1000000 1622 -3552 -6065 -5420 -3956 -6334 0
1000000 638 -4365 -5158 -4759 -648 0
1000000 1623 -4365 -5158 -4759 -648 0
1000000 325 -5873 -5982 -6373 -4156 0
1000000 1624 -5873 -5982 -6373 -4156 0
1000000 636 -4038 -4224 -4675 -660 0
1000000 1625 -4038 -4224 -4675 -660 0
1000000 985 -4480 -5949 -5450 -5567 0
1000000 1626 -4480 -5949 -5450 -5567 0
1000000 374 -4298 -5952 -4843 -422 0
1000000 1627 -4298 -5952 -4843 -422 0
1000000 180 -6061 -5654 -5790 -3826 -4250 0
1000000 1628 -6061 -5654 -5790 -3826 -4250 0
1000000 870 -5087 -6292 -6207 -4113 0
1000000 1629 -5087 -6292 -6207 -4113 0
1000000 4 -4796 -762 0
1000000 1630 -4796 -762 0
1000000 234 -6364 -4948 -4235 -4445 -569 0
1000000 1631 -6364 -4948 -4235 -4445 -569 0
1000000 97 -4519 -4424 -5648 -4521 0
1000000 1632 -4519 -4424 -5648 -4521 0
1000000 928 -4051 -5537 -4203 0
1000000 1633 -4051 -5537 -4203 0
1000000 632 -6266 -3461 0
1000000 1634 -6266 -3461 0
1000000 679 -6021 -5832 -5911 -5391 0
1000000 1635 -6021 -5832 -5911 -5391 0
1000000 965 -5238 -3495 -4084 -4231 -3417 0
1000000 1636 -5238 -3495 -4084 -4231 -3417 0
1000000 863 -4412 -5163 -5202 -5698 -3516 0
1000000 1637 -4412 -5163 -5202 -5698 -3516 0
1000000 369 -6350 -4699 -5843 -430 0
1000000 1638 -6350 -4699 -5843 -430 0
1000000 391 -4858 -5468 -5450 -6063 -5799 0
1000000 1639 -4858 -5468 -5450 -6063 -5799 0
1000000 977 -5198 -4374 -6116 -4543 -4836 0
1000000 1640 -5198 -4374 -6116 -4543 -4836 0
1000000 7 -6083 -6219 0
1000000 1641 -6083 -6219 0
1000000 496 -3976 -5883 -4446 -3753 -655 0
1000000 1642 -3976 -5883 -4446 -3753 -655 0
1000000 578 -4028 -5689 -4659 -5757 -6018 0
1000000 1643 -4028 -5689 -4659 -5757 -6018 0
1000000 701 -5739 -6192 -5666 -3835 -6115 0
1000000 1644 -5739 -6192 -5666 -3835 -6115 0
1000000 116 -5269 -3684 -4144 0
1000000 1645 -5269 -3684 -4144 0
1000000 263 -6360 -5960 -4756 -489 0
1000000 1646 -6360 -5960 -4756 -489 0
1000000 432 -4009 -5103 0
1000000 1647 -4009 -5103 0
1000000 390 -5577 -5444 -6208 -5911 -5830 0
1000000 1648 -5577 -5444 -6208 -5911 -5830 0
1000000 292 -5957 -5795 -5916 0
1000000 1649 -5957 -5795 -5916 0
1000000 391 -6186 -6310 -3657 0
1000000 1650 -6186 -6310 -3657 0
1000000 693 -5656 -5806 0
1000000 1651 -5656 -5806 0
1000000 582 -5414 -5967 -6051 0
1000000 1652 -5414 -5967 -6051 0
1000000 312 -4846 -4296 -4965 -4496 -4470 0
1000000 1653 -4846 -4296 -4965 -4496 -4470 0
1000000 38 -3406 -513 0
1000000 1654 -3406 -513 0
1000000 949 -4553 -3939 -4587 -5118 0
1000000 1655 -4553 -3939 -4587 -5118 0
1000000 123 -4272 -5912 -4105 0
1000000 1656 -4272 -5912 -4105 0
1000000 536 -5290 -3556 -4645 -6219 0
1000000 1657 -5290 -3556 -4645 -6219 0
1000000 941 -4384 -3492 0
1000000 1658 -4384 -3492 0
1000000 1000 -5658 -4410 0
1000000 1659 -5658 -4410 0
1000000 104 -4989 -6094 -4470 -4051 -191 0
1000000 1660 -4989 -6094 -4470 -4051 -191 0
1000000 946 -5218 -5676 -3926 0
1000000 1661 -5218 -5676 -3926 0
1000000 218 -4264 -3855 -5742 -3614 0
1000000 1662 -4264 -3855 -5742 -3614 0
1000000 782 -6107 -5417 -4622 -3952 0
1000000 1663 -6107 -5417 -4622 -3952 0
1000000 421 -4323 -5409 0
1000000 1664 -4323 -5409 0
1000000 508 -4110 -5689 -3764 0
1000000 1665 -4110 -5689 -3764 0
1000000 316 -3479 -4299 -4357 -3943 -682 0
1000000 1666 -3479 -4299 -4357 -3943 -682 0
1000000 154 -3763 -4916 -556 0
1000000 1667 -3763 -4916 -556 0
1000000 309 -3690 -3534 -5937 0
1000000 1668 -3690 -3534 -5937 0
1000000 397 -3825 -4687 0
1000000 1669 -3825 -4687 0
1000000 581 -3949 -5958 -672 0
1000000 1670 -3949 -5958 -672 0
1000000 847 -5111 -4924 0
1000000 1671 -5111 -4924 0
1000000 125 -4152 -3797 0
1000000 1672 -4152 -3797 0
1000000 175 -6254 -662 0
1000000 1673 -6254 -662 0
1000000 864 -5621 -5856 -895 0
1000000 1674 -5621 -5856 -895 0
1000000 12 -3487 -4119 0
1000000 1675 -3487 -4119 0
1000000 721 -4062 -3606 -5192 -5331 0
1000000 1676 -4062 -3606 -5192 -5331 0
1000000 849 -6114 -5868 -4615 0
1000000 1677 -6114 -5868 -4615 0
1000000 283 -4675 -3754 -6029 -5739 0
1000000 1678 -4675 -3754 -6029 -5739 0
1000000 253 -4610 -5838 -320 0
1000000 1679 -4610 -5838 -320 0
1000000 470 -4574 -4920 -4954 0
1000000 1680 -4574 -4920 -4954 0
1000000 336 -4508 -5960 -4658 -5232 0
1000000 1681 -4508 -5960 -4658 -5232 0
1000000 590 -5130 -3507 -4576 0
1000000 1682 -5130 -3507 -4576 0
1000000 578 -3523 -3612 -4717 -5726 0
1000000 1683 -3523 -3612 -4717 -5726 0
1000000 980 -5219 -4522 -4060 -4637 0
1000000 1684 -5219 -4522 -4060 -4637 0
1000000 766 -6057 -3755 -4806 -5675 -878 0
1000000 1685 -6057 -3755 -4806 -5675 -878 0
1000000 398 -5978 -5833 -5794 -5925 0
1000000 1686 -5978 -5833 -5794 -5925 0
1000000 590 -5284 -6258 -3645 0
1000000 1687 -5284 -6258 -3645 0
1000000 99 -5654 -5323 -5086 -5737 -4340 0
1000000 1688 -5654 -5323 -5086 -5737 -4340 0
1000000 873 -6290 -6131 -4052 0
1000000 1689 -6290 -6131 -4052 0
1000000 423 -4945 -4321 -5617 0
1000000 1690 -4945 -4321 -5617 0
1000000 818 -3921 -4829 -5015 0
1000000 1691 -3921 -4829 -5015 0
1000000 704 -4812 -3684 -5798 -3866 0
1000000 1692 -4812 -3684 -5798 -3866 0
1000000 250 -4185 -3927 -3600 -4256 -6139 0
1000000 1693 -4185 -3927 -3600 -4256 -6139 0
1000000 912 -4173 -4206 -4771 0
1000000 1694 -4173 -4206 -4771 0
1000000 799 -4463 -3523 -6228 -3545 0
1000000 1695 -4463 -3523 -6228 -3545 0
1000000 565 -4871 -5492 -5345 0
1000000 1696 -4871 -5492 -5345 0
1000000 242 -4429 -5808 -5851 -5971 0
1000000 1697 -4429 -5808 -5851 -5971 0
1000000 880 -5363 -3536 -4634 -6123 0
1000000 1698 -5363 -3536 -4634 -6123 0
1000000 491 -6331 -5397 -5023 0
1000000 1699 -6331 -5397 -5023 0
1000000 402 -3968 -3828 -6056 -569 0
1000000 1700 -3968 -3828 -6056 -569 0
1000000 695 -4287 -5913 -5433 -3573 -5773 0
1000000 1701 -4287 -5913 -5433 -3573 -5773 0
1000000 205 -4067 -3665 -477 0
1000000 1702 -4067 -3665 -477 0
1000000 992 -4511 -4996 -4852 -5524 -5330 0
1000000 1703 -4511 -4996 -4852 -5524 -5330 0
1000000 931 -3745 -3691 -5141 0
1000000 1704 -3745 -3691 -5141 0
1000000 63 -4660 -5649 -5399 -3893 -4023 0
1000000 1705 -4660 -5649 -5399 -3893 -4023 0
1000000 269 -5789 -3408 0
1000000 1706 -5789 -3408 0
1000000 89 -4367 -5484 -5903 -350 0
1000000 1707 -4367 -5484 -5903 -350 0
1000000 625 -4446 -3559 0
1000000 1708 -4446 -3559 0
1000000 325 -4363 -5024 -6186 -4181 -3418 0
1000000 1709 -4363 -5024 -6186 -4181 -3418 0
1000000 513 -5847 -3932 -4943 -3471 0
1000000 1710 -5847 -3932 -4943 -3471 0
1000000 862 -6211 -3532 -3774 -5594 -3701 0
1000000 1711 -6211 -3532 -3774 -5594 -3701 0
1000000 16 -5194 -6121 0
1000000 1712 -5194 -6121 0
1000000 64 -3622 -3502 -5320 -4537 -4203 0
1000000 1713 -3622 -3502 -5320 -4537 -4203 0
1000000 667 -4148 -4624 0
1000000 1714 -4148 -4624 0
1000000 291 -4257 -4946 -4138 -4327 -570 0
1000000 1715 -4257 -4946 -4138 -4327 -570 0
1000000 529 -4469 -5138 -3699 -4936 -4386 0
1000000 1716 -4469 -5138 -3699 -4936 -4386 0
1000000 257 -6208 -4085 -5496 -314 0
1000000 1717 -6208 -4085 -5496 -314 0
1000000 428 -6336 -6350 -4386 -6185 -773 0
1000000 1718 -6336 -6350 -4386 -6185 -773 0
1000000 961 -3724 -3782 -5846 0
1000000 1719 -3724 -3782 -5846 0
1000000 146 -5786 -4028 0
1000000 1720 -5786 -4028 0
1000000 62 -3577 -4213 -4928 0
1000000 1721 -3577 -4213 -4928 0
1000000 424 -4397 -3977 -4042 -4057 0
1000000 1722 -4397 -3977 -4042 -4057 0
1000000 668 -5223 -5209 -3487 -5276 -733 0
1000000 1723 -5223 -5209 -3487 -5276 -733 0
1000000 99 -6019 -5076 -4206 0
1000000 1724 -6019 -5076 -4206 0
1000000 616 -5372 -5127 -5605 -5647 -4099 0
1000000 1725 -5372 -5127 -5605 -5647 -4099 0
1000000 144 -3952 -5136 0
1000000 1726 -3952 -5136 0
1000000 148 -3927 -3478 0
1000000 1727 -3927 -3478 0
1000000 675 -6088 -4106 0
1000000 1728 -6088 -4106 0
1000000 525 -5776 -5812 0
1000000 1729 -5776 -5812 0
1000000 989 -4762 -4082 -5757 0
1000000 1730 -4762 -4082 -5757 0
1000000 638 -4512 -4327 -802 0
1000000 1731 -4512 -4327 -802 0
1000000 110 -3986 -5650 -6098 -5089 0
1000000 1732 -3986 -5650 -6098 -5089 0
1000000 420 -4513 -4621 -6202 -576 0
1000000 1733 -4513 -4621 -6202 -576 0
1000000 794 -4050 -3618 -3725 0
1000000 1734 -4050 -3618 -3725 0
1000000 898 -3480 -3733 -4214 0
1000000 1735 -3480 -3733 -4214 0
1000000 953 -4757 -4750 0
1000000 1736 -4757 -4750 0
1000000 533 -6143 -3790 -4692 -4658 0
1000000 1737 -6143 -3790 -4692 -4658 0
1000000 90 -3516 -5127 -3672 0
1000000 1738 -3516 -5127 -3672 0
1000000 953 -4476 -5335 0
1000000 1739 -4476 -5335 0
1000000 412 -5448 -5126 0
1000000 1740 -5448 -5126 0
1000000 426 -5844 -4040 0
1000000 1741 -5844 -4040 0
1000000 781 -4290 -5326 0
1000000 1742 -4290 -5326 0
1000000 823 -3826 -5109 -3998 -6348 0
1000000 1743 -3826 -5109 -3998 -6348 0
1000000 174 -5760 -6009 -3477 -994 0
1000000 1744 -5760 -6009 -3477 -994 0
1000000 739 -5289 -5614 -4152 -3793 -4615 0
1000000 1745 -5289 -5614 -4152 -3793 -4615 0
1000000 331 -4185 -5032 -5280 -4035 0
1000000 1746 -4185 -5032 -5280 -4035 0
1000000 20 -4627 -5828 -3571 0
1000000 1747 -4627 -5828 -3571 0
1000000 249 -5467 -3868 -3683 0
1000000 1748 -5467 -3868 -3683 0
1000000 492 -4656 -3657 -3437 -5777 0
1000000 1749 -4656 -3657 -3437 -5777 0
1000000 957 -5356 -5743 -3405 -5070 -959 0
1000000 1750 -5356 -5743 -3405 -5070 -959 0
1000000 150 -4915 -6043 0
1000000 1751 -4915 -6043 0
1000000 622 -3931 -5130 -5376 -5919 -3877 0
1000000 1752 -3931 -5130 -5376 -5919 -3877 0
1000000 698 -6193 -4144 0
1000000 1753 -6193 -4144 0
1000000 438 -6198 -5699 -4439 0
1000000 1754 -6198 -5699 -4439 0
1000000 354 -5299 -4266 -5542 -6396 0
1000000 1755 -5299 -4266 -5542 -6396 0
1000000 826 -4909 -6155 -5176 -4290 -6235 0
1000000 1756 -4909 -6155 -5176 -4290 -6235 0
1000000 921 -3722 -5412 -5432 -4882 -3821 0
1000000 1757 -3722 -5412 -5432 -4882 -3821 0
1000000 397 -5595 -4471 0
1000000 1758 -5595 -4471 0
1000000 341 -5065 -5307 -5013 -3757 -4821 0
1000000 1759 -5065 -5307 -5013 -3757 -4821 0
1000000 305 -4775 -6228 0
1000000 1760 -4775 -6228 0
1000000 919 -3535 -4198 -5252 -4715 0
1000000 1761 -3535 -4198 -5252 -4715 0
1000000 626 -5796 -4092 0
1000000 1762 -5796 -4092 0
1000000 922 -6030 -4988 0
1000000 1763 -6030 -4988 0
1000000 20 -5867 -3965 -5428 -4183 -5145 0
1000000 1764 -5867 -3965 -5428 -4183 -5145 0
1000000 840 -3547 -5818 -5750 -5971 -5618 0
1000000 1765 -3547 -5818 -5750 -5971 -5618 0
1000000 560 -5683 -5770 -6273 -926 0
1000000 1766 -5683 -5770 -6273 -926 0
1000000 606 -5883 -3797 -862 0
1000000 1767 -5883 -3797 -862 0
1000000 38 -3667 -5760 0
1000000 1768 -3667 -5760 0
1000000 331 -5192 -690 0
1000000 1769 -5192 -690 0
1000000 372 -5577 -4810 -3536 -4932 -4286 0
1000000 1770 -5577 -4810 -3536 -4932 -4286 0
1000000 418 -4895 -5869 0
1000000 1771 -4895 -5869 0
1000000 281 -6270 -878 0
1000000 1772 -6270 -878 0
1000000 848 -3913 -6101 -6314 0
1000000 1773 -3913 -6101 -6314 0
1000000 806 -4390 -5954 -5441 -5354 0
1000000 1774 -4390 -5954 -5441 -5354 0
1000000 384 -4575 -6050 -4699 -532 0
1000000 1775 -4575 -6050 -4699 -532 0
1000000 164 -4214 -4847 -4429 -4506 -5472 0
1000000 1776 -4214 -4847 -4429 -4506 -5472 0
1000000 237 -4319 -5377 -3705 -3876 -4861 0
1000000 1777 -4319 -5377 -3705 -3876 -4861 0
1000000 594 -4083 -5460 -4668 -4359 0
1000000 1778 -4083 -5460 -4668 -4359 0
1000000 466 -3683 -5140 0
1000000 1779 -3683 -5140 0
1000000 483 -3687 -5651 -5851 0
1000000 1780 -3687 -5651 -5851 0
1000000 811 -4376 -5193 -5167 -4417 -969 0
1000000 1781 -4376 -5193 -5167 -4417 -969 0
1000000 162 -4095 -6352 -4492 0
1000000 1782 -4095 -6352 -4492 0
1000000 588 -3430 -3454 -6256 0
1000000 1783 -3430 -3454 -6256 0
1000000 318 -4875 -4517 -4652 -5073 -5705 0
1000000 1784 -4875 -4517 -4652 -5073 -5705 0
1000000 28 -4326 -810 0
1000000 1785 -4326 -810 0
1000000 742 -3756 -4350 -6044 -4154 0
1000000 1786 -3756 -4350 -6044 -4154 0
1000000 959 -6309 -3703 -6275 0
1000000 1787 -6309 -3703 -6275 0
1000000 212 -4815 -6048 0
1000000 1788 -4815 -6048 0
1000000 427 -4680 -5172 -800 0
1000000 1789 -4680 -5172 -800 0
1000000 13 -5543 -3701 -5493 -3567 0
1000000 1790 -5543 -3701 -5493 -3567 0
1000000 346 -6330 -4660 -6198 -3519 -4564 0
1000000 1791 -6330 -4660 -6198 -3519 -4564 0
1000000 219 -4985 -3690 -5968 -5364 -6305 0
1000000 1792 -4985 -3690 -5968 -5364 -6305 0
1000000 499 -5351 -6030 -4300 -793 0
1000000 1793 -5351 -6030 -4300 -793 0
1000000 410 -3440 -5831 0
1000000 1794 -3440 -5831 0
1000000 602 -3729 -5006 -4441 0
1000000 1795 -3729 -5006 -4441 0
1000000 296 -5753 -5426 0
1000000 1796 -5753 -5426 0
1000000 77 -4548 -6320 -4822 -5842 0
1000000 1797 -4548 -6320 -4822 -5842 0
1000000 7 -4314 -5846 -5624 -574 0
1000000 1798 -4314 -5846 -5624 -574 0
1000000 520 -6170 -4472 -5925 -4735 -749 0
1000000 1799 -6170 -4472 -5925 -4735 -749 0
1000000 620 -3528 -6289 -4481 -5876 0
1000000 1800 -3528 -6289 -4481 -5876 0
1000000 40 -3758 -3952 -6212 0
1000000 1801 -3758 -3952 -6212 0
1000000 775 -5763 -5444 -3924 -4316 -4321 0
1000000 1802 -5763 -5444 -3924 -4316 -4321 0
1000000 645 -4139 -3821 -5824 -4524 -5265 0
1000000 1803 -4139 -3821 -5824 -4524 -5265 0
1000000 720 -6137 -846 0
1000000 1804 -6137 -846 0
1000000 267 -4768 -5270 -5248 -6090 -4519 0
1000000 1805 -4768 -5270 -5248 -6090 -4519 0
1000000 338 -3623 -4296 0
1000000 1806 -3623 -4296 0
1000000 741 -5789 -5874 -4765 -5477 0
1000000 1807 -5789 -5874 -4765 -5477 0
1000000 537 -5156 -5617 -4439 -3723 -567 0
1000000 1808 -5156 -5617 -4439 -3723 -567 0
1000000 44 -5705 -3564 -5229 -5007 0
1000000 1809 -5705 -3564 -5229 -5007 0
1000000 684 -4237 -5557 -4600 -4673 -6231 0
1000000 1810 -4237 -5557 -4600 -4673 -6231 0
1000000 141 -6186 -3796 -5699 -4725 -168 0
1000000 1811 -6186 -3796 -5699 -4725 -168 0
1000000 591 -5936 -6026 -3547 -4299 -4980 0
1000000 1812 -5936 -6026 -3547 -4299 -4980 0
1000000 567 -6143 -4020 -5423 -6063 0
1000000 1813 -6143 -4020 -5423 -6063 0
1000000 732 -5568 -3445 0
1000000 1814 -5568 -3445 0
1000000 498 -5180 -5315 -3562 0
1000000 1815 -5180 -5315 -3562 0
1000000 791 -5373 -991 0
1000000 1816 -5373 -991 0
1000000 455 -4418 -6174 -4249 0
1000000 1817 -4418 -6174 -4249 0
1000000 42 -5459 -6328 -3869 -4461 0
1000000 1818 -5459 -6328 -3869 -4461 0
1000000 715 -6226 -4049 -5004 -4079 0
1000000 1819 -6226 -4049 -5004 -4079 0
1000000 742 -5393 -6264 -4028 -5679 -4163 0
1000000 1820 -5393 -6264 -4028 -5679 -4163 0
1000000 961 -4624 -3939 -3838 -5199 0
1000000 1821 -4624 -3939 -3838 -5199 0
1000000 388 -5531 -3900 -6279 -5583 -5126 0
1000000 1822 -5531 -3900 -6279 -5583 -5126 0
1000000 180 -5205 -5725 -6325 -6041 -5921 0
1000000 1823 -5205 -5725 -6325 -6041 -5921 0
1000000 171 -4611 -671 0
1000000 1824 -4611 -671 0
1000000 687 -4147 -5897 -5039 0
1000000 1825 -4147 -5897 -5039 0
1000000 607 -4669 -3893 0
1000000 1826 -4669 -3893 0
1000000 877 -6313 -5179 -5764 0
1000000 1827 -6313 -5179 -5764 0
1000000 847 -4823 -5657 -3973 -3998 -4776 0
1000000 1828 -4823 -5657 -3973 -3998 -4776 0
1000000 61 -3731 -4020 -4086 -4411 -4134 0
1000000 1829 -3731 -4020 -4086 -4411 -4134 0
1000000 598 -5621 -4273 -5142 -5500 0
1000000 1830 -5621 -4273 -5142 -5500 0
1000000 194 -5866 -4686 -4892 -4819 0
1000000 1831 -5866 -4686 -4892 -4819 0
1000000 805 -3670 -4607 0
1000000 1832 -3670 -4607 0
1000000 419 -4240 -6083 -5165 -6201 0
1000000 1833 -4240 -6083 -5165 -6201 0
1000000 764 -5513 -5869 -4484 0
1000000 1834 -5513 -5869 -4484 0
1000000 551 -3537 -3415 -4689 -832 0
1000000 1835 -3537 -3415 -4689 -832 0
1000000 918 -3887 -6281 -3604 -5613 -920 0
1000000 1836 -3887 -6281 -3604 -5613 -920 0
1000000 968 -3638 -5870 -6316 -5797 -975 0
1000000 1837 -3638 -5870 -6316 -5797 -975 0
1000000 807 -4237 -6123 -4125 -3901 -3449 0
1000000 1838 -4237 -6123 -4125 -3901 -3449 0
1000000 872 -4729 -5201 -5602 -5073 -960 0
1000000 1839 -4729 -5201 -5602 -5073 -960 0
1000000 480 -3590 -3445 0
1000000 1840 -3590 -3445 0
1000000 532 -5458 -870 0
1000000 1841 -5458 -870 0
1000000 777 -5050 -5836 -4844 -4769 0
1000000 1842 -5050 -5836 -4844 -4769 0
1000000 721 -5747 -4888 -5708 -4603 -3913 0
1000000 1843 -5747 -4888 -5708 -4603 -3913 0
1000000 352 -5849 -3642 -3732 -4842 -5616 0
1000000 1844 -5849 -3642 -3732 -4842 -5616 0
1000000 25 -4697 -6390 -5219 -5448 0
1000000 1845 -4697 -6390 -5219 -5448 0
1000000 504 -5491 -4178 -5650 -4783 0
1000000 1846 -5491 -4178 -5650 -4783 0
1000000 483 -4171 -4482 -3998 -5360 0
1000000 1847 -4171 -4482 -3998 -5360 0
1000000 944 -4758 -6357 -6069 -4991 -4374 0
1000000 1848 -4758 -6357 -6069 -4991 -4374 0
1000000 185 -5249 -4854 -3902 -4809 0
1000000 1849 -5249 -4854 -3902 -4809 0
1000000 295 -4340 -4812 -4535 -5417 0
1000000 1850 -4340 -4812 -4535 -5417 0
1000000 242 -5732 -5827 0
1000000 1851 -5732 -5827 0
1000000 18 -5869 -6135 0
1000000 1852 -5869 -6135 0
1000000 475 -5771 -4455 -4767 0
1000000 1853 -5771 -4455 -4767 0
1000000 727 -6240 -5712 -993 0
1000000 1854 -6240 -5712 -993 0
1000000 595 -4597 -4990 -5432 -6213 0
1000000 1855 -4597 -4990 -5432 -6213 0
1000000 748 -4153 -6351 -4299 -3404 -6345 0
1000000 1856 -4153 -6351 -4299 -3404 -6345 0
1000000 153 -3427 -4367 -3980 0
1000000 1857 -3427 -4367 -3980 0
1000000 808 -3572 -4171 -5044 -4424 -5857 0
1000000 1858 -3572 -4171 -5044 -4424 -5857 0
1000000 181 -5076 -3960 -4497 -5411 0
1000000 1859 -5076 -3960 -4497 -5411 0
1000000 330 -4281 -5420 -500 0
1000000 1860 -4281 -5420 -500 0
1000000 331 -3745 -4218 -467 0
1000000 1861 -3745 -4218 -467 0
1000000 979 -4473 -4600 0
1000000 1862 -4473 -4600 0
1000000 988 -5661 -4510 -4102 0
1000000 1863 -5661 -4510 -4102 0
1000000 253 -3743 -5281 -5997 0
1000000 1864 -3743 -5281 -5997 0
1000000 404 -6374 -4871 -4019 -6392 0
1000000 1865 -6374 -4871 -4019 -6392 0
1000000 885 -6094 -4738 -4283 -5335 0
1000000 1866 -6094 -4738 -4283 -5335 0
1000000 274 -3533 -5993 -5188 -5453 -5483 0
1000000 1867 -3533 -5993 -5188 -5453 -5483 0
1000000 594 -5110 -5211 -3759 0
1000000 1868 -5110 -5211 -3759 0
1000000 205 -4461 -6037 -4233 -6300 -3501 0
1000000 1869 -4461 -6037 -4233 -6300 -3501 0
1000000 119 -6173 -5172 0
1000000 1870 -6173 -5172 0
1000000 127 -5567 -5698 -5936 -5903 -6047 0
1000000 1871 -5567 -5698 -5936 -5903 -6047 0
1000000 282 -4983 -3689 -6306 -5182 -779 0
1000000 1872 -4983 -3689 -6306 -5182 -779 0
1000000 183 -4438 -3950 -3882 -260 0
1000000 1873 -4438 -3950 -3882 -260 0
1000000 163 -3679 -4289 -5304 -5792 -4304 0
1000000 1874 -3679 -4289 -5304 -5792 -4304 0
1000000 12 -4876 -3619 -5491 -412 0
1000000 1875 -4876 -3619 -5491 -412 0
1000000 234 -3931 -4620 -4990 -3710 0
1000000 1876 -3931 -4620 -4990 -3710 0
1000000 524 -4807 -6099 0
1000000 1877 -4807 -6099 0
1000000 504 -4293 -6178 -4254 -6193 0
1000000 1878 -4293 -6178 -4254 -6193 0
1000000 551 -6395 -4732 -6381 -5445 0
1000000 1879 -6395 -4732 -6381 -5445 0
1000000 10 -5321 -5112 -645 0
1000000 1880 -5321 -5112 -645 0
1000000 355 -5705 -5778 -3678 -5125 0
1000000 1881 -5705 -5778 -3678 -5125 0
1000000 35 -5571 -5888 -5594 -4067 0
1000000 1882 -5571 -5888 -5594 -4067 0
1000000 943 -3783 -5282 -5429 0
1000000 1883 -3783 -5282 -5429 0
1000000 407 -5519 -4189 0
1000000 1884 -5519 -4189 0
1000000 465 -3738 -5724 0
1000000 1885 -3738 -5724 0
1000000 612 -3704 -3471 -5322 0
1000000 1886 -3704 -3471 -5322 0
1000000 952 -5393 -4016 -4912 -4621 -6150 0
1000000 1887 -5393 -4016 -4912 -4621 -6150 0
1000000 602 -4462 -6032 -5740 -5450 -4095 0
1000000 1888 -4462 -6032 -5740 -5450 -4095 0
1000000 899 -5510 -926 0
1000000 1889 -5510 -926 0
1000000 820 -3871 -4922 -982 0
1000000 1890 -3871 -4922 -982 0
1000000 400 -4979 -5783 0
1000000 1891 -4979 -5783 0
1000000 645 -4897 -3884 -4599 -3723 0
1000000 1892 -4897 -3884 -4599 -3723 0
1000000 687 -5878 -5995 -4353 0
1000000 1893 -5878 -5995 -4353 0
1000000 371 -5011 -4084 0
1000000 1894 -5011 -4084 0
1000000 907 -6302 -6391 -5378 -6324 0
1000000 1895 -6302 -6391 -5378 -6324 0
1000000 537 -4358 -4952 -5950 0
1000000 1896 -4358 -4952 -5950 0
1000000 468 -5859 -4712 -5133 -4090 -4799 0
1000000 1897 -5859 -4712 -5133 -4090 -4799 0
1000000 630 -3918 -5084 0
1000000 1898 -3918 -5084 0
1000000 722 -4559 -4078 -886 0
1000000 1899 -4559 -4078 -886 0
1000000 417 -6006 -4668 -4988 -5683 -3814 0
1000000 1900 -6006 -4668 -4988 -5683 -3814 0
1000000 543 -4101 -5091 -4657 0
1000000 1901 -4101 -5091 -4657 0
1000000 167 -6005 -4390 -4719 -5648 0
1000000 1902 -6005 -4390 -4719 -5648 0
1000000 315 -3742 -523 0
1000000 1903 -3742 -523 0
1000000 600 -6203 -3878 -5074 -6288 -4107 0
1000000 1904 -6203 -3878 -5074 -6288 -4107 0
1000000 361 -4136 -6267 -5068 -4182 0
1000000 1905 -4136 -6267 -5068 -4182 0
1000000 776 -4046 -6203 -5007 -3572 -4687 0
1000000 1906 -4046 -6203 -5007 -3572 -4687 0
1000000 420 -4085 -6080 0
1000000 1907 -4085 -6080 0
1000000 765 -3604 -3755 0
1000000 1908 -3604 -3755 0
1000000 895 -4511 -942 0
1000000 1909 -4511 -942 0
1000000 948 -5610 -5803 0
1000000 1910 -5610 -5803 0
1000000 271 -5437 -3605 -5143 -382 0
1000000 1911 -5437 -3605 -5143 -382 0
1000000 624 -5461 -4427 0
1000000 1912 -5461 -4427 0
1000000 191 -4701 -4352 -663 0
1000000 1913 -4701 -4352 -663 0
1000000 876 -4661 -3560 -3805 -895 0
1000000 1914 -4661 -3560 -3805 -895 0
1000000 894 -4904 -4442 -3491 -3886 -3901 0
1000000 1915 -4904 -4442 -3491 -3886 -3901 0
1000000 133 -5927 -4958 -4547 0
1000000 1916 -5927 -4958 -4547 0
1000000 884 -4810 -4589 -4319 0
1000000 1917 -4810 -4589 -4319 0
1000000 353 -6038 -5597 -5592 -3513 -537 0
1000000 1918 -6038 -5597 -5592 -3513 -537 0
1000000 108 -4211 -6163 -5840 -215 0
1000000 1919 -4211 -6163 -5840 -215 0
1000000 633 -4833 -5188 -4598 0
1000000 1920 -4833 -5188 -4598 0
1000000 719 -3406 -4808 -5414 -4213 0
1000000 1921 -3406 -4808 -5414 -4213 0
1000000 718 -4573 -3755 -5029 -4020 0
1000000 1922 -4573 -3755 -5029 -4020 0
1000000 747 -5785 -6034 -3528 0
1000000 1923 -5785 -6034 -3528 0
1000000 209 -5174 -4470 -5540 0
1000000 1924 -5174 -4470 -5540 0
1000000 601 -4798 -6206 -6115 -983 0
1000000 1925 -4798 -6206 -6115 -983 0
1000000 144 -5776 -4599 0
1000000 1926 -5776 -4599 0
1000000 125 -4689 -5885 -6059 -3908 -130 0
1000000 1927 -4689 -5885 -6059 -3908 -130 0
1000000 841 -5458 -6179 0
1000000 1928 -5458 -6179 0
1000000 412 -6044 -4372 -5206 0
1000000 1929 -6044 -4372 -5206 0
1000000 147 -4578 -3906 0
1000000 1930 -4578 -3906 0
1000000 537 -4523 -4354 0
1000000 1931 -4523 -4354 0
1000000 265 -4053 -5480 -4894 0
1000000 1932 -4053 -5480 -4894 0
1000000 964 -5692 -6385 -4183 -4296 -4076 0
1000000 1933 -5692 -6385 -4183 -4296 -4076 0
1000000 11 -4224 -4982 0
1000000 1934 -4224 -4982 0
1000000 86 -5666 -4993 -5669 -5536 -4595 0
1000000 1935 -5666 -4993 -5669 -5536 -4595 0
1000000 268 -4373 -5300 -4069 -3904 -4061 0
1000000 1936 -4373 -5300 -4069 -3904 -4061 0
1000000 123 -5147 -4361 -5135 -6026 -5534 0
1000000 1937 -5147 -4361 -5135 -6026 -5534 0
1000000 49 -5248 -4260 -5900 -5197 -400 0
1000000 1938 -5248 -4260 -5900 -5197 -400 0
1000000 642 -4578 -6370 -4440 0
1000000 1939 -4578 -6370 -4440 0
1000000 89 -4580 -5301 -4440 -6112 0
1000000 1940 -4580 -5301 -4440 -6112 0
1000000 505 -4148 -3518 0
1000000 1941 -4148 -3518 0
1000000 193 -3494 -5583 -5400 -4631 0
1000000 1942 -3494 -5583 -5400 -4631 0
1000000 901 -6248 -3466 -3726 -5449 0
1000000 1943 -6248 -3466 -3726 -5449 0
1000000 556 -4276 -6114 -3969 -5636 0
1000000 1944 -4276 -6114 -3969 -5636 0
1000000 238 -5096 -4763 -4157 -3892 0
1000000 1945 -5096 -4763 -4157 -3892 0
1000000 762 -4759 -6343 -5747 -3944 -4384 0
1000000 1946 -4759 -6343 -5747 -3944 -4384 0
1000000 777 -3730 -6055 0
1000000 1947 -3730 -6055 0
1000000 48 -5537 -4814 -4785 -393 0
1000000 1948 -5537 -4814 -4785 -393 0
1000000 673 -5940 -4843 -4477 -4928 0
1000000 1949 -5940 -4843 -4477 -4928 0
1000000 802 -5732 -3712 -4396 -4181 -930 0
1000000 1950 -5732 -3712 -4396 -4181 -930 0
1000000 739 -5230 -4762 0
1000000 1951 -5230 -4762 0
1000000 344 -3775 -3801 -3435 -4362 -3656 0
1000000 1952 -3775 -3801 -3435 -4362 -3656 0
1000000 832 -3815 -897 0
1000000 1953 -3815 -897 0
1000000 59 -4576 -3466 -5601 -5744 -5480 0
1000000 1954 -4576 -3466 -5601 -5744 -5480 0
1000000 545 -6076 -5559 -4673 -3734 -3510 0
1000000 1955 -6076 -5559 -4673 -3734 -3510 0
1000000 520 -5582 -5341 -4727 -5011 0
1000000 1956 -5582 -5341 -4727 -5011 0
1000000 36 -6265 -5832 -4989 -6395 -5918 0
1000000 1957 -6265 -5832 -4989 -6395 -5918 0
1000000 916 -4503 -4321 -5045 0
1000000 1958 -4503 -4321 -5045 0
1000000 169 -4975 -703 0
1000000 1959 -4975 -703 0
1000000 316 -6071 -4954 0
1000000 1960 -6071 -4954 0
1000000 235 -5530 -5053 -3781 -4538 -6031 0
1000000 1961 -5530 -5053 -3781 -4538 -6031 0
1000000 786 -5203 -5273 -3691 -4083 0
1000000 1962 -5203 -5273 -3691 -4083 0
1000000 662 -4067 -6189 -4878 -4072 -4381 0
1000000 1963 -4067 -6189 -4878 -4072 -4381 0
1000000 940 -5788 -972 0
1000000 1964 -5788 -972 0
1000000 653 -4701 -4843 -3680 -3787 -921 0
1000000 1965 -4701 -4843 -3680 -3787 -921 0
1000000 693 -5372 -3402 0
1000000 1966 -5372 -3402 0
1000000 943 -4170 -3655 -3403 0
1000000 1967 -4170 -3655 -3403 0
1000000 369 -4860 -4826 -4057 -4506 -4651 0
1000000 1968 -4860 -4826 -4057 -4506 -4651 0
1000000 613 -5778 -3435 0
1000000 1969 -5778 -3435 0
1000000 338 -4687 -4346 -5251 -3900 -3629 0
1000000 1970 -4687 -4346 -5251 -3900 -3629 0
1000000 248 -6193 -4423 0
1000000 1971 -6193 -4423 0
1000000 829 -3760 -4420 -4608 -5955 0
1000000 1972 -3760 -4420 -4608 -5955 0
1000000 232 -4270 -5870 -4485 -3948 0
1000000 1973 -4270 -5870 -4485 -3948 0
1000000 215 -3486 -5073 0
1000000 1974 -3486 -5073 0
1000000 767 -3424 -5865 -5533 0
1000000 1975 -3424 -5865 -5533 0
1000000 391 -5582 -3961 -3483 -4373 -477 0
1000000 1976 -5582 -3961 -3483 -4373 -477 0
1000000 656 -5573 -3583 0
1000000 1977 -5573 -3583 0
1000000 533 -5130 -4333 0
1000000 1978 -5130 -4333 0
1000000 785 -5158 -4003 0
1000000 1979 -5158 -4003 0
1000000 625 -6260 -4577 -4764 -4547 0
1000000 1980 -6260 -4577 -4764 -4547 0
1000000 651 -5925 -5694 -5554 0
1000000 1981 -5925 -5694 -5554 0
1000000 66 -3829 -669 0
1000000 1982 -3829 -669 0
1000000 654 -5668 -4224 -5345 -5570 -4281 0
1000000 1983 -5668 -4224 -5345 -5570 -4281 0
1000000 206 -5480 -4512 -5758 -4418 0
1000000 1984 -5480 -4512 -5758 -4418 0
1000000 586 -3730 -5691 -4766 -4782 -5692 0
1000000 1985 -3730 -5691 -4766 -4782 -5692 0
1000000 676 -5128 -4756 -5466 -5287 0
1000000 1986 -5128 -4756 -5466 -5287 0
1000000 32 -4315 -4122 -5327 -4845 0
1000000 1987 -4315 -4122 -5327 -4845 0
1000000 999 -5604 -4158 -4126 0
1000000 1988 -5604 -4158 -4126 0
1000000 710 -3921 -5531 -975 0
1000000 1989 -3921 -5531 -975 0
1000000 959 -5214 -5993 0
1000000 1990 -5214 -5993 0
1000000 743 -4921 -887 0
1000000 1991 -4921 -887 0
1000000 297 -3455 -5848 -4879 0
1000000 1992 -3455 -5848 -4879 0
1000000 275 -6000 -4761 0
1000000 1993 -6000 -4761 0
1000000 130 -4991 -5124 -5836 0
1000000 1994 -4991 -5124 -5836 0
1000000 843 -6074 -5416 -5021 -966 0
1000000 1995 -6074 -5416 -5021 -966 0
1000000 550 -6221 -5731 -693 0
1000000 1996 -6221 -5731 -693 0
1000000 479 -5671 -5528 -5608 -5699 -499 0
1000000 1997 -5671 -5528 -5608 -5699 -499 0
1000000 842 -4853 -3878 -6323 0
1000000 1998 -4853 -3878 -6323 0
1000000 475 -4116 -6035 -5701 -5815 -6102 0
1000000 1999 -4116 -6035 -5701 -5815 -6102 0
1000000 7 -4962 -6109 -5627 -4983 -6379 0
1000000 2000 -4962 -6109 -5627 -4983 -6379 0
1000000 148 -4143 -680 0
1000000 2001 -4143 -680 0
1000000 785 -5352 -3478 -985 0
1000000 2002 -5352 -3478 -985 0
1000000 752 -4046 -6182 0
1000000 2003 -4046 -6182 0
1000000 400 -4707 -6040 -4071 -609 0
1000000 2004 -4707 -6040 -4071 -609 0
1000000 694 -6132 -5356 -981 0
1000000 2005 -6132 -5356 -981 0
1000000 966 -3780 -4976 -4116 0
1000000 2006 -3780 -4976 -4116 0
1000000 342 -5128 -646 0
1000000 2007 -5128 -646 0
1000000 194 -4195 -5494 -5532 -3732 -4405 0
1000000 2008 -4195 -5494 -5532 -3732 -4405 0
1000000 833 -3803 -4750 0
1000000 2009 -3803 -4750 0
1000000 665 -4170 -5756 -5492 -3879 0
1000000 2010 -4170 -5756 -5492 -3879 0
1000000 92 -5211 -4397 -4619 0
1000000 2011 -5211 -4397 -4619 0
1000000 578 -5160 -6037 -5203 -4624 0
1000000 2012 -5160 -6037 -5203 -4624 0
1000000 708 -4439 -6371 0
1000000 2013 -4439 -6371 0
1000000 949 -3789 -4882 -4786 -5574 -975 0
1000000 2014 -3789 -4882 -4786 -5574 -975 0
1000000 458 -4274 -3894 -3860 -4051 0
1000000 2015 -4274 -3894 -3860 -4051 0
1000000 851 -3709 -5317 -3604 0
1000000 2016 -3709 -5317 -3604 0
1000000 535 -6006 -5273 -4893 -5931 -5744 0
1000000 2017 -6006 -5273 -4893 -5931 -5744 0
1000000 484 -4365 -5102 -4061 -5547 -4979 0
1000000 2018 -4365 -5102 -4061 -5547 -4979 0
1000000 510 -4727 -4092 -6007 -5511 0
1000000 2019 -4727 -4092 -6007 -5511 0
1000000 742 -5895 -5920 0
1000000 2020 -5895 -5920 0
1000000 621 -3478 -4502 -5318 -4814 -938 0
1000000 2021 -3478 -4502 -5318 -4814 -938 0
1000000 105 -5493 -5427 -115 0
1000000 2022 -5493 -5427 -115 0
1000000 502 -3829 -3817 -3632 -5370 0
1000000 2023 -3829 -3817 -3632 -5370 0
1000000 490 -6285 -5748 -4855 0
1000000 2024 -6285 -5748 -4855 0
1000000 573 -4357 -5748 -3733 0
1000000 2025 -4357 -5748 -3733 0
1000000 440 -5391 -947 0
1000000 2026 -5391 -947 0
1000000 54 -4854 -3449 -4573 -6107 -675 0
1000000 2027 -4854 -3449 -4573 -6107 -675 0
1000000 552 -3547 -5345 -4093 0
1000000 2028 -3547 -5345 -4093 0
1000000 807 -6081 -6227 -5726 -5615 -891 0
1000000 2029 -6081 -6227 -5726 -5615 -891 0
1000000 683 -4307 -3828 -3894 -6324 0
1000000 2030 -4307 -3828 -3894 -6324 0
1000000 227 -5583 -5154 -4022 0
1000000 2031 -5583 -5154 -4022 0
1000000 113 -4713 -4631 -5357 -507 0
1000000 2032 -4713 -4631 -5357 -507 0
1000000 337 -5164 -5331 -999 0
1000000 2033 -5164 -5331 -999 0
1000000 670 -4077 -4443 -5030 0
1000000 2034 -4077 -4443 -5030 0
1000000 442 -5086 -6339 -4873 0
1000000 2035 -5086 -6339 -4873 0
1000000 901 -3980 -974 0
1000000 2036 -3980 -974 0
1000000 892 -3783 -907 0
1000000 2037 -3783 -907 0
1000000 716 -5872 -5052 0
1000000 2038 -5872 -5052 0
1000000 308 -5217 -5698 0
1000000 2039 -5217 -5698 0
1000000 393 -3587 -5891 0
1000000 2040 -3587 -5891 0
1000000 338 -4813 -5430 -4643 -5099 0
1000000 2041 -4813 -5430 -4643 -5099 0
1000000 659 -6022 -5993 -928 0
1000000 2042 -6022 -5993 -928 0
1000000 684 -4463 -6173 -5695 -3742 -6353 0
1000000 2043 -4463 -6173 -5695 -3742 -6353 0
1000000 399 -4359 -6150 -6166 -6225 -4733 0
1000000 2044 -4359 -6150 -6166 -6225 -4733 0
1000000 891 -4907 -5761 -5693 -3910 0
1000000 2045 -4907 -5761 -5693 -3910 0
1000000 376 -5766 -4931 -5469 0
1000000 2046 -5766 -4931 -5469 0
1000000 753 -3753 -4063 0
1000000 2047 -3753 -4063 0
1000000 28 -4032 -5261 -4484 0
1000000 2048 -4032 -5261 -4484 0
1000000 783 -5578 -4612 -3627 -903 0
1000000 2049 -5578 -4612 -3627 -903 0
1000000 909 -4244 -4989 -4926 0
1000000 2050 -4244 -4989 -4926 0
1000000 81 -3484 -3780 0
1000000 2051 -3484 -3780 0
1000000 796 -5719 -4803 0
1000000 2052 -5719 -4803 0
1000000 794 -4928 -3771 -6141 -4501 -989 0
1000000 2053 -4928 -3771 -6141 -4501 -989 0
1000000 681 -6211 -6124 -3707 0
1000000 2054 -6211 -6124 -3707 0
1000000 761 -4593 -5446 -5861 -4984 0
1000000 2055 -4593 -5446 -5861 -4984 0
1000000 703 -5624 -6136 -5792 -5854 0
1000000 2056 -5624 -6136 -5792 -5854 0
1000000 315 -5828 -3763 -616 0
1000000 2057 -5828 -3763 -616 0
1000000 988 -4049 -5924 -6134 -4946 -5391 0
1000000 2058 -4049 -5924 -6134 -4946 -5391 0
1000000 774 -5736 -3643 -4807 -5748 0
1000000 2059 -5736 -3643 -4807 -5748 0
1000000 503 -3974 -5902 -5292 -4166 -4676 0
1000000 2060 -3974 -5902 -5292 -4166 -4676 0
1000000 586 -6322 -4392 -5911 -5969 0
1000000 2061 -6322 -4392 -5911 -5969 0
1000000 719 -4859 -4919 -6080 -5972 -6174 0
1000000 2062 -4859 -4919 -6080 -5972 -6174 0
1000000 876 -4726 -4662 -5205 -898 0
1000000 2063 -4726 -4662 -5205 -898 0
1000000 147 -3518 -5150 -4134 -4194 -653 0
1000000 2064 -3518 -5150 -4134 -4194 -653 0
1000000 108 -5504 -5007 -6167 -5100 -6348 0
1000000 2065 -5504 -5007 -6167 -5100 -6348 0
1000000 385 -6385 -4835 -4639 -3574 -561 0
1000000 2066 -6385 -4835 -4639 -3574 -561 0
1000000 29 -5893 -4179 -4671 0
1000000 2067 -5893 -4179 -4671 0
1000000 822 -5293 -3778 -862 0
1000000 2068 -5293 -3778 -862 0
1000000 914 -4348 -5482 -5867 -5390 0
1000000 2069 -4348 -5482 -5867 -5390 0
1000000 570 -5376 -5158 -828 0
1000000 2070 -5376 -5158 -828 0
1000000 856 -3990 -5443 -4686 0
1000000 2071 -3990 -5443 -4686 0
1000000 844 -5873 -3835 -3547 -3484 -4094 0
1000000 2072 -5873 -3835 -3547 -3484 -4094 0
1000000 385 -4447 -441 0
1000000 2073 -4447 -441 0
1000000 767 -5231 -5063 -3757 -4059 -3809 0
1000000 2074 -5231 -5063 -3757 -4059 -3809 0
1000000 796 -3898 -5620 -3496 -4598 -5206 0
1000000 2075 -3898 -5620 -3496 -4598 -5206 0
1000000 393 -4126 -5656 0
1000000 2076 -4126 -5656 0
1000000 984 -5264 -5337 -5422 0
1000000 2077 -5264 -5337 -5422 0
1000000 116 -4602 -5008 -4633 0
1000000 2078 -4602 -5008 -4633 0
1000000 929 -5551 -3453 -3408 -4735 -946 0
1000000 2079 -5551 -3453 -3408 -4735 -946 0
1000000 594 -4138 -3885 0
1000000 2080 -4138 -3885 0
1000000 762 -4604 -4221 0
1000000 2081 -4604 -4221 0
1000000 998 -4609 -4844 -5098 -3906 -5349 0
1000000 2082 -4609 -4844 -5098 -3906 -5349 0
1000000 828 -5285 -4617 -5966 -4520 -4115 0
1000000 2083 -5285 -4617 -5966 -4520 -4115 0
1000000 452 -5628 -6161 0
1000000 2084 -5628 -6161 0
1000000 146 -3681 -4174 -5818 -5636 -350 0
1000000 2085 -3681 -4174 -5818 -5636 -350 0
1000000 245 -6245 -6259 -4101 -3960 0
1000000 2086 -6245 -6259 -4101 -3960 0
1000000 351 -4816 -6361 -4829 -6348 0
1000000 2087 -4816 -6361 -4829 -6348 0
1000000 563 -3555 -4316 -4177 -4246 0
1000000 2088 -3555 -4316 -4177 -4246 0
1000000 865 -5898 -5605 -5740 0
1000000 2089 -5898 -5605 -5740 0
1000000 491 -5676 -5698 0
1000000 2090 -5676 -5698 0
1000000 666 -6302 -5071 -4134 -4631 0
1000000 2091 -6302 -5071 -4134 -4631 0
1000000 932 -4482 -3574 -966 0
1000000 2092 -4482 -3574 -966 0
1000000 279 -6054 -3995 -5905 -4251 0
1000000 2093 -6054 -3995 -5905 -4251 0
1000000 600 -6008 -3903 -3630 -6390 0
1000000 2094 -6008 -3903 -3630 -6390 0
1000000 222 -3577 -3408 -345 0
1000000 2095 -3577 -3408 -345 0
1000000 838 -5221 -4817 -3544 -5373 0
1000000 2096 -5221 -4817 -3544 -5373 0
1000000 153 -5018 -3814 0
1000000 2097 -5018 -3814 0
1000000 327 -6325 -6205 -6045 -6100 0
1000000 2098 -6325 -6205 -6045 -6100 0
1000000 598 -3610 -5412 -4633 0
1000000 2099 -3610 -5412 -4633 0
1000000 76 -3936 -4377 -5730 0
1000000 2100 -3936 -4377 -5730 0
1000000 500 -3819 -4416 -3530 0
1000000 2101 -3819 -4416 -3530 0
1000000 280 -5997 -4032 -4189 0
1000000 2102 -5997 -4032 -4189 0
1000000 377 -4478 -4771 -5915 0
1000000 2103 -4478 -4771 -5915 0
1000000 686 -3952 -6233 0
1000000 2104 -3952 -6233 0
1000000 201 -4291 -4829 -3466 -4661 -5002 0
1000000 2105 -4291 -4829 -3466 -4661 -5002 0
1000000 202 -4043 -6348 -5642 -3716 -461 0
1000000 2106 -4043 -6348 -5642 -3716 -461 0
1000000 110 -5542 -3821 -5505 -6011 -4658 0
1000000 2107 -5542 -3821 -5505 -6011 -4658 0
1000000 351 -5607 -5518 0
1000000 2108 -5607 -5518 0
1000000 952 -5438 -5306 -4475 0
1000000 2109 -5438 -5306 -4475 0
1000000 704 -3566 -4552 -3825 -752 0
1000000 2110 -3566 -4552 -3825 -752 0
1000000 208 -5733 -5121 -4289 -4741 0
1000000 2111 -5733 -5121 -4289 -4741 0
1000000 744 -5574 -4418 -5149 -4143 -998 0
1000000 2112 -5574 -4418 -5149 -4143 -998 0
1000000 438 -5214 -4128 -6361 -3898 -634 0
1000000 2113 -5214 -4128 -6361 -3898 -634 0
1000000 859 -3445 -4385 -4631 -6075 -5216 0
1000000 2114 -3445 -4385 -4631 -6075 -5216 0
1000000 246 -6051 -3651 0
1000000 2115 -6051 -3651 0
1000000 220 -3456 -4305 -3679 -5387 -250 0
1000000 2116 -3456 -4305 -3679 -5387 -250 0
1000000 842 -5813 -3915 -5444 -3965 0
1000000 2117 -5813 -3915 -5444 -3965 0
1000000 555 -5673 -4787 -5613 0
1000000 2118 -5673 -4787 -5613 0
1000000 648 -5670 -3593 -5959 -5363 -4371 0
1000000 2119 -5670 -3593 -5959 -5363 -4371 0
1000000 662 -4724 -5765 0
1000000 2120 -4724 -5765 0
1000000 769 -4709 -6270 0
1000000 2121 -4709 -6270 0
1000000 41 -5188 -3870 0
1000000 2122 -5188 -3870 0
1000000 414 -6365 -5329 0
1000000 2123 -6365 -5329 0
1000000 567 -5462 -5330 -4947 -4894 0
1000000 2124 -5462 -5330 -4947 -4894 0
1000000 982 -5415 -5710 -4207 -5629 0
1000000 2125 -5415 -5710 -4207 -5629 0
1000000 604 -6227 -3979 -4405 0
1000000 2126 -6227 -3979 -4405 0
1000000 589 -4665 -4102 -4077 0
1000000 2127 -4665 -4102 -4077 0
1000000 424 -5260 -6240 -3480 -5552 0
1000000 2128 -5260 -6240 -3480 -5552 0
1000000 790 -5208 -4994 0
1000000 2129 -5208 -4994 0
1000000 980 -4257 -5007 -6238 -5091 -4592 0
1000000 2130 -4257 -5007 -6238 -5091 -4592 0
1000000 941 -3983 -4851 -3507 -4242 0
1000000 2131 -3983 -4851 -3507 -4242 0
1000000 911 -6168 -4718 -5853 -6148 -5357 0
1000000 2132 -6168 -4718 -5853 -6148 -5357 0
1000000 994 -5689 -6161 -3723 0
1000000 2133 -5689 -6161 -3723 0
1000000 623 -3960 -919 0
1000000 2134 -3960 -919 0
1000000 574 -5028 -3590 -6370 -5136 0
1000000 2135 -5028 -3590 -6370 -5136 0
1000000 194 -5204 -5921 -4559 0
1000000 2136 -5204 -5921 -4559 0
1000000 767 -4561 -4927 0
1000000 2137 -4561 -4927 0
1000000 714 -5021 -5585 -5503 -4578 -6362 0
1000000 2138 -5021 -5585 -5503 -4578 -6362 0
1000000 826 -6170 -4037 -3421 -6098 -866 0
1000000 2139 -6170 -4037 -3421 -6098 -866 0
1000000 245 -4976 -5018 -4674 -3810 -5628 0
1000000 2140 -4976 -5018 -4674 -3810 -5628 0
1000000 465 -5490 -5116 0
1000000 2141 -5490 -5116 0
1000000 667 -4930 -4100 0
1000000 2142 -4930 -4100 0
1000000 690 -4632 -3724 -5167 0
1000000 2143 -4632 -3724 -5167 0
1000000 730 -3777 -4890 -5349 -4060 -3854 0
1000000 2144 -3777 -4890 -5349 -4060 -3854 0
1000000 493 -3470 -4158 -6316 -3630 -725 0
1000000 2145 -3470 -4158 -6316 -3630 -725 0
1000000 490 -3653 -5492 0
1000000 2146 -3653 -5492 0
1000000 754 -4942 -3969 0
1000000 2147 -4942 -3969 0
1000000 772 -5675 -4347 -6294 -4397 -5277 0
1000000 2148 -5675 -4347 -6294 -4397 -5277 0
1000000 640 -4679 -3444 -5727 0
1000000 2149 -4679 -3444 -5727 0
1000000 718 -5778 -5114 -4985 -5670 -885 0
1000000 2150 -5778 -5114 -4985 -5670 -885 0
1000000 741 -6173 -3600 0
1000000 2151 -6173 -3600 0
1000000 387 -5509 -5194 0
1000000 2152 -5509 -5194 0
1000000 389 -5137 -6303 -6229 0
1000000 2153 -5137 -6303 -6229 0
1000000 88 -4872 -6111 0
1000000 2154 -4872 -6111 0
1000000 745 -5572 -6019 -3885 -5059 -5851 0
1000000 2155 -5572 -6019 -3885 -5059 -5851 0
1000000 174 -4502 -3907 -5812 -4841 0
1000000 2156 -4502 -3907 -5812 -4841 0
1000000 365 -5843 -5443 -5472 0
1000000 2157 -5843 -5443 -5472 0
1000000 635 -4571 -5572 -4484 -6111 -4819 0
1000000 2158 -4571 -5572 -4484 -6111 -4819 0
1000000 760 -3935 -5818 -3652 0
1000000 2159 -3935 -5818 -3652 0
1000000 195 -4864 -6191 -4869 -5673 -3623 0
1000000 2160 -4864 -6191 -4869 -5673 -3623 0
1000000 71 -5494 -5598 -5085 0
1000000 2161 -5494 -5598 -5085 0
1000000 139 -6237 -4577 -3718 -4344 -4501 0
1000000 2162 -6237 -4577 -3718 -4344 -4501 0
1000000 930 -4037 -4940 -5303 -3836 -3996 0
1000000 2163 -4037 -4940 -5303 -3836 -3996 0
1000000 341 -4885 -6341 -6087 -4879 0
1000000 2164 -4885 -6341 -6087 -4879 0
1000000 122 -3881 -5342 0
1000000 2165 -3881 -5342 0
1000000 32 -3759 -4048 -6284 -5050 -631 0
1000000 2166 -3759 -4048 -6284 -5050 -631 0
1000000 366 -5455 -5109 -5924 -4281 -4661 0
1000000 2167 -5455 -5109 -5924 -4281 -4661 0
1000000 707 -4891 -3851 -5160 -4635 0
1000000 2168 -4891 -3851 -5160 -4635 0
1000000 423 -5837 -3555 -4377 -5601 -4130 0
1000000 2169 -5837 -3555 -4377 -5601 -4130 0
1000000 768 -4422 -5035 -6346 -4288 -5450 0
1000000 2170 -4422 -5035 -6346 -4288 -5450 0
1000000 572 -4545 -3677 -4779 -4798 -4927 0
1000000 2171 -4545 -3677 -4779 -4798 -4927 0
1000000 626 -4578 -5573 0
1000000 2172 -4578 -5573 0
1000000 140 -3975 -5663 -3859 -4057 -998 0
1000000 2173 -3975 -5663 -3859 -4057 -998 0
1000000 171 -5126 -4168 -3888 0
1000000 2174 -5126 -4168 -3888 0
1000000 981 -4074 -6121 -3526 0
1000000 2175 -4074 -6121 -3526 0
1000000 906 -6068 -4105 -3738 -6125 -4058 0
1000000 2176 -6068 -4105 -3738 -6125 -4058 0
1000000 882 -3599 -4175 -5077 -4020 -998 0
1000000 2177 -3599 -4175 -5077 -4020 -998 0
1000000 755 -5181 -3891 -6086 -5910 -4040 0
1000000 2178 -5181 -3891 -6086 -5910 -4040 0
1000000 584 -4951 -5343 0
1000000 2179 -4951 -5343 0
1000000 964 -3625 -3687 0
1000000 2180 -3625 -3687 0
1000000 579 -6217 -5498 0
1000000 2181 -6217 -5498 0
1000000 159 -6228 -3726 0
1000000 2182 -6228 -3726 0
1000000 599 -5707 -4593 -5015 -4000 0
1000000 2183 -5707 -4593 -5015 -4000 0
1000000 854 -5332 -5388 -4094 -4699 -5062 0
1000000 2184 -5332 -5388 -4094 -4699 -5062 0
1000000 699 -4049 -4637 -4896 0
1000000 2185 -4049 -4637 -4896 0
1000000 390 -5710 -5308 -4398 -4604 0
1000000 2186 -5710 -5308 -4398 -4604 0
1000000 696 -4126 -5284 -4464 -3783 -6044 0
1000000 2187 -4126 -5284 -4464 -3783 -6044 0
1000000 871 -3495 -3773 -5382 -5279 -3725 0
1000000 2188 -3495 -3773 -5382 -5279 -3725 0
1000000 485 -4844 -654 0
1000000 2189 -4844 -654 0
1000000 433 -3932 -6385 -4177 0
1000000 2190 -3932 -6385 -4177 0
1000000 886 -4456 -3895 -4553 -3997 -6237 0
1000000 2191 -4456 -3895 -4553 -3997 -6237 0
1000000 754 -3651 -6372 0
1000000 2192 -3651 -6372 0
1000000 61 -4113 -5691 -208 0
1000000 2193 -4113 -5691 -208 0
1000000 680 -4214 -4697 -5928 -3586 -714 0
1000000 2194 -4214 -4697 -5928 -3586 -714 0
1000000 511 -4640 -5388 -4367 -4118 -6226 0
1000000 2195 -4640 -5388 -4367 -4118 -6226 0
1000000 278 -5178 -4636 -3850 0
1000000 2196 -5178 -4636 -3850 0
1000000 502 -5246 -4443 -4104 0
1000000 2197 -5246 -4443 -4104 0
1000000 65 -3847 -5142 -3635 0
1000000 2198 -3847 -5142 -3635 0
1000000 587 -5533 -4315 0
1000000 2199 -5533 -4315 0
1000000 457 -4470 -688 0
1000000 2200 -4470 -688 0
1000000 418 -3997 -809 0
1000000 2201 -3997 -809 0
1000000 915 -5276 -3651 -6132 -5458 0
1000000 2202 -5276 -3651 -6132 -5458 0
1000000 209 -6083 -374 0
1000000 2203 -6083 -374 0
1000000 112 -4047 -3849 0
1000000 2204 -4047 -3849 0
1000000 137 -6195 -4952 0
1000000 2205 -6195 -4952 0
1000000 403 -6179 -3561 -3568 -4164 0
1000000 2206 -6179 -3561 -3568 -4164 0
1000000 789 -5302 -6231 -3618 -6345 0
1000000 2207 -5302 -6231 -3618 -6345 0
1000000 58 -5444 -5531 -5317 -3415 -5893 0
1000000 2208 -5444 -5531 -5317 -3415 -5893 0
1000000 664 -5802 -746 0
1000000 2209 -5802 -746 0
1000000 254 -4570 -3478 0
1000000 2210 -4570 -3478 0
1000000 60 -3417 -3738 0
1000000 2211 -3417 -3738 0
1000000 903 -6125 -4378 -3916 -5240 -3480 0
1000000 2212 -6125 -4378 -3916 -5240 -3480 0
1000000 144 -6231 -4504 -6349 -276 0
1000000 2213 -6231 -4504 -6349 -276 0
1000000 869 -4706 -4333 -4291 -4919 -4443 0
1000000 2214 -4706 -4333 -4291 -4919 -4443 0
1000000 277 -5786 -3632 -3634 0
1000000 2215 -5786 -3632 -3634 0
1000000 49 -6287 -4988 -4683 0
1000000 2216 -6287 -4988 -4683 0
1000000 988 -3670 -4741 0
1000000 2217 -3670 -4741 0
1000000 764 -3740 -3754 -4166 -4593 -6020 0
1000000 2218 -3740 -3754 -4166 -4593 -6020 0
1000000 838 -5095 -5131 -868 0
1000000 2219 -5095 -5131 -868 0
1000000 572 -3946 -754 0
1000000 2220 -3946 -754 0
1000000 231 -4783 -3574 0
1000000 2221 -4783 -3574 0
1000000 341 -5839 -5005 -3728 0
1000000 2222 -5839 -5005 -3728 0
1000000 852 -5358 -6371 -6126 -4762 0
1000000 2223 -5358 -6371 -6126 -4762 0
1000000 213 -5787 -5443 0
1000000 2224 -5787 -5443 0
1000000 526 -5059 -3960 0
1000000 2225 -5059 -3960 0
1000000 334 -5984 -3540 -5884 0
1000000 2226 -5984 -3540 -5884 0
1000000 859 -5066 -4494 -955 0
1000000 2227 -5066 -4494 -955 0
1000000 310 -3722 -3590 -6273 0
1000000 2228 -3722 -3590 -6273 0
1000000 504 -4059 -5626 -5760 -5029 0
1000000 2229 -4059 -5626 -5760 -5029 0
1000000 121 -4647 -4301 -6082 0
1000000 2230 -4647 -4301 -6082 0
1000000 965 -4768 -5780 -4152 0
1000000 2231 -4768 -5780 -4152 0
1000000 776 -5233 -3472 0
1000000 2232 -5233 -3472 0
1000000 162 -4157 -5921 -5229 -4409 -4188 0
1000000 2233 -4157 -5921 -5229 -4409 -4188 0
1000000 998 -3752 -3506 -1000 0
1000000 2234 -3752 -3506 -1000 0
1000000 489 -3828 -5614 -4126 -6244 0
1000000 2235 -3828 -5614 -4126 -6244 0
1000000 141 -3563 -5123 0
1000000 2236 -3563 -5123 0
1000000 830 -4647 -890 0
1000000 2237 -4647 -890 0
1000000 830 -5723 -5255 -5669 -4767 0
1000000 2238 -5723 -5255 -5669 -4767 0
1000000 950 -5466 -5693 -6331 -984 0
1000000 2239 -5466 -5693 -6331 -984 0
1000000 835 -5648 -4808 -4928 -5916 0
1000000 2240 -5648 -4808 -4928 -5916 0
1000000 479 -5922 -4127 -3511 -880 0
1000000 2241 -5922 -4127 -3511 -880 0
1000000 95 -6173 -3879 -4332 0
1000000 2242 -6173 -3879 -4332 0
1000000 241 -4684 -5150 -4190 -4861 0
1000000 2243 -4684 -5150 -4190 -4861 0
1000000 511 -4990 -4388 -4852 -3529 -904 0
1000000 2244 -4990 -4388 -4852 -3529 -904 0
1000000 28 -3459 -6313 0
1000000 2245 -3459 -6313 0
1000000 487 -3476 -4642 0
1000000 2246 -3476 -4642 0
1000000 655 -6041 -6387 -5755 -786 0
1000000 2247 -6041 -6387 -5755 -786 0
1000000 405 -4230 -3774 -606 0
1000000 2248 -4230 -3774 -606 0
1000000 670 -3858 -6216 -4098 -5711 0
1000000 2249 -3858 -6216 -4098 -5711 0
1000000 543 -3595 -5436 -6088 -5293 0
1000000 2250 -3595 -5436 -6088 -5293 0
1000000 406 -5085 -3821 -5255 -3984 -3597 0
1000000 2251 -5085 -3821 -5255 -3984 -3597 0
1000000 998 -5224 -6155 -5827 0
1000000 2252 -5224 -6155 -5827 0
1000000 557 -4512 -5871 -746 0
1000000 2253 -4512 -5871 -746 0
1000000 354 -5475 -5206 -4822 -5944 -4279 0
1000000 2254 -5475 -5206 -4822 -5944 -4279 0
1000000 97 -3407 -159 0
1000000 2255 -3407 -159 0
1000000 262 -3429 -3836 0
1000000 2256 -3429 -3836 0
1000000 165 -6050 -3996 -4399 -3713 0
1000000 2257 -6050 -3996 -4399 -3713 0
1000000 561 -5980 -6139 -5683 -4056 -4623 0
1000000 2258 -5980 -6139 -5683 -4056 -4623 0
1000000 519 -3675 -4746 -3964 0
1000000 2259 -3675 -4746 -3964 0
1000000 938 -5569 -3669 -5729 0
1000000 2260 -5569 -3669 -5729 0
1000000 659 -5280 -4478 -3958 -4120 0
1000000 2261 -5280 -4478 -3958 -4120 0
1000000 53 -4322 -4851 -3938 -5213 -4159 0
1000000 2262 -4322 -4851 -3938 -5213 -4159 0
1000000 306 -5145 -5171 -5598 -5253 -397 0
1000000 2263 -5145 -5171 -5598 -5253 -397 0
1000000 740 -6395 -5511 -3792 -6225 -903 0
1000000 2264 -6395 -5511 -3792 -6225 -903 0
1000000 209 -5725 -4695 0
1000000 2265 -5725 -4695 0
1000000 446 -4739 -4628 -3547 -3854 0
1000000 2266 -4739 -4628 -3547 -3854 0
1000000 776 -4251 -4088 0
1000000 2267 -4251 -4088 0
1000000 275 -6340 -3732 -749 0
1000000 2268 -6340 -3732 -749 0
1000000 867 -5880 -4698 -4686 -6105 0
1000000 2269 -5880 -4698 -4686 -6105 0
1000000 890 -5280 -5409 -6263 -4098 0
1000000 2270 -5280 -5409 -6263 -4098 0
1000000 264 -4057 -966 0
1000000 2271 -4057 -966 0
1000000 357 -5677 -5830 -5741 -5763 -5233 0
1000000 2272 -5677 -5830 -5741 -5763 -5233 0
1000000 889 -3451 -4305 -6353 -4502 -3640 0
1000000 2273 -3451 -4305 -6353 -4502 -3640 0
1000000 142 -3530 -6030 -226 0
1000000 2274 -3530 -6030 -226 0
1000000 189 -4993 -5268 -794 0
1000000 2275 -4993 -5268 -794 0
1000000 383 -4940 -4273 -5655 -542 0
1000000 2276 -4940 -4273 -5655 -542 0
1000000 585 -3507 -4608 0
1000000 2277 -3507 -4608 0
1000000 231 -4048 -5604 -512 0
1000000 2278 -4048 -5604 -512 0
1000000 693 -3668 -4135 -5677 -847 0
1000000 2279 -3668 -4135 -5677 -847 0
1000000 297 -3601 -3691 -6247 -6072 0
1000000 2280 -3601 -3691 -6247 -6072 0
1000000 958 -3432 -5212 -4684 -3637 -5582 0
1000000 2281 -3432 -5212 -4684 -3637 -5582 0
1000000 897 -5886 -3559 0
1000000 2282 -5886 -3559 0
1000000 240 -3780 -3644 -3941 -5800 -518 0
1000000 2283 -3780 -3644 -3941 -5800 -518 0
1000000 366 -3938 -4111 -4466 -734 0
1000000 2284 -3938 -4111 -4466 -734 0
1000000 375 -5348 -3652 -593 0
1000000 2285 -5348 -3652 -593 0
1000000 64 -5942 -4115 -4075 0
1000000 2286 -5942 -4115 -4075 0
1000000 971 -4649 -3826 -984 0
1000000 2287 -4649 -3826 -984 0
1000000 830 -3868 -4078 -4797 0
1000000 2288 -3868 -4078 -4797 0
1000000 196 -5502 -3452 -5746 0
1000000 2289 -5502 -3452 -5746 0
1000000 681 -4375 -4148 -3854 -4162 0
1000000 2290 -4375 -4148 -3854 -4162 0
1000000 940 -5153 -4584 0
1000000 2291 -5153 -4584 0
1000000 112 -4980 -6145 -6178 -4347 -4891 0
1000000 2292 -4980 -6145 -6178 -4347 -4891 0
1000000 422 -5749 -477 0
1000000 2293 -5749 -477 0
1000000 74 -5490 -6054 -6377 -541 0
1000000 2294 -5490 -6054 -6377 -541 0
1000000 361 -4470 -5191 -4515 0
1000000 2295 -4470 -5191 -4515 0
1000000 728 -3484 -6043 0
1000000 2296 -3484 -6043 0
1000000 882 -5641 -4317 0
1000000 2297 -5641 -4317 0
1000000 501 -6035 -5872 -4102 -5850 0
1000000 2298 -6035 -5872 -4102 -5850 0
1000000 317 -5635 -4420 -922 0
1000000 2299 -5635 -4420 -922 0
1000000 452 -6264 -5415 -5213 -6376 -5632 0
1000000 2300 -6264 -5415 -5213 -6376 -5632 0
1000000 518 -3577 -769 0
1000000 2301 -3577 -769 0
1000000 825 -6190 -5618 -3421 -993 0
1000000 2302 -6190 -5618 -3421 -993 0
1000000 286 -6192 -4018 -3492 -3457 -788 0
1000000 2303 -6192 -4018 -3492 -3457 -788 0
1000000 486 -4822 -6145 0
1000000 2304 -4822 -6145 0
1000000 298 -5544 -4872 -3836 -5667 -3960 0
1000000 2305 -5544 -4872 -3836 -5667 -3960 0
1000000 992 -3576 -5886 0
1000000 2306 -3576 -5886 0
1000000 212 -4329 -6126 -3789 -6277 0
1000000 2307 -4329 -6126 -3789 -6277 0
1000000 156 -3456 -5998 -3758 0
1000000 2308 -3456 -5998 -3758 0
1000000 996 -6015 -4983 -3847 0
1000000 2309 -6015 -4983 -3847 0
1000000 368 -4806 -4855 -5371 0
1000000 2310 -4806 -4855 -5371 0
1000000 973 -4761 -4661 -3608 -4582 -983 0
1000000 2311 -4761 -4661 -3608 -4582 -983 0
1000000 961 -4333 -5128 -5798 0
1000000 2312 -4333 -5128 -5798 0
1000000 211 -5415 -5623 -6226 -4651 0
1000000 2313 -5415 -5623 -6226 -4651 0
1000000 177 -4125 -3698 -634 0
1000000 2314 -4125 -3698 -634 0
1000000 831 -3635 -938 0
1000000 2315 -3635 -938 0
1000000 61 -3746 -5761 -5875 -4297 -6347 0
1000000 2316 -3746 -5761 -5875 -4297 -6347 0
1000000 173 -5476 -4660 -4342 -5310 -887 0
1000000 2317 -5476 -4660 -4342 -5310 -887 0
1000000 508 -4997 -3757 -4795 -5877 -673 0
1000000 2318 -4997 -3757 -4795 -5877 -673 0
1000000 563 -5335 -4958 0
1000000 2319 -5335 -4958 0
1000000 98 -3863 -6252 0
1000000 2320 -3863 -6252 0
1000000 711 -4386 -5271 -4006 -3771 0
1000000 2321 -4386 -5271 -4006 -3771 0
1000000 247 -6334 -5306 -6085 -5435 -4986 0
1000000 2322 -6334 -5306 -6085 -5435 -4986 0
1000000 688 -5935 -4098 -775 0
1000000 2323 -5935 -4098 -775 0
1000000 477 -6343 -5536 0
1000000 2324 -6343 -5536 0
1000000 72 -5873 -3830 -743 0
1000000 2325 -5873 -3830 -743 0
1000000 395 -5793 -4980 -5521 -5273 0
1000000 2326 -5793 -4980 -5521 -5273 0
1000000 214 -5087 -5636 -4315 0
1000000 2327 -5087 -5636 -4315 0
1000000 414 -4942 -5253 -5321 -964 0
1000000 2328 -4942 -5253 -5321 -964 0
1000000 621 -4513 -4985 0
1000000 2329 -4513 -4985 0
1000000 732 -5487 -6104 -6196 0
1000000 2330 -5487 -6104 -6196 0
1000000 225 -3680 -4542 -5380 -3688 -4670 0
1000000 2331 -3680 -4542 -5380 -3688 -4670 0
1000000 740 -4925 -4877 0
1000000 2332 -4925 -4877 0
1000000 387 -5400 -5718 0
1000000 2333 -5400 -5718 0
1000000 584 -6307 -5573 -5179 -4777 -4019 0
1000000 2334 -6307 -5573 -5179 -4777 -4019 0
1000000 964 -5567 -5087 -4693 0
1000000 2335 -5567 -5087 -4693 0
1000000 722 -4117 -3970 -6164 -3493 0
1000000 2336 -4117 -3970 -6164 -3493 0
1000000 583 -5796 -4136 -4474 -5845 -5412 0
1000000 2337 -5796 -4136 -4474 -5845 -5412 0
1000000 644 -4921 -4846 0
1000000 2338 -4921 -4846 0
1000000 608 -4651 -5921 0
1000000 2339 -4651 -5921 0
1000000 453 -3595 -5537 -4070 -4490 0
1000000 2340 -3595 -5537 -4070 -4490 0
1000000 455 -3830 -4091 0
1000000 2341 -3830 -4091 0
1000000 191 -5551 -3493 -3558 -6379 -5152 0
1000000 2342 -5551 -3493 -3558 -6379 -5152 0
1000000 431 -4424 -3496 -5450 -4661 0
1000000 2343 -4424 -3496 -5450 -4661 0
1000000 280 -6190 -3685 -5248 -3444 0
1000000 2344 -6190 -3685 -5248 -3444 0
1000000 100 -4798 -4174 -958 0
1000000 2345 -4798 -4174 -958 0
1000000 15 -3551 -4681 -5698 -3998 -4153 0
1000000 2346 -3551 -4681 -5698 -3998 -4153 0
1000000 905 -4196 -3579 -4471 -994 0
1000000 2347 -4196 -3579 -4471 -994 0
1000000 73 -5893 -3957 0
1000000 2348 -5893 -3957 0
1000000 983 -6337 -4610 -5255 -3841 0
1000000 2349 -6337 -4610 -5255 -3841 0
1000000 346 -4559 -4820 -4567 0
1000000 2350 -4559 -4820 -4567 0
1000000 358 -4309 -5259 0
1000000 2351 -4309 -5259 0
1000000 441 -4918 -5330 0
1000000 2352 -4918 -5330 0
1000000 700 -6243 -4323 -4165 -4731 -5301 0
1000000 2353 -6243 -4323 -4165 -4731 -5301 0
1000000 340 -5132 -4899 0
1000000 2354 -5132 -4899 0
1000000 311 -4335 -4344 0
1000000 2355 -4335 -4344 0
1000000 326 -3482 -580 0
1000000 2356 -3482 -580 0
1000000 389 -6315 -4100 -4502 0
1000000 2357 -6315 -4100 -4502 0
1000000 363 -6195 -5411 -6193 -3771 0
1000000 2358 -6195 -5411 -6193 -3771 0
1000000 279 -6232 -5898 0
1000000 2359 -6232 -5898 0
1000000 406 -5403 -5484 -4192 -485 0
1000000 2360 -5403 -5484 -4192 -485 0
1000000 861 -5547 -4040 -5898 -4171 -953 0
1000000 2361 -5547 -4040 -5898 -4171 -953 0
1000000 575 -5126 -5012 0
1000000 2362 -5126 -5012 0
1000000 466 -4254 -4539 -4412 -4286 -5181 0
1000000 2363 -4254 -4539 -4412 -4286 -5181 0
1000000 117 -4034 -4270 -5456 0
1000000 2364 -4034 -4270 -5456 0
1000000 91 -5103 -4556 -3992 -3568 0
1000000 2365 -5103 -4556 -3992 -3568 0
1000000 804 -4495 -5467 -5936 -5739 -5114 0
1000000 2366 -4495 -5467 -5936 -5739 -5114 0
1000000 977 -6369 -6071 -4922 -5305 -5223 0
1000000 2367 -6369 -6071 -4922 -5305 -5223 0
1000000 659 -4482 -5404 -6330 -4566 0
1000000 2368 -4482 -5404 -6330 -4566 0
1000000 571 -5055 -4503 -4472 -3858 -5122 0
1000000 2369 -5055 -4503 -4472 -3858 -5122 0
1000000 865 -3725 -4766 -5917 -4977 -3938 0
1000000 2370 -3725 -4766 -5917 -4977 -3938 0
1000000 658 -4581 -5299 -4558 -4877 -5787 0
1000000 2371 -4581 -5299 -4558 -4877 -5787 0
1000000 347 -6106 -4507 -6101 -388 0
1000000 2372 -6106 -4507 -6101 -388 0
1000000 902 -4679 -5301 0
1000000 2373 -4679 -5301 0
1000000 113 -3801 -4327 -5244 -4761 -376 0
1000000 2374 -3801 -4327 -5244 -4761 -376 0
1000000 546 -3577 -4527 -3570 0
1000000 2375 -3577 -4527 -3570 0
1000000 483 -5160 -4859 -5177 -782 0
1000000 2376 -5160 -4859 -5177 -782 0
1000000 667 -3492 -4390 -947 0
1000000 2377 -3492 -4390 -947 0
1000000 81 -4510 -4083 0
1000000 2378 -4510 -4083 0
1000000 611 -3977 -3881 -3907 -4676 0
1000000 2379 -3977 -3881 -3907 -4676 0
1000000 875 -4617 -5952 -4716 -5860 0
1000000 2380 -4617 -5952 -4716 -5860 0
1000000 324 -5969 -5594 -4316 0
1000000 2381 -5969 -5594 -4316 0
1000000 538 -3963 -3501 -562 0
1000000 2382 -3963 -3501 -562 0
1000000 537 -6168 -5128 -5448 -3717 -5909 0
1000000 2383 -6168 -5128 -5448 -3717 -5909 0
1000000 520 -5911 -4814 -5308 -4060 -5994 0
1000000 2384 -5911 -4814 -5308 -4060 -5994 0
1000000 687 -4089 -4117 -5515 -978 0
1000000 2385 -4089 -4117 -5515 -978 0
1000000 731 -4103 -3816 0
1000000 2386 -4103 -3816 0
1000000 510 -3573 -3818 -5589 -5706 0
1000000 2387 -3573 -3818 -5589 -5706 0
1000000 510 -6110 -5690 -5022 -4561 -5376 0
1000000 2388 -6110 -5690 -5022 -4561 -5376 0
1000000 645 -4118 -5950 -5581 -5598 -5697 0
1000000 2389 -4118 -5950 -5581 -5598 -5697 0
1000000 313 -5365 -3935 -4019 -892 0
1000000 2390 -5365 -3935 -4019 -892 0
1000000 35 -6187 -6011 -5078 0
1000000 2391 -6187 -6011 -5078 0
1000000 177 -4173 -3915 -3849 -6333 -6001 0
1000000 2392 -4173 -3915 -3849 -6333 -6001 0
1000000 461 -5850 -481 0
1000000 2393 -5850 -481 0
1000000 240 -4326 -5031 -3809 -4501 -4818 0
1000000 2394 -4326 -5031 -3809 -4501 -4818 0
1000000 955 -4484 -3790 -6243 -4278 0
1000000 2395 -4484 -3790 -6243 -4278 0
1000000 641 -5319 -4189 -4817 -5097 -6110 0
1000000 2396 -5319 -4189 -4817 -5097 -6110 0
1000000 794 -5968 -4723 0
1000000 2397 -5968 -4723 0
1000000 69 -6299 -4855 -4320 -5943 -4204 0
1000000 2398 -6299 -4855 -4320 -5943 -4204 0
1000000 779 -5749 -5425 -3707 -6145 -5683 0
1000000 2399 -5749 -5425 -3707 -6145 -5683 0
1000000 850 -3763 -6179 -4101 -5414 0
1000000 2400 -3763 -6179 -4101 -5414 0
1000000 566 -6053 -4340 -5427 -3837 -876 0
1000000 2401 -6053 -4340 -5427 -3837 -876 0
1000000 766 -4698 -6081 -5522 -4958 -908 0
1000000 2402 -4698 -6081 -5522 -4958 -908 0
1000000 466 -6159 -4176 -4890 -3858 -4462 0
1000000 2403 -6159 -4176 -4890 -3858 -4462 0
1000000 441 -4505 -4418 0
1000000 2404 -4505 -4418 0
1000000 486 -4291 -5674 0
1000000 2405 -4291 -5674 0
1000000 472 -3423 -3426 -5367 -6320 -5764 0
1000000 2406 -3423 -3426 -5367 -6320 -5764 0
1000000 465 -3732 -5831 -6386 -4483 -857 0
1000000 2407 -3732 -5831 -6386 -4483 -857 0
1000000 294 -4400 -4506 -3559 -5787 -5606 0
1000000 2408 -4400 -4506 -3559 -5787 -5606 0
1000000 772 -5156 -4123 -3602 0
1000000 2409 -5156 -4123 -3602 0
1000000 515 -5699 -5065 0
1000000 2410 -5699 -5065 0
1000000 448 -5795 -3912 -3907 0
1000000 2411 -5795 -3912 -3907 0
1000000 431 -5393 -4360 -5932 0
1000000 2412 -5393 -4360 -5932 0
1000000 150 -5888 -3702 -3844 -4488 -521 0
1000000 2413 -5888 -3702 -3844 -4488 -521 0
1000000 590 -4350 -5637 -5249 -3730 -4820 0
1000000 2414 -4350 -5637 -5249 -3730 -4820 0
1000000 722 -6001 -6114 -3676 -6375 -4121 0
1000000 2415 -6001 -6114 -3676 -6375 -4121 0
1000000 845 -5753 -4013 -5643 -944 0
1000000 2416 -5753 -4013 -5643 -944 0
1000000 696 -6276 -4294 -760 0
1000000 2417 -6276 -4294 -760 0
1000000 255 -5381 -6136 -6048 -4920 -867 0
1000000 2418 -5381 -6136 -6048 -4920 -867 0
1000000 539 -3571 -4557 -4777 -5504 0
1000000 2419 -3571 -4557 -4777 -5504 0
1000000 331 -5571 -4501 0
1000000 2420 -5571 -4501 0
1000000 35 -5030 -5728 -3898 -5107 -3446 0
1000000 2421 -5030 -5728 -3898 -5107 -3446 0
1000000 695 -4555 -6364 0
1000000 2422 -4555 -6364 0
1000000 850 -4165 -4540 -5656 -6351 0
1000000 2423 -4165 -4540 -5656 -6351 0
1000000 490 -3517 -5973 0
1000000 2424 -3517 -5973 0
1000000 678 -5091 -4476 -3640 -5950 0
1000000 2425 -5091 -4476 -3640 -5950 0
1000000 888 -4833 -5138 0
1000000 2426 -4833 -5138 0
1000000 290 -3517 -4377 -6354 -5589 -5776 0
1000000 2427 -3517 -4377 -6354 -5589 -5776 0
1000000 609 -5709 -668 0
1000000 2428 -5709 -668 0
1000000 104 -3633 -4582 0
1000000 2429 -3633 -4582 0
1000000 320 -3925 -4311 0
1000000 2430 -3925 -4311 0
1000000 528 -3988 -5961 -4294 -885 0
1000000 2431 -3988 -5961 -4294 -885 0
1000000 348 -5730 -5976 -5039 -4832 0
1000000 2432 -5730 -5976 -5039 -4832 0
1000000 784 -5442 -5340 -4538 -6314 -861 0
1000000 2433 -5442 -5340 -4538 -6314 -861 0
1000000 419 -5116 -6042 -4772 -5683 0
1000000 2434 -5116 -6042 -4772 -5683 0
1000000 575 -5468 -3741 0
1000000 2435 -5468 -3741 0
1000000 957 -5943 -5693 0
1000000 2436 -5943 -5693 0
1000000 991 -5315 -5076 -3790 0
1000000 2437 -5315 -5076 -3790 0
1000000 411 -4438 -5810 -3677 -3487 0
1000000 2438 -4438 -5810 -3677 -3487 0
1000000 781 -4353 -958 0
1000000 2439 -4353 -958 0
1000000 677 -5631 -4388 -4940 -5360 -981 0
1000000 2440 -5631 -4388 -4940 -5360 -981 0
1000000 659 -4692 -4186 -4719 0
1000000 2441 -4692 -4186 -4719 0
1000000 862 -3480 -6336 -3526 -3406 0
1000000 2442 -3480 -6336 -3526 -3406 0
1000000 460 -4594 -5615 -4953 0
1000000 2443 -4594 -5615 -4953 0
1000000 970 -6016 -6050 -5083 -986 0
1000000 2444 -6016 -6050 -5083 -986 0
1000000 336 -4881 -5859 0
1000000 2445 -4881 -5859 0
1000000 447 -3544 -4668 -837 0
1000000 2446 -3544 -4668 -837 0
1000000 840 -6159 -3453 -5742 -6090 0
1000000 2447 -6159 -3453 -5742 -6090 0
1000000 104 -6148 -764 0
1000000 2448 -6148 -764 0
1000000 727 -4650 -4870 -772 0
1000000 2449 -4650 -4870 -772 0
1000000 232 -5301 -3766 -5472 -5232 -4021 0
1000000 2450 -5301 -3766 -5472 -5232 -4021 0
1000000 50 -5963 -5437 -5614 -4499 -466 0
1000000 2451 -5963 -5437 -5614 -4499 -466 0
1000000 152 -3508 -3958 -5705 -5587 0
1000000 2452 -3508 -3958 -5705 -5587 0
1000000 87 -4977 -484 0
1000000 2453 -4977 -484 0
1000000 81 -4978 -5763 -6306 -3606 -5011 0
1000000 2454 -4978 -5763 -6306 -3606 -5011 0
1000000 449 -3790 -5369 0
1000000 2455 -3790 -5369 0
1000000 530 -3980 -5719 -5056 0
1000000 2456 -3980 -5719 -5056 0
1000000 506 -5872 -6071 -4056 -4572 -4981 0
1000000 2457 -5872 -6071 -4056 -4572 -4981 0
1000000 659 -4614 -3463 -5739 -6034 0
1000000 2458 -4614 -3463 -5739 -6034 0
1000000 820 -3525 -3797 -893 0
1000000 2459 -3525 -3797 -893 0
1000000 383 -4164 -902 0
1000000 2460 -4164 -902 0
1000000 9 -5277 -6288 -5435 -5750 -585 0
1000000 2461 -5277 -6288 -5435 -5750 -585 0
1000000 197 -6229 -6350 0
1000000 2462 -6229 -6350 0
1000000 828 -5579 -942 0
1000000 2463 -5579 -942 0
1000000 739 -4401 -5733 0
1000000 2464 -4401 -5733 0
1000000 246 -4665 -5882 -3463 -3886 -627 0
1000000 2465 -4665 -5882 -3463 -3886 -627 0
1000000 187 -3802 -4520 -4737 -5716 -4494 0
1000000 2466 -3802 -4520 -4737 -5716 -4494 0
1000000 284 -3427 -5410 -5342 0
1000000 2467 -3427 -5410 -5342 0
1000000 256 -4329 -4853 0
1000000 2468 -4329 -4853 0
1000000 195 -6217 -525 0
1000000 2469 -6217 -525 0
1000000 352 -4453 -5048 -4764 -4790 0
1000000 2470 -4453 -5048 -4764 -4790 0
1000000 908 -5234 -4825 -6357 -6307 -970 0
1000000 2471 -5234 -4825 -6357 -6307 -970 0
1000000 931 -4058 -4596 -3701 -6210 -5275 0
1000000 2472 -4058 -4596 -3701 -6210 -5275 0
1000000 84 -4560 -4537 -4291 -5410 0
1000000 2473 -4560 -4537 -4291 -5410 0
1000000 322 -3467 -4103 -3828 -4524 -4730 0
1000000 2474 -3467 -4103 -3828 -4524 -4730 0
1000000 744 -3575 -4616 -3815 -5691 -4159 0
1000000 2475 -3575 -4616 -3815 -5691 -4159 0
1000000 429 -3810 -5413 0
1000000 2476 -3810 -5413 0
1000000 966 -3662 -5497 -5083 -4658 -4613 0
1000000 2477 -3662 -5497 -5083 -4658 -4613 0
1000000 689 -5743 -971 0
1000000 2478 -5743 -971 0
1000000 670 -4448 -4205 -6023 -5120 -5603 0
1000000 2479 -4448 -4205 -6023 -5120 -5603 0
1000000 287 -3627 -4804 -823 0
1000000 2480 -3627 -4804 -823 0
1000000 686 -3450 -6033 -4363 -5235 -803 0
1000000 2481 -3450 -6033 -4363 -5235 -803 0
1000000 880 -6231 -4991 0
1000000 2482 -6231 -4991 0
1000000 760 -4067 -4601 -4170 -4326 -6350 0
1000000 2483 -4067 -4601 -4170 -4326 -6350 0
1000000 988 -4562 -5809 -4809 -5032 0
1000000 2484 -4562 -5809 -4809 -5032 0
1000000 689 -6184 -4374 -6376 0
1000000 2485 -6184 -4374 -6376 0
1000000 56 -5838 -3750 -4083 0
1000000 2486 -5838 -3750 -4083 0
1000000 210 -3714 -3768 -3629 -4038 0
1000000 2487 -3714 -3768 -3629 -4038 0
1000000 580 -5544 -4715 -4900 0
1000000 2488 -5544 -4715 -4900 0
1000000 871 -5216 -3432 0
1000000 2489 -5216 -3432 0
1000000 736 -5216 -847 0
1000000 2490 -5216 -847 0
1000000 938 -4407 -5687 0
1000000 2491 -4407 -5687 0
1000000 417 -4257 -6031 -4546 0
1000000 2492 -4257 -6031 -4546 0
1000000 624 -5477 -5656 0
1000000 2493 -5477 -5656 0
1000000 336 -4651 -4109 -3915 0
1000000 2494 -4651 -4109 -3915 0
1000000 203 -5561 -3830 -5295 -4543 0
1000000 2495 -5561 -3830 -5295 -4543 0
1000000 974 -4179 -4323 -6319 0
1000000 2496 -4179 -4323 -6319 0
1000000 429 -5141 -4431 -5362 -4400 0
1000000 2497 -5141 -4431 -5362 -4400 0
1000000 380 -3778 -5172 -4766 -5320 -5896 0
1000000 2498 -3778 -5172 -4766 -5320 -5896 0
1000000 384 -6089 -4692 -4836 -4382 -908 0
1000000 2499 -6089 -4692 -4836 -4382 -908 0
1000000 721 -5932 -4979 -5013 0
1000000 2500 -5932 -4979 -5013 0
1000000 965 -4769 -5924 -6400 0
1000000 2501 -4769 -5924 -6400 0
1000000 459 -4204 -5834 -4136 0
1000000 2502 -4204 -5834 -4136 0
1000000 620 -6066 -4346 -5078 -4887 -5566 0
1000000 2503 -6066 -4346 -5078 -4887 -5566 0
1000000 10 -5335 -303 0
1000000 2504 -5335 -303 0
1000000 237 -6094 -6226 -3563 0
1000000 2505 -6094 -6226 -3563 0
1000000 841 -4430 -3506 -5701 -4339 0
1000000 2506 -4430 -3506 -5701 -4339 0
1000000 750 -6218 -5439 0
1000000 2507 -6218 -5439 0
1000000 786 -3545 -6287 -4522 -5177 0
1000000 2508 -3545 -6287 -4522 -5177 0
1000000 218 -4172 -4934 -5958 0
1000000 2509 -4172 -4934 -5958 0
1000000 97 -4152 -4225 -5680 -4556 0
1000000 2510 -4152 -4225 -5680 -4556 0
1000000 71 -6296 -3610 0
1000000 2511 -6296 -3610 0
1000000 86 -6278 -5083 0
1000000 2512 -6278 -5083 0
1000000 606 -3892 -6008 -6009 -958 0
1000000 2513 -3892 -6008 -6009 -958 0
1000000 525 -6212 -6256 -4772 -5044 -5599 0
1000000 2514 -6212 -6256 -4772 -5044 -5599 0
1000000 14 -3625 -5347 -738 0
1000000 2515 -3625 -5347 -738 0
1000000 257 -4378 -5917 -4335 -4546 -5579 0
1000000 2516 -4378 -5917 -4335 -4546 -5579 0
1000000 314 -3682 -3763 -4697 -3462 -5096 0
1000000 2517 -3682 -3763 -4697 -3462 -5096 0
1000000 134 -4721 -3481 0
1000000 2518 -4721 -3481 0
1000000 198 -5673 -4804 -3617 0
1000000 2519 -5673 -4804 -3617 0
1000000 6 -4820 -4423 -3805 -5875 0
1000000 2520 -4820 -4423 -3805 -5875 0
1000000 562 -5312 -5534 -4946 -756 0
1000000 2521 -5312 -5534 -4946 -756 0
1000000 683 -3966 -6027 -5413 0
1000000 2522 -3966 -6027 -5413 0
1000000 231 -4516 -3577 -5911 -4312 -3852 0
1000000 2523 -4516 -3577 -5911 -4312 -3852 0
1000000 705 -4853 -3816 -4751 -5584 -3473 0
1000000 2524 -4853 -3816 -4751 -5584 -3473 0
1000000 16 -5603 -6321 -4859 -3982 0
1000000 2525 -5603 -6321 -4859 -3982 0
1000000 674 -4694 -4309 0
1000000 2526 -4694 -4309 0
1000000 553 -5806 -5056 0
1000000 2527 -5806 -5056 0
1000000 308 -3825 -5025 -645 0
1000000 2528 -3825 -5025 -645 0
1000000 85 -5068 -888 0
1000000 2529 -5068 -888 0
1000000 546 -4570 -6203 0
1000000 2530 -4570 -6203 0
1000000 70 -6193 -6224 -6006 -939 0
1000000 2531 -6193 -6224 -6006 -939 0
1000000 296 -6011 -6354 0
1000000 2532 -6011 -6354 0
1000000 469 -3938 -4551 -5396 -6292 -761 0
1000000 2533 -3938 -4551 -5396 -6292 -761 0
1000000 969 -4855 -5439 -5993 -6307 -5700 0
1000000 2534 -4855 -5439 -5993 -6307 -5700 0
1000000 339 -5151 -746 0
1000000 2535 -5151 -746 0
1000000 719 -5390 -5881 -4896 -965 0
1000000 2536 -5390 -5881 -4896 -965 0
1000000 249 -4196 -5996 -5021 -5743 0
1000000 2537 -4196 -5996 -5021 -5743 0
1000000 715 -5842 -4916 0
1000000 2538 -5842 -4916 0
1000000 170 -6343 -4203 0
1000000 2539 -6343 -4203 0
1000000 583 -4193 -4143 0
1000000 2540 -4193 -4143 0
1000000 514 -5754 -5896 -4283 0
1000000 2541 -5754 -5896 -4283 0
1000000 145 -3861 -5402 -3502 -4789 -862 0
1000000 2542 -3861 -5402 -3502 -4789 -862 0
1000000 558 -6129 -5334 -3934 -4160 -4775 0
1000000 2543 -6129 -5334 -3934 -4160 -4775 0
1000000 469 -5839 -3789 0
1000000 2544 -5839 -3789 0
1000000 269 -3831 -4774 -6265 -5027 -3977 0
1000000 2545 -3831 -4774 -6265 -5027 -3977 0
1000000 790 -5791 -6396 -5445 -5466 0
1000000 2546 -5791 -6396 -5445 -5466 0
1000000 393 -4010 -5588 -4022 -5456 -4209 0
1000000 2547 -4010 -5588 -4022 -5456 -4209 0
1000000 295 -4850 -3993 0
1000000 2548 -4850 -3993 0
1000000 118 -6282 -5149 -4755 -6004 -4907 0
1000000 2549 -6282 -5149 -4755 -6004 -4907 0
1000000 947 -4093 -1000 0
1000000 2550 -4093 -1000 0
1000000 705 -3599 -5756 -5420 -5053 0
1000000 2551 -3599 -5756 -5420 -5053 0
1000000 286 -6011 -703 0
1000000 2552 -6011 -703 0
1000000 113 -5023 -4605 -3749 -4926 -3500 0
1000000 2553 -5023 -4605 -3749 -4926 -3500 0
1000000 715 -3451 -6134 -6193 0
1000000 2554 -3451 -6134 -6193 0
1000000 527 -3815 -3727 -3917 0
1000000 2555 -3815 -3727 -3917 0
1000000 843 -4069 -5755 -4960 -4067 0
1000000 2556 -4069 -5755 -4960 -4067 0
1000000 529 -5031 -4585 0
1000000 2557 -5031 -4585 0
1000000 545 -6378 -5475 -6171 0
1000000 2558 -6378 -5475 -6171 0
1000000 974 -5685 -3978 -991 0
1000000 2559 -5685 -3978 -991 0
1000000 295 -5479 -5286 -5095 -3808 -637 0
1000000 2560 -5479 -5286 -5095 -3808 -637 0
1000000 509 -3743 -3601 -4154 -4572 -3530 0
1000000 2561 -3743 -3601 -4154 -4572 -3530 0
1000000 822 -4696 -4831 0
1000000 2562 -4696 -4831 0
1000000 947 -5532 -6156 0
1000000 2563 -5532 -6156 0
1000000 417 -4476 -4338 -3502 0
1000000 2564 -4476 -4338 -3502 0
1000000 743 -3703 -3937 -5958 0
1000000 2565 -3703 -3937 -5958 0
1000000 554 -4010 -3898 -4139 0
1000000 2566 -4010 -3898 -4139 0
1000000 217 -5219 -6397 -6289 -5715 0
1000000 2567 -5219 -6397 -6289 -5715 0
1000000 634 -3977 -5062 -4664 -802 0
1000000 2568 -3977 -5062 -4664 -802 0
1000000 81 -5080 -4186 -4689 0
1000000 2569 -5080 -4186 -4689 0
1000000 773 -4834 -3745 -6044 -5425 -5702 0
1000000 2570 -4834 -3745 -6044 -5425 -5702 0
1000000 742 -4284 -5651 -957 0
1000000 2571 -4284 -5651 -957 0
1000000 24 -5887 -5984 -3445 0
1000000 2572 -5887 -5984 -3445 0
1000000 253 -4500 -4349 -5955 -5565 0
1000000 2573 -4500 -4349 -5955 -5565 0
1000000 326 -3748 -6054 -4775 -6150 0
1000000 2574 -3748 -6054 -4775 -6150 0
1000000 386 -6177 -4515 -4143 -5576 0
1000000 2575 -6177 -4515 -4143 -5576 0
1000000 751 -3415 -4134 -5659 -4676 0
1000000 2576 -3415 -4134 -5659 -4676 0
1000000 652 -5796 -6185 -5261 -5209 0
1000000 2577 -5796 -6185 -5261 -5209 0
1000000 932 -4657 -5315 -5130 -5445 0
1000000 2578 -4657 -5315 -5130 -5445 0
1000000 634 -5305 -4451 0
1000000 2579 -5305 -4451 0
1000000 353 -5220 -4839 0
1000000 2580 -5220 -4839 0
1000000 328 -3910 -4072 -5589 -5546 -6231 0
1000000 2581 -3910 -4072 -5589 -5546 -6231 0
1000000 671 -5982 -5491 -5759 -4203 0
1000000 2582 -5982 -5491 -5759 -4203 0
1000000 491 -4361 -3854 0
1000000 2583 -4361 -3854 0
1000000 315 -3690 -5834 -4317 0
1000000 2584 -3690 -5834 -4317 0
1000000 722 -4699 -5889 -6386 -953 0
1000000 2585 -4699 -5889 -6386 -953 0
1000000 160 -5962 -5749 -5237 0
1000000 2586 -5962 -5749 -5237 0
1000000 851 -4399 -5885 -3721 -6368 -6076 0
1000000 2587 -4399 -5885 -3721 -6368 -6076 0
1000000 493 -5080 -4737 -5898 -3588 0
1000000 2588 -5080 -4737 -5898 -3588 0
1000000 344 -4778 -4070 -5829 -4551 0
1000000 2589 -4778 -4070 -5829 -4551 0
1000000 670 -3835 -935 0
1000000 2590 -3835 -935 0
1000000 424 -5360 -3852 -584 0
1000000 2591 -5360 -3852 -584 0
1000000 622 -4337 -5913 -3818 -5447 0
1000000 2592 -4337 -5913 -3818 -5447 0
1000000 410 -4951 -4770 -4874 -3516 0
1000000 2593 -4951 -4770 -4874 -3516 0
1000000 990 -4816 -4061 0
1000000 2594 -4816 -4061 0
1000000 45 -5788 -5453 -6010 -4152 -3606 0
1000000 2595 -5788 -5453 -6010 -4152 -3606 0
1000000 148 -5491 -3746 -4966 -4122 -4068 0
1000000 2596 -5491 -3746 -4966 -4122 -4068 0
1000000 37 -6307 -4258 -4401 -6276 0
1000000 2597 -6307 -4258 -4401 -6276 0
1000000 605 -3453 -4322 -4300 -6082 -791 0
1000000 2598 -3453 -4322 -4300 -6082 -791 0
1000000 208 -3602 -3831 0
1000000 2599 -3602 -3831 0
1000000 840 -5041 -6292 -6250 0
1000000 2600 -5041 -6292 -6250 0
1000000 887 -5424 -4241 0
1000000 2601 -5424 -4241 0
1000000 815 -5464 -5283 -3696 -3553 0
1000000 2602 -5464 -5283 -3696 -3553 0
1000000 853 -3983 -3926 -6131 0
1000000 2603 -3983 -3926 -6131 0
1000000 881 -5713 -5201 0
1000000 2604 -5713 -5201 0
1000000 155 -5593 -696 0
1000000 2605 -5593 -696 0
1000000 498 -6371 -4387 -5927 0
1000000 2606 -6371 -4387 -5927 0
1000000 2 -3596 -39 0
1000000 2607 -3596 -39 0
1000000 272 -3665 -3830 -4102 -4289 -4169 0
1000000 2608 -3665 -3830 -4102 -4289 -4169 0
1000000 897 -3496 -4328 -4139 0
1000000 2609 -3496 -4328 -4139 0
1000000 80 -3958 -4773 0
1000000 2610 -3958 -4773 0
1000000 99 -4874 -5913 -6093 -152 0
1000000 2611 -4874 -5913 -6093 -152 0
1000000 664 -4493 -5959 -3766 0
1000000 2612 -4493 -5959 -3766 0
1000000 416 -5791 -515 0
1000000 2613 -5791 -515 0
1000000 306 -3837 -5127 -4686 -5506 0
1000000 2614 -3837 -5127 -4686 -5506 0
1000000 83 -5501 -6116 -5075 0
1000000 2615 -5501 -6116 -5075 0
1000000 175 -4777 -4475 -6193 0
1000000 2616 -4777 -4475 -6193 0
1000000 784 -4167 -3966 -3553 -5112 -5955 0
1000000 2617 -4167 -3966 -3553 -5112 -5955 0
1000000 611 -6225 -4432 -5306 0
1000000 2618 -6225 -4432 -5306 0
1000000 3 -4813 -5337 0
1000000 2619 -4813 -5337 0
1000000 912 -3927 -3518 -4574 -3880 -952 0
1000000 2620 -3927 -3518 -4574 -3880 -952 0
1000000 256 -3990 -5179 -4485 -5012 0
1000000 2621 -3990 -5179 -4485 -5012 0
1000000 424 -3836 -6125 -4885 -5809 0
1000000 2622 -3836 -6125 -4885 -5809 0
1000000 791 -3920 -4781 -5199 0
1000000 2623 -3920 -4781 -5199 0
1000000 548 -6093 -4753 0
1000000 2624 -6093 -4753 0
1000000 197 -5854 -6116 -5354 -4795 0
1000000 2625 -5854 -6116 -5354 -4795 0
1000000 822 -4763 -3880 -4984 -876 0
1000000 2626 -4763 -3880 -4984 -876 0
1000000 589 -5308 -5388 0
1000000 2627 -5308 -5388 0
1000000 241 -4205 -4125 0
1000000 2628 -4205 -4125 0
1000000 378 -4114 -5932 -5593 0
1000000 2629 -4114 -5932 -5593 0
1000000 34 -6337 -4433 -5709 -4409 -5669 0
1000000 2630 -6337 -4433 -5709 -4409 -5669 0
1000000 769 -5617 -5532 -5016 0
1000000 2631 -5617 -5532 -5016 0
1000000 428 -5823 -3678 -5641 -4383 0
1000000 2632 -5823 -3678 -5641 -4383 0
1000000 196 -5913 -4947 0
1000000 2633 -5913 -4947 0
1000000 840 -4546 -4956 0
1000000 2634 -4546 -4956 0
1000000 186 -5204 -3476 -5544 -3969 -3678 0
1000000 2635 -5204 -3476 -5544 -3969 -3678 0
1000000 860 -3899 -3852 -4080 0
1000000 2636 -3899 -3852 -4080 0
1000000 618 -4150 -786 0
1000000 2637 -4150 -786 0
1000000 463 -5319 -4289 -6092 -5032 0
1000000 2638 -5319 -4289 -6092 -5032 0
1000000 868 -4333 -4720 -5833 -6158 -4320 0
1000000 2639 -4333 -4720 -5833 -6158 -4320 0
1000000 192 -4012 -3852 0
1000000 2640 -4012 -3852 0
1000000 812 -5363 -4388 -5760 0
1000000 2641 -5363 -4388 -5760 0
1000000 726 -6341 -4724 -6125 -6162 -4716 0
1000000 2642 -6341 -4724 -6125 -6162 -4716 0
1000000 272 -5866 -5552 -4446 -3667 -932 0
1000000 2643 -5866 -5552 -4446 -3667 -932 0
1000000 552 -6160 -5668 -3496 -3502 -3475 0
1000000 2644 -6160 -5668 -3496 -3502 -3475 0
1000000 39 -5095 -6264 -6072 0
1000000 2645 -5095 -6264 -6072 0
1000000 763 -5054 -5799 0
1000000 2646 -5054 -5799 0
1000000 99 -4965 -4567 -4128 0
1000000 2647 -4965 -4567 -4128 0
1000000 962 -5981 -6215 -5056 -6040 -6006 0
1000000 2648 -5981 -6215 -5056 -6040 -6006 0
1000000 905 -4821 -5777 -6268 0
1000000 2649 -4821 -5777 -6268 0
1000000 441 -4904 -3925 0
1000000 2650 -4904 -3925 0
1000000 759 -4931 -5532 -4668 0
1000000 2651 -4931 -5532 -4668 0
1000000 795 -4480 -5555 -4457 0
1000000 2652 -4480 -5555 -4457 0
1000000 523 -3691 -4875 0
1000000 2653 -3691 -4875 0
1000000 738 -4200 -6356 -3917 0
1000000 2654 -4200 -6356 -3917 0
1000000 389 -4404 -3901 -6356 -4589 -5721 0
1000000 2655 -4404 -3901 -6356 -4589 -5721 0
1000000 409 -5560 -5009 0
1000000 2656 -5560 -5009 0
1000000 780 -4645 -5411 -6038 -5668 0
1000000 2657 -4645 -5411 -6038 -5668 0
1000000 707 -4850 -5742 -6265 -4506 -5482 0
1000000 2658 -4850 -5742 -6265 -4506 -5482 0
1000000 472 -6252 -3447 -4834 -4305 0
1000000 2659 -6252 -3447 -4834 -4305 0
1000000 926 -5714 -5728 -6378 -3508 -5511 0
1000000 2660 -5714 -5728 -6378 -3508 -5511 0
1000000 400 -5567 -4413 -5229 0
1000000 2661 -5567 -4413 -5229 0
1000000 986 -3612 -3736 0
1000000 2662 -3612 -3736 0
1000000 625 -5973 -4887 -3809 0
1000000 2663 -5973 -4887 -3809 0
1000000 514 -4898 -3654 -5112 -4491 -6261 0
1000000 2664 -4898 -3654 -5112 -4491 -6261 0
1000000 547 -5408 -4922 -6037 -3666 -755 0
1000000 2665 -5408 -4922 -6037 -3666 -755 0
1000000 484 -3631 -4245 -692 0
1000000 2666 -3631 -4245 -692 0
1000000 805 -6002 -5105 -5365 -5169 0
1000000 2667 -6002 -5105 -5365 -5169 0
1000000 833 -4980 -5940 0
1000000 2668 -4980 -5940 0
1000000 549 -5483 -6002 -6250 -964 0
1000000 2669 -5483 -6002 -6250 -964 0
1000000 33 -4665 -5442 -4217 0
1000000 2670 -4665 -5442 -4217 0
1000000 243 -5901 -5180 -3729 -4713 0
1000000 2671 -5901 -5180 -3729 -4713 0
1000000 370 -5427 -5921 -4567 -5981 0
1000000 2672 -5427 -5921 -4567 -5981 0
1000000 517 -5179 -6232 0
1000000 2673 -5179 -6232 0
1000000 606 -3529 -5532 -4165 -4072 -962 0
1000000 2674 -3529 -5532 -4165 -4072 -962 0
1000000 69 -5769 -5016 0
1000000 2675 -5769 -5016 0
1000000 236 -6053 -5692 -907 0
1000000 2676 -6053 -5692 -907 0
1000000 586 -6148 -6218 -4815 -685 0
1000000 2677 -6148 -6218 -4815 -685 0
1000000 849 -4278 -3404 -5943 -5353 0
1000000 2678 -4278 -3404 -5943 -5353 0
1000000 207 -5476 -3929 0
1000000 2679 -5476 -3929 0
1000000 942 -6056 -4144 -5722 -4421 0
1000000 2680 -6056 -4144 -5722 -4421 0
1000000 262 -6017 -633 0
1000000 2681 -6017 -633 0
1000000 649 -4059 -5703 -6166 -4771 -790 0
1000000 2682 -4059 -5703 -6166 -4771 -790 0
1000000 322 -5757 -5869 -5743 -5273 0
1000000 2683 -5757 -5869 -5743 -5273 0
1000000 997 -3617 -5911 -5883 0
1000000 2684 -3617 -5911 -5883 0
1000000 336 -3713 -6090 -5893 -5543 -5760 0
1000000 2685 -3713 -6090 -5893 -5543 -5760 0
1000000 931 -3876 -3497 -3651 -3976 -3661 0
1000000 2686 -3876 -3497 -3651 -3976 -3661 0
1000000 618 -3941 -4819 -6367 -5265 0
1000000 2687 -3941 -4819 -6367 -5265 0
1000000 517 -3790 -5291 0
1000000 2688 -3790 -5291 0
1000000 622 -3890 -4086 -5593 -4400 -838 0
1000000 2689 -3890 -4086 -5593 -4400 -838 0
1000000 559 -6378 -4098 -3690 -619 0
1000000 2690 -6378 -4098 -3690 -619 0
1000000 896 -5538 -5798 -3966 -6133 -967 0
1000000 2691 -5538 -5798 -3966 -6133 -967 0
1000000 576 -5129 -4880 0
1000000 2692 -5129 -4880 0
1000000 177 -4228 -3959 -5295 -3571 0
1000000 2693 -4228 -3959 -5295 -3571 0
1000000 304 -5605 -6318 -6350 -3413 0
1000000 2694 -5605 -6318 -6350 -3413 0
1000000 533 -5480 -3413 0
1000000 2695 -5480 -3413 0
1000000 347 -5347 -5522 0
1000000 2696 -5347 -5522 0
1000000 254 -4841 -4627 -841 0
1000000 2697 -4841 -4627 -841 0
1000000 848 -4808 -4482 -6052 -3902 -3874 0
1000000 2698 -4808 -4482 -6052 -3902 -3874 0
1000000 182 -5351 -4291 0
1000000 2699 -5351 -4291 0
1000000 154 -5213 -5364 -5834 -4046 0
1000000 2700 -5213 -5364 -5834 -4046 0
1000000 427 -4793 -4192 -4690 -3759 -4007 0
1000000 2701 -4793 -4192 -4690 -3759 -4007 0
1000000 674 -3570 -5649 -3848 0
1000000 2702 -3570 -5649 -3848 0
1000000 869 -5550 -6372 -3482 -6189 -906 0
1000000 2703 -5550 -6372 -3482 -6189 -906 0
1000000 631 -6313 -705 0
1000000 2704 -6313 -705 0
1000000 611 -5909 -4324 -3670 -3855 0
1000000 2705 -5909 -4324 -3670 -3855 0
1000000 567 -3443 -5508 -5221 -798 0
1000000 2706 -3443 -5508 -5221 -798 0
1000000 958 -6242 -966 0
1000000 2707 -6242 -966 0
1000000 619 -6369 -4319 -4048 -677 0
1000000 2708 -6369 -4319 -4048 -677 0
1000000 77 -5696 -5074 0
1000000 2709 -5696 -5074 0
1000000 390 -5589 -5434 -4869 -5999 -5574 0
1000000 2710 -5589 -5434 -4869 -5999 -5574 0
1000000 938 -6183 -4809 -4921 -4610 -5493 0
1000000 2711 -6183 -4809 -4921 -4610 -5493 0
1000000 10 -6148 -5473 -5041 0
1000000 2712 -6148 -5473 -5041 0
1000000 722 -4433 -973 0
1000000 2713 -4433 -973 0
1000000 981 -4974 -5468 -6223 -4482 -3680 0
1000000 2714 -4974 -5468 -6223 -4482 -3680 0
1000000 445 -4135 -6392 -3697 -596 0
1000000 2715 -4135 -6392 -3697 -596 0
1000000 93 -4013 -4377 0
1000000 2716 -4013 -4377 0
1000000 80 -6174 -5459 -261 0
1000000 2717 -6174 -5459 -261 0
1000000 443 -6389 -5559 0
1000000 2718 -6389 -5559 0
1000000 184 -4618 -4591 -4355 -4466 -5953 0
1000000 2719 -4618 -4591 -4355 -4466 -5953 0
1000000 210 -5836 -5380 -3708 -3785 -4979 0
1000000 2720 -5836 -5380 -3708 -3785 -4979 0
1000000 419 -4884 -6278 -818 0
1000000 2721 -4884 -6278 -818 0
1000000 558 -4780 -4940 -667 0
1000000 2722 -4780 -4940 -667 0
1000000 895 -4135 -4384 -6129 -5658 0
1000000 2723 -4135 -4384 -6129 -5658 0
1000000 252 -4180 -3665 -4285 0
1000000 2724 -4180 -3665 -4285 0
1000000 934 -4309 -4984 -5025 0
1000000 2725 -4309 -4984 -5025 0
1000000 295 -3765 -4338 -6308 -731 0
1000000 2726 -3765 -4338 -6308 -731 0
1000000 820 -5560 -3822 -5876 -4581 -6215 0
1000000 2727 -5560 -3822 -5876 -4581 -6215 0
1000000 543 -4382 -6213 -5926 -5284 0
1000000 2728 -4382 -6213 -5926 -5284 0
1000000 621 -5959 -4361 -6163 -4931 0
1000000 2729 -5959 -4361 -6163 -4931 0
1000000 628 -4646 -4511 -3503 -5133 -5667 0
1000000 2730 -4646 -4511 -3503 -5133 -5667 0
1000000 617 -5748 -5379 -4727 -6206 0
1000000 2731 -5748 -5379 -4727 -6206 0
1000000 319 -5980 -5762 -5463 -359 0
1000000 2732 -5980 -5762 -5463 -359 0
1000000 682 -3498 -4488 -6181 0
1000000 2733 -3498 -4488 -6181 0
1000000 454 -6322 -4015 -647 0
1000000 2734 -6322 -4015 -647 0
1000000 775 -4092 -3952 -4164 -5141 -5606 0
1000000 2735 -4092 -3952 -4164 -5141 -5606 0
1000000 965 -3666 -5671 -5178 -4104 -6083 0
1000000 2736 -3666 -5671 -5178 -4104 -6083 0
1000000 88 -4520 -4143 -3804 -5093 0
1000000 2737 -4520 -4143 -3804 -5093 0
1000000 875 -5271 -3951 -905 0
1000000 2738 -5271 -3951 -905 0
1000000 849 -6101 -4579 0
1000000 2739 -6101 -4579 0
1000000 639 -4532 -5302 0
1000000 2740 -4532 -5302 0
1000000 17 -3800 -5399 -6076 0
1000000 2741 -3800 -5399 -6076 0
1000000 557 -6023 -5620 -4288 0
1000000 2742 -6023 -5620 -4288 0
1000000 863 -5677 -4412 -4820 -4376 -5897 0
1000000 2743 -5677 -4412 -4820 -4376 -5897 0
1000000 7 -6229 -5194 -5914 -4220 -518 0
1000000 2744 -6229 -5194 -5914 -4220 -518 0
1000000 688 -3741 -4377 -4929 -4198 0
1000000 2745 -3741 -4377 -4929 -4198 0
1000000 199 -3513 -5815 0
1000000 2746 -3513 -5815 0
1000000 941 -3612 -5381 -3758 -4328 -5547 0
1000000 2747 -3612 -5381 -3758 -4328 -5547 0
1000000 224 -6301 -4806 -6286 -4873 -799 0
1000000 2748 -6301 -4806 -6286 -4873 -799 0
1000000 997 -3731 -999 0
1000000 2749 -3731 -999 0
1000000 416 -6387 -3440 -4279 -4284 0
1000000 2750 -6387 -3440 -4279 -4284 0
1000000 196 -5133 -5897 -5425 0
1000000 2751 -5133 -5897 -5425 0
1000000 857 -5077 -4403 0
1000000 2752 -5077 -4403 0
1000000 310 -3917 -5393 -6379 0
1000000 2753 -3917 -5393 -6379 0
1000000 960 -4309 -5630 -4887 -3651 0
1000000 2754 -4309 -5630 -4887 -3651 0
1000000 319 -3424 -5678 -3701 -4477 -4277 0
1000000 2755 -3424 -5678 -3701 -4477 -4277 0
1000000 126 -4522 -4214 0
1000000 2756 -4522 -4214 0
1000000 692 -6197 -4717 -4267 0
1000000 2757 -6197 -4717 -4267 0
1000000 229 -6259 -5362 -3614 -3469 -5875 0
1000000 2758 -6259 -5362 -3614 -3469 -5875 0
1000000 478 -5547 -4594 -5677 0
1000000 2759 -5547 -4594 -5677 0
1000000 200 -6097 -4882 -5306 0
1000000 2760 -6097 -4882 -5306 0
1000000 666 -3648 -5142 -965 0
1000000 2761 -3648 -5142 -965 0
1000000 642 -3840 -913 0
1000000 2762 -3840 -913 0
1000000 898 -6225 -4633 -3961 -4844 -914 0
1000000 2763 -6225 -4633 -3961 -4844 -914 0
1000000 434 -4285 -4416 -5313 0
1000000 2764 -4285 -4416 -5313 0
1000000 310 -4877 -3914 -5302 0
1000000 2765 -4877 -3914 -5302 0
1000000 369 -4279 -4666 0
1000000 2766 -4279 -4666 0
1000000 573 -5790 -6267 0
1000000 2767 -5790 -6267 0
1000000 904 -4888 -5770 -6252 -3999 -4695 0
1000000 2768 -4888 -5770 -6252 -3999 -4695 0
1000000 946 -5620 -5939 -5485 0
1000000 2769 -5620 -5939 -5485 0
1000000 900 -4460 -4079 -5457 -5529 0
1000000 2770 -4460 -4079 -5457 -5529 0
1000000 153 -5241 -3860 -6343 -4646 -908 0
1000000 2771 -5241 -3860 -6343 -4646 -908 0
1000000 484 -5753 -5557 -822 0
1000000 2772 -5753 -5557 -822 0
1000000 551 -3435 -4904 0
1000000 2773 -3435 -4904 0
1000000 227 -6363 -5457 -4042 -5763 -4446 0
1000000 2774 -6363 -5457 -4042 -5763 -4446 0
1000000 163 -4863 -648 0
1000000 2775 -4863 -648 0
1000000 458 -5027 -6031 -5937 -3415 0
1000000 2776 -5027 -6031 -5937 -3415 0
1000000 494 -5331 -3515 0
1000000 2777 -5331 -3515 0
1000000 114 -5025 -5460 0
1000000 2778 -5025 -5460 0
1000000 753 -5650 -5277 0
1000000 2779 -5650 -5277 0
1000000 578 -3514 -4095 0
1000000 2780 -3514 -4095 0
1000000 349 -5421 -5681 -6207 -3550 0
1000000 2781 -5421 -5681 -6207 -3550 0
1000000 180 -5166 -5522 -5386 0
1000000 2782 -5166 -5522 -5386 0
1000000 661 -5839 -5786 -5586 -5736 -3845 0
1000000 2783 -5839 -5786 -5586 -5736 -3845 0
1000000 53 -3784 -3710 -5080 -4079 0
1000000 2784 -3784 -3710 -5080 -4079 0
1000000 82 -4078 -4506 0
1000000 2785 -4078 -4506 0
1000000 550 -4069 -5658 -6218 0
1000000 2786 -4069 -5658 -6218 0
1000000 142 -5852 -6371 -5564 0
1000000 2787 -5852 -6371 -5564 0
1000000 161 -3687 -5751 -5068 -4407 0
1000000 2788 -3687 -5751 -5068 -4407 0
1000000 650 -4175 -3973 -4226 0
1000000 2789 -4175 -3973 -4226 0
1000000 422 -3482 -6366 -4443 -3464 -4767 0
1000000 2790 -3482 -6366 -4443 -3464 -4767 0
1000000 582 -4526 -4969 0
1000000 2791 -4526 -4969 0
1000000 656 -5553 -6080 -3984 -5836 -3805 0
1000000 2792 -5553 -6080 -3984 -5836 -3805 0
1000000 228 -6096 -4699 -4592 -4949 0
1000000 2793 -6096 -4699 -4592 -4949 0
1000000 892 -5033 -4071 -3925 -938 0
1000000 2794 -5033 -4071 -3925 -938 0
1000000 258 -6263 -5351 -4995 0
1000000 2795 -6263 -5351 -4995 0
1000000 791 -4811 -6148 -3863 0
1000000 2796 -4811 -6148 -3863 0
1000000 758 -4840 -6026 -5944 -991 0
1000000 2797 -4840 -6026 -5944 -991 0
1000000 971 -4775 -6070 -5173 0
1000000 2798 -4775 -6070 -5173 0
1000000 377 -5322 -3413 -818 0
1000000 2799 -5322 -3413 -818 0
1000000 470 -4887 -5825 -3622 0
1000000 2800 -4887 -5825 -3622 0
1000000 269 -5719 -363 0
1000000 2801 -5719 -363 0
1000000 943 -3983 -6318 -6258 -4452 0
1000000 2802 -3983 -6318 -6258 -4452 0
1000000 723 -4880 -4822 -5461 -4973 -4792 0
1000000 2803 -4880 -4822 -5461 -4973 -4792 0
1000000 12 -3522 -127 0
1000000 2804 -3522 -127 0
1000000 355 -3582 -4459 -3714 0
1000000 2805 -3582 -4459 -3714 0
1000000 150 -4105 -6274 0
1000000 2806 -4105 -6274 0
1000000 190 -6166 -3714 -5545 -4932 0
1000000 2807 -6166 -3714 -5545 -4932 0
1000000 339 -3581 -3790 0
1000000 2808 -3581 -3790 0
1000000 474 -5928 -4627 -6085 0
1000000 2809 -5928 -4627 -6085 0
1000000 825 -6304 -5688 -5051 -5357 -914 0
1000000 2810 -6304 -5688 -5051 -5357 -914 0
1000000 935 -3698 -5681 -5083 0
1000000 2811 -3698 -5681 -5083 0
1000000 157 -3822 -5933 -3512 0
1000000 2812 -3822 -5933 -3512 0
1000000 432 -6328 -4705 -6311 -866 0
1000000 2813 -6328 -4705 -6311 -866 0
1000000 218 -4375 -5810 -336 0
1000000 2814 -4375 -5810 -336 0
1000000 35 -4753 -4784 -6307 0
1000000 2815 -4753 -4784 -6307 0
1000000 397 -4917 -6050 -5249 0
1000000 2816 -4917 -6050 -5249 0
1000000 959 -3724 -4417 0
1000000 2817 -3724 -4417 0
1000000 95 -5074 -3418 -6124 -159 0
1000000 2818 -5074 -3418 -6124 -159 0
1000000 918 -5714 -4217 -992 0
1000000 2819 -5714 -4217 -992 0
1000000 760 -4786 -5729 -906 0
1000000 2820 -4786 -5729 -906 0
1000000 628 -3582 -4336 -5904 0
1000000 2821 -3582 -4336 -5904 0
1000000 131 -6300 -4777 0
1000000 2822 -6300 -4777 0
1000000 744 -5130 -4128 0
1000000 2823 -5130 -4128 0
1000000 480 -4389 -4560 -4623 -6066 -914 0
1000000 2824 -4389 -4560 -4623 -6066 -914 0
1000000 868 -5466 -4576 -4069 -5957 0
1000000 2825 -5466 -4576 -4069 -5957 0
1000000 717 -6108 -4086 -4460 0
1000000 2826 -6108 -4086 -4460 0
1000000 571 -4858 -6009 -5664 -3696 -4859 0
1000000 2827 -4858 -6009 -5664 -3696 -4859 0
1000000 984 -5174 -5313 -5715 -3417 -3753 0
1000000 2828 -5174 -5313 -5715 -3417 -3753 0
1000000 918 -4423 -5577 0
1000000 2829 -4423 -5577 0
1000000 873 -4855 -5440 -6035 -935 0
1000000 2830 -4855 -5440 -6035 -935 0
1000000 861 -4619 -5896 0
1000000 2831 -4619 -5896 0
1000000 906 -4633 -3917 -985 0
1000000 2832 -4633 -3917 -985 0
1000000 303 -4206 -5991 -3593 -4741 0
1000000 2833 -4206 -5991 -3593 -4741 0
1000000 95 -4709 -4468 -6039 -4662 0
1000000 2834 -4709 -4468 -6039 -4662 0
1000000 30 -4811 -3486 -4501 -4999 -610 0
1000000 2835 -4811 -3486 -4501 -4999 -610 0
1000000 518 -5192 -5054 -3847 0
1000000 2836 -5192 -5054 -3847 0
1000000 745 -4802 -5765 -4245 -870 0
1000000 2837 -4802 -5765 -4245 -870 0
1000000 161 -3730 -6258 -4553 0
1000000 2838 -3730 -6258 -4553 0
1000000 540 -5574 -4430 -5945 -3646 -3785 0
1000000 2839 -5574 -4430 -5945 -3646 -3785 0
1000000 583 -4444 -761 0
1000000 2840 -4444 -761 0
1000000 434 -4220 -6009 0
1000000 2841 -4220 -6009 0
1000000 618 -6378 -6213 -5412 -4272 -5220 0
1000000 2842 -6378 -6213 -5412 -4272 -5220 0
1000000 534 -4293 -3965 -3674 -4932 0
1000000 2843 -4293 -3965 -3674 -4932 0
1000000 257 -4385 -5842 0
1000000 2844 -4385 -5842 0
1000000 57 -4026 -4922 -6342 -3514 -5643 0
1000000 2845 -4026 -4922 -6342 -3514 -5643 0
1000000 147 -3759 -3819 0
1000000 2846 -3759 -3819 0
1000000 913 -4631 -5937 -5224 0
1000000 2847 -4631 -5937 -5224 0
1000000 705 -4096 -5878 -5347 -4890 -6184 0
1000000 2848 -4096 -5878 -5347 -4890 -6184 0
1000000 816 -4413 -4638 -5599 -4000 0
1000000 2849 -4413 -4638 -5599 -4000 0
1000000 987 -4684 -4688 -6384 0
1000000 2850 -4684 -4688 -6384 0
1000000 398 -6143 -4613 0
1000000 2851 -6143 -4613 0
1000000 173 -5352 -4134 -3918 0
1000000 2852 -5352 -4134 -3918 0
1000000 729 -5438 -5205 -6168 -5570 0
1000000 2853 -5438 -5205 -6168 -5570 0
1000000 609 -5231 -3739 0
1000000 2854 -5231 -3739 0
1000000 532 -3649 -5194 -6126 -5476 -690 0
1000000 2855 -3649 -5194 -6126 -5476 -690 0
1000000 262 -4743 -6043 -3497 -5482 -6034 0
1000000 2856 -4743 -6043 -3497 -5482 -6034 0
1000000 198 -5778 -3806 0
1000000 2857 -5778 -3806 0
1000000 345 -5389 -4236 -4640 -6237 -557 0
1000000 2858 -5389 -4236 -4640 -6237 -557 0
1000000 199 -5799 -3968 -3755 -6110 0
1000000 2859 -5799 -3968 -3755 -6110 0
1000000 115 -4133 -4025 -6130 0
1000000 2860 -4133 -4025 -6130 0
1000000 527 -3843 -3543 -4986 -3664 -770 0
1000000 2861 -3843 -3543 -4986 -3664 -770 0
1000000 405 -3403 -586 0
1000000 2862 -3403 -586 0
1000000 501 -5651 -3562 -4560 -6386 -6224 0
1000000 2863 -5651 -3562 -4560 -6386 -6224 0
1000000 794 -5894 -5490 -3464 -4979 0
1000000 2864 -5894 -5490 -3464 -4979 0
1000000 577 -4457 -3973 -3470 -3544 -4499 0
1000000 2865 -4457 -3973 -3470 -3544 -4499 0
1000000 329 -3467 -4276 0
1000000 2866 -3467 -4276 0
1000000 416 -4854 -4937 -6015 -4855 -763 0
1000000 2867 -4854 -4937 -6015 -4855 -763 0
1000000 710 -5034 -6110 -947 0
1000000 2868 -5034 -6110 -947 0
1000000 677 -3463 -3529 -5232 -903 0
1000000 2869 -3463 -3529 -5232 -903 0
1000000 344 -3537 -5821 -3649 -5178 0
1000000 2870 -3537 -5821 -3649 -5178 0
1000000 212 -4557 -3708 -3591 0
1000000 2871 -4557 -3708 -3591 0
1000000 62 -5197 -5123 -5104 -5686 0
1000000 2872 -5197 -5123 -5104 -5686 0
1000000 629 -4860 -5876 -5358 -5532 -808 0
1000000 2873 -4860 -5876 -5358 -5532 -808 0
1000000 191 -3766 -5294 -3978 0
1000000 2874 -3766 -5294 -3978 0
1000000 819 -3520 -4120 -5849 -4469 0
1000000 2875 -3520 -4120 -5849 -4469 0
1000000 968 -4394 -5604 0
1000000 2876 -4394 -5604 0
1000000 901 -5565 -3829 0
1000000 2877 -5565 -3829 0
1000000 830 -5878 -5351 -5238 -6341 0
1000000 2878 -5878 -5351 -5238 -6341 0
1000000 718 -4228 -4243 -3687 0
1000000 2879 -4228 -4243 -3687 0
1000000 128 -4375 -5689 0
1000000 2880 -4375 -5689 0
1000000 653 -5429 -3731 -4958 -5190 -3490 0
1000000 2881 -5429 -3731 -4958 -5190 -3490 0
1000000 744 -6220 -5186 -3654 -4530 -4709 0
1000000 2882 -6220 -5186 -3654 -4530 -4709 0
1000000 35 -5451 -5279 0
1000000 2883 -5451 -5279 0
1000000 239 -5235 -5792 -5497 -832 0
1000000 2884 -5235 -5792 -5497 -832 0
1000000 430 -6133 -3682 -6250 -4023 -5833 0
1000000 2885 -6133 -3682 -6250 -4023 -5833 0
1000000 817 -5601 -6266 -5494 -4556 -4658 0
1000000 2886 -5601 -6266 -5494 -4556 -4658 0
1000000 572 -4695 -5995 -5455 -4721 0
1000000 2887 -4695 -5995 -5455 -4721 0
1000000 793 -6254 -6000 -4105 -5741 0
1000000 2888 -6254 -6000 -4105 -5741 0
1000000 935 -6124 -5302 -5791 -975 0
1000000 2889 -6124 -5302 -5791 -975 0
1000000 813 -4839 -5310 -983 0
1000000 2890 -4839 -5310 -983 0
1000000 827 -4205 -5260 -5050 -3418 0
1000000 2891 -4205 -5260 -5050 -3418 0
1000000 408 -3482 -4203 -3523 0
1000000 2892 -3482 -4203 -3523 0
1000000 476 -3704 -6250 -5549 -5885 0
1000000 2893 -3704 -6250 -5549 -5885 0
1000000 685 -3507 -3531 -3948 0
1000000 2894 -3507 -3531 -3948 0
1000000 817 -5322 -6003 -3821 -6027 -5601 0
1000000 2895 -5322 -6003 -3821 -6027 -5601 0
1000000 281 -4771 -4867 -3485 -5990 0
1000000 2896 -4771 -4867 -3485 -5990 0
1000000 669 -6024 -4253 -5300 -5494 0
1000000 2897 -6024 -4253 -5300 -5494 0
1000000 917 -5326 -4938 -3565 -4780 0
1000000 2898 -5326 -4938 -3565 -4780 0
1000000 322 -4816 -5876 -6152 -3634 0
1000000 2899 -4816 -5876 -6152 -3634 0
1000000 924 -4285 -5190 -4638 0
1000000 2900 -4285 -5190 -4638 0
1000000 937 -4062 -5243 0
1000000 2901 -4062 -5243 0
1000000 678 -5537 -6219 -3611 0
1000000 2902 -5537 -6219 -3611 0
1000000 169 -5030 -5887 -4689 -3708 -3425 0
1000000 2903 -5030 -5887 -4689 -3708 -3425 0
1000000 295 -5504 -6114 -5085 -5056 -4261 0
1000000 2904 -5504 -6114 -5085 -5056 -4261 0
1000000 864 -3697 -3668 -4765 -4156 0
1000000 2905 -3697 -3668 -4765 -4156 0
1000000 920 -4412 -4358 -5092 -4091 0
1000000 2906 -4412 -4358 -5092 -4091 0
1000000 451 -4883 -4684 -4881 0
1000000 2907 -4883 -4684 -4881 0
1000000 619 -4396 -4074 0
1000000 2908 -4396 -4074 0
1000000 489 -5497 -3895 -6056 -5541 -3832 0
1000000 2909 -5497 -3895 -6056 -5541 -3832 0
1000000 587 -6304 -5649 -5170 -6217 -3796 0
1000000 2910 -6304 -5649 -5170 -6217 -3796 0
1000000 856 -4400 -936 0
1000000 2911 -4400 -936 0
1000000 290 -3589 -4043 0
1000000 2912 -3589 -4043 0
1000000 881 -5629 -4901 0
1000000 2913 -5629 -4901 0
1000000 545 -6283 -5825 -4030 -6066 -683 0
1000000 2914 -6283 -5825 -4030 -6066 -683 0
1000000 455 -5162 -5679 -3593 0
1000000 2915 -5162 -5679 -3593 0
1000000 673 -6007 -5385 -4435 0
1000000 2916 -6007 -5385 -4435 0
1000000 83 -3722 -5379 -4708 0
1000000 2917 -3722 -5379 -4708 0
1000000 638 -5448 -651 0
1000000 2918 -5448 -651 0
1000000 706 -4852 -5943 0
1000000 2919 -4852 -5943 0
1000000 261 -4642 -6323 -5084 -5158 -6342 0
1000000 2920 -4642 -6323 -5084 -5158 -6342 0
1000000 527 -3512 -5770 -3841 -3749 0
1000000 2921 -3512 -5770 -3841 -3749 0
1000000 708 -4986 -3928 0
1000000 2922 -4986 -3928 0
1000000 767 -3532 -4072 0
1000000 2923 -3532 -4072 0
1000000 944 -4638 -4226 0
1000000 2924 -4638 -4226 0
1000000 798 -3898 -4171 -6268 -4594 0
1000000 2925 -3898 -4171 -6268 -4594 0
1000000 982 -6116 -4349 -4776 -3591 -991 0
1000000 2926 -6116 -4349 -4776 -3591 -991 0
1000000 503 -4521 -668 0
1000000 2927 -4521 -668 0
1000000 917 -3748 -4857 0
1000000 2928 -3748 -4857 0
1000000 647 -6161 -5255 -4378 -4369 0
1000000 2929 -6161 -5255 -4378 -4369 0
1000000 940 -3916 -4117 -3631 0
1000000 2930 -3916 -4117 -3631 0
1000000 265 -4031 -4163 -5055 0
1000000 2931 -4031 -4163 -5055 0
1000000 283 -4996 -397 0
1000000 2932 -4996 -397 0
1000000 564 -4132 -6146 -6177 -4857 0
1000000 2933 -4132 -6146 -6177 -4857 0
1000000 939 -5584 -6082 -953 0
1000000 2934 -5584 -6082 -953 0
1000000 689 -3726 -4159 -3757 0
1000000 2935 -3726 -4159 -3757 0
1000000 303 -3410 -6340 0
1000000 2936 -3410 -6340 0
1000000 511 -4735 -3487 0
1000000 2937 -4735 -3487 0
1000000 218 -5110 -4349 -6342 -3893 -3895 0
1000000 2938 -5110 -4349 -6342 -3893 -3895 0
1000000 488 -4689 -3501 -4865 0
1000000 2939 -4689 -3501 -4865 0
1000000 651 -4981 -3981 0
1000000 2940 -4981 -3981 0
1000000 120 -5228 -600 0
1000000 2941 -5228 -600 0
1000000 62 -5392 -6104 -5696 0
1000000 2942 -5392 -6104 -5696 0
1000000 153 -4928 -4067 -649 0
1000000 2943 -4928 -4067 -649 0
1000000 161 -4594 -3474 -4288 -3940 0
1000000 2944 -4594 -3474 -4288 -3940 0
1000000 888 -5981 -4854 -4127 -4972 0
1000000 2945 -5981 -4854 -4127 -4972 0
1000000 357 -6324 -5275 -3567 -3880 0
1000000 2946 -6324 -5275 -3567 -3880 0
1000000 432 -6010 -3939 -4515 -4387 0
1000000 2947 -6010 -3939 -4515 -4387 0
1000000 444 -5361 -6222 -770 0
1000000 2948 -5361 -6222 -770 0
1000000 663 -4682 -5298 -5856 -861 0
1000000 2949 -4682 -5298 -5856 -861 0
1000000 911 -4876 -3447 -916 0
1000000 2950 -4876 -3447 -916 0
1000000 596 -4534 -4278 -5179 -5099 0
1000000 2951 -4534 -4278 -5179 -5099 0
1000000 467 -4924 -3827 -5499 -3816 -5249 0
1000000 2952 -4924 -3827 -5499 -3816 -5249 0
1000000 261 -5736 -5343 -4051 0
1000000 2953 -5736 -5343 -4051 0
1000000 109 -4978 -4004 -5192 -4718 0
1000000 2954 -4978 -4004 -5192 -4718 0
1000000 102 -3720 -4114 -6017 0
1000000 2955 -3720 -4114 -6017 0
1000000 425 -5649 -677 0
1000000 2956 -5649 -677 0
1000000 382 -4196 -4316 -3484 -772 0
1000000 2957 -4196 -4316 -3484 -772 0
1000000 158 -4437 -4065 -5844 -447 0
1000000 2958 -4437 -4065 -5844 -447 0
1000000 815 -4583 -3424 -4135 -5964 -999 0
1000000 2959 -4583 -3424 -4135 -5964 -999 0
1000000 371 -4461 -4463 -4749 -4895 0
1000000 2960 -4461 -4463 -4749 -4895 0
1000000 785 -6385 -5004 -4268 0
1000000 2961 -6385 -5004 -4268 0
1000000 672 -5396 -3908 -6048 -5414 -5405 0
1000000 2962 -5396 -3908 -6048 -5414 -5405 0
1000000 727 -5148 -4569 -3431 -5082 -980 0
1000000 2963 -5148 -4569 -3431 -5082 -980 0
1000000 852 -4036 -4543 -6171 -5594 -6075 0
1000000 2964 -4036 -4543 -6171 -5594 -6075 0
1000000 988 -5618 -4456 -5441 0
1000000 2965 -5618 -4456 -5441 0
1000000 512 -4011 -4977 -6093 0
1000000 2966 -4011 -4977 -6093 0
1000000 4 -3522 -4372 -4819 0
1000000 2967 -3522 -4372 -4819 0
1000000 677 -6216 -4365 0
1000000 2968 -6216 -4365 0
1000000 375 -6273 -4438 -5185 -630 0
1000000 2969 -6273 -4438 -5185 -630 0
1000000 738 -4776 -4129 -4014 -5526 0
1000000 2970 -4776 -4129 -4014 -5526 0
1000000 507 -6353 -4707 -4754 -5518 -4983 0
1000000 2971 -6353 -4707 -4754 -5518 -4983 0
1000000 538 -5905 -6332 -5026 0
1000000 2972 -5905 -6332 -5026 0
1000000 697 -6089 -5257 -4535 -4135 -767 0
1000000 2973 -6089 -5257 -4535 -4135 -767 0
1000000 103 -4070 -5213 0
1000000 2974 -4070 -5213 0
1000000 394 -3480 -5686 -4701 -5224 0
1000000 2975 -3480 -5686 -4701 -5224 0
1000000 202 -5551 -327 0
1000000 2976 -5551 -327 0
1000000 809 -5308 -3539 -4944 0
1000000 2977 -5308 -3539 -4944 0
1000000 306 -5374 -730 0
1000000 2978 -5374 -730 0
1000000 93 -4112 -4392 -4219 0
1000000 2979 -4112 -4392 -4219 0
1000000 161 -3595 -5961 -4710 0
1000000 2980 -3595 -5961 -4710 0
1000000 279 -4336 -4607 -3816 0
1000000 2981 -4336 -4607 -3816 0
1000000 853 -5772 -6227 -5951 -5202 -868 0
1000000 2982 -5772 -6227 -5951 -5202 -868 0
1000000 989 -6082 -5219 -5400 -5781 -998 0
1000000 2983 -6082 -5219 -5400 -5781 -998 0
1000000 136 -3517 -4831 -5577 -3837 -5535 0
1000000 2984 -3517 -4831 -5577 -3837 -5535 0
1000000 477 -3559 -4772 -937 0
1000000 2985 -3559 -4772 -937 0
1000000 333 -5404 -5999 0
1000000 2986 -5404 -5999 0
1000000 723 -3554 -4286 -5856 -5975 0
1000000 2987 -3554 -4286 -5856 -5975 0
1000000 90 -3843 -3748 -4897 0
1000000 2988 -3843 -3748 -4897 0
1000000 104 -4864 -3538 -5715 0
1000000 2989 -4864 -3538 -5715 0
1000000 789 -3878 -6243 -5279 -4952 -4658 0
1000000 2990 -3878 -6243 -5279 -4952 -4658 0
1000000 698 -3435 -6164 0
1000000 2991 -3435 -6164 0
1000000 51 -4636 -5147 -4391 -5856 -849 0
1000000 2992 -4636 -5147 -4391 -5856 -849 0
1000000 423 -3496 -5937 0
1000000 2993 -3496 -5937 0
1000000 714 -4946 -5527 -3801 -4131 -4222 0
1000000 2994 -4946 -5527 -3801 -4131 -4222 0
1000000 109 -4946 -5083 -5892 -4697 0
1000000 2995 -4946 -5083 -5892 -4697 0
1000000 788 -3534 -5318 -6202 -4968 0
1000000 2996 -3534 -5318 -6202 -4968 0
1000000 814 -3587 -4965 0
1000000 2997 -3587 -4965 0
1000000 204 -3680 -6343 -3447 -3739 -4974 0
1000000 2998 -3680 -6343 -3447 -3739 -4974 0
1000000 825 -4747 -4849 -5298 -5626 0
1000000 2999 -4747 -4849 -5298 -5626 0
1000000 346 -6352 -4059 -5836 -6363 -975 0
1000000 3000 -6352 -4059 -5836 -6363 -975 0
1000000 364 -3601 -4415 -4870 -4700 0
1000000 3001 -3601 -4415 -4870 -4700 0
1000000 457 -3408 -5038 0
1000000 3002 -3408 -5038 0
1000000 585 -5501 -900 0
1000000 3003 -5501 -900 0
1000000 1 -5665 -6024 0
1000000 3004 -5665 -6024 0
1000000 857 -3864 -4999 -6029 0
1000000 3005 -3864 -4999 -6029 0
1000000 339 -3881 -5154 -5910 0
1000000 3006 -3881 -5154 -5910 0
1000000 378 -3873 -651 0
1000000 3007 -3873 -651 0
1000000 266 -5012 -4299 -3881 0
1000000 3008 -5012 -4299 -3881 0
1000000 274 -4592 -5998 0
1000000 3009 -4592 -5998 0
1000000 927 -5854 -5825 -4359 -3744 0
1000000 3010 -5854 -5825 -4359 -3744 0
1000000 867 -3561 -6096 -5274 -3882 0
1000000 3011 -3561 -6096 -5274 -3882 0
1000000 557 -3915 -5789 -5441 -5663 0
1000000 3012 -3915 -5789 -5441 -5663 0
1000000 615 -3869 -4086 -4561 -5505 0
1000000 3013 -3869 -4086 -4561 -5505 0
1000000 621 -3693 -6211 0
1000000 3014 -3693 -6211 0
1000000 543 -6296 -3454 0
1000000 3015 -6296 -3454 0
1000000 50 -4005 -5129 0
1000000 3016 -4005 -5129 0
1000000 110 -3744 -6366 0
1000000 3017 -3744 -6366 0
1000000 292 -5022 -4287 -6009 0
1000000 3018 -5022 -4287 -6009 0
1000000 437 -4996 -4555 -5895 -5176 0
1000000 3019 -4996 -4555 -5895 -5176 0
1000000 522 -4759 -5703 -5186 -4064 0
1000000 3020 -4759 -5703 -5186 -4064 0
1000000 67 -4361 -3956 -4265 0
1000000 3021 -4361 -3956 -4265 0
1000000 661 -4384 -5142 0
1000000 3022 -4384 -5142 0
1000000 304 -6080 -4536 -5479 -4040 0
1000000 3023 -6080 -4536 -5479 -4040 0
1000000 835 -4886 -958 0
1000000 3024 -4886 -958 0
1000000 549 -5892 -6194 -4865 0
1000000 3025 -5892 -6194 -4865 0
1000000 332 -5602 -4176 -4826 0
1000000 3026 -5602 -4176 -4826 0
1000000 763 -3842 -4959 0
1000000 3027 -3842 -4959 0
1000000 18 -3911 -5563 -4965 -604 0
1000000 3028 -3911 -5563 -4965 -604 0
1000000 391 -3785 -5258 -5278 -4312 0
1000000 3029 -3785 -5258 -5278 -4312 0
1000000 291 -5284 -4588 -6283 -3402 0
1000000 3030 -5284 -4588 -6283 -3402 0
1000000 757 -5013 -5432 -4175 -4985 0
1000000 3031 -5013 -5432 -4175 -4985 0
1000000 313 -4002 -4179 -3575 -735 0
1000000 3032 -4002 -4179 -3575 -735 0
1000000 961 -3425 -4135 -4778 -6075 0
1000000 3033 -3425 -4135 -4778 -6075 0
1000000 666 -5467 -6135 0
1000000 3034 -5467 -6135 0
1000000 871 -5242 -3658 -3474 -4708 0
1000000 3035 -5242 -3658 -3474 -4708 0
1000000 668 -5669 -5707 -3907 -4459 -6190 0
1000000 3036 -5669 -5707 -3907 -4459 -6190 0
1000000 516 -4597 -3689 -4774 -5908 0
1000000 3037 -4597 -3689 -4774 -5908 0
1000000 137 -3875 -5884 -5673 -4978 -6125 0
1000000 3038 -3875 -5884 -5673 -4978 -6125 0
1000000 558 -5532 -3765 -4119 0
1000000 3039 -5532 -3765 -4119 0
1000000 770 -3776 -4263 0
1000000 3040 -3776 -4263 0
1000000 483 -4821 -5392 -6152 -5323 0
1000000 3041 -4821 -5392 -6152 -5323 0
1000000 541 -3816 -5785 -4755 -4559 0
1000000 3042 -3816 -5785 -4755 -4559 0
1000000 381 -4432 -5714 -4958 0
1000000 3043 -4432 -5714 -4958 0
1000000 806 -5930 -4813 -5629 -5866 0
1000000 3044 -5930 -4813 -5629 -5866 0
1000000 329 -4051 -4539 -4384 -5151 0
1000000 3045 -4051 -4539 -4384 -5151 0
1000000 979 -6195 -5820 -3769 -5754 -4943 0
1000000 3046 -6195 -5820 -3769 -5754 -4943 0
1000000 961 -4388 -6258 0
1000000 3047 -4388 -6258 0
1000000 661 -3449 -775 0
1000000 3048 -3449 -775 0
1000000 858 -5689 -4472 -6142 -948 0
1000000 3049 -5689 -4472 -6142 -948 0
1000000 963 -5394 -4369 -5310 -5176 0
1000000 3050 -5394 -4369 -5310 -5176 0
1000000 855 -3663 -3499 0
1000000 3051 -3663 -3499 0
1000000 249 -3436 -6085 -3831 -5532 -6329 0
1000000 3052 -3436 -6085 -3831 -5532 -6329 0
1000000 60 -3869 -6183 -3618 -706 0
1000000 3053 -3869 -6183 -3618 -706 0
1000000 715 -3554 -4145 0
1000000 3054 -3554 -4145 0
1000000 643 -5180 -4256 -764 0
1000000 3055 -5180 -4256 -764 0
1000000 902 -6372 -6243 0
1000000 3056 -6372 -6243 0
1000000 75 -4484 -5764 -5333 -5841 -5493 0
1000000 3057 -4484 -5764 -5333 -5841 -5493 0
1000000 157 -3838 -5951 -6357 -3942 0
1000000 3058 -3838 -5951 -6357 -3942 0
1000000 458 -6120 -3502 -4053 -5610 0
1000000 3059 -6120 -3502 -4053 -5610 0
1000000 810 -6095 -5006 0
1000000 3060 -6095 -5006 0
1000000 682 -6252 -4855 -5553 0
1000000 3061 -6252 -4855 -5553 0
1000000 273 -5846 -5090 -5645 -6188 -5556 0
1000000 3062 -5846 -5090 -5645 -6188 -5556 0
1000000 936 -3942 -4735 0
1000000 3063 -3942 -4735 0
1000000 253 -4931 -6196 -5255 -5479 -677 0
1000000 3064 -4931 -6196 -5255 -5479 -677 0
1000000 755 -3502 -5591 -4204 0
1000000 3065 -3502 -5591 -4204 0
1000000 92 -4447 -4635 -5872 -5222 -768 0
1000000 3066 -4447 -4635 -5872 -5222 -768 0
1000000 534 -5012 -4981 -4763 -3502 0
1000000 3067 -5012 -4981 -4763 -3502 0
1000000 240 -5226 -5992 -4483 -5474 -4356 0
1000000 3068 -5226 -5992 -4483 -5474 -4356 0
1000000 240 -4404 -5508 -3609 -354 0
1000000 3069 -4404 -5508 -3609 -354 0
1000000 839 -4072 -954 0
1000000 3070 -4072 -954 0
1000000 30 -4102 -5170 0
1000000 3071 -4102 -5170 0
1000000 972 -3418 -4677 -978 0
1000000 3072 -3418 -4677 -978 0
1000000 692 -3992 -5831 -5367 0
1000000 3073 -3992 -5831 -5367 0
1000000 236 -5964 -4308 -3577 -5295 0
1000000 3074 -5964 -4308 -3577 -5295 0
1000000 798 -5555 -3576 -833 0
1000000 3075 -5555 -3576 -833 0
1000000 268 -3461 -4168 -3596 0
1000000 3076 -3461 -4168 -3596 0
1000000 381 -4158 -4261 -3880 0
1000000 3077 -4158 -4261 -3880 0
1000000 980 -5532 -4174 -4461 -4085 -6354 0
1000000 3078 -5532 -4174 -4461 -4085 -6354 0
1000000 637 -3935 -4284 -4646 -708 0
1000000 3079 -3935 -4284 -4646 -708 0
1000000 616 -3564 -4238 -6058 0
1000000 3080 -3564 -4238 -6058 0
1000000 963 -5609 -6175 -6169 -966 0
1000000 3081 -5609 -6175 -6169 -966 0
1000000 774 -3738 -4138 0
1000000 3082 -3738 -4138 0
1000000 973 -5130 -5016 -5934 0
1000000 3083 -5130 -5016 -5934 0
1000000 971 -5975 -5683 -3709 -6199 0
1000000 3084 -5975 -5683 -3709 -6199 0
1000000 832 -6101 -4369 -5276 -5005 0
1000000 3085 -6101 -4369 -5276 -5005 0
1000000 249 -4207 -4778 -437 0
1000000 3086 -4207 -4778 -437 0
1000000 264 -3905 -4211 -312 0
1000000 3087 -3905 -4211 -312 0
1000000 184 -6219 -3448 -3574 -234 0
1000000 3088 -6219 -3448 -3574 -234 0
1000000 826 -4145 -4008 -5615 -4830 -959 0
1000000 3089 -4145 -4008 -5615 -4830 -959 0
1000000 251 -3882 -3860 -4749 0
1000000 3090 -3882 -3860 -4749 0
1000000 592 -3724 -3869 -750 0
1000000 3091 -3724 -3869 -750 0
1000000 515 -3610 -6060 -5529 0
1000000 3092 -3610 -6060 -5529 0
1000000 322 -3748 -3924 -4467 -5180 0
1000000 3093 -3748 -3924 -4467 -5180 0
1000000 311 -4439 -4087 -4096 0
1000000 3094 -4439 -4087 -4096 0
1000000 66 -4182 -3814 0
1000000 3095 -4182 -3814 0
1000000 319 -5156 -3504 -4562 0
1000000 3096 -5156 -3504 -4562 0
1000000 518 -3887 -4870 -5297 -4894 -4505 0
1000000 3097 -3887 -4870 -5297 -4894 -4505 0
1000000 329 -3620 -5293 0
1000000 3098 -3620 -5293 0
1000000 124 -3771 -5215 0
1000000 3099 -3771 -5215 0
1000000 469 -4558 -5449 0
1000000 3100 -4558 -5449 0
1000000 679 -4933 -5689 -4838 0
1000000 3101 -4933 -5689 -4838 0
1000000 263 -3927 -4638 -3507 0
1000000 3102 -3927 -4638 -3507 0
1000000 209 -5305 -4534 -6093 -4120 -733 0
1000000 3103 -5305 -4534 -6093 -4120 -733 0
1000000 374 -4215 -3581 -3954 0
1000000 3104 -4215 -3581 -3954 0
1000000 349 -3996 -5858 -4826 -4351 0
1000000 3105 -3996 -5858 -4826 -4351 0
1000000 740 -3576 -3902 -5690 -4629 0
1000000 3106 -3576 -3902 -5690 -4629 0
1000000 138 -5976 -5894 0
1000000 3107 -5976 -5894 0
1000000 411 -4443 -3875 -4768 0
1000000 3108 -4443 -3875 -4768 0
1000000 427 -5276 -3515 -5924 -886 0
1000000 3109 -5276 -3515 -5924 -886 0
1000000 978 -5206 -3585 -3529 -4102 -3613 0
1000000 3110 -5206 -3585 -3529 -4102 -3613 0
1000000 873 -5122 -4560 -5663 -969 0
1000000 3111 -5122 -4560 -5663 -969 0
1000000 963 -5486 -4491 -6088 0
1000000 3112 -5486 -4491 -6088 0
1000000 403 -3701 -4837 -5159 -4941 -4239 0
1000000 3113 -3701 -4837 -5159 -4941 -4239 0
1000000 203 -3795 -946 0
1000000 3114 -3795 -946 0
1000000 886 -4646 -5315 0
1000000 3115 -4646 -5315 0
1000000 75 -5381 -3427 -5171 -3973 -6101 0
1000000 3116 -5381 -3427 -5171 -3973 -6101 0
1000000 335 -4189 -5030 -877 0
1000000 3117 -4189 -5030 -877 0
1000000 5 -3636 -3483 -5433 -3551 0
1000000 3118 -3636 -3483 -5433 -3551 0
1000000 672 -6054 -5572 -3689 -5534 -4824 0
1000000 3119 -6054 -5572 -3689 -5534 -4824 0
1000000 788 -4997 -4042 0
1000000 3120 -4997 -4042 0
1000000 652 -4674 -5803 -3772 0
1000000 3121 -4674 -5803 -3772 0
1000000 229 -4852 -6208 -3632 -298 0
1000000 3122 -4852 -6208 -3632 -298 0
1000000 223 -5620 -5036 -5045 -5095 0
1000000 3123 -5620 -5036 -5045 -5095 0
1000000 840 -4641 -5356 -4679 -971 0
1000000 3124 -4641 -5356 -4679 -971 0
1000000 353 -5578 -6188 -5963 0
1000000 3125 -5578 -6188 -5963 0
1000000 59 -4902 -893 0
1000000 3126 -4902 -893 0
1000000 681 -3697 -5436 -5114 -4887 -5164 0
1000000 3127 -3697 -5436 -5114 -4887 -5164 0
1000000 571 -4216 -909 0
1000000 3128 -4216 -909 0
1000000 91 -3912 -5244 -3769 -5618 0
1000000 3129 -3912 -5244 -3769 -5618 0
1000000 690 -4010 -3789 0
1000000 3130 -4010 -3789 0
1000000 473 -4467 -3923 -5752 -3553 -763 0
1000000 3131 -4467 -3923 -5752 -3553 -763 0
1000000 657 -5293 -5663 -3963 -3727 0
1000000 3132 -5293 -5663 -3963 -3727 0
1000000 317 -3892 -5837 -3878 0
1000000 3133 -3892 -5837 -3878 0
1000000 635 -4789 -6237 0
1000000 3134 -4789 -6237 0
1000000 501 -4721 -5413 -5214 -4885 -3822 0
1000000 3135 -4721 -5413 -5214 -4885 -3822 0
1000000 387 -5038 -946 0
1000000 3136 -5038 -946 0
1000000 669 -6003 -3890 -5634 -5062 -4847 0
1000000 3137 -6003 -3890 -5634 -5062 -4847 0
1000000 204 -4857 -5435 -3879 -5775 0
1000000 3138 -4857 -5435 -3879 -5775 0
1000000 816 -5474 -5048 -3796 -4262 0
1000000 3139 -5474 -5048 -3796 -4262 0
1000000 654 -6254 -4330 -3413 -4197 0
1000000 3140 -6254 -4330 -3413 -4197 0
1000000 734 -6308 -3693 -5644 0
1000000 3141 -6308 -3693 -5644 0
1000000 47 -4101 -723 0
1000000 3142 -4101 -723 0
1000000 214 -4917 -5240 0
1000000 3143 -4917 -5240 0
1000000 703 -3628 -4992 -4232 -5212 -4050 0
1000000 3144 -3628 -4992 -4232 -5212 -4050 0
1000000 697 -4327 -6312 -5589 0
1000000 3145 -4327 -6312 -5589 0
1000000 547 -4605 -5187 0
1000000 3146 -4605 -5187 0
1000000 52 -5252 -6147 0
1000000 3147 -5252 -6147 0
1000000 223 -6313 -6098 -6197 -6053 0
1000000 3148 -6313 -6098 -6197 -6053 0
1000000 209 -4912 -4705 -5458 -4272 0
1000000 3149 -4912 -4705 -5458 -4272 0
1000000 620 -5226 -4396 -3621 -5722 -3563 0
1000000 3150 -5226 -4396 -3621 -5722 -3563 0
1000000 735 -5485 -6348 -767 0
1000000 3151 -5485 -6348 -767 0
1000000 564 -6037 -6338 0
1000000 3152 -6037 -6338 0
1000000 41 -4659 -4034 -4845 -5941 -4239 0
1000000 3153 -4659 -4034 -4845 -5941 -4239 0
1000000 213 -3679 -5385 -4093 0
1000000 3154 -3679 -5385 -4093 0
1000000 175 -4722 -4842 -4323 0
1000000 3155 -4722 -4842 -4323 0
1000000 197 -4083 -6160 -5183 -5511 -5944 0
1000000 3156 -4083 -6160 -5183 -5511 -5944 0
1000000 878 -4408 -4493 0
1000000 3157 -4408 -4493 0
1000000 296 -4141 -3868 -500 0
1000000 3158 -4141 -3868 -500 0
1000000 756 -4807 -5570 -5057 -3795 -6176 0
1000000 3159 -4807 -5570 -5057 -3795 -6176 0
1000000 355 -4623 -4733 -4920 0
1000000 3160 -4623 -4733 -4920 0
1000000 265 -5143 -4049 -6282 0
1000000 3161 -5143 -4049 -6282 0
1000000 491 -5377 -4550 -5143 -3945 -5897 0
1000000 3162 -5377 -4550 -5143 -3945 -5897 0
1000000 464 -4660 -3876 -5112 -3807 0
1000000 3163 -4660 -3876 -5112 -3807 0
1000000 327 -5684 -4328 -6394 0
1000000 3164 -5684 -4328 -6394 0
1000000 492 -6180 -3703 -3989 0
1000000 3165 -6180 -3703 -3989 0
1000000 164 -4133 -6237 -3629 -6069 -202 0
1000000 3166 -4133 -6237 -3629 -6069 -202 0
1000000 461 -3658 -5628 -3686 -4383 0
1000000 3167 -3658 -5628 -3686 -4383 0
1000000 337 -6061 -4823 -3843 -5768 0
1000000 3168 -6061 -4823 -3843 -5768 0
1000000 304 -4778 -6087 -6020 0
1000000 3169 -4778 -6087 -6020 0
1000000 833 -4953 -5809 -3816 -4720 0
1000000 3170 -4953 -5809 -3816 -4720 0
1000000 991 -4462 -992 0
1000000 3171 -4462 -992 0
1000000 935 -4810 -4904 -5098 0
1000000 3172 -4810 -4904 -5098 0
1000000 753 -3743 -4321 -3969 -853 0
1000000 3173 -3743 -4321 -3969 -853 0
1000000 523 -5076 -4954 -4950 -4002 -4997 0
1000000 3174 -5076 -4954 -4950 -4002 -4997 0
1000000 288 -5301 -5185 -4773 0
1000000 3175 -5301 -5185 -4773 0
1000000 327 -5522 -4410 -4658 0
1000000 3176 -5522 -4410 -4658 0
1000000 610 -4370 -845 0
1000000 3177 -4370 -845 0
1000000 247 -3423 -5084 -5592 -5662 -4503 0
1000000 3178 -3423 -5084 -5592 -5662 -4503 0
1000000 345 -6297 -5967 -5554 -6307 -5290 0
1000000 3179 -6297 -5967 -5554 -6307 -5290 0
1000000 141 -4381 -382 0
1000000 3180 -4381 -382 0
1000000 789 -4976 -6330 -5626 -6065 0
1000000 3181 -4976 -6330 -5626 -6065 0
1000000 198 -3895 -6243 -4289 -4662 0
1000000 3182 -3895 -6243 -4289 -4662 0
1000000 746 -3990 -3578 0
1000000 3183 -3990 -3578 0
1000000 144 -6346 -4325 -6068 -4989 -5847 0
1000000 3184 -6346 -4325 -6068 -4989 -5847 0
1000000 874 -5897 -985 0
1000000 3185 -5897 -985 0
1000000 10 -5410 -5960 0
1000000 3186 -5410 -5960 0
1000000 685 -5593 -757 0
1000000 3187 -5593 -757 0
1000000 991 -5954 -5278 -3795 0
1000000 3188 -5954 -5278 -3795 0
1000000 178 -5716 -5260 0
1000000 3189 -5716 -5260 0
1000000 737 -6389 -4077 0
1000000 3190 -6389 -4077 0
1000000 982 -4810 -3743 -4573 -6037 0
1000000 3191 -4810 -3743 -4573 -6037 0
1000000 415 -5329 -5888 -3577 0
1000000 3192 -5329 -5888 -3577 0
1000000 517 -5703 -4233 -620 0
1000000 3193 -5703 -4233 -620 0
1000000 377 -4746 -5045 -6171 -5098 -4486 0
1000000 3194 -4746 -5045 -6171 -5098 -4486 0
1000000 7 -3678 -4444 -4484 -5010 -5493 0
1000000 3195 -3678 -4444 -4484 -5010 -5493 0
1000000 879 -3824 -6266 -970 0
1000000 3196 -3824 -6266 -970 0
1000000 445 -4650 -5358 -6065 -638 0
1000000 3197 -4650 -5358 -6065 -638 0
1000000 573 -3488 -3957 -5750 0
1000000 3198 -3488 -3957 -5750 0
1000000 195 -3761 -4866 -3617 -4077 0
1000000 3199 -3761 -4866 -3617 -4077 0
1000000 717 -6094 -3709 -3906 -5587 -4748 0
1000000 3200 -6094 -3709 -3906 -5587 -4748 0
1000000 553 -4484 -5029 0
1000000 3201 -4484 -5029 0
1000000 655 -4624 -6186 -4227 0
1000000 3202 -4624 -6186 -4227 0
1000000 366 -4662 -6055 -5692 0
1000000 3203 -4662 -6055 -5692 0
1000000 127 -3874 -6365 -4851 0
1000000 3204 -3874 -6365 -4851 0
1000000 950 -5274 -6191 -5655 -6226 -952 0
1000000 3205 -5274 -6191 -5655 -6226 -952 0
1000000 154 -5079 -3956 -4768 -5803 0
1000000 3206 -5079 -3956 -4768 -5803 0
1000000 914 -5308 -6038 -5428 -6194 0
1000000 3207 -5308 -6038 -5428 -6194 0
1000000 657 -3556 -5146 -5351 0
1000000 3208 -3556 -5146 -5351 0
1000000 353 -4972 -5405 -4219 -5698 -651 0
1000000 3209 -4972 -5405 -4219 -5698 -651 0
1000000 227 -3796 -4396 -6372 -6202 -5527 0
1000000 3210 -3796 -4396 -6372 -6202 -5527 0
1000000 718 -3855 -4553 -4226 0
1000000 3211 -3855 -4553 -4226 0
1000000 94 -3935 -5705 -5111 -4228 -236 0
1000000 3212 -3935 -5705 -5111 -4228 -236 0
1000000 613 -4893 -5127 -821 0
1000000 3213 -4893 -5127 -821 0
1000000 800 -6176 -5525 0
1000000 3214 -6176 -5525 0
1000000 345 -4426 -4915 -4964 -3911 0
1000000 3215 -4426 -4915 -4964 -3911 0
1000000 215 -5805 -4504 -4153 -6104 0
1000000 3216 -5805 -4504 -4153 -6104 0
1000000 187 -5168 -5877 -5140 -962 0
1000000 3217 -5168 -5877 -5140 -962 0
1000000 936 -4930 -5515 -5403 0
1000000 3218 -4930 -5515 -5403 0
1000000 712 -4477 -3752 -5200 -5673 -6386 0
1000000 3219 -4477 -3752 -5200 -5673 -6386 0
1000000 480 -5784 -589 0
1000000 3220 -5784 -589 0
1000000 860 -4004 -5556 -5992 0
1000000 3221 -4004 -5556 -5992 0
1000000 430 -5772 -6133 -801 0
1000000 3222 -5772 -6133 -801 0
1000000 754 -3753 -5364 0
1000000 3223 -3753 -5364 0
1000000 825 -5191 -5718 0
1000000 3224 -5191 -5718 0
1000000 726 -5310 -6370 -818 0
1000000 3225 -5310 -6370 -818 0
1000000 709 -4260 -4642 -3993 -5990 -3959 0
1000000 3226 -4260 -4642 -3993 -5990 -3959 0
1000000 985 -5121 -3887 -5530 -3957 -4184 0
1000000 3227 -5121 -3887 -5530 -3957 -4184 0
1000000 797 -6096 -5350 -4884 0
1000000 3228 -6096 -5350 -4884 0
1000000 356 -6150 -5389 -6265 -5554 -4166 0
1000000 3229 -6150 -5389 -6265 -5554 -4166 0
1000000 859 -4053 -5249 0
1000000 3230 -4053 -5249 0
1000000 416 -5801 -5160 -506 0
1000000 3231 -5801 -5160 -506 0
1000000 835 -6213 -4446 -4443 0
1000000 3232 -6213 -4446 -4443 0
1000000 848 -4795 -6065 -3471 -922 0
1000000 3233 -4795 -6065 -3471 -922 0
1000000 291 -5336 -3444 -6077 0
1000000 3234 -5336 -3444 -6077 0
1000000 398 -4834 -4921 -4459 -579 0
1000000 3235 -4834 -4921 -4459 -579 0
1000000 627 -6350 -5226 -5726 0
1000000 3236 -6350 -5226 -5726 0
1000000 474 -4457 -3923 -3808 -4037 0
1000000 3237 -4457 -3923 -3808 -4037 0
1000000 995 -6051 -998 0
1000000 3238 -6051 -998 0
1000000 993 -5711 -3403 -5041 -999 0
1000000 3239 -5711 -3403 -5041 -999 0
1000000 600 -4403 -4492 -3641 -4929 -4723 0
1000000 3240 -4403 -4492 -3641 -4929 -4723 0
1000000 435 -6399 -3572 -5212 -4998 0
1000000 3241 -6399 -3572 -5212 -4998 0
1000000 741 -5446 -4374 0
1000000 3242 -5446 -4374 0
1000000 690 -4884 -4220 -3609 0
1000000 3243 -4884 -4220 -3609 0
1000000 33 -5270 -4315 -625 0
1000000 3244 -5270 -4315 -625 0
1000000 152 -4666 -6009 -4434 -6368 -758 0
1000000 3245 -4666 -6009 -4434 -6368 -758 0
1000000 929 -3954 -6275 0
1000000 3246 -3954 -6275 0
1000000 939 -4689 -3447 -3958 -5453 0
1000000 3247 -4689 -3447 -3958 -5453 0
1000000 115 -6342 -5993 -6281 0
1000000 3248 -6342 -5993 -6281 0
1000000 404 -4067 -5179 -5032 -6166 -701 0
1000000 3249 -4067 -5179 -5032 -6166 -701 0
1000000 151 -5578 -4470 -4060 0
1000000 3250 -5578 -4470 -4060 0
1000000 491 -4667 -6112 -3971 -3884 -624 0
1000000 3251 -4667 -6112 -3971 -3884 -624 0
1000000 224 -5688 -5662 -5256 -4046 0
1000000 3252 -5688 -5662 -5256 -4046 0
1000000 630 -4726 -5131 -3909 -5083 0
1000000 3253 -4726 -5131 -3909 -5083 0
1000000 821 -4390 -5956 0
1000000 3254 -4390 -5956 0
1000000 237 -4422 -4019 -3515 -4655 0
1000000 3255 -4422 -4019 -3515 -4655 0
1000000 398 -4861 -4185 -767 0
1000000 3256 -4861 -4185 -767 0
1000000 113 -5299 -6361 -5477 -4861 0
1000000 3257 -5299 -6361 -5477 -4861 0
1000000 579 -4730 -708 0
1000000 3258 -4730 -708 0
1000000 299 -6197 -724 0
1000000 3259 -6197 -724 0
1000000 823 -5659 -4805 -5692 -3834 0
1000000 3260 -5659 -4805 -5692 -3834 0
1000000 303 -3738 -3581 -4271 0
1000000 3261 -3738 -3581 -4271 0
1000000 607 -5181 -6107 -5514 -4660 0
1000000 3262 -5181 -6107 -5514 -4660 0
1000000 415 -5374 -3424 -471 0
1000000 3263 -5374 -3424 -471 0
1000000 907 -5233 -5973 -4998 -5337 0
1000000 3264 -5233 -5973 -4998 -5337 0
1000000 546 -6034 -5628 -4047 0
1000000 3265 -6034 -5628 -4047 0
1000000 506 -4672 -4495 0
1000000 3266 -4672 -4495 0
1000000 564 -3647 -3990 -5543 0
1000000 3267 -3647 -3990 -5543 0
1000000 886 -6108 -4659 0
1000000 3268 -6108 -4659 0
1000000 176 -3990 -6084 0
1000000 3269 -3990 -6084 0
1000000 865 -5193 -6103 -5318 -4165 -5071 0
1000000 3270 -5193 -6103 -5318 -4165 -5071 0
1000000 391 -5494 -6400 -4764 0
1000000 3271 -5494 -6400 -4764 0
1000000 718 -4575 -4697 0
1000000 3272 -4575 -4697 0
1000000 855 -5799 -4565 -4582 -5104 0
1000000 3273 -5799 -4565 -4582 -5104 0
1000000 294 -5559 -6275 -4429 -4432 -5551 0
1000000 3274 -5559 -6275 -4429 -4432 -5551 0
1000000 778 -5706 -4746 0
1000000 3275 -5706 -4746 0
1000000 530 -3665 -4656 -4143 -5105 0
1000000 3276 -3665 -4656 -4143 -5105 0
1000000 614 -3859 -4929 -4846 -942 0
1000000 3277 -3859 -4929 -4846 -942 0
1000000 598 -3612 -4827 -4802 -6067 -4239 0
1000000 3278 -3612 -4827 -4802 -6067 -4239 0
1000000 505 -4806 -6245 -627 0
1000000 3279 -4806 -6245 -627 0
1000000 895 -5928 -5940 -6359 -5259 -5571 0
1000000 3280 -5928 -5940 -6359 -5259 -5571 0
1000000 657 -5983 -3858 -5745 -4192 0
1000000 3281 -5983 -3858 -5745 -4192 0
1000000 460 -4236 -4814 -4993 0
1000000 3282 -4236 -4814 -4993 0
1000000 739 -5026 -3721 0
1000000 3283 -5026 -3721 0
1000000 27 -6218 -5873 -4056 -5121 0
1000000 3284 -6218 -5873 -4056 -5121 0
1000000 937 -5476 -4518 -5898 -4828 -5379 0
1000000 3285 -5476 -4518 -5898 -4828 -5379 0
1000000 471 -3428 -6360 0
1000000 3286 -3428 -6360 0
1000000 754 -5468 -4431 -4552 -5635 0
1000000 3287 -5468 -4431 -4552 -5635 0
1000000 919 -4775 -977 0
1000000 3288 -4775 -977 0
1000000 68 -6216 -4088 -5675 -4079 -5589 0
1000000 3289 -6216 -4088 -5675 -4079 -5589 0
1000000 17 -3450 -4422 -5784 -4661 0
1000000 3290 -3450 -4422 -5784 -4661 0
1000000 450 -4714 -4519 -3930 0
1000000 3291 -4714 -4519 -3930 0
1000000 438 -6080 -4299 -3527 -3904 -3661 0
1000000 3292 -6080 -4299 -3527 -3904 -3661 0
1000000 750 -5277 -4872 -5209 -966 0
1000000 3293 -5277 -4872 -5209 -966 0
1000000 804 -5630 -5177 -5553 -5937 -6385 0
1000000 3294 -5630 -5177 -5553 -5937 -6385 0
1000000 788 -5263 -956 0
1000000 3295 -5263 -956 0
1000000 655 -5641 -4243 -4204 -6257 0
1000000 3296 -5641 -4243 -4204 -6257 0
1000000 660 -3765 -4090 0
1000000 3297 -3765 -4090 0
1000000 183 -4826 -5521 -6017 0
1000000 3298 -4826 -5521 -6017 0
1000000 614 -5769 -5129 -660 0
1000000 3299 -5769 -5129 -660 0
1000000 632 -5357 -5815 -3699 -6140 0
1000000 3300 -5357 -5815 -3699 -6140 0
1000000 956 -5902 -5521 -4448 0
1000000 3301 -5902 -5521 -4448 0
1000000 138 -3940 -771 0
1000000 3302 -3940 -771 0
1000000 216 -3505 -4240 -5092 -5543 -3525 0
1000000 3303 -3505 -4240 -5092 -5543 -3525 0
1000000 940 -5254 -5318 0
1000000 3304 -5254 -5318 0
1000000 708 -6362 -5854 -6027 0
1000000 3305 -6362 -5854 -6027 0
1000000 989 -3736 -3474 0
1000000 3306 -3736 -3474 0
1000000 516 -5921 -4410 -874 0
1000000 3307 -5921 -4410 -874 0
1000000 839 -4386 -4380 -4777 -6326 -942 0
1000000 3308 -4386 -4380 -4777 -6326 -942 0
1000000 280 -4959 -4849 -3415 -4793 -5970 0
1000000 3309 -4959 -4849 -3415 -4793 -5970 0
1000000 685 -5076 -3455 -4067 -5162 0
1000000 3310 -5076 -3455 -4067 -5162 0
1000000 247 -4543 -6159 -4880 -5212 -5302 0
1000000 3311 -4543 -6159 -4880 -5212 -5302 0
1000000 170 -6355 -5971 -4129 -5586 -5843 0
1000000 3312 -6355 -5971 -4129 -5586 -5843 0
1000000 188 -5438 -4621 0
1000000 3313 -5438 -4621 0
1000000 541 -5455 -3428 0
1000000 3314 -5455 -3428 0
1000000 952 -5162 -4502 -6198 -3438 0
1000000 3315 -5162 -4502 -6198 -3438 0
1000000 129 -6017 -4603 -4513 -788 0
1000000 3316 -6017 -4603 -4513 -788 0
1000000 84 -4310 -5700 -3593 -5544 0
1000000 3317 -4310 -5700 -3593 -5544 0
1000000 301 -3958 -4299 -5825 -6246 -4854 0
1000000 3318 -3958 -4299 -5825 -6246 -4854 0
1000000 979 -5696 -5021 -4691 -4623 -4757 0
1000000 3319 -5696 -5021 -4691 -4623 -4757 0
1000000 851 -5481 -4191 -4924 -6278 -5947 0
1000000 3320 -5481 -4191 -4924 -6278 -5947 0
1000000 260 -5518 -5831 -3426 -319 0
1000000 3321 -5518 -5831 -3426 -319 0
1000000 18 -5671 -3490 -3582 -3838 -723 0
1000000 3322 -5671 -3490 -3582 -3838 -723 0
1000000 379 -3474 -4522 -6358 -3972 0
1000000 3323 -3474 -4522 -6358 -3972 0
1000000 889 -5269 -6393 -3687 0
1000000 3324 -5269 -6393 -3687 0
1000000 698 -6029 -6345 -5916 -4662 0
1000000 3325 -6029 -6345 -5916 -4662 0
1000000 23 -5843 -4554 -53 0
1000000 3326 -5843 -4554 -53 0
1000000 185 -3542 -4956 -3725 -945 0
1000000 3327 -3542 -4956 -3725 -945 0
1000000 60 -4150 -3616 -687 0
1000000 3328 -4150 -3616 -687 0
1000000 858 -3708 -4805 -4983 0
1000000 3329 -3708 -4805 -4983 0
1000000 945 -5667 -5682 -5383 -965 0
1000000 3330 -5667 -5682 -5383 -965 0
1000000 348 -5449 -6071 -3545 -793 0
1000000 3331 -5449 -6071 -3545 -793 0
1000000 144 -5509 -4742 -6049 0
1000000 3332 -5509 -4742 -6049 0
1000000 444 -4909 -4273 0
1000000 3333 -4909 -4273 0
1000000 22 -3447 -3681 -3857 -6102 0
1000000 3334 -3447 -3681 -3857 -6102 0
1000000 451 -3408 -4670 -5904 -5063 -5358 0
1000000 3335 -3408 -4670 -5904 -5063 -5358 0
1000000 503 -5005 -4343 -4238 -6309 -4571 0
1000000 3336 -5005 -4343 -4238 -6309 -4571 0
1000000 155 -4087 -4687 0
1000000 3337 -4087 -4687 0
1000000 976 -4372 -4610 -3902 -6297 0
1000000 3338 -4372 -4610 -3902 -6297 0
1000000 351 -5007 -4770 0
1000000 3339 -5007 -4770 0
1000000 957 -3594 -6001 -6101 -4763 -5512 0
1000000 3340 -3594 -6001 -6101 -4763 -5512 0
1000000 928 -4363 -947 0
1000000 3341 -4363 -947 0
1000000 576 -4481 -5871 -3847 -4126 -5167 0
1000000 3342 -4481 -5871 -3847 -4126 -5167 0
1000000 485 -5017 -5474 0
1000000 3343 -5017 -5474 0
1000000 96 -4322 -4021 0
1000000 3344 -4322 -4021 0
1000000 106 -5454 -4177 0
1000000 3345 -5454 -4177 0
1000000 452 -4290 -5681 -5651 -4763 0
1000000 3346 -4290 -5681 -5651 -4763 0
1000000 350 -5350 -416 0
1000000 3347 -5350 -416 0
1000000 548 -5599 -4275 0
1000000 3348 -5599 -4275 0
1000000 782 -3997 -968 0
1000000 3349 -3997 -968 0
1000000 922 -5004 -3585 -3749 -5831 -4860 0
1000000 3350 -5004 -3585 -3749 -5831 -4860 0
1000000 132 -3937 -5837 -4552 0
1000000 3351 -3937 -5837 -4552 0
1000000 903 -3681 -6215 -4944 -955 0
1000000 3352 -3681 -6215 -4944 -955 0
1000000 713 -4227 -4708 -6123 -4215 0
1000000 3353 -4227 -4708 -6123 -4215 0
1000000 739 -4970 -3924 -6106 -6307 -3486 0
1000000 3354 -4970 -3924 -6106 -6307 -3486 0
1000000 54 -4627 -3781 -452 0
1000000 3355 -4627 -3781 -452 0
1000000 422 -4334 -5317 -4611 -4929 -3609 0
1000000 3356 -4334 -5317 -4611 -4929 -3609 0
1000000 64 -3461 -987 0
1000000 3357 -3461 -987 0
1000000 332 -4842 -6396 -4366 -6256 0
1000000 3358 -4842 -6396 -4366 -6256 0
1000000 120 -4906 -448 0
1000000 3359 -4906 -448 0
1000000 489 -3906 -3900 -3808 0
1000000 3360 -3906 -3900 -3808 0
1000000 663 -5524 -5931 -4947 -5399 0
1000000 3361 -5524 -5931 -4947 -5399 0
1000000 872 -5996 -5536 -5956 -4102 -5159 0
1000000 3362 -5996 -5536 -5956 -4102 -5159 0
1000000 492 -5040 -5015 -5185 -5949 -5438 0
1000000 3363 -5040 -5015 -5185 -5949 -5438 0
1000000 329 -5322 -3586 -581 0
1000000 3364 -5322 -3586 -581 0
1000000 631 -5168 -4493 -4041 -4241 -3965 0
1000000 3365 -5168 -4493 -4041 -4241 -3965 0
1000000 488 -4082 -4492 -5944 -4127 0
1000000 3366 -4082 -4492 -5944 -4127 0
1000000 751 -6015 -6118 -4012 -5902 0
1000000 3367 -6015 -6118 -4012 -5902 0
1000000 630 -6221 -3454 -3502 -3739 -4597 0
1000000 3368 -6221 -3454 -3502 -3739 -4597 0
1000000 714 -6306 -5870 -3733 -6379 -3911 0
1000000 3369 -6306 -5870 -3733 -6379 -3911 0
1000000 747 -3524 -4097 -6304 -3883 -858 0
1000000 3370 -3524 -4097 -6304 -3883 -858 0
1000000 462 -5352 -3789 0
1000000 3371 -5352 -3789 0
1000000 908 -5366 -3980 -3967 -4978 -6258 0
1000000 3372 -5366 -3980 -3967 -4978 -6258 0
1000000 123 -4121 -5960 0
1000000 3373 -4121 -5960 0
1000000 453 -4627 -5000 -5316 -4123 0
1000000 3374 -4627 -5000 -5316 -4123 0
1000000 407 -4531 -4811 -6116 -4474 -4249 0
1000000 3375 -4531 -4811 -6116 -4474 -4249 0
1000000 866 -5423 -971 0
1000000 3376 -5423 -971 0
1000000 940 -4124 -4086 -4168 0
1000000 3377 -4124 -4086 -4168 0
1000000 6 -5916 -4721 -5945 -3740 -496 0
1000000 3378 -5916 -4721 -5945 -3740 -496 0
1000000 26 -4341 -6032 -5911 -4397 -4928 0
1000000 3379 -4341 -6032 -5911 -4397 -4928 0
1000000 941 -4637 -3870 0
1000000 3380 -4637 -3870 0
1000000 185 -3555 -4645 0
1000000 3381 -3555 -4645 0
1000000 753 -5480 -5409 0
1000000 3382 -5480 -5409 0
1000000 78 -4458 -4187 0
1000000 3383 -4458 -4187 0
1000000 736 -4377 -3693 -3965 -5793 0
1000000 3384 -4377 -3693 -3965 -5793 0
1000000 482 -4719 -5381 0
1000000 3385 -4719 -5381 0
1000000 57 -5745 -6337 -769 0
1000000 3386 -5745 -6337 -769 0
1000000 166 -5705 -5882 -5724 -734 0
1000000 3387 -5705 -5882 -5724 -734 0
1000000 933 -3502 -3598 0
1000000 3388 -3502 -3598 0
1000000 224 -4546 -5554 -4022 -5025 -611 0
1000000 3389 -4546 -5554 -4022 -5025 -611 0
1000000 603 -5666 -4189 -5309 -847 0
1000000 3390 -5666 -4189 -5309 -847 0
1000000 732 -4658 -4373 -3534 -4486 -3923 0
1000000 3391 -4658 -4373 -3534 -4486 -3923 0
1000000 284 -4218 -5303 -4395 -5304 0
1000000 3392 -4218 -5303 -4395 -5304 0
1000000 539 -5817 -3747 -3606 -6368 -5047 0
1000000 3393 -5817 -3747 -3606 -6368 -5047 0
1000000 285 -4866 -3575 -4303 -3419 -3904 0
1000000 3394 -4866 -3575 -4303 -3419 -3904 0
1000000 723 -3787 -5020 -5045 -3546 0
1000000 3395 -3787 -5020 -5045 -3546 0
1000000 98 -6279 -6202 -5106 -5293 0
1000000 3396 -6279 -6202 -5106 -5293 0
1000000 688 -5793 -5933 -6173 -5940 -806 0
1000000 3397 -5793 -5933 -6173 -5940 -806 0
1000000 808 -5170 -4788 -6146 -5803 -5516 0
1000000 3398 -5170 -4788 -6146 -5803 -5516 0
1000000 813 -3856 -5247 -4491 -5298 -4332 0
1000000 3399 -3856 -5247 -4491 -5298 -4332 0
1000000 489 -3843 -4960 -4942 -4271 -4738 0
1000000 3400 -3843 -4960 -4942 -4271 -4738 0
1000000 3401 7291 0
1000000 3402 6605 0
1000000 3403 7632 0
1000000 3404 7122 0
1000000 3405 7657 0
1000000 3406 7524 0
1000000 3407 7709 0
1000000 3408 7660 0
1000000 3409 7838 0
1000000 3410 7510 0
1000000 3411 7877 0
1000000 3412 6694 0
1000000 3413 7011 0
1000000 3414 6916 0
1000000 3415 7048 0
1000000 3416 7291 0
1000000 3417 7479 0
1000000 3418 7562 0
1000000 3419 7855 0
1000000 3420 7526 0
1000000 3421 6563 0
1000000 3422 6933 0
1000000 3423 6564 0
1000000 3424 6591 0
1000000 3425 6541 0
1000000 3426 7041 0
1000000 3427 7459 0
1000000 3428 7189 0
1000000 3429 7217 0
1000000 3430 6457 0
1000000 3431 6915 0
1000000 3432 6498 0
1000000 3433 6584 0
1000000 3434 7603 0
1000000 3435 6796 0
1000000 3436 7312 0
1000000 3437 7318 0
1000000 3438 7259 0
1000000 3439 6504 0
1000000 3440 7005 0
1000000 3441 6870 0
1000000 3442 7248 0
1000000 3443 6677 0
1000000 3444 7110 0
1000000 3445 7787 0
1000000 3446 7284 0
1000000 3447 7882 0
1000000 3448 6713 0
1000000 3449 6966 0
1000000 3450 7437 0
1000000 3451 7373 0
1000000 3452 7307 0
1000000 3453 7618 0
1000000 3454 6872 0
1000000 3455 6913 0
1000000 3456 7124 0
1000000 3457 7736 0
1000000 3458 7691 0
1000000 3459 7276 0
1000000 3460 7672 0
1000000 3461 7580 0
1000000 3462 7123 0
1000000 3463 6928 0
1000000 3464 7447 0
1000000 3465 6805 0
1000000 3466 6786 0
1000000 3467 6639 0
1000000 3468 6828 0
1000000 3469 7552 0
1000000 3470 7424 0
1000000 3471 7166 0
1000000 3472 6712 0
1000000 3473 7524 0
1000000 3474 6654 0
1000000 3475 7506 0
1000000 3476 6425 0
1000000 3477 6998 0
1000000 3478 6907 0
1000000 3479 7052 0
1000000 3480 7222 0
1000000 3481 6624 0
1000000 3482 7223 0
1000000 3483 7439 0
1000000 3484 6469 0
1000000 3485 7533 0
1000000 3486 7128 0
1000000 3487 7300 0
1000000 3488 6517 0
1000000 3489 6769 0
1000000 3490 6437 0
1000000 3491 6463 0
1000000 3492 7319 0
1000000 3493 6667 0
1000000 3494 6882 0
1000000 3495 7347 0
1000000 3496 6924 0
1000000 3497 7757 0
1000000 3498 6968 0
1000000 3499 7113 0
1000000 3500 7504 0
1000000 3501 6586 0
1000000 3502 7823 0
1000000 3503 7281 0
1000000 3504 6529 0
1000000 3505 6950 0
1000000 3506 7466 0
1000000 3507 6868 0
1000000 3508 7782 0
1000000 3509 6685 0
1000000 3510 6493 0
1000000 3511 7756 0
1000000 3512 7203 0
1000000 3513 6707 0
1000000 3514 6659 0
1000000 3515 6865 0
1000000 3516 6805 0
1000000 3517 6665 0
1000000 3518 6686 0
1000000 3519 7515 0
1000000 3520 6896 0
1000000 3521 6708 0
1000000 3522 7821 0
1000000 3523 6657 0
1000000 3524 7876 0
1000000 3525 6776 0
1000000 3526 7869 0
1000000 3527 6610 0
1000000 3528 7105 0
1000000 3529 6684 0
1000000 3530 7044 0
1000000 3531 7152 0
1000000 3532 7126 0
1000000 3533 7792 0
1000000 3534 6853 0
1000000 3535 6583 0
1000000 3536 7498 0
1000000 3537 6981 0
1000000 3538 7632 0
1000000 3539 7570 0
1000000 3540 6925 0
1000000 3541 6545 0
1000000 3542 7171 0
1000000 3543 7344 0
1000000 3544 7879 0
1000000 3545 6498 0
1000000 3546 6401 0
1000000 3547 6840 0
1000000 3548 6442 0
1000000 3549 6864 0
1000000 3550 7631 0
1000000 3551 7066 0
1000000 3552 7859 0
1000000 3553 7302 0
1000000 3554 7858 0
1000000 3555 7447 0
1000000 3556 7249 0
1000000 3557 7102 0
1000000 3558 7323 0
1000000 3559 6680 0
1000000 3560 7088 0
1000000 3561 6537 0
1000000 3562 7448 0
1000000 3563 6809 0
1000000 3564 6682 0
1000000 3565 7759 0
1000000 3566 7896 0
1000000 3567 6656 0
1000000 3568 6783 0
1000000 3569 6790 0
1000000 3570 7815 0
1000000 3571 7741 0
1000000 3572 6758 0
1000000 3573 6654 0
1000000 3574 6953 0
1000000 3575 6851 0
1000000 3576 7856 0
1000000 3577 7012 0
1000000 3578 7798 0
1000000 3579 6668 0
1000000 3580 7273 0
1000000 3581 6715 0
1000000 3582 7459 0
1000000 3583 7168 0
1000000 3584 7529 0
1000000 3585 7270 0
1000000 3586 7106 0
1000000 3587 7283 0
1000000 3588 7315 0
1000000 3589 6806 0
1000000 3590 7448 0
1000000 3591 7114 0
1000000 3592 7317 0
1000000 3593 7193 0
1000000 3594 6910 0
1000000 3595 6553 0
1000000 3596 6637 0
1000000 3597 7574 0
1000000 3598 6647 0
1000000 3599 6599 0
1000000 3600 6689 0
1000000 3601 7389 0
1000000 3602 7833 0
1000000 3603 6559 0
1000000 3604 6476 0
1000000 3605 7790 0
1000000 3606 6857 0
1000000 3607 7520 0
1000000 3608 7805 0
1000000 3609 7259 0
1000000 3610 6455 0
1000000 3611 6733 0
1000000 3612 7682 0
1000000 3613 6456 0
1000000 3614 7798 0
1000000 3615 7490 0
1000000 3616 7019 0
1000000 3617 7362 0
1000000 3618 6660 0
1000000 3619 7578 0
1000000 3620 7301 0
1000000 3621 7097 0
1000000 3622 7013 0
1000000 3623 7830 0
1000000 3624 7463 0
1000000 3625 7384 0
1000000 3626 6579 0
1000000 3627 7495 0
1000000 3628 6967 0
1000000 3629 7639 0
1000000 3630 7325 0
1000000 3631 7072 0
1000000 3632 7585 0
1000000 3633 7757 0
1000000 3634 7742 0
1000000 3635 7316 0
1000000 3636 7715 0
1000000 3637 7258 0
1000000 3638 7670 0
1000000 3639 7545 0
1000000 3640 7399 0
1000000 3641 7333 0
1000000 3642 6825 0
1000000 3643 7397 0
1000000 3644 6694 0
1000000 3645 7503 0
1000000 3646 7309 0
1000000 3647 7559 0
1000000 3648 6993 0
1000000 3649 7300 0
1000000 3650 6643 0
1000000 3651 7773 0
1000000 3652 7438 0
1000000 3653 6671 0
1000000 3654 7743 0
1000000 3655 7057 0
1000000 3656 7455 0
1000000 3657 6999 0
1000000 3658 6727 0
1000000 3659 6879 0
1000000 3660 6646 0
1000000 3661 7376 0
1000000 3662 6706 0
1000000 3663 6890 0
1000000 3664 7108 0
1000000 3665 7573 0
1000000 3666 7139 0
1000000 3667 6662 0
1000000 3668 7588 0
1000000 3669 6880 0
1000000 3670 7145 0
1000000 3671 7836 0
1000000 3672 6731 0
1000000 3673 6492 0
1000000 3674 6704 0
1000000 3675 7593 0
1000000 3676 6483 0
1000000 3677 7252 0
1000000 3678 7574 0
1000000 3679 6647 0
1000000 3680 6948 0
1000000 3681 7438 0
1000000 3682 6773 0
1000000 3683 7717 0
1000000 3684 6490 0
1000000 3685 7015 0
1000000 3686 7762 0
1000000 3687 7159 0
1000000 3688 6596 0
1000000 3689 6986 0
1000000 3690 7313 0
1000000 3691 6821 0
1000000 3692 6908 0
1000000 3693 6861 0
1000000 3694 6518 0
1000000 3695 7083 0
1000000 3696 7088 0
1000000 3697 7245 0
1000000 3698 7656 0
1000000 3699 6847 0
1000000 3700 6861 0
1000000 3701 7775 0
1000000 3702 7548 0
1000000 3703 6526 0
1000000 3704 7704 0
1000000 3705 7612 0
1000000 3706 7038 0
1000000 3707 7400 0
1000000 3708 7132 0
1000000 3709 7681 0
1000000 3710 6441 0
1000000 3711 6807 0
1000000 3712 6991 0
1000000 3713 6953 0
1000000 3714 6857 0
1000000 3715 6739 0
1000000 3716 7745 0
1000000 3717 7045 0
1000000 3718 6858 0
1000000 3719 7072 0
1000000 3720 7580 0
1000000 3721 6714 0
1000000 3722 6425 0
1000000 3723 7205 0
1000000 3724 6604 0
1000000 3725 6588 0
1000000 3726 7832 0
1000000 3727 7694 0
1000000 3728 6500 0
1000000 3729 6678 0
1000000 3730 6632 0
1000000 3731 7524 0
1000000 3732 7538 0
1000000 3733 7776 0
1000000 3734 6702 0
1000000 3735 7404 0
1000000 3736 7427 0
1000000 3737 7103 0
1000000 3738 6728 0
1000000 3739 7160 0
1000000 3740 7699 0
1000000 3741 6661 0
1000000 3742 7100 0
1000000 3743 7675 0
1000000 3744 7431 0
1000000 3745 7853 0
1000000 3746 7501 0
1000000 3747 7835 0
1000000 3748 7773 0
1000000 3749 7871 0
1000000 3750 6922 0
1000000 3751 7736 0
1000000 3752 7887 0
1000000 3753 6460 0
1000000 3754 6522 0
1000000 3755 7895 0
1000000 3756 6417 0
1000000 3757 6678 0
1000000 3758 6871 0
1000000 3759 6442 0
1000000 3760 7467 0
1000000 3761 7226 0
1000000 3762 7600 0
1000000 3763 7600 0
1000000 3764 6917 0
1000000 3765 7253 0
1000000 3766 6448 0
1000000 3767 6808 0
1000000 3768 6815 0
1000000 3769 6497 0
1000000 3770 7358 0
1000000 3771 7458 0
1000000 3772 6881 0
1000000 3773 7556 0
1000000 3774 7671 0
1000000 3775 7027 0
1000000 3776 6555 0
1000000 3777 7569 0
1000000 3778 7028 0
1000000 3779 6641 0
1000000 3780 7737 0
1000000 3781 7179 0
1000000 3782 6448 0
1000000 3783 6889 0
1000000 3784 7874 0
1000000 3785 7779 0
1000000 3786 6655 0
1000000 3787 7022 0
1000000 3788 7085 0
1000000 3789 7775 0
1000000 3790 7426 0
1000000 3791 7221 0
1000000 3792 6582 0
1000000 3793 7785 0
1000000 3794 6622 0
1000000 3795 6848 0
1000000 3796 7324 0
1000000 3797 6876 0
1000000 3798 6570 0
1000000 3799 6614 0
1000000 3800 7175 0
1000000 3801 6919 0
1000000 3802 7666 0
1000000 3803 7104 0
1000000 3804 7888 0
1000000 3805 6842 0
1000000 3806 7332 0
1000000 3807 7124 0
1000000 3808 6802 0
1000000 3809 7387 0
1000000 3810 7555 0
1000000 3811 7039 0
1000000 3812 7567 0
1000000 3813 6477 0
1000000 3814 6691 0
1000000 3815 7733 0
1000000 3816 7625 0
1000000 3817 6492 0
1000000 3818 7099 0
1000000 3819 7848 0
1000000 3820 7209 0
1000000 3821 7821 0
1000000 3822 6502 0
1000000 3823 7638 0
1000000 3824 6665 0
1000000 3825 7883 0
1000000 3826 6732 0
1000000 3827 7836 0
1000000 3828 7746 0
1000000 3829 7045 0
1000000 3830 7003 0
1000000 3831 7427 0
1000000 3832 7155 0
1000000 3833 7076 0
1000000 3834 6922 0
1000000 3835 7117 0
1000000 3836 7482 0
1000000 3837 7091 0
1000000 3838 6993 0
1000000 3839 6413 0
1000000 3840 6653 0
1000000 3841 7169 0
1000000 3842 7297 0
1000000 3843 7382 0
1000000 3844 7184 0
1000000 3845 7710 0
1000000 3846 7618 0
1000000 3847 7258 0
1000000 3848 6998 0
1000000 3849 6565 0
1000000 3850 6803 0
1000000 3851 6403 0
1000000 3852 6439 0
1000000 3853 6525 0
1000000 3854 7150 0
1000000 3855 6408 0
1000000 3856 7371 0
1000000 3857 7605 0
1000000 3858 7437 0
1000000 3859 7507 0
1000000 3860 7062 0
1000000 3861 7192 0
1000000 3862 6898 0
1000000 3863 7396 0
1000000 3864 6992 0
1000000 3865 7777 0
1000000 3866 6792 0
1000000 3867 6961 0
1000000 3868 6596 0
1000000 3869 7304 0
1000000 3870 6717 0
1000000 3871 6685 0
1000000 3872 7351 0
1000000 3873 7733 0
1000000 3874 7376 0
1000000 3875 7273 0
1000000 3876 7339 0
1000000 3877 6600 0
1000000 3878 7230 0
1000000 3879 6874 0
1000000 3880 6650 0
1000000 3881 7469 0
1000000 3882 7330 0
1000000 3883 7484 0
1000000 3884 6916 0
1000000 3885 7022 0
1000000 3886 6818 0
1000000 3887 7499 0
1000000 3888 7304 0
1000000 3889 7623 0
1000000 3890 7385 0
1000000 3891 7627 0
1000000 3892 7875 0
1000000 3893 6812 0
1000000 3894 6776 0
1000000 3895 7407 0
1000000 3896 7201 0
1000000 3897 7488 0
1000000 3898 7117 0
1000000 3899 6440 0
1000000 3900 6600 0
1000000 3901 7595 0
1000000 3902 6513 0
1000000 3903 6843 0
1000000 3904 7772 0
1000000 3905 7856 0
1000000 3906 7688 0
1000000 3907 7356 0
1000000 3908 7188 0
1000000 3909 7709 0
1000000 3910 6937 0
1000000 3911 7808 0
1000000 3912 7411 0
1000000 3913 7242 0
1000000 3914 7496 0
1000000 3915 7049 0
1000000 3916 6918 0
1000000 3917 7690 0
1000000 3918 6663 0
1000000 3919 7735 0
1000000 3920 6719 0
1000000 3921 7804 0
1000000 3922 7417 0
1000000 3923 7847 0
1000000 3924 7173 0
1000000 3925 7544 0
1000000 3926 6592 0
1000000 3927 7098 0
1000000 3928 7356 0
1000000 3929 7470 0
1000000 3930 7211 0
1000000 3931 7412 0
1000000 3932 7135 0
1000000 3933 6540 0
1000000 3934 7382 0
1000000 3935 7434 0
1000000 3936 7799 0
1000000 3937 7359 0
1000000 3938 7461 0
1000000 3939 7289 0
1000000 3940 7623 0
1000000 3941 7272 0
1000000 3942 6414 0
1000000 3943 6566 0
1000000 3944 7645 0
1000000 3945 6680 0
1000000 3946 7136 0
1000000 3947 6749 0
1000000 3948 7759 0
1000000 3949 7364 0
1000000 3950 7368 0
1000000 3951 6580 0
1000000 3952 6820 0
1000000 3953 7571 0
1000000 3954 6713 0
1000000 3955 7029 0
1000000 3956 6812 0
1000000 3957 6590 0
1000000 3958 6982 0
1000000 3959 6835 0
1000000 3960 7626 0
1000000 3961 7062 0
1000000 3962 7209 0
1000000 3963 7640 0
1000000 3964 6731 0
1000000 3965 7504 0
1000000 3966 7260 0
1000000 3967 7393 0
1000000 3968 7716 0
1000000 3969 6756 0
1000000 3970 7606 0
1000000 3971 6611 0
1000000 3972 7242 0
1000000 3973 6978 0
1000000 3974 6597 0
1000000 3975 7525 0
1000000 3976 6729 0
1000000 3977 7852 0
1000000 3978 7065 0
1000000 3979 6980 0
1000000 3980 6733 0
1000000 3981 7824 0
1000000 3982 7879 0
1000000 3983 6824 0
1000000 3984 7719 0
1000000 3985 7126 0
1000000 3986 6675 0
1000000 3987 7577 0
1000000 3988 7702 0
1000000 3989 6609 0
1000000 3990 7212 0
1000000 3991 7004 0
1000000 3992 6814 0
1000000 3993 6649 0
1000000 3994 7205 0
1000000 3995 7235 0
1000000 3996 7849 0
1000000 3997 6875 0
1000000 3998 6972 0
1000000 3999 7538 0
1000000 4000 7492 0
1000000 4001 7000 0
1000000 4002 6740 0
1000000 4003 6891 0
1000000 4004 6994 0
1000000 4005 6772 0
1000000 4006 7146 0
1000000 4007 6444 0
1000000 4008 6943 0
1000000 4009 7191 0
1000000 4010 6679 0
1000000 4011 6813 0
1000000 4012 6527 0
1000000 4013 6848 0
1000000 4014 7266 0
1000000 4015 6544 0
1000000 4016 6615 0
1000000 4017 7056 0
1000000 4018 6596 0
1000000 4019 7204 0
1000000 4020 7867 0
1000000 4021 7779 0
1000000 4022 7433 0
1000000 4023 7405 0
1000000 4024 7453 0
1000000 4025 7761 0
1000000 4026 6676 0
1000000 4027 7788 0
1000000 4028 7010 0
1000000 4029 6690 0
1000000 4030 7585 0
1000000 4031 7190 0
1000000 4032 7764 0
1000000 4033 7070 0
1000000 4034 7481 0
1000000 4035 6977 0
1000000 4036 7876 0
1000000 4037 7862 0
1000000 4038 6798 0
1000000 4039 6769 0
1000000 4040 7049 0
1000000 4041 7755 0
1000000 4042 6930 0
1000000 4043 7718 0
1000000 4044 7834 0
1000000 4045 6706 0
1000000 4046 6576 0
1000000 4047 7579 0
1000000 4048 6927 0
1000000 4049 7721 0
1000000 4050 7330 0
1000000 4051 7462 0
1000000 4052 7370 0
1000000 4053 7687 0
1000000 4054 7781 0
1000000 4055 7234 0
1000000 4056 7549 0
1000000 4057 7841 0
1000000 4058 7774 0
1000000 4059 7138 0
1000000 4060 7679 0
1000000 4061 7413 0
1000000 4062 6966 0
1000000 4063 7863 0
1000000 4064 7820 0
1000000 4065 7015 0
1000000 4066 7121 0
1000000 4067 7324 0
1000000 4068 6421 0
1000000 4069 6458 0
1000000 4070 7540 0
1000000 4071 7170 0
1000000 4072 7578 0
1000000 4073 7208 0
1000000 4074 6434 0
1000000 4075 6524 0
1000000 4076 6949 0
1000000 4077 7365 0
1000000 4078 6951 0
1000000 4079 6759 0
1000000 4080 6711 0
1000000 4081 7772 0
1000000 4082 6739 0
1000000 4083 6561 0
1000000 4084 6581 0
1000000 4085 6534 0
1000000 4086 6592 0
1000000 4087 7354 0
1000000 4088 7037 0
1000000 4089 7662 0
1000000 4090 6544 0
1000000 4091 6422 0
1000000 4092 7682 0
1000000 4093 7468 0
1000000 4094 6523 0
1000000 4095 6454 0
1000000 4096 7234 0
1000000 4097 7885 0
1000000 4098 6945 0
1000000 4099 6979 0
1000000 4100 7657 0
1000000 4101 7081 0
1000000 4102 6700 0
1000000 4103 6498 0
1000000 4104 7031 0
1000000 4105 6824 0
1000000 4106 7263 0
1000000 4107 6910 0
1000000 4108 6812 0
1000000 4109 7087 0
1000000 4110 7016 0
1000000 4111 7873 0
1000000 4112 7795 0
1000000 4113 6565 0
1000000 4114 7516 0
1000000 4115 7511 0
1000000 4116 6993 0
1000000 4117 7296 0
1000000 4118 6688 0
1000000 4119 6865 0
1000000 4120 7239 0
1000000 4121 7265 0
1000000 4122 7162 0
1000000 4123 7636 0
1000000 4124 7797 0
1000000 4125 7004 0
1000000 4126 7312 0
1000000 4127 6814 0
1000000 4128 7822 0
1000000 4129 6724 0
1000000 4130 7198 0
1000000 4131 6783 0
1000000 4132 7652 0
1000000 4133 7857 0
1000000 4134 6834 0
1000000 4135 7497 0
1000000 4136 6817 0
1000000 4137 6783 0
1000000 4138 7560 0
1000000 4139 7055 0
1000000 4140 6553 0
1000000 4141 7470 0
1000000 4142 7284 0
1000000 4143 6648 0
1000000 4144 7558 0
1000000 4145 7472 0
1000000 4146 7243 0
1000000 4147 7464 0
1000000 4148 7173 0
1000000 4149 7194 0
1000000 4150 6429 0
1000000 4151 7534 0
1000000 4152 7510 0
1000000 4153 7899 0
1000000 4154 6540 0
1000000 4155 7126 0
1000000 4156 7707 0
1000000 4157 7786 0
1000000 4158 7063 0
1000000 4159 6667 0
1000000 4160 7311 0
1000000 4161 7617 0
1000000 4162 7610 0
1000000 4163 6624 0
1000000 4164 7140 0
1000000 4165 6829 0
1000000 4166 7608 0
1000000 4167 7289 0
1000000 4168 7179 0
1000000 4169 7466 0
1000000 4170 7440 0
1000000 4171 7051 0
1000000 4172 6842 0
1000000 4173 6602 0
1000000 4174 7321 0
1000000 4175 7872 0
1000000 4176 7663 0
1000000 4177 7303 0
1000000 4178 6637 0
1000000 4179 7855 0
1000000 4180 7317 0
1000000 4181 6575 0
1000000 4182 7680 0
1000000 4183 7445 0
1000000 4184 7033 0
1000000 4185 6844 0
1000000 4186 6744 0
1000000 4187 6634 0
1000000 4188 6476 0
1000000 4189 7402 0
1000000 4190 7465 0
1000000 4191 6798 0
1000000 4192 7648 0
1000000 4193 6674 0
1000000 4194 7406 0
1000000 4195 7486 0
1000000 4196 6978 0
1000000 4197 7369 0
1000000 4198 6808 0
1000000 4199 6519 0
1000000 4200 7891 0
1000000 4201 6811 0
1000000 4202 6470 0
1000000 4203 6898 0
1000000 4204 6473 0
1000000 4205 7534 0
1000000 4206 7427 0
1000000 4207 7744 0
1000000 4208 7101 0
1000000 4209 7794 0
1000000 4210 7046 0
1000000 4211 7698 0
1000000 4212 7329 0
1000000 4213 7251 0
1000000 4214 6481 0
1000000 4215 7280 0
1000000 4216 7223 0
1000000 4217 6616 0
1000000 4218 7449 0
1000000 4219 7344 0
1000000 4220 7693 0
1000000 4221 6505 0
1000000 4222 7059 0
1000000 4223 6570 0
1000000 4224 6962 0
1000000 4225 7886 0
1000000 4226 7643 0
1000000 4227 6725 0
1000000 4228 7480 0
1000000 4229 7457 0
1000000 4230 7824 0
1000000 4231 7788 0
1000000 4232 6753 0
1000000 4233 7155 0
1000000 4234 7696 0
1000000 4235 7142 0
1000000 4236 6790 0
1000000 4237 7659 0
1000000 4238 7263 0
1000000 4239 6434 0
1000000 4240 6957 0
1000000 4241 7017 0
1000000 4242 6947 0
1000000 4243 7597 0
1000000 4244 7283 0
1000000 4245 7552 0
1000000 4246 7766 0
1000000 4247 7523 0
1000000 4248 6688 0
1000000 4249 7424 0
1000000 4250 7873 0
1000000 4251 7149 0
1000000 4252 7244 0
1000000 4253 7477 0
1000000 4254 6998 0
1000000 4255 6602 0
1000000 4256 7237 0
1000000 4257 7605 0
1000000 4258 7395 0
1000000 4259 6967 0
1000000 4260 6970 0
1000000 4261 7889 0
1000000 4262 6484 0
1000000 4263 7807 0
1000000 4264 6515 0
1000000 4265 7585 0
1000000 4266 7307 0
1000000 4267 7106 0
1000000 4268 7791 0
1000000 4269 7345 0
1000000 4270 7630 0
1000000 4271 7230 0
1000000 4272 7698 0
1000000 4273 7778 0
1000000 4274 6878 0
1000000 4275 6528 0
1000000 4276 7173 0
1000000 4277 6778 0
1000000 4278 7016 0
1000000 4279 6897 0
1000000 4280 6936 0
1000000 4281 7522 0
1000000 4282 7792 0
1000000 4283 6673 0
1000000 4284 6940 0
1000000 4285 7137 0
1000000 4286 7012 0
1000000 4287 7422 0
1000000 4288 7148 0
1000000 4289 7466 0
1000000 4290 7360 0
1000000 4291 7025 0
1000000 4292 7365 0
1000000 4293 7628 0
1000000 4294 7250 0
1000000 4295 7032 0
1000000 4296 7056 0
1000000 4297 6831 0
1000000 4298 7519 0
1000000 4299 7314 0
1000000 4300 6942 0
1000000 4301 6750 0
1000000 4302 7532 0
1000000 4303 7279 0
1000000 4304 7500 0
1000000 4305 7046 0
1000000 4306 6668 0
1000000 4307 7065 0
1000000 4308 7772 0
1000000 4309 7759 0
1000000 4310 6677 0
1000000 4311 7699 0
1000000 4312 6807 0
1000000 4313 7802 0
1000000 4314 6522 0
1000000 4315 7515 0
1000000 4316 7860 0
1000000 4317 6631 0
1000000 4318 7124 0
1000000 4319 7848 0
1000000 4320 7674 0
1000000 4321 7610 0
1000000 4322 6574 0
1000000 4323 7116 0
1000000 4324 7851 0
1000000 4325 6964 0
1000000 4326 7591 0
1000000 4327 7193 0
1000000 4328 6971 0
1000000 4329 7512 0
1000000 4330 7792 0
1000000 4331 6751 0
1000000 4332 7101 0
1000000 4333 7208 0
1000000 4334 6633 0
1000000 4335 6856 0
1000000 4336 6809 0
1000000 4337 7191 0
1000000 4338 7616 0
1000000 4339 7104 0
1000000 4340 6524 0
1000000 4341 6845 0
1000000 4342 7327 0
1000000 4343 7826 0
1000000 4344 6794 0
1000000 4345 7620 0
1000000 4346 7309 0
1000000 4347 6711 0
1000000 4348 7386 0
1000000 4349 7477 0
1000000 4350 7005 0
1000000 4351 6713 0
1000000 4352 7079 0
1000000 4353 6653 0
1000000 4354 6901 0
1000000 4355 6488 0
1000000 4356 6471 0
1000000 4357 6531 0
1000000 4358 7463 0
1000000 4359 7242 0
1000000 4360 7812 0
1000000 4361 6593 0
1000000 4362 7062 0
1000000 4363 6595 0
1000000 4364 6799 0
1000000 4365 7681 0
1000000 4366 7033 0
1000000 4367 7426 0
1000000 4368 7232 0
1000000 4369 7683 0
1000000 4370 6433 0
1000000 4371 6750 0
1000000 4372 6891 0
1000000 4373 7147 0
1000000 4374 6746 0
1000000 4375 6426 0
1000000 4376 6683 0
1000000 4377 7557 0
1000000 4378 7301 0
1000000 4379 7652 0
1000000 4380 6611 0
1000000 4381 7432 0
1000000 4382 7876 0
1000000 4383 7487 0
1000000 4384 6671 0
1000000 4385 7095 0
1000000 4386 7892 0
1000000 4387 7375 0
1000000 4388 7263 0
1000000 4389 7353 0
1000000 4390 7157 0
1000000 4391 7069 0
1000000 4392 6659 0
1000000 4393 7097 0
1000000 4394 7053 0
1000000 4395 7363 0
1000000 4396 6736 0
1000000 4397 6697 0
1000000 4398 6990 0
1000000 4399 7615 0
1000000 4400 7131 0
1000000 4401 7210 0
1000000 4402 6718 0
1000000 4403 7476 0
1000000 4404 7046 0
1000000 4405 6405 0
1000000 4406 7615 0
1000000 4407 7414 0
1000000 4408 7143 0
1000000 4409 7337 0
1000000 4410 6447 0
1000000 4411 6424 0
1000000 4412 7011 0
1000000 4413 7332 0
1000000 4414 7024 0
1000000 4415 7484 0
1000000 4416 7780 0
1000000 4417 7089 0
1000000 4418 6944 0
1000000 4419 6961 0
1000000 4420 7215 0
1000000 4421 7358 0
1000000 4422 6920 0
1000000 4423 6901 0
1000000 4424 6612 0
1000000 4425 6642 0
1000000 4426 7742 0
1000000 4427 6948 0
1000000 4428 7460 0
1000000 4429 7196 0
1000000 4430 7313 0
1000000 4431 7680 0
1000000 4432 6905 0
1000000 4433 7704 0
1000000 4434 6599 0
1000000 4435 6880 0
1000000 4436 7675 0
1000000 4437 6551 0
1000000 4438 6854 0
1000000 4439 6950 0
1000000 4440 7373 0
1000000 4441 6598 0
1000000 4442 7592 0
1000000 4443 6535 0
1000000 4444 7501 0
1000000 4445 6979 0
1000000 4446 7750 0
1000000 4447 7541 0
1000000 4448 7188 0
1000000 4449 6836 0
1000000 4450 7190 0
1000000 4451 6480 0
1000000 4452 7049 0
1000000 4453 6762 0
1000000 4454 6984 0
1000000 4455 7391 0
1000000 4456 7858 0
1000000 4457 7611 0
1000000 4458 7306 0
1000000 4459 7388 0
1000000 4460 6560 0
1000000 4461 7080 0
1000000 4462 6762 0
1000000 4463 7163 0
1000000 4464 7294 0
1000000 4465 7245 0
1000000 4466 7782 0
1000000 4467 6884 0
1000000 4468 6911 0
1000000 4469 6709 0
1000000 4470 6690 0
1000000 4471 7281 0
1000000 4472 7220 0
1000000 4473 7502 0
1000000 4474 6849 0
1000000 4475 7316 0
1000000 4476 7400 0
1000000 4477 6941 0
1000000 4478 7677 0
1000000 4479 7627 0
1000000 4480 6712 0
1000000 4481 7475 0
1000000 4482 6578 0
1000000 4483 7478 0
1000000 4484 6797 0
1000000 4485 6948 0
1000000 4486 7361 0
1000000 4487 7233 0
1000000 4488 7603 0
1000000 4489 6714 0
1000000 4490 6747 0
1000000 4491 6716 0
1000000 4492 7236 0
1000000 4493 7765 0
1000000 4494 6730 0
1000000 4495 7878 0
1000000 4496 6913 0
1000000 4497 6668 0
1000000 4498 7304 0
1000000 4499 6849 0
1000000 4500 6586 0
1000000 4501 7737 0
1000000 4502 6928 0
1000000 4503 7706 0
1000000 4504 7239 0
1000000 4505 7180 0
1000000 4506 7129 0
1000000 4507 7079 0
1000000 4508 6850 0
1000000 4509 6965 0
1000000 4510 7686 0
1000000 4511 6708 0
1000000 4512 7682 0
1000000 4513 7551 0
1000000 4514 7023 0
1000000 4515 7545 0
1000000 4516 6575 0
1000000 4517 7403 0
1000000 4518 6720 0
1000000 4519 6851 0
1000000 4520 7375 0
1000000 4521 7470 0
1000000 4522 6552 0
1000000 4523 6654 0
1000000 4524 7716 0
1000000 4525 7004 0
1000000 4526 7754 0
1000000 4527 7670 0
1000000 4528 6886 0
1000000 4529 7251 0
1000000 4530 7045 0
1000000 4531 6853 0
1000000 4532 7151 0
1000000 4533 6499 0
1000000 4534 7685 0
1000000 4535 7405 0
1000000 4536 7064 0
1000000 4537 6753 0
1000000 4538 7070 0
1000000 4539 7377 0
1000000 4540 7352 0
1000000 4541 7887 0
1000000 4542 7108 0
1000000 4543 6444 0
1000000 4544 7375 0
1000000 4545 6417 0
1000000 4546 6885 0
1000000 4547 7176 0
1000000 4548 7110 0
1000000 4549 7770 0
1000000 4550 7530 0
1000000 4551 6991 0
1000000 4552 6621 0
1000000 4553 7624 0
1000000 4554 7377 0
1000000 4555 6917 0
1000000 4556 6416 0
1000000 4557 6792 0
1000000 4558 7763 0
1000000 4559 6934 0
1000000 4560 6996 0
1000000 4561 6557 0
1000000 4562 6968 0
1000000 4563 7861 0
1000000 4564 7163 0
1000000 4565 7642 0
1000000 4566 6875 0
1000000 4567 6981 0
1000000 4568 7100 0
1000000 4569 6402 0
1000000 4570 6624 0
1000000 4571 6757 0
1000000 4572 7274 0
1000000 4573 7634 0
1000000 4574 6899 0
1000000 4575 7830 0
1000000 4576 6828 0
1000000 4577 7650 0
1000000 4578 7255 0
1000000 4579 6597 0
1000000 4580 6694 0
1000000 4581 6698 0
1000000 4582 7327 0
1000000 4583 7353 0
1000000 4584 7189 0
1000000 4585 7224 0
1000000 4586 7589 0
1000000 4587 7769 0
1000000 4588 6763 0
1000000 4589 6804 0
1000000 4590 7654 0
1000000 4591 7539 0
1000000 4592 7159 0
1000000 4593 6800 0
1000000 4594 7198 0
1000000 4595 6627 0
1000000 4596 7085 0
1000000 4597 7827 0
1000000 4598 6680 0
1000000 4599 6958 0
1000000 4600 6891 0
1000000 4601 7827 0
1000000 4602 7619 0
1000000 4603 7662 0
1000000 4604 7055 0
1000000 4605 6732 0
1000000 4606 6886 0
1000000 4607 7518 0
1000000 4608 6474 0
1000000 4609 6542 0
1000000 4610 7869 0
1000000 4611 6461 0
1000000 4612 7331 0
1000000 4613 6878 0
1000000 4614 6830 0
1000000 4615 7252 0
1000000 4616 7319 0
1000000 4617 7564 0
1000000 4618 6418 0
1000000 4619 6740 0
1000000 4620 7691 0
1000000 4621 6939 0
1000000 4622 7327 0
1000000 4623 7355 0
1000000 4624 7582 0
1000000 4625 6897 0
1000000 4626 7398 0
1000000 4627 7531 0
1000000 4628 7446 0
1000000 4629 7064 0
1000000 4630 7839 0
1000000 4631 6990 0
1000000 4632 6629 0
1000000 4633 6590 0
1000000 4634 6584 0
1000000 4635 7530 0
1000000 4636 6793 0
1000000 4637 7523 0
1000000 4638 7174 0
1000000 4639 7783 0
1000000 4640 6471 0
1000000 4641 6575 0
1000000 4642 7561 0
1000000 4643 7860 0
1000000 4644 6669 0
1000000 4645 7363 0
1000000 4646 7184 0
1000000 4647 6494 0
1000000 4648 6449 0
1000000 4649 7268 0
1000000 4650 6685 0
1000000 4651 7211 0
1000000 4652 7172 0
1000000 4653 7437 0
1000000 4654 7749 0
1000000 4655 7038 0
1000000 4656 7548 0
1000000 4657 6973 0
1000000 4658 7527 0
1000000 4659 7811 0
1000000 4660 7236 0
1000000 4661 7040 0
1000000 4662 6427 0
1000000 4663 7442 0
1000000 4664 6765 0
1000000 4665 7212 0
1000000 4666 7514 0
1000000 4667 6747 0
1000000 4668 7787 0
1000000 4669 7322 0
1000000 4670 7065 0
1000000 4671 6773 0
1000000 4672 7840 0
1000000 4673 6788 0
1000000 4674 7271 0
1000000 4675 7374 0
1000000 4676 7843 0
1000000 4677 7133 0
1000000 4678 6684 0
1000000 4679 6857 0
1000000 4680 6563 0
1000000 4681 7889 0
1000000 4682 7864 0
1000000 4683 7535 0
1000000 4684 6636 0
1000000 4685 7891 0
1000000 4686 7863 0
1000000 4687 6485 0
1000000 4688 7445 0
1000000 4689 6969 0
1000000 4690 6589 0
1000000 4691 6447 0
1000000 4692 6515 0
1000000 4693 6958 0
1000000 4694 6766 0
1000000 4695 7732 0
1000000 4696 7897 0
1000000 4697 6917 0
1000000 4698 6778 0
1000000 4699 7258 0
1000000 4700 7008 0
1000000 4701 7393 0
1000000 4702 7238 0
1000000 4703 7671 0
1000000 4704 7465 0
1000000 4705 6572 0
1000000 4706 6482 0
1000000 4707 6985 0
1000000 4708 6415 0
1000000 4709 7487 0
1000000 4710 7513 0
1000000 4711 6918 0
1000000 4712 7169 0
1000000 4713 6986 0
1000000 4714 7765 0
1000000 4715 6485 0
1000000 4716 6566 0
1000000 4717 7900 0
1000000 4718 6432 0
1000000 4719 7068 0
1000000 4720 7700 0
1000000 4721 7252 0
1000000 4722 6431 0
1000000 4723 7820 0
1000000 4724 6768 0
1000000 4725 7583 0
1000000 4726 7078 0
1000000 4727 7294 0
1000000 4728 7036 0
1000000 4729 7505 0
1000000 4730 7435 0
1000000 4731 7589 0
1000000 4732 6860 0
1000000 4733 7636 0
1000000 4734 6911 0
1000000 4735 7690 0
1000000 4736 6684 0
1000000 4737 7381 0
1000000 4738 7825 0
1000000 4739 6844 0
1000000 4740 7479 0
1000000 4741 6894 0
1000000 4742 7503 0
1000000 4743 7885 0
1000000 4744 7491 0
1000000 4745 6666 0
1000000 4746 6776 0
1000000 4747 6794 0
1000000 4748 6505 0
1000000 4749 7257 0
1000000 4750 6952 0
1000000 4751 6861 0
1000000 4752 7310 0
1000000 4753 7094 0
1000000 4754 7342 0
1000000 4755 7092 0
1000000 4756 7225 0
1000000 4757 7253 0
1000000 4758 7804 0
1000000 4759 7639 0
1000000 4760 6973 0
1000000 4761 7405 0
1000000 4762 6632 0
1000000 4763 7586 0
1000000 4764 7646 0
1000000 4765 7829 0
1000000 4766 7668 0
1000000 4767 7320 0
1000000 4768 7185 0
1000000 4769 7429 0
1000000 4770 7270 0
1000000 4771 6751 0
1000000 4772 6479 0
1000000 4773 7870 0
1000000 4774 7454 0
1000000 4775 6411 0
1000000 4776 6775 0
1000000 4777 6731 0
1000000 4778 6939 0
1000000 4779 6893 0
1000000 4780 7731 0
1000000 4781 6894 0
1000000 4782 7781 0
1000000 4783 7130 0
1000000 4784 6834 0
1000000 4785 6875 0
1000000 4786 7039 0
1000000 4787 6581 0
1000000 4788 7627 0
1000000 4789 7607 0
1000000 4790 6984 0
1000000 4791 7685 0
1000000 4792 6437 0
1000000 4793 6966 0
1000000 4794 6504 0
1000000 4795 7191 0
1000000 4796 7120 0
1000000 4797 7276 0
1000000 4798 7264 0
1000000 4799 7604 0
1000000 4800 7609 0
1000000 4801 6865 0
1000000 4802 6620 0
1000000 4803 7556 0
1000000 4804 7282 0
1000000 4805 6646 0
1000000 4806 6726 0
1000000 4807 7297 0
1000000 4808 7644 0
1000000 4809 7492 0
1000000 4810 7550 0
1000000 4811 7814 0
1000000 4812 6544 0
1000000 4813 7348 0
1000000 4814 7292 0
1000000 4815 7651 0
1000000 4816 6448 0
1000000 4817 7528 0
1000000 4818 7601 0
1000000 4819 6619 0
1000000 4820 7291 0
1000000 4821 6445 0
1000000 4822 7601 0
1000000 4823 7334 0
1000000 4824 7611 0
1000000 4825 7331 0
1000000 4826 7849 0
1000000 4827 6782 0
1000000 4828 7781 0
1000000 4829 7428 0
1000000 4830 7566 0
1000000 4831 7880 0
1000000 4832 7002 0
1000000 4833 7094 0
1000000 4834 6924 0
1000000 4835 7512 0
1000000 4836 7003 0
1000000 4837 6877 0
1000000 4838 7731 0
1000000 4839 7452 0
1000000 4840 6896 0
1000000 4841 7843 0
1000000 4842 7677 0
1000000 4843 6640 0
1000000 4844 6882 0
1000000 4845 6796 0
1000000 4846 7085 0
1000000 4847 7219 0
1000000 4848 7350 0
1000000 4849 6833 0
1000000 4850 7535 0
1000000 4851 7640 0
1000000 4852 7420 0
1000000 4853 7187 0
1000000 4854 7684 0
1000000 4855 6435 0
1000000 4856 7868 0
1000000 4857 7529 0
1000000 4858 7387 0
1000000 4859 7555 0
1000000 4860 7803 0
1000000 4861 7537 0
1000000 4862 6630 0
1000000 4863 7744 0
1000000 4864 6903 0
1000000 4865 6887 0
1000000 4866 7754 0
1000000 4867 6908 0
1000000 4868 7178 0
1000000 4869 6931 0
1000000 4870 7198 0
1000000 4871 6503 0
1000000 4872 7542 0
1000000 4873 7265 0
1000000 4874 6883 0
1000000 4875 6899 0
1000000 4876 7299 0
1000000 4877 7024 0
1000000 4878 7734 0
1000000 4879 7418 0
1000000 4880 6637 0
1000000 4881 6815 0
1000000 4882 6784 0
1000000 4883 6801 0
1000000 4884 7833 0
1000000 4885 6813 0
1000000 4886 7090 0
1000000 4887 7052 0
1000000 4888 6408 0
1000000 4889 6692 0
1000000 4890 7536 0
1000000 4891 7361 0
1000000 4892 7823 0
1000000 4893 6965 0
1000000 4894 6642 0
1000000 4895 6625 0
1000000 4896 6958 0
1000000 4897 7088 0
1000000 4898 6941 0
1000000 4899 7121 0
1000000 4900 6460 0
1000000 4901 7186 0
1000000 4902 7469 0
1000000 4903 7287 0
1000000 4904 7679 0
1000000 4905 6449 0
1000000 4906 7612 0
1000000 4907 7633 0
1000000 4908 6955 0
1000000 4909 6738 0
1000000 4910 7226 0
1000000 4911 6831 0
1000000 4912 7528 0
1000000 4913 6465 0
1000000 4914 6545 0
1000000 4915 6695 0
1000000 4916 7364 0
1000000 4917 6914 0
1000000 4918 7596 0
1000000 4919 6610 0
1000000 4920 7349 0
1000000 4921 6985 0
1000000 4922 7468 0
1000000 4923 7032 0
1000000 4924 6955 0
1000000 4925 7688 0
1000000 4926 7873 0
1000000 4927 6556 0
1000000 4928 6937 0
1000000 4929 7843 0
1000000 4930 6699 0
1000000 4931 7796 0
1000000 4932 7206 0
1000000 4933 6589 0
1000000 4934 7590 0
1000000 4935 7651 0
1000000 4936 7380 0
1000000 4937 7000 0
1000000 4938 6839 0
1000000 4939 6830 0
1000000 4940 7184 0
1000000 4941 7244 0
1000000 4942 7318 0
1000000 4943 7119 0
1000000 4944 7458 0
1000000 4945 7043 0
1000000 4946 7561 0
1000000 4947 7509 0
1000000 4948 7207 0
1000000 4949 6700 0
1000000 4950 7111 0
1000000 4951 6613 0
1000000 4952 6789 0
1000000 4953 6454 0
1000000 4954 7550 0
1000000 4955 6884 0
1000000 4956 7207 0
1000000 4957 7041 0
1000000 4958 7695 0
1000000 4959 7845 0
1000000 4960 7875 0
1000000 4961 7816 0
1000000 4962 7871 0
1000000 4963 7410 0
1000000 4964 7848 0
1000000 4965 7352 0
1000000 4966 6843 0
1000000 4967 7898 0
1000000 4968 6583 0
1000000 4969 7832 0
1000000 4970 6687 0
1000000 4971 6569 0
1000000 4972 6643 0
1000000 4973 6935 0
1000000 4974 7430 0
1000000 4975 6569 0
1000000 4976 6863 0
1000000 4977 7383 0
1000000 4978 7272 0
1000000 4979 6549 0
1000000 4980 6975 0
1000000 4981 7441 0
1000000 4982 6748 0
1000000 4983 7869 0
1000000 4984 6577 0
1000000 4985 7519 0
1000000 4986 7110 0
1000000 4987 7672 0
1000000 4988 7238 0
1000000 4989 7563 0
1000000 4990 7527 0
1000000 4991 6994 0
1000000 4992 7555 0
1000000 4993 6407 0
1000000 4994 6937 0
1000000 4995 6681 0
1000000 4996 7883 0
1000000 4997 7197 0
1000000 4998 7394 0
1000000 4999 7239 0
1000000 5000 6512 0
1000000 5001 6412 0
1000000 5002 6695 0
1000000 5003 7098 0
1000000 5004 6553 0
1000000 5005 6710 0
1000000 5006 7414 0
1000000 5007 7714 0
1000000 5008 6418 0
1000000 5009 6900 0
1000000 5010 7369 0
1000000 5011 7021 0
1000000 5012 6691 0
1000000 5013 6768 0
1000000 5014 7664 0
1000000 5015 7587 0
1000000 5016 7171 0
1000000 5017 7794 0
1000000 5018 7584 0
1000000 5019 6774 0
1000000 5020 6472 0
1000000 5021 6543 0
1000000 5022 7383 0
1000000 5023 7676 0
1000000 5024 6987 0
1000000 5025 7148 0
1000000 5026 6495 0
1000000 5027 6976 0
1000000 5028 6780 0
1000000 5029 6854 0
1000000 5030 6511 0
1000000 5031 6516 0
1000000 5032 6464 0
1000000 5033 6772 0
1000000 5034 6894 0
1000000 5035 6539 0
1000000 5036 7390 0
1000000 5037 7594 0
1000000 5038 6781 0
1000000 5039 6581 0
1000000 5040 7820 0
1000000 5041 6935 0
1000000 5042 6496 0
1000000 5043 7259 0
1000000 5044 7743 0
1000000 5045 7712 0
1000000 5046 7653 0
1000000 5047 7035 0
1000000 5048 6755 0
1000000 5049 7369 0
1000000 5050 7701 0
1000000 5051 7323 0
1000000 5052 6888 0
1000000 5053 7769 0
1000000 5054 7489 0
1000000 5055 7281 0
1000000 5056 6822 0
1000000 5057 7722 0
1000000 5058 7042 0
1000000 5059 6997 0
1000000 5060 6795 0
1000000 5061 6692 0
1000000 5062 7229 0
1000000 5063 7738 0
1000000 5064 7144 0
1000000 5065 7001 0
1000000 5066 7001 0
1000000 5067 6607 0
1000000 5068 7019 0
1000000 5069 7563 0
1000000 5070 7775 0
1000000 5071 7356 0
1000000 5072 6708 0
1000000 5073 7580 0
1000000 5074 7700 0
1000000 5075 7348 0
1000000 5076 7344 0
1000000 5077 6423 0
1000000 5078 7451 0
1000000 5079 7770 0
1000000 5080 6459 0
1000000 5081 6582 0
1000000 5082 7084 0
1000000 5083 6462 0
1000000 5084 6907 0
1000000 5085 7007 0
1000000 5086 7035 0
1000000 5087 7618 0
1000000 5088 6548 0
1000000 5089 7507 0
1000000 5090 7087 0
1000000 5091 7521 0
1000000 5092 6467 0
1000000 5093 6438 0
1000000 5094 6573 0
1000000 5095 7336 0
1000000 5096 7076 0
1000000 5097 7474 0
1000000 5098 7793 0
1000000 5099 7056 0
1000000 5100 7338 0
1000000 5101 7260 0
1000000 5102 7791 0
1000000 5103 6887 0
1000000 5104 7726 0
1000000 5105 7512 0
1000000 5106 6904 0
1000000 5107 7885 0
1000000 5108 7113 0
1000000 5109 6693 0
1000000 5110 7245 0
1000000 5111 7740 0
1000000 5112 7521 0
1000000 5113 7288 0
1000000 5114 7042 0
1000000 5115 7494 0
1000000 5116 6471 0
1000000 5117 6960 0
1000000 5118 7727 0
1000000 5119 6423 0
1000000 5120 7031 0
1000000 5121 6562 0
1000000 5122 7754 0
1000000 5123 7214 0
1000000 5124 6794 0
1000000 5125 7629 0
1000000 5126 7293 0
1000000 5127 6913 0
1000000 5128 7128 0
1000000 5129 7670 0
1000000 5130 7308 0
1000000 5131 6995 0
1000000 5132 6446 0
1000000 5133 7511 0
1000000 5134 6818 0
1000000 5135 7665 0
1000000 5136 7061 0
1000000 5137 7711 0
1000000 5138 7638 0
1000000 5139 7421 0
1000000 5140 7832 0
1000000 5141 7752 0
1000000 5142 7148 0
1000000 5143 6480 0
1000000 5144 6828 0
1000000 5145 6944 0
1000000 5146 6615 0
1000000 5147 6930 0
1000000 5148 6927 0
1000000 5149 7638 0
1000000 5150 7032 0
1000000 5151 7545 0
1000000 5152 6513 0
1000000 5153 7069 0
1000000 5154 7619 0
1000000 5155 6969 0
1000000 5156 7103 0
1000000 5157 6997 0
1000000 5158 6441 0
1000000 5159 6532 0
1000000 5160 7689 0
1000000 5161 7730 0
1000000 5162 7345 0
1000000 5163 7894 0
1000000 5164 6809 0
1000000 5165 6976 0
1000000 5166 6556 0
1000000 5167 7900 0
1000000 5168 7071 0
1000000 5169 6866 0
1000000 5170 7145 0
1000000 5171 7231 0
1000000 5172 7417 0
1000000 5173 7858 0
1000000 5174 7582 0
1000000 5175 6511 0
1000000 5176 7478 0
1000000 5177 6489 0
1000000 5178 7621 0
1000000 5179 6969 0
1000000 5180 7728 0
1000000 5181 7275 0
1000000 5182 7641 0
1000000 5183 7835 0
1000000 5184 6802 0
1000000 5185 6659 0
1000000 5186 7750 0
1000000 5187 7415 0
1000000 5188 6808 0
1000000 5189 7673 0
1000000 5190 6984 0
1000000 5191 6532 0
1000000 5192 6963 0
1000000 5193 7453 0
1000000 5194 7218 0
1000000 5195 7063 0
1000000 5196 7553 0
1000000 5197 7640 0
1000000 5198 7270 0
1000000 5199 7651 0
1000000 5200 6435 0
1000000 5201 7459 0
1000000 5202 7493 0
1000000 5203 6493 0
1000000 5204 7808 0
1000000 5205 7830 0
1000000 5206 6954 0
1000000 5207 7604 0
1000000 5208 7745 0
1000000 5209 6722 0
1000000 5210 7150 0
1000000 5211 7118 0
1000000 5212 6775 0
1000000 5213 7151 0
1000000 5214 7583 0
1000000 5215 6479 0
1000000 5216 6739 0
1000000 5217 6804 0
1000000 5218 7564 0
1000000 5219 6905 0
1000000 5220 6622 0
1000000 5221 7149 0
1000000 5222 6749 0
1000000 5223 6946 0
1000000 5224 6661 0
1000000 5225 7506 0
1000000 5226 7181 0
1000000 5227 6982 0
1000000 5228 7273 0
1000000 5229 7505 0
1000000 5230 6539 0
1000000 5231 7409 0
1000000 5232 7602 0
1000000 5233 6409 0
1000000 5234 6603 0
1000000 5235 6419 0
1000000 5236 6700 0
1000000 5237 6703 0
1000000 5238 7543 0
1000000 5239 7096 0
1000000 5240 7509 0
1000000 5241 7488 0
1000000 5242 7077 0
1000000 5243 7366 0
1000000 5244 7250 0
1000000 5245 7783 0
1000000 5246 6484 0
1000000 5247 6411 0
1000000 5248 6600 0
1000000 5249 7240 0
1000000 5250 6468 0
1000000 5251 7732 0
1000000 5252 7739 0
1000000 5253 6413 0
1000000 5254 7412 0
1000000 5255 7720 0
1000000 5256 7898 0
1000000 5257 6486 0
1000000 5258 6738 0
1000000 5259 6650 0
1000000 5260 7602 0
1000000 5261 6956 0
1000000 5262 7318 0
1000000 5263 7714 0
1000000 5264 6554 0
1000000 5265 7429 0
1000000 5266 6736 0
1000000 5267 7721 0
1000000 5268 6719 0
1000000 5269 7859 0
1000000 5270 7860 0
1000000 5271 7673 0
1000000 5272 7285 0
1000000 5273 7222 0
1000000 5274 6827 0
1000000 5275 7711 0
1000000 5276 7575 0
1000000 5277 6802 0
1000000 5278 7522 0
1000000 5279 7084 0
1000000 5280 7486 0
1000000 5281 7209 0
1000000 5282 7027 0
1000000 5283 6882 0
1000000 5284 7013 0
1000000 5285 7334 0
1000000 5286 7406 0
1000000 5287 7006 0
1000000 5288 6720 0
1000000 5289 7196 0
1000000 5290 7017 0
1000000 5291 7228 0
1000000 5292 7515 0
1000000 5293 7043 0
1000000 5294 6664 0
1000000 5295 6473 0
1000000 5296 7842 0
1000000 5297 6959 0
1000000 5298 7286 0
1000000 5299 7326 0
1000000 5300 7551 0
1000000 5301 6686 0
1000000 5302 7247 0
1000000 5303 7195 0
1000000 5304 7069 0
1000000 5305 7401 0
1000000 5306 6451 0
1000000 5307 6558 0
1000000 5308 6810 0
1000000 5309 7303 0
1000000 5310 7809 0
1000000 5311 7647 0
1000000 5312 7472 0
1000000 5313 7221 0
1000000 5314 7839 0
1000000 5315 7837 0
1000000 5316 6422 0
1000000 5317 6635 0
1000000 5318 6640 0
1000000 5319 6502 0
1000000 5320 6764 0
1000000 5321 6419 0
1000000 5322 6583 0
1000000 5323 7264 0
1000000 5324 6755 0
1000000 5325 6902 0
1000000 5326 6906 0
1000000 5327 7185 0
1000000 5328 6569 0
1000000 5329 7068 0
1000000 5330 6573 0
1000000 5331 6577 0
1000000 5332 6430 0
1000000 5333 6472 0
1000000 5334 7845 0
1000000 5335 6644 0
1000000 5336 6796 0
1000000 5337 6919 0
1000000 5338 7496 0
1000000 5339 6872 0
1000000 5340 7723 0
1000000 5341 7806 0
1000000 5342 6974 0
1000000 5343 6452 0
1000000 5344 6855 0
1000000 5345 7592 0
1000000 5346 7315 0
1000000 5347 7150 0
1000000 5348 6417 0
1000000 5349 7331 0
1000000 5350 6453 0
1000000 5351 7211 0
1000000 5352 7279 0
1000000 5353 7227 0
1000000 5354 7838 0
1000000 5355 6925 0
1000000 5356 6858 0
1000000 5357 7540 0
1000000 5358 7019 0
1000000 5359 6983 0
1000000 5360 7228 0
1000000 5361 6811 0
1000000 5362 7125 0
1000000 5363 7234 0
1000000 5364 6585 0
1000000 5365 6482 0
1000000 5366 6465 0
1000000 5367 6665 0
1000000 5368 7701 0
1000000 5369 6761 0
1000000 5370 6459 0
1000000 5371 7784 0
1000000 5372 7557 0
1000000 5373 6964 0
1000000 5374 6450 0
1000000 5375 6898 0
1000000 5376 7653 0
1000000 5377 6444 0
1000000 5378 7399 0
1000000 5379 6494 0
1000000 5380 7367 0
1000000 5381 7340 0
1000000 5382 6987 0
1000000 5383 7890 0
1000000 5384 7500 0
1000000 5385 6437 0
1000000 5386 6404 0
1000000 5387 6560 0
1000000 5388 7340 0
1000000 5389 7116 0
1000000 5390 7844 0
1000000 5391 7027 0
1000000 5392 7262 0
1000000 5393 6845 0
1000000 5394 7106 0
1000000 5395 7668 0
1000000 5396 7718 0
1000000 5397 7637 0
1000000 5398 6841 0
1000000 5399 7320 0
1000000 5400 6744 0
1000000 5401 7381 0
1000000 5402 7206 0
1000000 5403 7705 0
1000000 5404 7598 0
1000000 5405 7900 0
1000000 5406 6584 0
1000000 5407 7892 0
1000000 5408 7067 0
1000000 5409 7095 0
1000000 5410 7003 0
1000000 5411 6402 0
1000000 5412 7752 0
1000000 5413 6819 0
1000000 5414 7176 0
1000000 5415 7044 0
1000000 5416 6407 0
1000000 5417 7372 0
1000000 5418 7864 0
1000000 5419 7768 0
1000000 5420 7360 0
1000000 5421 6502 0
1000000 5422 6884 0
1000000 5423 7500 0
1000000 5424 6464 0
1000000 5425 6988 0
1000000 5426 7335 0
1000000 5427 7112 0
1000000 5428 6947 0
1000000 5429 6716 0
1000000 5430 7398 0
1000000 5431 7177 0
1000000 5432 7089 0
1000000 5433 7419 0
1000000 5434 7298 0
1000000 5435 7688 0
1000000 5436 6956 0
1000000 5437 7181 0
1000000 5438 6529 0
1000000 5439 6488 0
1000000 5440 6510 0
1000000 5441 6705 0
1000000 5442 7366 0
1000000 5443 6568 0
1000000 5444 7751 0
1000000 5445 6990 0
1000000 5446 7456 0
1000000 5447 6613 0
1000000 5448 6935 0
1000000 5449 7343 0
1000000 5450 7379 0
1000000 5451 7672 0
1000000 5452 7165 0
1000000 5453 6827 0
1000000 5454 7182 0
1000000 5455 6923 0
1000000 5456 7060 0
1000000 5457 6458 0
1000000 5458 6823 0
1000000 5459 6915 0
1000000 5460 7747 0
1000000 5461 6507 0
1000000 5462 7137 0
1000000 5463 7123 0
1000000 5464 7257 0
1000000 5465 7722 0
1000000 5466 6428 0
1000000 5467 7093 0
1000000 5468 7377 0
1000000 5469 7302 0
1000000 5470 7617 0
1000000 5471 7643 0
1000000 5472 6467 0
1000000 5473 6838 0
1000000 5474 6856 0
1000000 5475 7350 0
1000000 5476 7151 0
1000000 5477 7132 0
1000000 5478 6615 0
1000000 5479 7248 0
1000000 5480 7332 0
1000000 5481 7457 0
1000000 5482 6607 0
1000000 5483 6766 0
1000000 5484 6816 0
1000000 5485 6626 0
1000000 5486 6464 0
1000000 5487 7002 0
1000000 5488 7660 0
1000000 5489 6791 0
1000000 5490 6674 0
1000000 5491 7136 0
1000000 5492 7363 0
1000000 5493 7603 0
1000000 5494 7283 0
1000000 5495 7082 0
1000000 5496 7514 0
1000000 5497 7702 0
1000000 5498 6908 0
1000000 5499 6734 0
1000000 5500 6507 0
1000000 5501 6408 0
1000000 5502 7850 0
1000000 5503 7671 0
1000000 5504 6981 0
1000000 5505 6709 0
1000000 5506 6824 0
1000000 5507 6843 0
1000000 5508 6912 0
1000000 5509 6492 0
1000000 5510 6892 0
1000000 5511 7311 0
1000000 5512 7328 0
1000000 5513 6909 0
1000000 5514 7260 0
1000000 5515 7006 0
1000000 5516 7729 0
1000000 5517 6552 0
1000000 5518 7828 0
1000000 5519 6942 0
1000000 5520 7020 0
1000000 5521 6811 0
1000000 5522 7256 0
1000000 5523 6893 0
1000000 5524 6479 0
1000000 5525 6726 0
1000000 5526 7042 0
1000000 5527 7547 0
1000000 5528 6512 0
1000000 5529 7320 0
1000000 5530 7530 0
1000000 5531 7519 0
1000000 5532 7520 0
1000000 5533 6603 0
1000000 5534 7248 0
1000000 5535 7845 0
1000000 5536 7770 0
1000000 5537 7261 0
1000000 5538 7805 0
1000000 5539 7096 0
1000000 5540 7193 0
1000000 5541 7840 0
1000000 5542 7518 0
1000000 5543 6850 0
1000000 5544 6418 0
1000000 5545 6706 0
1000000 5546 7743 0
1000000 5547 7073 0
1000000 5548 7572 0
1000000 5549 7879 0
1000000 5550 7565 0
1000000 5551 6503 0
1000000 5552 6573 0
1000000 5553 6591 0
1000000 5554 6977 0
1000000 5555 6512 0
1000000 5556 7284 0
1000000 5557 7871 0
1000000 5558 6782 0
1000000 5559 6529 0
1000000 5560 7017 0
1000000 5561 6409 0
1000000 5562 7711 0
1000000 5563 7816 0
1000000 5564 7872 0
1000000 5565 6679 0
1000000 5566 7725 0
1000000 5567 6683 0
1000000 5568 7550 0
1000000 5569 7620 0
1000000 5570 6528 0
1000000 5571 7837 0
1000000 5572 7139 0
1000000 5573 6606 0
1000000 5574 7138 0
1000000 5575 6805 0
1000000 5576 7854 0
1000000 5577 7583 0
1000000 5578 7717 0
1000000 5579 7693 0
1000000 5580 7713 0
1000000 5581 7546 0
1000000 5582 7868 0
1000000 5583 7841 0
1000000 5584 7747 0
1000000 5585 6901 0
1000000 5586 6781 0
1000000 5587 7051 0
1000000 5588 7643 0
1000000 5589 7236 0
1000000 5590 7523 0
1000000 5591 6938 0
1000000 5592 7517 0
1000000 5593 6975 0
1000000 5594 7477 0
1000000 5595 6620 0
1000000 5596 7321 0
1000000 5597 6810 0
1000000 5598 6662 0
1000000 5599 6617 0
1000000 5600 7114 0
1000000 5601 7878 0
1000000 5602 7541 0
1000000 5603 6485 0
1000000 5604 7241 0
1000000 5605 6520 0
1000000 5606 6728 0
1000000 5607 7753 0
1000000 5608 6487 0
1000000 5609 7581 0
1000000 5610 6892 0
1000000 5611 6670 0
1000000 5612 6406 0
1000000 5613 7896 0
1000000 5614 7324 0
1000000 5615 7054 0
1000000 5616 7043 0
1000000 5617 7171 0
1000000 5618 7266 0
1000000 5619 6982 0
1000000 5620 7644 0
1000000 5621 6633 0
1000000 5622 6778 0
1000000 5623 7755 0
1000000 5624 7890 0
1000000 5625 6571 0
1000000 5626 7509 0
1000000 5627 7527 0
1000000 5628 7183 0
1000000 5629 6424 0
1000000 5630 7269 0
1000000 5631 6452 0
1000000 5632 7862 0
1000000 5633 7705 0
1000000 5634 7195 0
1000000 5635 6452 0
1000000 5636 7468 0
1000000 5637 7735 0
1000000 5638 7237 0
1000000 5639 6974 0
1000000 5640 6987 0
1000000 5641 7891 0
1000000 5642 7568 0
1000000 5643 7033 0
1000000 5644 6823 0
1000000 5645 6407 0
1000000 5646 7897 0
1000000 5647 7149 0
1000000 5648 7791 0
1000000 5649 7130 0
1000000 5650 7115 0
1000000 5651 6718 0
1000000 5652 7861 0
1000000 5653 7216 0
1000000 5654 6869 0
1000000 5655 6832 0
1000000 5656 7472 0
1000000 5657 7070 0
1000000 5658 7228 0
1000000 5659 6648 0
1000000 5660 7625 0
1000000 5661 7006 0
1000000 5662 7837 0
1000000 5663 7023 0
1000000 5664 7422 0
1000000 5665 7323 0
1000000 5666 6558 0
1000000 5667 6962 0
1000000 5668 6442 0
1000000 5669 7321 0
1000000 5670 6893 0
1000000 5671 6638 0
1000000 5672 7617 0
1000000 5673 7644 0
1000000 5674 7805 0
1000000 5675 7157 0
1000000 5676 6721 0
1000000 5677 6601 0
1000000 5678 7105 0
1000000 5679 7783 0
1000000 5680 7359 0
1000000 5681 7543 0
1000000 5682 6772 0
1000000 5683 7090 0
1000000 5684 6835 0
1000000 5685 7744 0
1000000 5686 7568 0
1000000 5687 7341 0
1000000 5688 7809 0
1000000 5689 6451 0
1000000 5690 6613 0
1000000 5691 7725 0
1000000 5692 6816 0
1000000 5693 6460 0
1000000 5694 7365 0
1000000 5695 6753 0
1000000 5696 7417 0
1000000 5697 7652 0
1000000 5698 7385 0
1000000 5699 7058 0
1000000 5700 6999 0
1000000 5701 7144 0
1000000 5702 7709 0
1000000 5703 7034 0
1000000 5704 6491 0
1000000 5705 7732 0
1000000 5706 7256 0
1000000 5707 6799 0
1000000 5708 7835 0
1000000 5709 7122 0
1000000 5710 7723 0
1000000 5711 7021 0
1000000 5712 7535 0
1000000 5713 7306 0
1000000 5714 6911 0
1000000 5715 6466 0
1000000 5716 7200 0
1000000 5717 7736 0
1000000 5718 6514 0
1000000 5719 7767 0
1000000 5720 6475 0
1000000 5721 7350 0
1000000 5722 7763 0
1000000 5723 7095 0
1000000 5724 6649 0
1000000 5725 7857 0
1000000 5726 7485 0
1000000 5727 7703 0
1000000 5728 6862 0
1000000 5729 7419 0
1000000 5730 7804 0
1000000 5731 6536 0
1000000 5732 7612 0
1000000 5733 7131 0
1000000 5734 7153 0
1000000 5735 7221 0
1000000 5736 7141 0
1000000 5737 7564 0
1000000 5738 7899 0
1000000 5739 7576 0
1000000 5740 6840 0
1000000 5741 7706 0
1000000 5742 7602 0
1000000 5743 7314 0
1000000 5744 6788 0
1000000 5745 6926 0
1000000 5746 6447 0
1000000 5747 6930 0
1000000 5748 7034 0
1000000 5749 7416 0
1000000 5750 7293 0
1000000 5751 7374 0
1000000 5752 7569 0
1000000 5753 7878 0
1000000 5754 7582 0
1000000 5755 7439 0
1000000 5756 7145 0
1000000 5757 6463 0
1000000 5758 7001 0
1000000 5759 6538 0
1000000 5760 6535 0
1000000 5761 7425 0
1000000 5762 6649 0
1000000 5763 7886 0
1000000 5764 7562 0
1000000 5765 6787 0
1000000 5766 6697 0
1000000 5767 6970 0
1000000 5768 7822 0
1000000 5769 6506 0
1000000 5770 7370 0
1000000 5771 6542 0
1000000 5772 7220 0
1000000 5773 6737 0
1000000 5774 6636 0
1000000 5775 7465 0
1000000 5776 7819 0
1000000 5777 6593 0
1000000 5778 6829 0
1000000 5779 6905 0
1000000 5780 7789 0
1000000 5781 6454 0
1000000 5782 7165 0
1000000 5783 6531 0
1000000 5784 6768 0
1000000 5785 6923 0
1000000 5786 6841 0
1000000 5787 6486 0
1000000 5788 7463 0
1000000 5789 6789 0
1000000 5790 7161 0
1000000 5791 7635 0
1000000 5792 6672 0
1000000 5793 6546 0
1000000 5794 7614 0
1000000 5795 6601 0
1000000 5796 7817 0
1000000 5797 6671 0
1000000 5798 7751 0
1000000 5799 6510 0
1000000 5800 7230 0
1000000 5801 7186 0
1000000 5802 7429 0
1000000 5803 6994 0
1000000 5804 6432 0
1000000 5805 7842 0
1000000 5806 7030 0
1000000 5807 7778 0
1000000 5808 7606 0
1000000 5809 7526 0
1000000 5810 7628 0
1000000 5811 7635 0
1000000 5812 7823 0
1000000 5813 7104 0
1000000 5814 7678 0
1000000 5815 6806 0
1000000 5816 7057 0
1000000 5817 7588 0
1000000 5818 6617 0
1000000 5819 6749 0
1000000 5820 7796 0
1000000 5821 7312 0
1000000 5822 7630 0
1000000 5823 7282 0
1000000 5824 6995 0
1000000 5825 7371 0
1000000 5826 6852 0
1000000 5827 6404 0
1000000 5828 7539 0
1000000 5829 7479 0
1000000 5830 6670 0
1000000 5831 6986 0
1000000 5832 7407 0
1000000 5833 6698 0
1000000 5834 6889 0
1000000 5835 7086 0
1000000 5836 6595 0
1000000 5837 6594 0
1000000 5838 7844 0
1000000 5839 6508 0
1000000 5840 6787 0
1000000 5841 6537 0
1000000 5842 7307 0
1000000 5843 6779 0
1000000 5844 6850 0
1000000 5845 7112 0
1000000 5846 7748 0
1000000 5847 6717 0
1000000 5848 6410 0
1000000 5849 6557 0
1000000 5850 7846 0
1000000 5851 7605 0
1000000 5852 7219 0
1000000 5853 7769 0
1000000 5854 6423 0
1000000 5855 7396 0
1000000 5856 7821 0
1000000 5857 6964 0
1000000 5858 6563 0
1000000 5859 7801 0
1000000 5860 7161 0
1000000 5861 6559 0
1000000 5862 7204 0
1000000 5863 7440 0
1000000 5864 6538 0
1000000 5865 7419 0
1000000 5866 7051 0
1000000 5867 6752 0
1000000 5868 6874 0
1000000 5869 7246 0
1000000 5870 6735 0
1000000 5871 6565 0
1000000 5872 6921 0
1000000 5873 6929 0
1000000 5874 6568 0
1000000 5875 7075 0
1000000 5876 6549 0
1000000 5877 7316 0
1000000 5878 6525 0
1000000 5879 6554 0
1000000 5880 7721 0
1000000 5881 6620 0
1000000 5882 6509 0
1000000 5883 7803 0
1000000 5884 7078 0
1000000 5885 6771 0
1000000 5886 7776 0
1000000 5887 7554 0
1000000 5888 6945 0
1000000 5889 6427 0
1000000 5890 7475 0
1000000 5891 6844 0
1000000 5892 6618 0
1000000 5893 6691 0
1000000 5894 7268 0
1000000 5895 6745 0
1000000 5896 6762 0
1000000 5897 6557 0
1000000 5898 7202 0
1000000 5899 7712 0
1000000 5900 7587 0
1000000 5901 6404 0
1000000 5902 6841 0
1000000 5903 7226 0
1000000 5904 7733 0
1000000 5905 7315 0
1000000 5906 6449 0
1000000 5907 6989 0
1000000 5908 7609 0
1000000 5909 6641 0
1000000 5910 7632 0
1000000 5911 7343 0
1000000 5912 7790 0
1000000 5913 6741 0
1000000 5914 7557 0
1000000 5915 6696 0
1000000 5916 7573 0
1000000 5917 6406 0
1000000 5918 7764 0
1000000 5919 7834 0
1000000 5920 6526 0
1000000 5921 6709 0
1000000 5922 7895 0
1000000 5923 7645 0
1000000 5924 7114 0
1000000 5925 7824 0
1000000 5926 6645 0
1000000 5927 6534 0
1000000 5928 7541 0
1000000 5929 7192 0
1000000 5930 7774 0
1000000 5931 7169 0
1000000 5932 7622 0
1000000 5933 7576 0
1000000 5934 6869 0
1000000 5935 7293 0
1000000 5936 7538 0
1000000 5937 6754 0
1000000 5938 6723 0
1000000 5939 7831 0
1000000 5940 7844 0
1000000 5941 7411 0
1000000 5942 7522 0
1000000 5943 6715 0
1000000 5944 6932 0
1000000 5945 7649 0
1000000 5946 7061 0
1000000 5947 7897 0
1000000 5948 6653 0
1000000 5949 7026 0
1000000 5950 6537 0
1000000 5951 6715 0
1000000 5952 7615 0
1000000 5953 6608 0
1000000 5954 6676 0
1000000 5955 6777 0
1000000 5956 7290 0
1000000 5957 7278 0
1000000 5958 7289 0
1000000 5959 7247 0
1000000 5960 7020 0
1000000 5961 7444 0
1000000 5962 7335 0
1000000 5963 6516 0
1000000 5964 7009 0
1000000 5965 6403 0
1000000 5966 7080 0
1000000 5967 7135 0
1000000 5968 7734 0
1000000 5969 7800 0
1000000 5970 7661 0
1000000 5971 7105 0
1000000 5972 7166 0
1000000 5973 7130 0
1000000 5974 6701 0
1000000 5975 6872 0
1000000 5976 7424 0
1000000 5977 7360 0
1000000 5978 7881 0
1000000 5979 7251 0
1000000 5980 7653 0
1000000 5981 7710 0
1000000 5982 7565 0
1000000 5983 7456 0
1000000 5984 6571 0
1000000 5985 7741 0
1000000 5986 7569 0
1000000 5987 6860 0
1000000 5988 6719 0
1000000 5989 7374 0
1000000 5990 6880 0
1000000 5991 7697 0
1000000 5992 6639 0
1000000 5993 6409 0
1000000 5994 7267 0
1000000 5995 7274 0
1000000 5996 7195 0
1000000 5997 6521 0
1000000 5998 7231 0
1000000 5999 7074 0
1000000 6000 6652 0
1000000 6001 7599 0
1000000 6002 7400 0
1000000 6003 7082 0
1000000 6004 7475 0
1000000 6005 7822 0
1000000 6006 7084 0
1000000 6007 7707 0
1000000 6008 7893 0
1000000 6009 6501 0
1000000 6010 7655 0
1000000 6011 7629 0
1000000 6012 6410 0
1000000 6013 7701 0
1000000 6014 7739 0
1000000 6015 7401 0
1000000 6016 7038 0
1000000 6017 6702 0
1000000 6018 7756 0
1000000 6019 6489 0
1000000 6020 6724 0
1000000 6021 7383 0
1000000 6022 7265 0
1000000 6023 6723 0
1000000 6024 7896 0
1000000 6025 6710 0
1000000 6026 7394 0
1000000 6027 7702 0
1000000 6028 6742 0
1000000 6029 7342 0
1000000 6030 7853 0
1000000 6031 7050 0
1000000 6032 7489 0
1000000 6033 6750 0
1000000 6034 7450 0
1000000 6035 7518 0
1000000 6036 6991 0
1000000 6037 7014 0
1000000 6038 7679 0
1000000 6039 6780 0
1000000 6040 6440 0
1000000 6041 7392 0
1000000 6042 6807 0
1000000 6043 7404 0
1000000 6044 6997 0
1000000 6045 7355 0
1000000 6046 7135 0
1000000 6047 7015 0
1000000 6048 7108 0
1000000 6049 6570 0
1000000 6050 6758 0
1000000 6051 6957 0
1000000 6052 6697 0
1000000 6053 7448 0
1000000 6054 6604 0
1000000 6055 7059 0
1000000 6056 6873 0
1000000 6057 7560 0
1000000 6058 7476 0
1000000 6059 6530 0
1000000 6060 7164 0
1000000 6061 6699 0
1000000 6062 7412 0
1000000 6063 6949 0
1000000 6064 7376 0
1000000 6065 6574 0
1000000 6066 7436 0
1000000 6067 7254 0
1000000 6068 7388 0
1000000 6069 7751 0
1000000 6070 7378 0
1000000 6071 6591 0
1000000 6072 7462 0
1000000 6073 7423 0
1000000 6074 7725 0
1000000 6075 7059 0
1000000 6076 7735 0
1000000 6077 7399 0
1000000 6078 6988 0
1000000 6079 6777 0
1000000 6080 6920 0
1000000 6081 7154 0
1000000 6082 6420 0
1000000 6083 6434 0
1000000 6084 6413 0
1000000 6085 7790 0
1000000 6086 6500 0
1000000 6087 7278 0
1000000 6088 7440 0
1000000 6089 6508 0
1000000 6090 7697 0
1000000 6091 7884 0
1000000 6092 7346 0
1000000 6093 7474 0
1000000 6094 6940 0
1000000 6095 7828 0
1000000 6096 7525 0
1000000 6097 7220 0
1000000 6098 6712 0
1000000 6099 6784 0
1000000 6100 7443 0
1000000 6101 7801 0
1000000 6102 7457 0
1000000 6103 6698 0
1000000 6104 7579 0
1000000 6105 7180 0
1000000 6106 7453 0
1000000 6107 7728 0
1000000 6108 7048 0
1000000 6109 7199 0
1000000 6110 7328 0
1000000 6111 7833 0
1000000 6112 6571 0
1000000 6113 7724 0
1000000 6114 6856 0
1000000 6115 7178 0
1000000 6116 7057 0
1000000 6117 7496 0
1000000 6118 7394 0
1000000 6119 6656 0
1000000 6120 6906 0
1000000 6121 7444 0
1000000 6122 7669 0
1000000 6123 7213 0
1000000 6124 6729 0
1000000 6125 6723 0
1000000 6126 6608 0
1000000 6127 7109 0
1000000 6128 7091 0
1000000 6129 7355 0
1000000 6130 7158 0
1000000 6131 7572 0
1000000 6132 6953 0
1000000 6133 7816 0
1000000 6134 7506 0
1000000 6135 7164 0
1000000 6136 7662 0
1000000 6137 7635 0
1000000 6138 6932 0
1000000 6139 6770 0
1000000 6140 7809 0
1000000 6141 7423 0
1000000 6142 6675 0
1000000 6143 7009 0
1000000 6144 6426 0
1000000 6145 6673 0
1000000 6146 6651 0
1000000 6147 6566 0
1000000 6148 6705 0
1000000 6149 6760 0
1000000 6150 7406 0
1000000 6151 6826 0
1000000 6152 6860 0
1000000 6153 6483 0
1000000 6154 7185 0
1000000 6155 6746 0
1000000 6156 7433 0
1000000 6157 6609 0
1000000 6158 7613 0
1000000 6159 7134 0
1000000 6160 7766 0
1000000 6161 6465 0
1000000 6162 6793 0
1000000 6163 6737 0
1000000 6164 6710 0
1000000 6165 6415 0
1000000 6166 7532 0
1000000 6167 6743 0
1000000 6168 6559 0
1000000 6169 7219 0
1000000 6170 7005 0
1000000 6171 7364 0
1000000 6172 7483 0
1000000 6173 7267 0
1000000 6174 6661 0
1000000 6175 7863 0
1000000 6176 7826 0
1000000 6177 7866 0
1000000 6178 6652 0
1000000 6179 6436 0
1000000 6180 7663 0
1000000 6181 7290 0
1000000 6182 7634 0
1000000 6183 6963 0
1000000 6184 7697 0
1000000 6185 6962 0
1000000 6186 7633 0
1000000 6187 7877 0
1000000 6188 6770 0
1000000 6189 7401 0
1000000 6190 7614 0
1000000 6191 6643 0
1000000 6192 6775 0
1000000 6193 6425 0
1000000 6194 7771 0
1000000 6195 7277 0
1000000 6196 6921 0
1000000 6197 7152 0
1000000 6198 7708 0
1000000 6199 6699 0
1000000 6200 7467 0
1000000 6201 7818 0
1000000 6202 7669 0
1000000 6203 7359 0
1000000 6204 7633 0
1000000 6205 7546 0
1000000 6206 6647 0
1000000 6207 7689 0
1000000 6208 7611 0
1000000 6209 7855 0
1000000 6210 7559 0
1000000 6211 7740 0
1000000 6212 7167 0
1000000 6213 6929 0
1000000 6214 7430 0
1000000 6215 7404 0
1000000 6216 6764 0
1000000 6217 7861 0
1000000 6218 7692 0
1000000 6219 7825 0
1000000 6220 7044 0
1000000 6221 6456 0
1000000 6222 6562 0
1000000 6223 6550 0
1000000 6224 7508 0
1000000 6225 6631 0
1000000 6226 7177 0
1000000 6227 7208 0
1000000 6228 6837 0
1000000 6229 7107 0
1000000 6230 7641 0
1000000 6231 7047 0
1000000 6232 7889 0
1000000 6233 7229 0
1000000 6234 7215 0
1000000 6235 6422 0
1000000 6236 7779 0
1000000 6237 6416 0
1000000 6238 6859 0
1000000 6239 6609 0
1000000 6240 6628 0
1000000 6241 7416 0
1000000 6242 6672 0
1000000 6243 6914 0
1000000 6244 7606 0
1000000 6245 6814 0
1000000 6246 7178 0
1000000 6247 7361 0
1000000 6248 7403 0
1000000 6249 6899 0
1000000 6250 6655 0
1000000 6251 7107 0
1000000 6252 7771 0
1000000 6253 7119 0
1000000 6254 7767 0
1000000 6255 7090 0
1000000 6256 6656 0
1000000 6257 7357 0
1000000 6258 6523 0
1000000 6259 7544 0
1000000 6260 7810 0
1000000 6261 7134 0
1000000 6262 6767 0
1000000 6263 7508 0
1000000 6264 6827 0
1000000 6265 6878 0
1000000 6266 6587 0
1000000 6267 6949 0
1000000 6268 7520 0
1000000 6269 7691 0
1000000 6270 6443 0
1000000 6271 7025 0
1000000 6272 7888 0
1000000 6273 6567 0
1000000 6274 6468 0
1000000 6275 7723 0
1000000 6276 7749 0
1000000 6277 6770 0
1000000 6278 7610 0
1000000 6279 7398 0
1000000 6280 6851 0
1000000 6281 7295 0
1000000 6282 7568 0
1000000 6283 7471 0
1000000 6284 6605 0
1000000 6285 6576 0
1000000 6286 6658 0
1000000 6287 7813 0
1000000 6288 7594 0
1000000 6289 6822 0
1000000 6290 6455 0
1000000 6291 6473 0
1000000 6292 7865 0
1000000 6293 7050 0
1000000 6294 7103 0
1000000 6295 7838 0
1000000 6296 6895 0
1000000 6297 6804 0
1000000 6298 7349 0
1000000 6299 6952 0
1000000 6300 7764 0
1000000 6301 7579 0
1000000 6302 6623 0
1000000 6303 7435 0
1000000 6304 7197 0
1000000 6305 7608 0
1000000 6306 7710 0
1000000 6307 6869 0
1000000 6308 7408 0
1000000 6309 7657 0
1000000 6310 7330 0
1000000 6311 7146 0
1000000 6312 6867 0
1000000 6313 6954 0
1000000 6314 7435 0
1000000 6315 6785 0
1000000 6316 7689 0
1000000 6317 7760 0
1000000 6318 6440 0
1000000 6319 7288 0
1000000 6320 7035 0
1000000 6321 7659 0
1000000 6322 6547 0
1000000 6323 7572 0
1000000 6324 7294 0
1000000 6325 6562 0
1000000 6326 7451 0
1000000 6327 6462 0
1000000 6328 7692 0
1000000 6329 7018 0
1000000 6330 7194 0
1000000 6331 7490 0
1000000 6332 7552 0
1000000 6333 7189 0
1000000 6334 7728 0
1000000 6335 7839 0
1000000 6336 7180 0
1000000 6337 6687 0
1000000 6338 6730 0
1000000 6339 7031 0
1000000 6340 7053 0
1000000 6341 7667 0
1000000 6342 6603 0
1000000 6343 7058 0
1000000 6344 6533 0
1000000 6345 7853 0
1000000 6346 7517 0
1000000 6347 6939 0
1000000 6348 7760 0
1000000 6349 6576 0
1000000 6350 6530 0
1000000 6351 6846 0
1000000 6352 7305 0
1000000 6353 7063 0
1000000 6354 7127 0
1000000 6355 7152 0
1000000 6356 7741 0
1000000 6357 7786 0
1000000 6358 7066 0
1000000 6359 7528 0
1000000 6360 6704 0
1000000 6361 7388 0
1000000 6362 6734 0
1000000 6363 6952 0
1000000 6364 7802 0
1000000 6365 6909 0
1000000 6366 7503 0
1000000 6367 7473 0
1000000 6368 7658 0
1000000 6369 7434 0
1000000 6370 7613 0
1000000 6371 7125 0
1000000 6372 7513 0
1000000 6373 7776 0
1000000 6374 6787 0
1000000 6375 7277 0
1000000 6376 7758 0
1000000 6377 6890 0
1000000 6378 6515 0
1000000 6379 7098 0
1000000 6380 7551 0
1000000 6381 6725 0
1000000 6382 7699 0
1000000 6383 6915 0
1000000 6384 7641 0
1000000 6385 6829 0
1000000 6386 7659 0
1000000 6387 6419 0
1000000 6388 7892 0
1000000 6389 7742 0
1000000 6390 6534 0
1000000 6391 7222 0
1000000 6392 6478 0
1000000 6393 6555 0
1000000 6394 7156 0
1000000 6395 7619 0
1000000 6396 6505 0
1000000 6397 7533 0
1000000 6398 6554 0
1000000 6399 7508 0
1000000 6400 7243 0
1000000 -3401 -7291 0
1000000 -3402 -6605 0
1000000 -3403 -7632 0
1000000 -3404 -7122 0
1000000 -3405 -7657 0
1000000 -3406 -7524 0
1000000 -3407 -7709 0
1000000 -3408 -7660 0
1000000 -3409 -7838 0
1000000 -3410 -7510 0
1000000 -3411 -7877 0
1000000 -3412 -6694 0
1000000 -3413 -7011 0
1000000 -3414 -6916 0
1000000 -3415 -7048 0
1000000 -3416 -7291 0
1000000 -3417 -7479 0
1000000 -3418 -7562 0
1000000 -3419 -7855 0
1000000 -3420 -7526 0
1000000 -3421 -6563 0
1000000 -3422 -6933 0
1000000 -3423 -6564 0
1000000 -3424 -6591 0
1000000 -3425 -6541 0
1000000 -3426 -7041 0
1000000 -3427 -7459 0
1000000 -3428 -7189 0
1000000 -3429 -7217 0
1000000 -3430 -6457 0
1000000 -3431 -6915 0
1000000 -3432 -6498 0
1000000 -3433 -6584 0
1000000 -3434 -7603 0
1000000 -3435 -6796 0
1000000 -3436 -7312 0
1000000 -3437 -7318 0
1000000 -3438 -7259 0
1000000 -3439 -6504 0
1000000 -3440 -7005 0
1000000 -3441 -6870 0
1000000 -3442 -7248 0
1000000 -3443 -6677 0
1000000 -3444 -7110 0
1000000 -3445 -7787 0
1000000 -3446 -7284 0
1000000 -3447 -7882 0
1000000 -3448 -6713 0
1000000 -3449 -6966 0
1000000 -3450 -7437 0
1000000 -3451 -7373 0
1000000 -3452 -7307 0
1000000 -3453 -7618 0
1000000 -3454 -6872 0
1000000 -3455 -6913 0
1000000 -3456 -7124 0
1000000 -3457 -7736 0
1000000 -3458 -7691 0
1000000 -3459 -7276 0
1000000 -3460 -7672 0
1000000 -3461 -7580 0
1000000 -3462 -7123 0
1000000 -3463 -6928 0
1000000 -3464 -7447 0
1000000 -3465 -6805 0
1000000 -3466 -6786 0
1000000 -3467 -6639 0
1000000 -3468 -6828 0
1000000 -3469 -7552 0
1000000 -3470 -7424 0
1000000 -3471 -7166 0
1000000 -3472 -6712 0
1000000 -3473 -7524 0
1000000 -3474 -6654 0
1000000 -3475 -7506 0
1000000 -3476 -6425 0
1000000 -3477 -6998 0
1000000 -3478 -6907 0
1000000 -3479 -7052 0
1000000 -3480 -7222 0
1000000 -3481 -6624 0
1000000 -3482 -7223 0
1000000 -3483 -7439 0
1000000 -3484 -6469 0
1000000 -3485 -7533 0
1000000 -3486 -7128 0
1000000 -3487 -7300 0
1000000 -3488 -6517 0
1000000 -3489 -6769 0
1000000 -3490 -6437 0
1000000 -3491 -6463 0
1000000 -3492 -7319 0
1000000 -3493 -6667 0
1000000 -3494 -6882 0
1000000 -3495 -7347 0
1000000 -3496 -6924 0
1000000 -3497 -7757 0
1000000 -3498 -6968 0
1000000 -3499 -7113 0
1000000 -3500 -7504 0
1000000 -3501 -6586 0
1000000 -3502 -7823 0
1000000 -3503 -7281 0
1000000 -3504 -6529 0
1000000 -3505 -6950 0
1000000 -3506 -7466 0
1000000 -3507 -6868 0
1000000 -3508 -7782 0
1000000 -3509 -6685 0
1000000 -3510 -6493 0
1000000 -3511 -7756 0
1000000 -3512 -7203 0
1000000 -3513 -6707 0
1000000 -3514 -6659 0
1000000 -3515 -6865 0
1000000 -3516 -6805 0
1000000 -3517 -6665 0
1000000 -3518 -6686 0
1000000 -3519 -7515 0
1000000 -3520 -6896 0
1000000 -3521 -6708 0
1000000 -3522 -7821 0
1000000 -3523 -6657 0
1000000 -3524 -7876 0
1000000 -3525 -6776 0
1000000 -3526 -7869 0
1000000 -3527 -6610 0
1000000 -3528 -7105 0
1000000 -3529 -6684 0
1000000 -3530 -7044 0
1000000 -3531 -7152 0
1000000 -3532 -7126 0
1000000 -3533 -7792 0
1000000 -3534 -6853 0
1000000 -3535 -6583 0
1000000 -3536 -7498 0
1000000 -3537 -6981 0
1000000 -3538 -7632 0
1000000 -3539 -7570 0
1000000 -3540 -6925 0
1000000 -3541 -6545 0
1000000 -3542 -7171 0
1000000 -3543 -7344 0
1000000 -3544 -7879 0
1000000 -3545 -6498 0
1000000 -3546 -6401 0
1000000 -3547 -6840 0
1000000 -3548 -6442 0
1000000 -3549 -6864 0
1000000 -3550 -7631 0
1000000 -3551 -7066 0
1000000 -3552 -7859 0
1000000 -3553 -7302 0
1000000 -3554 -7858 0
1000000 -3555 -7447 0
1000000 -3556 -7249 0
1000000 -3557 -7102 0
1000000 -3558 -7323 0
1000000 -3559 -6680 0
1000000 -3560 -7088 0
1000000 -3561 -6537 0
1000000 -3562 -7448 0
1000000 -3563 -6809 0
1000000 -3564 -6682 0
1000000 -3565 -7759 0
1000000 -3566 -7896 0
1000000 -3567 -6656 0
1000000 -3568 -6783 0
1000000 -3569 -6790 0
1000000 -3570 -7815 0
1000000 -3571 -7741 0
1000000 -3572 -6758 0
1000000 -3573 -6654 0
1000000 -3574 -6953 0
1000000 -3575 -6851 0
1000000 -3576 -7856 0
1000000 -3577 -7012 0
1000000 -3578 -7798 0
1000000 -3579 -6668 0
1000000 -3580 -7273 0
1000000 -3581 -6715 0
1000000 -3582 -7459 0
1000000 -3583 -7168 0
1000000 -3584 -7529 0
1000000 -3585 -7270 0
1000000 -3586 -7106 0
1000000 -3587 -7283 0
1000000 -3588 -7315 0
1000000 -3589 -6806 0
1000000 -3590 -7448 0
1000000 -3591 -7114 0
1000000 -3592 -7317 0
1000000 -3593 -7193 0
1000000 -3594 -6910 0
1000000 -3595 -6553 0
1000000 -3596 -6637 0
1000000 -3597 -7574 0
1000000 -3598 -6647 0
1000000 -3599 -6599 0
1000000 -3600 -6689 0
1000000 -3601 -7389 0
1000000 -3602 -7833 0
1000000 -3603 -6559 0
1000000 -3604 -6476 0
1000000 -3605 -7790 0
1000000 -3606 -6857 0
1000000 -3607 -7520 0
1000000 -3608 -7805 0
1000000 -3609 -7259 0
1000000 -3610 -6455 0
1000000 -3611 -6733 0
1000000 -3612 -7682 0
1000000 -3613 -6456 0
1000000 -3614 -7798 0
1000000 -3615 -7490 0
1000000 -3616 -7019 0
1000000 -3617 -7362 0
1000000 -3618 -6660 0
1000000 -3619 -7578 0
1000000 -3620 -7301 0
1000000 -3621 -7097 0
1000000 -3622 -7013 0
1000000 -3623 -7830 0
1000000 -3624 -7463 0
1000000 -3625 -7384 0
1000000 -3626 -6579 0
1000000 -3627 -7495 0
1000000 -3628 -6967 0
1000000 -3629 -7639 0
1000000 -3630 -7325 0
1000000 -3631 -7072 0
1000000 -3632 -7585 0
1000000 -3633 -7757 0
1000000 -3634 -7742 0
1000000 -3635 -7316 0
1000000 -3636 -7715 0
1000000 -3637 -7258 0
1000000 -3638 -7670 0
1000000 -3639 -7545 0
1000000 -3640 -7399 0
1000000 -3641 -7333 0
1000000 -3642 -6825 0
1000000 -3643 -7397 0
1000000 -3644 -6694 0
1000000 -3645 -7503 0
1000000 -3646 -7309 0
1000000 -3647 -7559 0
1000000 -3648 -6993 0
1000000 -3649 -7300 0
1000000 -3650 -6643 0
1000000 -3651 -7773 0
1000000 -3652 -7438 0
1000000 -3653 -6671 0
1000000 -3654 -7743 0
1000000 -3655 -7057 0
1000000 -3656 -7455 0
1000000 -3657 -6999 0
1000000 -3658 -6727 0
1000000 -3659 -6879 0
1000000 -3660 -6646 0
1000000 -3661 -7376 0
1000000 -3662 -6706 0
1000000 -3663 -6890 0
1000000 -3664 -7108 0
1000000 -3665 -7573 0
1000000 -3666 -7139 0
1000000 -3667 -6662 0
1000000 -3668 -7588 0
1000000 -3669 -6880 0
1000000 -3670 -7145 0
1000000 -3671 -7836 0
1000000 -3672 -6731 0
1000000 -3673 -6492 0
1000000 -3674 -6704 0
1000000 -3675 -7593 0
1000000 -3676 -6483 0
1000000 -3677 -7252 0
1000000 -3678 -7574 0
1000000 -3679 -6647 0
1000000 -3680 -6948 0
1000000 -3681 -7438 0
1000000 -3682 -6773 0
1000000 -3683 -7717 0
1000000 -3684 -6490 0
1000000 -3685 -7015 0
1000000 -3686 -7762 0
1000000 -3687 -7159 0
1000000 -3688 -6596 0
1000000 -3689 -6986 0
1000000 -3690 -7313 0
1000000 -3691 -6821 0
1000000 -3692 -6908 0
1000000 -3693 -6861 0
1000000 -3694 -6518 0
1000000 -3695 -7083 0
1000000 -3696 -7088 0
1000000 -3697 -7245 0
1000000 -3698 -7656 0
1000000 -3699 -6847 0
1000000 -3700 -6861 0
1000000 -3701 -7775 0
1000000 -3702 -7548 0
1000000 -3703 -6526 0
1000000 -3704 -7704 0
1000000 -3705 -7612 0
1000000 -3706 -7038 0
1000000 -3707 -7400 0
1000000 -3708 -7132 0
1000000 -3709 -7681 0
1000000 -3710 -6441 0
1000000 -3711 -6807 0
1000000 -3712 -6991 0
1000000 -3713 -6953 0
1000000 -3714 -6857 0
1000000 -3715 -6739 0
1000000 -3716 -7745 0
1000000 -3717 -7045 0
1000000 -3718 -6858 0
1000000 -3719 -7072 0
1000000 -3720 -7580 0
1000000 -3721 -6714 0
1000000 -3722 -6425 0
1000000 -3723 -7205 0
1000000 -3724 -6604 0
1000000 -3725 -6588 0
1000000 -3726 -7832 0
1000000 -3727 -7694 0
1000000 -3728 -6500 0
1000000 -3729 -6678 0
1000000 -3730 -6632 0
1000000 -3731 -7524 0
1000000 -3732 -7538 0
1000000 -3733 -7776 0
1000000 -3734 -6702 0
1000000 -3735 -7404 0
1000000 -3736 -7427 0
1000000 -3737 -7103 0
1000000 -3738 -6728 0
1000000 -3739 -7160 0
1000000 -3740 -7699 0
1000000 -3741 -6661 0
1000000 -3742 -7100 0
1000000 -3743 -7675 0
1000000 -3744 -7431 0
1000000 -3745 -7853 0
1000000 -3746 -7501 0
1000000 -3747 -7835 0
1000000 -3748 -7773 0
1000000 -3749 -7871 0
1000000 -3750 -6922 0
1000000 -3751 -7736 0
1000000 -3752 -7887 0
1000000 -3753 -6460 0
1000000 -3754 -6522 0
1000000 -3755 -7895 0
1000000 -3756 -6417 0
1000000 -3757 -6678 0
1000000 -3758 -6871 0
1000000 -3759 -6442 0
1000000 -3760 -7467 0
1000000 -3761 -7226 0
1000000 -3762 -7600 0
1000000 -3763 -7600 0
1000000 -3764 -6917 0
1000000 -3765 -7253 0
1000000 -3766 -6448 0
1000000 -3767 -6808 0
1000000 -3768 -6815 0
1000000 -3769 -6497 0
1000000 -3770 -7358 0
1000000 -3771 -7458 0
1000000 -3772 -6881 0
1000000 -3773 -7556 0
1000000 -3774 -7671 0
1000000 -3775 -7027 0
1000000 -3776 -6555 0
1000000 -3777 -7569 0
1000000 -3778 -7028 0
1000000 -3779 -6641 0
1000000 -3780 -7737 0
1000000 -3781 -7179 0
1000000 -3782 -6448 0
1000000 -3783 -6889 0
1000000 -3784 -7874 0
1000000 -3785 -7779 0
1000000 -3786 -6655 0
1000000 -3787 -7022 0
1000000 -3788 -7085 0
1000000 -3789 -7775 0
1000000 -3790 -7426 0
1000000 -3791 -7221 0
1000000 -3792 -6582 0
1000000 -3793 -7785 0
1000000 -3794 -6622 0
1000000 -3795 -6848 0
1000000 -3796 -7324 0
1000000 -3797 -6876 0
1000000 -3798 -6570 0
1000000 -3799 -6614 0
1000000 -3800 -7175 0
1000000 -3801 -6919 0
1000000 -3802 -7666 0
1000000 -3803 -7104 0
1000000 -3804 -7888 0
1000000 -3805 -6842 0
1000000 -3806 -7332 0
1000000 -3807 -7124 0
1000000 -3808 -6802 0
1000000 -3809 -7387 0
1000000 -3810 -7555 0
1000000 -3811 -7039 0
1000000 -3812 -7567 0
1000000 -3813 -6477 0
1000000 -3814 -6691 0
1000000 -3815 -7733 0
1000000 -3816 -7625 0
1000000 -3817 -6492 0
1000000 -3818 -7099 0
1000000 -3819 -7848 0
1000000 -3820 -7209 0
1000000 -3821 -7821 0
1000000 -3822 -6502 0
1000000 -3823 -7638 0
1000000 -3824 -6665 0
1000000 -3825 -7883 0
1000000 -3826 -6732 0
1000000 -3827 -7836 0
1000000 -3828 -7746 0
1000000 -3829 -7045 0
1000000 -3830 -7003 0
1000000 -3831 -7427 0
1000000 -3832 -7155 0
1000000 -3833 -7076 0
1000000 -3834 -6922 0
1000000 -3835 -7117 0
1000000 -3836 -7482 0
1000000 -3837 -7091 0
1000000 -3838 -6993 0
1000000 -3839 -6413 0
1000000 -3840 -6653 0
1000000 -3841 -7169 0
1000000 -3842 -7297 0
1000000 -3843 -7382 0
1000000 -3844 -7184 0
1000000 -3845 -7710 0
1000000 -3846 -7618 0
1000000 -3847 -7258 0
1000000 -3848 -6998 0
1000000 -3849 -6565 0
1000000 -3850 -6803 0
1000000 -3851 -6403 0
1000000 -3852 -6439 0
1000000 -3853 -6525 0
1000000 -3854 -7150 0
1000000 -3855 -6408 0
1000000 -3856 -7371 0
1000000 -3857 -7605 0
1000000 -3858 -7437 0
1000000 -3859 -7507 0
1000000 -3860 -7062 0
1000000 -3861 -7192 0
1000000 -3862 -6898 0
1000000 -3863 -7396 0
1000000 -3864 -6992 0
1000000 -3865 -7777 0
1000000 -3866 -6792 0
1000000 -3867 -6961 0
1000000 -3868 -6596 0
1000000 -3869 -7304 0
1000000 -3870 -6717 0
1000000 -3871 -6685 0
1000000 -3872 -7351 0
1000000 -3873 -7733 0
1000000 -3874 -7376 0
1000000 -3875 -7273 0
1000000 -3876 -7339 0
1000000 -3877 -6600 0
1000000 -3878 -7230 0
1000000 -3879 -6874 0
1000000 -3880 -6650 0
1000000 -3881 -7469 0
1000000 -3882 -7330 0
1000000 -3883 -7484 0
1000000 -3884 -6916 0
1000000 -3885 -7022 0
1000000 -3886 -6818 0
1000000 -3887 -7499 0
1000000 -3888 -7304 0
1000000 -3889 -7623 0
1000000 -3890 -7385 0
1000000 -3891 -7627 0
1000000 -3892 -7875 0
1000000 -3893 -6812 0
1000000 -3894 -6776 0
1000000 -3895 -7407 0
1000000 -3896 -7201 0
1000000 -3897 -7488 0
1000000 -3898 -7117 0
1000000 -3899 -6440 0
1000000 -3900 -6600 0
1000000 -3901 -7595 0
1000000 -3902 -6513 0
1000000 -3903 -6843 0
1000000 -3904 -7772 0
1000000 -3905 -7856 0
1000000 -3906 -7688 0
1000000 -3907 -7356 0
1000000 -3908 -7188 0
1000000 -3909 -7709 0
1000000 -3910 -6937 0
1000000 -3911 -7808 0
1000000 -3912 -7411 0
1000000 -3913 -7242 0
1000000 -3914 -7496 0
1000000 -3915 -7049 0
1000000 -3916 -6918 0
1000000 -3917 -7690 0
1000000 -3918 -6663 0
1000000 -3919 -7735 0
1000000 -3920 -6719 0
1000000 -3921 -7804 0
1000000 -3922 -7417 0
1000000 -3923 -7847 0
1000000 -3924 -7173 0
1000000 -3925 -7544 0
1000000 -3926 -6592 0
1000000 -3927 -7098 0
1000000 -3928 -7356 0
1000000 -3929 -7470 0
1000000 -3930 -7211 0
1000000 -3931 -7412 0
1000000 -3932 -7135 0
1000000 -3933 -6540 0
1000000 -3934 -7382 0
1000000 -3935 -7434 0
1000000 -3936 -7799 0
1000000 -3937 -7359 0
1000000 -3938 -7461 0
1000000 -3939 -7289 0
1000000 -3940 -7623 0
1000000 -3941 -7272 0
1000000 -3942 -6414 0
1000000 -3943 -6566 0
1000000 -3944 -7645 0
1000000 -3945 -6680 0
1000000 -3946 -7136 0
1000000 -3947 -6749 0
1000000 -3948 -7759 0
1000000 -3949 -7364 0
1000000 -3950 -7368 0
1000000 -3951 -6580 0
1000000 -3952 -6820 0
1000000 -3953 -7571 0
1000000 -3954 -6713 0
1000000 -3955 -7029 0
1000000 -3956 -6812 0
1000000 -3957 -6590 0
1000000 -3958 -6982 0
1000000 -3959 -6835 0
1000000 -3960 -7626 0
1000000 -3961 -7062 0
1000000 -3962 -7209 0
1000000 -3963 -7640 0
1000000 -3964 -6731 0
1000000 -3965 -7504 0
1000000 -3966 -7260 0
1000000 -3967 -7393 0
1000000 -3968 -7716 0
1000000 -3969 -6756 0
1000000 -3970 -7606 0
1000000 -3971 -6611 0
1000000 -3972 -7242 0
1000000 -3973 -6978 0
1000000 -3974 -6597 0
1000000 -3975 -7525 0
1000000 -3976 -6729 0
1000000 -3977 -7852 0
1000000 -3978 -7065 0
1000000 -3979 -6980 0
1000000 -3980 -6733 0
1000000 -3981 -7824 0
1000000 -3982 -7879 0
1000000 -3983 -6824 0
1000000 -3984 -7719 0
1000000 -3985 -7126 0
1000000 -3986 -6675 0
1000000 -3987 -7577 0
1000000 -3988 -7702 0
1000000 -3989 -6609 0
1000000 -3990 -7212 0
1000000 -3991 -7004 0
1000000 -3992 -6814 0
1000000 -3993 -6649 0
1000000 -3994 -7205 0
1000000 -3995 -7235 0
1000000 -3996 -7849 0
1000000 -3997 -6875 0
1000000 -3998 -6972 0
1000000 -3999 -7538 0
1000000 -4000 -7492 0
1000000 -4001 -7000 0
1000000 -4002 -6740 0
1000000 -4003 -6891 0
1000000 -4004 -6994 0
1000000 -4005 -6772 0
1000000 -4006 -7146 0
1000000 -4007 -6444 0
1000000 -4008 -6943 0
1000000 -4009 -7191 0
1000000 -4010 -6679 0
1000000 -4011 -6813 0
1000000 -4012 -6527 0
1000000 -4013 -6848 0
1000000 -4014 -7266 0
1000000 -4015 -6544 0
1000000 -4016 -6615 0
1000000 -4017 -7056 0
1000000 -4018 -6596 0
1000000 -4019 -7204 0
1000000 -4020 -7867 0
1000000 -4021 -7779 0
1000000 -4022 -7433 0
1000000 -4023 -7405 0
1000000 -4024 -7453 0
1000000 -4025 -7761 0
1000000 -4026 -6676 0
1000000 -4027 -7788 0
1000000 -4028 -7010 0
1000000 -4029 -6690 0
1000000 -4030 -7585 0
1000000 -4031 -7190 0
1000000 -4032 -7764 0
1000000 -4033 -7070 0
1000000 -4034 -7481 0
1000000 -4035 -6977 0
1000000 -4036 -7876 0
1000000 -4037 -7862 0
1000000 -4038 -6798 0
1000000 -4039 -6769 0
1000000 -4040 -7049 0
1000000 -4041 -7755 0
1000000 -4042 -6930 0
1000000 -4043 -7718 0
1000000 -4044 -7834 0
1000000 -4045 -6706 0
1000000 -4046 -6576 0
1000000 -4047 -7579 0
1000000 -4048 -6927 0
1000000 -4049 -7721 0
1000000 -4050 -7330 0
1000000 -4051 -7462 0
1000000 -4052 -7370 0
1000000 -4053 -7687 0
1000000 -4054 -7781 0
1000000 -4055 -7234 0
1000000 -4056 -7549 0
1000000 -4057 -7841 0
1000000 -4058 -7774 0
1000000 -4059 -7138 0
1000000 -4060 -7679 0
1000000 -4061 -7413 0
1000000 -4062 -6966 0
1000000 -4063 -7863 0
1000000 -4064 -7820 0
1000000 -4065 -7015 0
1000000 -4066 -7121 0
1000000 -4067 -7324 0
1000000 -4068 -6421 0
1000000 -4069 -6458 0
1000000 -4070 -7540 0
1000000 -4071 -7170 0
1000000 -4072 -7578 0
1000000 -4073 -7208 0
1000000 -4074 -6434 0
1000000 -4075 -6524 0
1000000 -4076 -6949 0
1000000 -4077 -7365 0
1000000 -4078 -6951 0
1000000 -4079 -6759 0
1000000 -4080 -6711 0
1000000 -4081 -7772 0
1000000 -4082 -6739 0
1000000 -4083 -6561 0
1000000 -4084 -6581 0
1000000 -4085 -6534 0
1000000 -4086 -6592 0
1000000 -4087 -7354 0
1000000 -4088 -7037 0
1000000 -4089 -7662 0
1000000 -4090 -6544 0
1000000 -4091 -6422 0
1000000 -4092 -7682 0
1000000 -4093 -7468 0
1000000 -4094 -6523 0
1000000 -4095 -6454 0
1000000 -4096 -7234 0
1000000 -4097 -7885 0
1000000 -4098 -6945 0
1000000 -4099 -6979 0
1000000 -4100 -7657 0
1000000 -4101 -7081 0
1000000 -4102 -6700 0
1000000 -4103 -6498 0
1000000 -4104 -7031 0
1000000 -4105 -6824 0
1000000 -4106 -7263 0
1000000 -4107 -6910 0
1000000 -4108 -6812 0
1000000 -4109 -7087 0
1000000 -4110 -7016 0
1000000 -4111 -7873 0
1000000 -4112 -7795 0
1000000 -4113 -6565 0
1000000 -4114 -7516 0
1000000 -4115 -7511 0
1000000 -4116 -6993 0
1000000 -4117 -7296 0
1000000 -4118 -6688 0
1000000 -4119 -6865 0
1000000 -4120 -7239 0
1000000 -4121 -7265 0
1000000 -4122 -7162 0
1000000 -4123 -7636 0
1000000 -4124 -7797 0
1000000 -4125 -7004 0
1000000 -4126 -7312 0
1000000 -4127 -6814 0
1000000 -4128 -7822 0
1000000 -4129 -6724 0
1000000 -4130 -7198 0
1000000 -4131 -6783 0
1000000 -4132 -7652 0
1000000 -4133 -7857 0
1000000 -4134 -6834 0
1000000 -4135 -7497 0
1000000 -4136 -6817 0
1000000 -4137 -6783 0
1000000 -4138 -7560 0
1000000 -4139 -7055 0
1000000 -4140 -6553 0
1000000 -4141 -7470 0
1000000 -4142 -7284 0
1000000 -4143 -6648 0
1000000 -4144 -7558 0
1000000 -4145 -7472 0
1000000 -4146 -7243 0
1000000 -4147 -7464 0
1000000 -4148 -7173 0
1000000 -4149 -7194 0
1000000 -4150 -6429 0
1000000 -4151 -7534 0
1000000 -4152 -7510 0
1000000 -4153 -7899 0
1000000 -4154 -6540 0
1000000 -4155 -7126 0
1000000 -4156 -7707 0
1000000 -4157 -7786 0
1000000 -4158 -7063 0
1000000 -4159 -6667 0
1000000 -4160 -7311 0
1000000 -4161 -7617 0
1000000 -4162 -7610 0
1000000 -4163 -6624 0
1000000 -4164 -7140 0
1000000 -4165 -6829 0
1000000 -4166 -7608 0
1000000 -4167 -7289 0
1000000 -4168 -7179 0
1000000 -4169 -7466 0
1000000 -4170 -7440 0
1000000 -4171 -7051 0
1000000 -4172 -6842 0
1000000 -4173 -6602 0
1000000 -4174 -7321 0
1000000 -4175 -7872 0
1000000 -4176 -7663 0
1000000 -4177 -7303 0
1000000 -4178 -6637 0
1000000 -4179 -7855 0
1000000 -4180 -7317 0
1000000 -4181 -6575 0
1000000 -4182 -7680 0
1000000 -4183 -7445 0
1000000 -4184 -7033 0
1000000 -4185 -6844 0
1000000 -4186 -6744 0
1000000 -4187 -6634 0
1000000 -4188 -6476 0
1000000 -4189 -7402 0
1000000 -4190 -7465 0
1000000 -4191 -6798 0
1000000 -4192 -7648 0
1000000 -4193 -6674 0
1000000 -4194 -7406 0
1000000 -4195 -7486 0
1000000 -4196 -6978 0
1000000 -4197 -7369 0
1000000 -4198 -6808 0
1000000 -4199 -6519 0
1000000 -4200 -7891 0
1000000 -4201 -6811 0
1000000 -4202 -6470 0
1000000 -4203 -6898 0
1000000 -4204 -6473 0
1000000 -4205 -7534 0
1000000 -4206 -7427 0
1000000 -4207 -7744 0
1000000 -4208 -7101 0
1000000 -4209 -7794 0
1000000 -4210 -7046 0
1000000 -4211 -7698 0
1000000 -4212 -7329 0
1000000 -4213 -7251 0
1000000 -4214 -6481 0
1000000 -4215 -7280 0
1000000 -4216 -7223 0
1000000 -4217 -6616 0
1000000 -4218 -7449 0
1000000 -4219 -7344 0
1000000 -4220 -7693 0
1000000 -4221 -6505 0
1000000 -4222 -7059 0
1000000 -4223 -6570 0
1000000 -4224 -6962 0
1000000 -4225 -7886 0
1000000 -4226 -7643 0
1000000 -4227 -6725 0
1000000 -4228 -7480 0
1000000 -4229 -7457 0
1000000 -4230 -7824 0
1000000 -4231 -7788 0
1000000 -4232 -6753 0
1000000 -4233 -7155 0
1000000 -4234 -7696 0
1000000 -4235 -7142 0
1000000 -4236 -6790 0
1000000 -4237 -7659 0
1000000 -4238 -7263 0
1000000 -4239 -6434 0
1000000 -4240 -6957 0
1000000 -4241 -7017 0
1000000 -4242 -6947 0
1000000 -4243 -7597 0
1000000 -4244 -7283 0
1000000 -4245 -7552 0
1000000 -4246 -7766 0
1000000 -4247 -7523 0
1000000 -4248 -6688 0
1000000 -4249 -7424 0
1000000 -4250 -7873 0
1000000 -4251 -7149 0
1000000 -4252 -7244 0
1000000 -4253 -7477 0
1000000 -4254 -6998 0
1000000 -4255 -6602 0
1000000 -4256 -7237 0
1000000 -4257 -7605 0
1000000 -4258 -7395 0
1000000 -4259 -6967 0
1000000 -4260 -6970 0
1000000 -4261 -7889 0
1000000 -4262 -6484 0
1000000 -4263 -7807 0
1000000 -4264 -6515 0
1000000 -4265 -7585 0
1000000 -4266 -7307 0
1000000 -4267 -7106 0
1000000 -4268 -7791 0
1000000 -4269 -7345 0
1000000 -4270 -7630 0
1000000 -4271 -7230 0
1000000 -4272 -7698 0
1000000 -4273 -7778 0
1000000 -4274 -6878 0
1000000 -4275 -6528 0
1000000 -4276 -7173 0
1000000 -4277 -6778 0
1000000 -4278 -7016 0
1000000 -4279 -6897 0
1000000 -4280 -6936 0
1000000 -4281 -7522 0
1000000 -4282 -7792 0
1000000 -4283 -6673 0
1000000 -4284 -6940 0
1000000 -4285 -7137 0
1000000 -4286 -7012 0
1000000 -4287 -7422 0
1000000 -4288 -7148 0
1000000 -4289 -7466 0
1000000 -4290 -7360 0
1000000 -4291 -7025 0
1000000 -4292 -7365 0
1000000 -4293 -7628 0
1000000 -4294 -7250 0
1000000 -4295 -7032 0
1000000 -4296 -7056 0
1000000 -4297 -6831 0
1000000 -4298 -7519 0
1000000 -4299 -7314 0
1000000 -4300 -6942 0
1000000 -4301 -6750 0
1000000 -4302 -7532 0
1000000 -4303 -7279 0
1000000 -4304 -7500 0
1000000 -4305 -7046 0
1000000 -4306 -6668 0
1000000 -4307 -7065 0
1000000 -4308 -7772 0
1000000 -4309 -7759 0
1000000 -4310 -6677 0
1000000 -4311 -7699 0
1000000 -4312 -6807 0
1000000 -4313 -7802 0
1000000 -4314 -6522 0
1000000 -4315 -7515 0
1000000 -4316 -7860 0
1000000 -4317 -6631 0
1000000 -4318 -7124 0
1000000 -4319 -7848 0
1000000 -4320 -7674 0
1000000 -4321 -7610 0
1000000 -4322 -6574 0
1000000 -4323 -7116 0
1000000 -4324 -7851 0
1000000 -4325 -6964 0
1000000 -4326 -7591 0
1000000 -4327 -7193 0
1000000 -4328 -6971 0
1000000 -4329 -7512 0
1000000 -4330 -7792 0
1000000 -4331 -6751 0
1000000 -4332 -7101 0
1000000 -4333 -7208 0
1000000 -4334 -6633 0
1000000 -4335 -6856 0
1000000 -4336 -6809 0
1000000 -4337 -7191 0
1000000 -4338 -7616 0
1000000 -4339 -7104 0
1000000 -4340 -6524 0
1000000 -4341 -6845 0
1000000 -4342 -7327 0
1000000 -4343 -7826 0
1000000 -4344 -6794 0
1000000 -4345 -7620 0
1000000 -4346 -7309 0
1000000 -4347 -6711 0
1000000 -4348 -7386 0
1000000 -4349 -7477 0
1000000 -4350 -7005 0
1000000 -4351 -6713 0
1000000 -4352 -7079 0
1000000 -4353 -6653 0
1000000 -4354 -6901 0
1000000 -4355 -6488 0
1000000 -4356 -6471 0
1000000 -4357 -6531 0
1000000 -4358 -7463 0
1000000 -4359 -7242 0
1000000 -4360 -7812 0
1000000 -4361 -6593 0
1000000 -4362 -7062 0
1000000 -4363 -6595 0
1000000 -4364 -6799 0
1000000 -4365 -7681 0
1000000 -4366 -7033 0
1000000 -4367 -7426 0
1000000 -4368 -7232 0
1000000 -4369 -7683 0
1000000 -4370 -6433 0
1000000 -4371 -6750 0
1000000 -4372 -6891 0
1000000 -4373 -7147 0
1000000 -4374 -6746 0
1000000 -4375 -6426 0
1000000 -4376 -6683 0
1000000 -4377 -7557 0
1000000 -4378 -7301 0
1000000 -4379 -7652 0
1000000 -4380 -6611 0
1000000 -4381 -7432 0
1000000 -4382 -7876 0
1000000 -4383 -7487 0
1000000 -4384 -6671 0
1000000 -4385 -7095 0
1000000 -4386 -7892 0
1000000 -4387 -7375 0
1000000 -4388 -7263 0
1000000 -4389 -7353 0
1000000 -4390 -7157 0
1000000 -4391 -7069 0
1000000 -4392 -6659 0
1000000 -4393 -7097 0
1000000 -4394 -7053 0
1000000 -4395 -7363 0
1000000 -4396 -6736 0
1000000 -4397 -6697 0
1000000 -4398 -6990 0
1000000 -4399 -7615 0
1000000 -4400 -7131 0
1000000 -4401 -7210 0
1000000 -4402 -6718 0
1000000 -4403 -7476 0
1000000 -4404 -7046 0
1000000 -4405 -6405 0
1000000 -4406 -7615 0
1000000 -4407 -7414 0
1000000 -4408 -7143 0
1000000 -4409 -7337 0
1000000 -4410 -6447 0
1000000 -4411 -6424 0
1000000 -4412 -7011 0
1000000 -4413 -7332 0
1000000 -4414 -7024 0
1000000 -4415 -7484 0
1000000 -4416 -7780 0
1000000 -4417 -7089 0
1000000 -4418 -6944 0
1000000 -4419 -6961 0
1000000 -4420 -7215 0
1000000 -4421 -7358 0
1000000 -4422 -6920 0
1000000 -4423 -6901 0
1000000 -4424 -6612 0
1000000 -4425 -6642 0
1000000 -4426 -7742 0
1000000 -4427 -6948 0
1000000 -4428 -7460 0
1000000 -4429 -7196 0
1000000 -4430 -7313 0
1000000 -4431 -7680 0
1000000 -4432 -6905 0
1000000 -4433 -7704 0
1000000 -4434 -6599 0
1000000 -4435 -6880 0
1000000 -4436 -7675 0
1000000 -4437 -6551 0
1000000 -4438 -6854 0
1000000 -4439 -6950 0
1000000 -4440 -7373 0
1000000 -4441 -6598 0
1000000 -4442 -7592 0
1000000 -4443 -6535 0
1000000 -4444 -7501 0
1000000 -4445 -6979 0
1000000 -4446 -7750 0
1000000 -4447 -7541 0
1000000 -4448 -7188 0
1000000 -4449 -6836 0
1000000 -4450 -7190 0
1000000 -4451 -6480 0
1000000 -4452 -7049 0
1000000 -4453 -6762 0
1000000 -4454 -6984 0
1000000 -4455 -7391 0
1000000 -4456 -7858 0
1000000 -4457 -7611 0
1000000 -4458 -7306 0
1000000 -4459 -7388 0
1000000 -4460 -6560 0
1000000 -4461 -7080 0
1000000 -4462 -6762 0
1000000 -4463 -7163 0
1000000 -4464 -7294 0
1000000 -4465 -7245 0
1000000 -4466 -7782 0
1000000 -4467 -6884 0
1000000 -4468 -6911 0
1000000 -4469 -6709 0
1000000 -4470 -6690 0
1000000 -4471 -7281 0
1000000 -4472 -7220 0
1000000 -4473 -7502 0
1000000 -4474 -6849 0
1000000 -4475 -7316 0
1000000 -4476 -7400 0
1000000 -4477 -6941 0
1000000 -4478 -7677 0
1000000 -4479 -7627 0
1000000 -4480 -6712 0
1000000 -4481 -7475 0
1000000 -4482 -6578 0
1000000 -4483 -7478 0
1000000 -4484 -6797 0
1000000 -4485 -6948 0
1000000 -4486 -7361 0
1000000 -4487 -7233 0
1000000 -4488 -7603 0
1000000 -4489 -6714 0
1000000 -4490 -6747 0
1000000 -4491 -6716 0
1000000 -4492 -7236 0
1000000 -4493 -7765 0
1000000 -4494 -6730 0
1000000 -4495 -7878 0
1000000 -4496 -6913 0
1000000 -4497 -6668 0
1000000 -4498 -7304 0
1000000 -4499 -6849 0
1000000 -4500 -6586 0
1000000 -4501 -7737 0
1000000 -4502 -6928 0
1000000 -4503 -7706 0
1000000 -4504 -7239 0
1000000 -4505 -7180 0
1000000 -4506 -7129 0
1000000 -4507 -7079 0
1000000 -4508 -6850 0
1000000 -4509 -6965 0
1000000 -4510 -7686 0
1000000 -4511 -6708 0
1000000 -4512 -7682 0
1000000 -4513 -7551 0
1000000 -4514 -7023 0
1000000 -4515 -7545 0
1000000 -4516 -6575 0
1000000 -4517 -7403 0
1000000 -4518 -6720 0
1000000 -4519 -6851 0
1000000 -4520 -7375 0
1000000 -4521 -7470 0
1000000 -4522 -6552 0
1000000 -4523 -6654 0
1000000 -4524 -7716 0
1000000 -4525 -7004 0
1000000 -4526 -7754 0
1000000 -4527 -7670 0
1000000 -4528 -6886 0
1000000 -4529 -7251 0
1000000 -4530 -7045 0
1000000 -4531 -6853 0
1000000 -4532 -7151 0
1000000 -4533 -6499 0
1000000 -4534 -7685 0
1000000 -4535 -7405 0
1000000 -4536 -7064 0
1000000 -4537 -6753 0
1000000 -4538 -7070 0
1000000 -4539 -7377 0
1000000 -4540 -7352 0
1000000 -4541 -7887 0
1000000 -4542 -7108 0
1000000 -4543 -6444 0
1000000 -4544 -7375 0
1000000 -4545 -6417 0
1000000 -4546 -6885 0
1000000 -4547 -7176 0
1000000 -4548 -7110 0
1000000 -4549 -7770 0
1000000 -4550 -7530 0
1000000 -4551 -6991 0
1000000 -4552 -6621 0
1000000 -4553 -7624 0
1000000 -4554 -7377 0
1000000 -4555 -6917 0
1000000 -4556 -6416 0
1000000 -4557 -6792 0
1000000 -4558 -7763 0
1000000 -4559 -6934 0
1000000 -4560 -6996 0
1000000 -4561 -6557 0
1000000 -4562 -6968 0
1000000 -4563 -7861 0
1000000 -4564 -7163 0
1000000 -4565 -7642 0
1000000 -4566 -6875 0
1000000 -4567 -6981 0
1000000 -4568 -7100 0
1000000 -4569 -6402 0
1000000 -4570 -6624 0
1000000 -4571 -6757 0
1000000 -4572 -7274 0
1000000 -4573 -7634 0
1000000 -4574 -6899 0
1000000 -4575 -7830 0
1000000 -4576 -6828 0
1000000 -4577 -7650 0
1000000 -4578 -7255 0
1000000 -4579 -6597 0
1000000 -4580 -6694 0
1000000 -4581 -6698 0
1000000 -4582 -7327 0
1000000 -4583 -7353 0
1000000 -4584 -7189 0
1000000 -4585 -7224 0
1000000 -4586 -7589 0
1000000 -4587 -7769 0
1000000 -4588 -6763 0
1000000 -4589 -6804 0
1000000 -4590 -7654 0
1000000 -4591 -7539 0
1000000 -4592 -7159 0
1000000 -4593 -6800 0
1000000 -4594 -7198 0
1000000 -4595 -6627 0
1000000 -4596 -7085 0
1000000 -4597 -7827 0
1000000 -4598 -6680 0
1000000 -4599 -6958 0
1000000 -4600 -6891 0
1000000 -4601 -7827 0
1000000 -4602 -7619 0
1000000 -4603 -7662 0
1000000 -4604 -7055 0
1000000 -4605 -6732 0
1000000 -4606 -6886 0
1000000 -4607 -7518 0
1000000 -4608 -6474 0
1000000 -4609 -6542 0
1000000 -4610 -7869 0
1000000 -4611 -6461 0
1000000 -4612 -7331 0
1000000 -4613 -6878 0
1000000 -4614 -6830 0
1000000 -4615 -7252 0
1000000 -4616 -7319 0
1000000 -4617 -7564 0
1000000 -4618 -6418 0
1000000 -4619 -6740 0
1000000 -4620 -7691 0
1000000 -4621 -6939 0
1000000 -4622 -7327 0
1000000 -4623 -7355 0
1000000 -4624 -7582 0
1000000 -4625 -6897 0
1000000 -4626 -7398 0
1000000 -4627 -7531 0
1000000 -4628 -7446 0
1000000 -4629 -7064 0
1000000 -4630 -7839 0
1000000 -4631 -6990 0
1000000 -4632 -6629 0
1000000 -4633 -6590 0
1000000 -4634 -6584 0
1000000 -4635 -7530 0
1000000 -4636 -6793 0
1000000 -4637 -7523 0
1000000 -4638 -7174 0
1000000 -4639 -7783 0
1000000 -4640 -6471 0
1000000 -4641 -6575 0
1000000 -4642 -7561 0
1000000 -4643 -7860 0
1000000 -4644 -6669 0
1000000 -4645 -7363 0
1000000 -4646 -7184 0
1000000 -4647 -6494 0
1000000 -4648 -6449 0
1000000 -4649 -7268 0
1000000 -4650 -6685 0
1000000 -4651 -7211 0
1000000 -4652 -7172 0
1000000 -4653 -7437 0
1000000 -4654 -7749 0
1000000 -4655 -7038 0
1000000 -4656 -7548 0
1000000 -4657 -6973 0
1000000 -4658 -7527 0
1000000 -4659 -7811 0
1000000 -4660 -7236 0
1000000 -4661 -7040 0
1000000 -4662 -6427 0
1000000 -4663 -7442 0
1000000 -4664 -6765 0
1000000 -4665 -7212 0
1000000 -4666 -7514 0
1000000 -4667 -6747 0
1000000 -4668 -7787 0
1000000 -4669 -7322 0
1000000 -4670 -7065 0
1000000 -4671 -6773 0
1000000 -4672 -7840 0
1000000 -4673 -6788 0
1000000 -4674 -7271 0
1000000 -4675 -7374 0
1000000 -4676 -7843 0
1000000 -4677 -7133 0
1000000 -4678 -6684 0
1000000 -4679 -6857 0
1000000 -4680 -6563 0
1000000 -4681 -7889 0
1000000 -4682 -7864 0
1000000 -4683 -7535 0
1000000 -4684 -6636 0
1000000 -4685 -7891 0
1000000 -4686 -7863 0
1000000 -4687 -6485 0
1000000 -4688 -7445 0
1000000 -4689 -6969 0
1000000 -4690 -6589 0
1000000 -4691 -6447 0
1000000 -4692 -6515 0
1000000 -4693 -6958 0
1000000 -4694 -6766 0
1000000 -4695 -7732 0
1000000 -4696 -7897 0
1000000 -4697 -6917 0
1000000 -4698 -6778 0
1000000 -4699 -7258 0
1000000 -4700 -7008 0
1000000 -4701 -7393 0
1000000 -4702 -7238 0
1000000 -4703 -7671 0
1000000 -4704 -7465 0
1000000 -4705 -6572 0
1000000 -4706 -6482 0
1000000 -4707 -6985 0
1000000 -4708 -6415 0
1000000 -4709 -7487 0
1000000 -4710 -7513 0
1000000 -4711 -6918 0
1000000 -4712 -7169 0
1000000 -4713 -6986 0
1000000 -4714 -7765 0
1000000 -4715 -6485 0
1000000 -4716 -6566 0
1000000 -4717 -7900 0
1000000 -4718 -6432 0
1000000 -4719 -7068 0
1000000 -4720 -7700 0
1000000 -4721 -7252 0
1000000 -4722 -6431 0
1000000 -4723 -7820 0
1000000 -4724 -6768 0
1000000 -4725 -7583 0
1000000 -4726 -7078 0
1000000 -4727 -7294 0
1000000 -4728 -7036 0
1000000 -4729 -7505 0
1000000 -4730 -7435 0
1000000 -4731 -7589 0
1000000 -4732 -6860 0
1000000 -4733 -7636 0
1000000 -4734 -6911 0
1000000 -4735 -7690 0
1000000 -4736 -6684 0
1000000 -4737 -7381 0
1000000 -4738 -7825 0
1000000 -4739 -6844 0
1000000 -4740 -7479 0
1000000 -4741 -6894 0
1000000 -4742 -7503 0
1000000 -4743 -7885 0
1000000 -4744 -7491 0
1000000 -4745 -6666 0
1000000 -4746 -6776 0
1000000 -4747 -6794 0
1000000 -4748 -6505 0
1000000 -4749 -7257 0
1000000 -4750 -6952 0
1000000 -4751 -6861 0
1000000 -4752 -7310 0
1000000 -4753 -7094 0
1000000 -4754 -7342 0
1000000 -4755 -7092 0
1000000 -4756 -7225 0
1000000 -4757 -7253 0
1000000 -4758 -7804 0
1000000 -4759 -7639 0
1000000 -4760 -6973 0
1000000 -4761 -7405 0
1000000 -4762 -6632 0
1000000 -4763 -7586 0
1000000 -4764 -7646 0
1000000 -4765 -7829 0
1000000 -4766 -7668 0
1000000 -4767 -7320 0
1000000 -4768 -7185 0
1000000 -4769 -7429 0
1000000 -4770 -7270 0
1000000 -4771 -6751 0
1000000 -4772 -6479 0
1000000 -4773 -7870 0
1000000 -4774 -7454 0
1000000 -4775 -6411 0
1000000 -4776 -6775 0
1000000 -4777 -6731 0
1000000 -4778 -6939 0
1000000 -4779 -6893 0
1000000 -4780 -7731 0
1000000 -4781 -6894 0
1000000 -4782 -7781 0
1000000 -4783 -7130 0
1000000 -4784 -6834 0
1000000 -4785 -6875 0
1000000 -4786 -7039 0
1000000 -4787 -6581 0
1000000 -4788 -7627 0
1000000 -4789 -7607 0
1000000 -4790 -6984 0
1000000 -4791 -7685 0
1000000 -4792 -6437 0
1000000 -4793 -6966 0
1000000 -4794 -6504 0
1000000 -4795 -7191 0
1000000 -4796 -7120 0
1000000 -4797 -7276 0
1000000 -4798 -7264 0
1000000 -4799 -7604 0
1000000 -4800 -7609 0
1000000 -4801 -6865 0
1000000 -4802 -6620 0
1000000 -4803 -7556 0
1000000 -4804 -7282 0
1000000 -4805 -6646 0
1000000 -4806 -6726 0
1000000 -4807 -7297 0
1000000 -4808 -7644 0
1000000 -4809 -7492 0
1000000 -4810 -7550 0
1000000 -4811 -7814 0
1000000 -4812 -6544 0
1000000 -4813 -7348 0
1000000 -4814 -7292 0
1000000 -4815 -7651 0
1000000 -4816 -6448 0
1000000 -4817 -7528 0
1000000 -4818 -7601 0
1000000 -4819 -6619 0
1000000 -4820 -7291 0
1000000 -4821 -6445 0
1000000 -4822 -7601 0
1000000 -4823 -7334 0
1000000 -4824 -7611 0
1000000 -4825 -7331 0
1000000 -4826 -7849 0
1000000 -4827 -6782 0
1000000 -4828 -7781 0
1000000 -4829 -7428 0
1000000 -4830 -7566 0
1000000 -4831 -7880 0
1000000 -4832 -7002 0
1000000 -4833 -7094 0
1000000 -4834 -6924 0
1000000 -4835 -7512 0
1000000 -4836 -7003 0
1000000 -4837 -6877 0
1000000 -4838 -7731 0
1000000 -4839 -7452 0
1000000 -4840 -6896 0
1000000 -4841 -7843 0
1000000 -4842 -7677 0
1000000 -4843 -6640 0
1000000 -4844 -6882 0
1000000 -4845 -6796 0
1000000 -4846 -7085 0
1000000 -4847 -7219 0
1000000 -4848 -7350 0
1000000 -4849 -6833 0
1000000 -4850 -7535 0
1000000 -4851 -7640 0
1000000 -4852 -7420 0
1000000 -4853 -7187 0
1000000 -4854 -7684 0
1000000 -4855 -6435 0
1000000 -4856 -7868 0
1000000 -4857 -7529 0
1000000 -4858 -7387 0
1000000 -4859 -7555 0
1000000 -4860 -7803 0
1000000 -4861 -7537 0
1000000 -4862 -6630 0
1000000 -4863 -7744 0
1000000 -4864 -6903 0
1000000 -4865 -6887 0
1000000 -4866 -7754 0
1000000 -4867 -6908 0
1000000 -4868 -7178 0
1000000 -4869 -6931 0
1000000 -4870 -7198 0
1000000 -4871 -6503 0
1000000 -4872 -7542 0
1000000 -4873 -7265 0
1000000 -4874 -6883 0
1000000 -4875 -6899 0
1000000 -4876 -7299 0
1000000 -4877 -7024 0
1000000 -4878 -7734 0
1000000 -4879 -7418 0
1000000 -4880 -6637 0
1000000 -4881 -6815 0
1000000 -4882 -6784 0
1000000 -4883 -6801 0
1000000 -4884 -7833 0
1000000 -4885 -6813 0
1000000 -4886 -7090 0
1000000 -4887 -7052 0
1000000 -4888 -6408 0
1000000 -4889 -6692 0
1000000 -4890 -7536 0
1000000 -4891 -7361 0
1000000 -4892 -7823 0
1000000 -4893 -6965 0
1000000 -4894 -6642 0
1000000 -4895 -6625 0
1000000 -4896 -6958 0
1000000 -4897 -7088 0
1000000 -4898 -6941 0
1000000 -4899 -7121 0
1000000 -4900 -6460 0
1000000 -4901 -7186 0
1000000 -4902 -7469 0
1000000 -4903 -7287 0
1000000 -4904 -7679 0
1000000 -4905 -6449 0
1000000 -4906 -7612 0
1000000 -4907 -7633 0
1000000 -4908 -6955 0
1000000 -4909 -6738 0
1000000 -4910 -7226 0
1000000 -4911 -6831 0
1000000 -4912 -7528 0
1000000 -4913 -6465 0
1000000 -4914 -6545 0
1000000 -4915 -6695 0
1000000 -4916 -7364 0
1000000 -4917 -6914 0
1000000 -4918 -7596 0
1000000 -4919 -6610 0
1000000 -4920 -7349 0
1000000 -4921 -6985 0
1000000 -4922 -7468 0
1000000 -4923 -7032 0
1000000 -4924 -6955 0
1000000 -4925 -7688 0
1000000 -4926 -7873 0
1000000 -4927 -6556 0
1000000 -4928 -6937 0
1000000 -4929 -7843 0
1000000 -4930 -6699 0
1000000 -4931 -7796 0
1000000 -4932 -7206 0
1000000 -4933 -6589 0
1000000 -4934 -7590 0
1000000 -4935 -7651 0
1000000 -4936 -7380 0
1000000 -4937 -7000 0
1000000 -4938 -6839 0
1000000 -4939 -6830 0
1000000 -4940 -7184 0
1000000 -4941 -7244 0
1000000 -4942 -7318 0
1000000 -4943 -7119 0
1000000 -4944 -7458 0
1000000 -4945 -7043 0
1000000 -4946 -7561 0
1000000 -4947 -7509 0
1000000 -4948 -7207 0
1000000 -4949 -6700 0
1000000 -4950 -7111 0
1000000 -4951 -6613 0
1000000 -4952 -6789 0
1000000 -4953 -6454 0
1000000 -4954 -7550 0
1000000 -4955 -6884 0
1000000 -4956 -7207 0
1000000 -4957 -7041 0
1000000 -4958 -7695 0
1000000 -4959 -7845 0
1000000 -4960 -7875 0
1000000 -4961 -7816 0
1000000 -4962 -7871 0
1000000 -4963 -7410 0
1000000 -4964 -7848 0
1000000 -4965 -7352 0
1000000 -4966 -6843 0
1000000 -4967 -7898 0
1000000 -4968 -6583 0
1000000 -4969 -7832 0
1000000 -4970 -6687 0
1000000 -4971 -6569 0
1000000 -4972 -6643 0
1000000 -4973 -6935 0
1000000 -4974 -7430 0
1000000 -4975 -6569 0
1000000 -4976 -6863 0
1000000 -4977 -7383 0
1000000 -4978 -7272 0
1000000 -4979 -6549 0
1000000 -4980 -6975 0
1000000 -4981 -7441 0
1000000 -4982 -6748 0
1000000 -4983 -7869 0
1000000 -4984 -6577 0
1000000 -4985 -7519 0
1000000 -4986 -7110 0
1000000 -4987 -7672 0
1000000 -4988 -7238 0
1000000 -4989 -7563 0
1000000 -4990 -7527 0
1000000 -4991 -6994 0
1000000 -4992 -7555 0
1000000 -4993 -6407 0
1000000 -4994 -6937 0
1000000 -4995 -6681 0
1000000 -4996 -7883 0
1000000 -4997 -7197 0
1000000 -4998 -7394 0
1000000 -4999 -7239 0
1000000 -5000 -6512 0
1000000 -5001 -6412 0
1000000 -5002 -6695 0
1000000 -5003 -7098 0
1000000 -5004 -6553 0
1000000 -5005 -6710 0
1000000 -5006 -7414 0
1000000 -5007 -7714 0
1000000 -5008 -6418 0
1000000 -5009 -6900 0
1000000 -5010 -7369 0
1000000 -5011 -7021 0
1000000 -5012 -6691 0
1000000 -5013 -6768 0
1000000 -5014 -7664 0
1000000 -5015 -7587 0
1000000 -5016 -7171 0
1000000 -5017 -7794 0
1000000 -5018 -7584 0
1000000 -5019 -6774 0
1000000 -5020 -6472 0
1000000 -5021 -6543 0
1000000 -5022 -7383 0
1000000 -5023 -7676 0
1000000 -5024 -6987 0
1000000 -5025 -7148 0
1000000 -5026 -6495 0
1000000 -5027 -6976 0
1000000 -5028 -6780 0
1000000 -5029 -6854 0
1000000 -5030 -6511 0
1000000 -5031 -6516 0
1000000 -5032 -6464 0
1000000 -5033 -6772 0
1000000 -5034 -6894 0
1000000 -5035 -6539 0
1000000 -5036 -7390 0
1000000 -5037 -7594 0
1000000 -5038 -6781 0
1000000 -5039 -6581 0
1000000 -5040 -7820 0
1000000 -5041 -6935 0
1000000 -5042 -6496 0
1000000 -5043 -7259 0
1000000 -5044 -7743 0
1000000 -5045 -7712 0
1000000 -5046 -7653 0
1000000 -5047 -7035 0
1000000 -5048 -6755 0
1000000 -5049 -7369 0
1000000 -5050 -7701 0
1000000 -5051 -7323 0
1000000 -5052 -6888 0
1000000 -5053 -7769 0
1000000 -5054 -7489 0
1000000 -5055 -7281 0
1000000 -5056 -6822 0
1000000 -5057 -7722 0
1000000 -5058 -7042 0
1000000 -5059 -6997 0
1000000 -5060 -6795 0
1000000 -5061 -6692 0
1000000 -5062 -7229 0
1000000 -5063 -7738 0
1000000 -5064 -7144 0
1000000 -5065 -7001 0
1000000 -5066 -7001 0
1000000 -5067 -6607 0
1000000 -5068 -7019 0
1000000 -5069 -7563 0
1000000 -5070 -7775 0
1000000 -5071 -7356 0
1000000 -5072 -6708 0
1000000 -5073 -7580 0
1000000 -5074 -7700 0
1000000 -5075 -7348 0
1000000 -5076 -7344 0
1000000 -5077 -6423 0
1000000 -5078 -7451 0
1000000 -5079 -7770 0
1000000 -5080 -6459 0
1000000 -5081 -6582 0
1000000 -5082 -7084 0
1000000 -5083 -6462 0
1000000 -5084 -6907 0
1000000 -5085 -7007 0
1000000 -5086 -7035 0
1000000 -5087 -7618 0
1000000 -5088 -6548 0
1000000 -5089 -7507 0
1000000 -5090 -7087 0
1000000 -5091 -7521 0
1000000 -5092 -6467 0
1000000 -5093 -6438 0
1000000 -5094 -6573 0
1000000 -5095 -7336 0
1000000 -5096 -7076 0
1000000 -5097 -7474 0
1000000 -5098 -7793 0
1000000 -5099 -7056 0
1000000 -5100 -7338 0
1000000 -5101 -7260 0
1000000 -5102 -7791 0
1000000 -5103 -6887 0
1000000 -5104 -7726 0
1000000 -5105 -7512 0
1000000 -5106 -6904 0
1000000 -5107 -7885 0
1000000 -5108 -7113 0
1000000 -5109 -6693 0
1000000 -5110 -7245 0
1000000 -5111 -7740 0
1000000 -5112 -7521 0
1000000 -5113 -7288 0
1000000 -5114 -7042 0
1000000 -5115 -7494 0
1000000 -5116 -6471 0
1000000 -5117 -6960 0
1000000 -5118 -7727 0
1000000 -5119 -6423 0
1000000 -5120 -7031 0
1000000 -5121 -6562 0
1000000 -5122 -7754 0
1000000 -5123 -7214 0
1000000 -5124 -6794 0
1000000 -5125 -7629 0
1000000 -5126 -7293 0
1000000 -5127 -6913 0
1000000 -5128 -7128 0
1000000 -5129 -7670 0
1000000 -5130 -7308 0
1000000 -5131 -6995 0
1000000 -5132 -6446 0
1000000 -5133 -7511 0
1000000 -5134 -6818 0
1000000 -5135 -7665 0
1000000 -5136 -7061 0
1000000 -5137 -7711 0
1000000 -5138 -7638 0
1000000 -5139 -7421 0
1000000 -5140 -7832 0
1000000 -5141 -7752 0
1000000 -5142 -7148 0
1000000 -5143 -6480 0
1000000 -5144 -6828 0
1000000 -5145 -6944 0
1000000 -5146 -6615 0
1000000 -5147 -6930 0
1000000 -5148 -6927 0
1000000 -5149 -7638 0
1000000 -5150 -7032 0
1000000 -5151 -7545 0
1000000 -5152 -6513 0
1000000 -5153 -7069 0
1000000 -5154 -7619 0
1000000 -5155 -6969 0
1000000 -5156 -7103 0
1000000 -5157 -6997 0
1000000 -5158 -6441 0
1000000 -5159 -6532 0
1000000 -5160 -7689 0
1000000 -5161 -7730 0
1000000 -5162 -7345 0
1000000 -5163 -7894 0
1000000 -5164 -6809 0
1000000 -5165 -6976 0
1000000 -5166 -6556 0
1000000 -5167 -7900 0
1000000 -5168 -7071 0
1000000 -5169 -6866 0
1000000 -5170 -7145 0
1000000 -5171 -7231 0
1000000 -5172 -7417 0
1000000 -5173 -7858 0
1000000 -5174 -7582 0
1000000 -5175 -6511 0
1000000 -5176 -7478 0
1000000 -5177 -6489 0
1000000 -5178 -7621 0
1000000 -5179 -6969 0
1000000 -5180 -7728 0
1000000 -5181 -7275 0
1000000 -5182 -7641 0
1000000 -5183 -7835 0
1000000 -5184 -6802 0
1000000 -5185 -6659 0
1000000 -5186 -7750 0
1000000 -5187 -7415 0
1000000 -5188 -6808 0
1000000 -5189 -7673 0
1000000 -5190 -6984 0
1000000 -5191 -6532 0
1000000 -5192 -6963 0
1000000 -5193 -7453 0
1000000 -5194 -7218 0
1000000 -5195 -7063 0
1000000 -5196 -7553 0
1000000 -5197 -7640 0
1000000 -5198 -7270 0
1000000 -5199 -7651 0
1000000 -5200 -6435 0
1000000 -5201 -7459 0
1000000 -5202 -7493 0
1000000 -5203 -6493 0
1000000 -5204 -7808 0
1000000 -5205 -7830 0
1000000 -5206 -6954 0
1000000 -5207 -7604 0
1000000 -5208 -7745 0
1000000 -5209 -6722 0
1000000 -5210 -7150 0
1000000 -5211 -7118 0
1000000 -5212 -6775 0
1000000 -5213 -7151 0
1000000 -5214 -7583 0
1000000 -5215 -6479 0
1000000 -5216 -6739 0
1000000 -5217 -6804 0
1000000 -5218 -7564 0
1000000 -5219 -6905 0
1000000 -5220 -6622 0
1000000 -5221 -7149 0
1000000 -5222 -6749 0
1000000 -5223 -6946 0
1000000 -5224 -6661 0
1000000 -5225 -7506 0
1000000 -5226 -7181 0
1000000 -5227 -6982 0
1000000 -5228 -7273 0
1000000 -5229 -7505 0
1000000 -5230 -6539 0
1000000 -5231 -7409 0
1000000 -5232 -7602 0
1000000 -5233 -6409 0
1000000 -5234 -6603 0
1000000 -5235 -6419 0
1000000 -5236 -6700 0
1000000 -5237 -6703 0
1000000 -5238 -7543 0
1000000 -5239 -7096 0
1000000 -5240 -7509 0
1000000 -5241 -7488 0
1000000 -5242 -7077 0
1000000 -5243 -7366 0
1000000 -5244 -7250 0
1000000 -5245 -7783 0
1000000 -5246 -6484 0
1000000 -5247 -6411 0
1000000 -5248 -6600 0
1000000 -5249 -7240 0
1000000 -5250 -6468 0
1000000 -5251 -7732 0
1000000 -5252 -7739 0
1000000 -5253 -6413 0
1000000 -5254 -7412 0
1000000 -5255 -7720 0
1000000 -5256 -7898 0
1000000 -5257 -6486 0
1000000 -5258 -6738 0
1000000 -5259 -6650 0
1000000 -5260 -7602 0
1000000 -5261 -6956 0
1000000 -5262 -7318 0
1000000 -5263 -7714 0
1000000 -5264 -6554 0
1000000 -5265 -7429 0
1000000 -5266 -6736 0
1000000 -5267 -7721 0
1000000 -5268 -6719 0
1000000 -5269 -7859 0
1000000 -5270 -7860 0
1000000 -5271 -7673 0
1000000 -5272 -7285 0
1000000 -5273 -7222 0
1000000 -5274 -6827 0
1000000 -5275 -7711 0
1000000 -5276 -7575 0
1000000 -5277 -6802 0
1000000 -5278 -7522 0
1000000 -5279 -7084 0
1000000 -5280 -7486 0
1000000 -5281 -7209 0
1000000 -5282 -7027 0
1000000 -5283 -6882 0
1000000 -5284 -7013 0
1000000 -5285 -7334 0
1000000 -5286 -7406 0
1000000 -5287 -7006 0
1000000 -5288 -6720 0
1000000 -5289 -7196 0
1000000 -5290 -7017 0
1000000 -5291 -7228 0
1000000 -5292 -7515 0
1000000 -5293 -7043 0
1000000 -5294 -6664 0
1000000 -5295 -6473 0
1000000 -5296 -7842 0
1000000 -5297 -6959 0
1000000 -5298 -7286 0
1000000 -5299 -7326 0
1000000 -5300 -7551 0
1000000 -5301 -6686 0
1000000 -5302 -7247 0
1000000 -5303 -7195 0
1000000 -5304 -7069 0
1000000 -5305 -7401 0
1000000 -5306 -6451 0
1000000 -5307 -6558 0
1000000 -5308 -6810 0
1000000 -5309 -7303 0
1000000 -5310 -7809 0
1000000 -5311 -7647 0
1000000 -5312 -7472 0
1000000 -5313 -7221 0
1000000 -5314 -7839 0
1000000 -5315 -7837 0
1000000 -5316 -6422 0
1000000 -5317 -6635 0
1000000 -5318 -6640 0
1000000 -5319 -6502 0
1000000 -5320 -6764 0
1000000 -5321 -6419 0
1000000 -5322 -6583 0
1000000 -5323 -7264 0
1000000 -5324 -6755 0
1000000 -5325 -6902 0
1000000 -5326 -6906 0
1000000 -5327 -7185 0
1000000 -5328 -6569 0
1000000 -5329 -7068 0
1000000 -5330 -6573 0
1000000 -5331 -6577 0
1000000 -5332 -6430 0
1000000 -5333 -6472 0
1000000 -5334 -7845 0
1000000 -5335 -6644 0
1000000 -5336 -6796 0
1000000 -5337 -6919 0
1000000 -5338 -7496 0
1000000 -5339 -6872 0
1000000 -5340 -7723 0
1000000 -5341 -7806 0
1000000 -5342 -6974 0
1000000 -5343 -6452 0
1000000 -5344 -6855 0
1000000 -5345 -7592 0
1000000 -5346 -7315 0
1000000 -5347 -7150 0
1000000 -5348 -6417 0
1000000 -5349 -7331 0
1000000 -5350 -6453 0
1000000 -5351 -7211 0
1000000 -5352 -7279 0
1000000 -5353 -7227 0
1000000 -5354 -7838 0
1000000 -5355 -6925 0
1000000 -5356 -6858 0
1000000 -5357 -7540 0
1000000 -5358 -7019 0
1000000 -5359 -6983 0
1000000 -5360 -7228 0
1000000 -5361 -6811 0
1000000 -5362 -7125 0
1000000 -5363 -7234 0
1000000 -5364 -6585 0
1000000 -5365 -6482 0
1000000 -5366 -6465 0
1000000 -5367 -6665 0
1000000 -5368 -7701 0
1000000 -5369 -6761 0
1000000 -5370 -6459 0
1000000 -5371 -7784 0
1000000 -5372 -7557 0
1000000 -5373 -6964 0
1000000 -5374 -6450 0
1000000 -5375 -6898 0
1000000 -5376 -7653 0
1000000 -5377 -6444 0
1000000 -5378 -7399 0
1000000 -5379 -6494 0
1000000 -5380 -7367 0
1000000 -5381 -7340 0
1000000 -5382 -6987 0
1000000 -5383 -7890 0
1000000 -5384 -7500 0
1000000 -5385 -6437 0
1000000 -5386 -6404 0
1000000 -5387 -6560 0
1000000 -5388 -7340 0
1000000 -5389 -7116 0
1000000 -5390 -7844 0
1000000 -5391 -7027 0
1000000 -5392 -7262 0
1000000 -5393 -6845 0
1000000 -5394 -7106 0
1000000 -5395 -7668 0
1000000 -5396 -7718 0
1000000 -5397 -7637 0
1000000 -5398 -6841 0
1000000 -5399 -7320 0
1000000 -5400 -6744 0
1000000 -5401 -7381 0
1000000 -5402 -7206 0
1000000 -5403 -7705 0
1000000 -5404 -7598 0
1000000 -5405 -7900 0
1000000 -5406 -6584 0
1000000 -5407 -7892 0
1000000 -5408 -7067 0
1000000 -5409 -7095 0
1000000 -5410 -7003 0
1000000 -5411 -6402 0
1000000 -5412 -7752 0
1000000 -5413 -6819 0
1000000 -5414 -7176 0
1000000 -5415 -7044 0
1000000 -5416 -6407 0
1000000 -5417 -7372 0
1000000 -5418 -7864 0
1000000 -5419 -7768 0
1000000 -5420 -7360 0
1000000 -5421 -6502 0
1000000 -5422 -6884 0
1000000 -5423 -7500 0
1000000 -5424 -6464 0
1000000 -5425 -6988 0
1000000 -5426 -7335 0
1000000 -5427 -7112 0
1000000 -5428 -6947 0
1000000 -5429 -6716 0
1000000 -5430 -7398 0
1000000 -5431 -7177 0
1000000 -5432 -7089 0
1000000 -5433 -7419 0
1000000 -5434 -7298 0
1000000 -5435 -7688 0
1000000 -5436 -6956 0
1000000 -5437 -7181 0
1000000 -5438 -6529 0
1000000 -5439 -6488 0
1000000 -5440 -6510 0
1000000 -5441 -6705 0
1000000 -5442 -7366 0
1000000 -5443 -6568 0
1000000 -5444 -7751 0
1000000 -5445 -6990 0
1000000 -5446 -7456 0
1000000 -5447 -6613 0
1000000 -5448 -6935 0
1000000 -5449 -7343 0
1000000 -5450 -7379 0
1000000 -5451 -7672 0
1000000 -5452 -7165 0
1000000 -5453 -6827 0
1000000 -5454 -7182 0
1000000 -5455 -6923 0
1000000 -5456 -7060 0
1000000 -5457 -6458 0
1000000 -5458 -6823 0
1000000 -5459 -6915 0
1000000 -5460 -7747 0
1000000 -5461 -6507 0
1000000 -5462 -7137 0
1000000 -5463 -7123 0
1000000 -5464 -7257 0
1000000 -5465 -7722 0
1000000 -5466 -6428 0
1000000 -5467 -7093 0
1000000 -5468 -7377 0
1000000 -5469 -7302 0
1000000 -5470 -7617 0
1000000 -5471 -7643 0
1000000 -5472 -6467 0
1000000 -5473 -6838 0
1000000 -5474 -6856 0
1000000 -5475 -7350 0
1000000 -5476 -7151 0
1000000 -5477 -7132 0
1000000 -5478 -6615 0
1000000 -5479 -7248 0
1000000 -5480 -7332 0
1000000 -5481 -7457 0
1000000 -5482 -6607 0
1000000 -5483 -6766 0
1000000 -5484 -6816 0
1000000 -5485 -6626 0
1000000 -5486 -6464 0
1000000 -5487 -7002 0
1000000 -5488 -7660 0
1000000 -5489 -6791 0
1000000 -5490 -6674 0
1000000 -5491 -7136 0
1000000 -5492 -7363 0
1000000 -5493 -7603 0
1000000 -5494 -7283 0
1000000 -5495 -7082 0
1000000 -5496 -7514 0
1000000 -5497 -7702 0
1000000 -5498 -6908 0
1000000 -5499 -6734 0
1000000 -5500 -6507 0
1000000 -5501 -6408 0
1000000 -5502 -7850 0
1000000 -5503 -7671 0
1000000 -5504 -6981 0
1000000 -5505 -6709 0
1000000 -5506 -6824 0
1000000 -5507 -6843 0
1000000 -5508 -6912 0
1000000 -5509 -6492 0
1000000 -5510 -6892 0
1000000 -5511 -7311 0
1000000 -5512 -7328 0
1000000 -5513 -6909 0
1000000 -5514 -7260 0
1000000 -5515 -7006 0
1000000 -5516 -7729 0
1000000 -5517 -6552 0
1000000 -5518 -7828 0
1000000 -5519 -6942 0
1000000 -5520 -7020 0
1000000 -5521 -6811 0
1000000 -5522 -7256 0
1000000 -5523 -6893 0
1000000 -5524 -6479 0
1000000 -5525 -6726 0
1000000 -5526 -7042 0
1000000 -5527 -7547 0
1000000 -5528 -6512 0
1000000 -5529 -7320 0
1000000 -5530 -7530 0
1000000 -5531 -7519 0
1000000 -5532 -7520 0
1000000 -5533 -6603 0
1000000 -5534 -7248 0
1000000 -5535 -7845 0
1000000 -5536 -7770 0
1000000 -5537 -7261 0
1000000 -5538 -7805 0
1000000 -5539 -7096 0
1000000 -5540 -7193 0
1000000 -5541 -7840 0
1000000 -5542 -7518 0
1000000 -5543 -6850 0
1000000 -5544 -6418 0
1000000 -5545 -6706 0
1000000 -5546 -7743 0
1000000 -5547 -7073 0
1000000 -5548 -7572 0
1000000 -5549 -7879 0
1000000 -5550 -7565 0
1000000 -5551 -6503 0
1000000 -5552 -6573 0
1000000 -5553 -6591 0
1000000 -5554 -6977 0
1000000 -5555 -6512 0
1000000 -5556 -7284 0
1000000 -5557 -7871 0
1000000 -5558 -6782 0
1000000 -5559 -6529 0
1000000 -5560 -7017 0
1000000 -5561 -6409 0
1000000 -5562 -7711 0
1000000 -5563 -7816 0
1000000 -5564 -7872 0
1000000 -5565 -6679 0
1000000 -5566 -7725 0
1000000 -5567 -6683 0
1000000 -5568 -7550 0
1000000 -5569 -7620 0
1000000 -5570 -6528 0
1000000 -5571 -7837 0
1000000 -5572 -7139 0
1000000 -5573 -6606 0
1000000 -5574 -7138 0
1000000 -5575 -6805 0
1000000 -5576 -7854 0
1000000 -5577 -7583 0
1000000 -5578 -7717 0
1000000 -5579 -7693 0
1000000 -5580 -7713 0
1000000 -5581 -7546 0
1000000 -5582 -7868 0
1000000 -5583 -7841 0
1000000 -5584 -7747 0
1000000 -5585 -6901 0
1000000 -5586 -6781 0
1000000 -5587 -7051 0
1000000 -5588 -7643 0
1000000 -5589 -7236 0
1000000 -5590 -7523 0
1000000 -5591 -6938 0
1000000 -5592 -7517 0
1000000 -5593 -6975 0
1000000 -5594 -7477 0
1000000 -5595 -6620 0
1000000 -5596 -7321 0
1000000 -5597 -6810 0
1000000 -5598 -6662 0
1000000 -5599 -6617 0
1000000 -5600 -7114 0
1000000 -5601 -7878 0
1000000 -5602 -7541 0
1000000 -5603 -6485 0
1000000 -5604 -7241 0
1000000 -5605 -6520 0
1000000 -5606 -6728 0
1000000 -5607 -7753 0
1000000 -5608 -6487 0
1000000 -5609 -7581 0
1000000 -5610 -6892 0
1000000 -5611 -6670 0
1000000 -5612 -6406 0
1000000 -5613 -7896 0
1000000 -5614 -7324 0
1000000 -5615 -7054 0
1000000 -5616 -7043 0
1000000 -5617 -7171 0
1000000 -5618 -7266 0
1000000 -5619 -6982 0
1000000 -5620 -7644 0
1000000 -5621 -6633 0
1000000 -5622 -6778 0
1000000 -5623 -7755 0
1000000 -5624 -7890 0
1000000 -5625 -6571 0
1000000 -5626 -7509 0
1000000 -5627 -7527 0
1000000 -5628 -7183 0
1000000 -5629 -6424 0
1000000 -5630 -7269 0
1000000 -5631 -6452 0
1000000 -5632 -7862 0
1000000 -5633 -7705 0
1000000 -5634 -7195 0
1000000 -5635 -6452 0
1000000 -5636 -7468 0
1000000 -5637 -7735 0
1000000 -5638 -7237 0
1000000 -5639 -6974 0
1000000 -5640 -6987 0
1000000 -5641 -7891 0
1000000 -5642 -7568 0
1000000 -5643 -7033 0
1000000 -5644 -6823 0
1000000 -5645 -6407 0
1000000 -5646 -7897 0
1000000 -5647 -7149 0
1000000 -5648 -7791 0
1000000 -5649 -7130 0
1000000 -5650 -7115 0
1000000 -5651 -6718 0
1000000 -5652 -7861 0
1000000 -5653 -7216 0
1000000 -5654 -6869 0
1000000 -5655 -6832 0
1000000 -5656 -7472 0
1000000 -5657 -7070 0
1000000 -5658 -7228 0
1000000 -5659 -6648 0
1000000 -5660 -7625 0
1000000 -5661 -7006 0
1000000 -5662 -7837 0
1000000 -5663 -7023 0
1000000 -5664 -7422 0
1000000 -5665 -7323 0
1000000 -5666 -6558 0
1000000 -5667 -6962 0
1000000 -5668 -6442 0
1000000 -5669 -7321 0
1000000 -5670 -6893 0
1000000 -5671 -6638 0
1000000 -5672 -7617 0
1000000 -5673 -7644 0
1000000 -5674 -7805 0
1000000 -5675 -7157 0
1000000 -5676 -6721 0
1000000 -5677 -6601 0
1000000 -5678 -7105 0
1000000 -5679 -7783 0
1000000 -5680 -7359 0
1000000 -5681 -7543 0
1000000 -5682 -6772 0
1000000 -5683 -7090 0
1000000 -5684 -6835 0
1000000 -5685 -7744 0
1000000 -5686 -7568 0
1000000 -5687 -7341 0
1000000 -5688 -7809 0
1000000 -5689 -6451 0
1000000 -5690 -6613 0
1000000 -5691 -7725 0
1000000 -5692 -6816 0
1000000 -5693 -6460 0
1000000 -5694 -7365 0
1000000 -5695 -6753 0
1000000 -5696 -7417 0
1000000 -5697 -7652 0
1000000 -5698 -7385 0
1000000 -5699 -7058 0
1000000 -5700 -6999 0
1000000 -5701 -7144 0
1000000 -5702 -7709 0
1000000 -5703 -7034 0
1000000 -5704 -6491 0
1000000 -5705 -7732 0
1000000 -5706 -7256 0
1000000 -5707 -6799 0
1000000 -5708 -7835 0
1000000 -5709 -7122 0
1000000 -5710 -7723 0
1000000 -5711 -7021 0
1000000 -5712 -7535 0
1000000 -5713 -7306 0
1000000 -5714 -6911 0
1000000 -5715 -6466 0
1000000 -5716 -7200 0
1000000 -5717 -7736 0
1000000 -5718 -6514 0
1000000 -5719 -7767 0
1000000 -5720 -6475 0
1000000 -5721 -7350 0
1000000 -5722 -7763 0
1000000 -5723 -7095 0
1000000 -5724 -6649 0
1000000 -5725 -7857 0
1000000 -5726 -7485 0
1000000 -5727 -7703 0
1000000 -5728 -6862 0
1000000 -5729 -7419 0
1000000 -5730 -7804 0
1000000 -5731 -6536 0
1000000 -5732 -7612 0
1000000 -5733 -7131 0
1000000 -5734 -7153 0
1000000 -5735 -7221 0
1000000 -5736 -7141 0
1000000 -5737 -7564 0
1000000 -5738 -7899 0
1000000 -5739 -7576 0
1000000 -5740 -6840 0
1000000 -5741 -7706 0
1000000 -5742 -7602 0
1000000 -5743 -7314 0
1000000 -5744 -6788 0
1000000 -5745 -6926 0
1000000 -5746 -6447 0
1000000 -5747 -6930 0
1000000 -5748 -7034 0
1000000 -5749 -7416 0
1000000 -5750 -7293 0
1000000 -5751 -7374 0
1000000 -5752 -7569 0
1000000 -5753 -7878 0
1000000 -5754 -7582 0
1000000 -5755 -7439 0
1000000 -5756 -7145 0
1000000 -5757 -6463 0
1000000 -5758 -7001 0
1000000 -5759 -6538 0
1000000 -5760 -6535 0
1000000 -5761 -7425 0
1000000 -5762 -6649 0
1000000 -5763 -7886 0
1000000 -5764 -7562 0
1000000 -5765 -6787 0
1000000 -5766 -6697 0
1000000 -5767 -6970 0
1000000 -5768 -7822 0
1000000 -5769 -6506 0
1000000 -5770 -7370 0
1000000 -5771 -6542 0
1000000 -5772 -7220 0
1000000 -5773 -6737 0
1000000 -5774 -6636 0
1000000 -5775 -7465 0
1000000 -5776 -7819 0
1000000 -5777 -6593 0
1000000 -5778 -6829 0
1000000 -5779 -6905 0
1000000 -5780 -7789 0
1000000 -5781 -6454 0
1000000 -5782 -7165 0
1000000 -5783 -6531 0
1000000 -5784 -6768 0
1000000 -5785 -6923 0
1000000 -5786 -6841 0
1000000 -5787 -6486 0
1000000 -5788 -7463 0
1000000 -5789 -6789 0
1000000 -5790 -7161 0
1000000 -5791 -7635 0
1000000 -5792 -6672 0
1000000 -5793 -6546 0
1000000 -5794 -7614 0
1000000 -5795 -6601 0
1000000 -5796 -7817 0
1000000 -5797 -6671 0
1000000 -5798 -7751 0
1000000 -5799 -6510 0
1000000 -5800 -7230 0
1000000 -5801 -7186 0
1000000 -5802 -7429 0
1000000 -5803 -6994 0
1000000 -5804 -6432 0
1000000 -5805 -7842 0
1000000 -5806 -7030 0
1000000 -5807 -7778 0
1000000 -5808 -7606 0
1000000 -5809 -7526 0
1000000 -5810 -7628 0
1000000 -5811 -7635 0
1000000 -5812 -7823 0
1000000 -5813 -7104 0
1000000 -5814 -7678 0
1000000 -5815 -6806 0
1000000 -5816 -7057 0
1000000 -5817 -7588 0
1000000 -5818 -6617 0
1000000 -5819 -6749 0
1000000 -5820 -7796 0
1000000 -5821 -7312 0
1000000 -5822 -7630 0
1000000 -5823 -7282 0
1000000 -5824 -6995 0
1000000 -5825 -7371 0
1000000 -5826 -6852 0
1000000 -5827 -6404 0
1000000 -5828 -7539 0
1000000 -5829 -7479 0
1000000 -5830 -6670 0
1000000 -5831 -6986 0
1000000 -5832 -7407 0
1000000 -5833 -6698 0
1000000 -5834 -6889 0
1000000 -5835 -7086 0
1000000 -5836 -6595 0
1000000 -5837 -6594 0
1000000 -5838 -7844 0
1000000 -5839 -6508 0
1000000 -5840 -6787 0
1000000 -5841 -6537 0
1000000 -5842 -7307 0
1000000 -5843 -6779 0
1000000 -5844 -6850 0
1000000 -5845 -7112 0
1000000 -5846 -7748 0
1000000 -5847 -6717 0
1000000 -5848 -6410 0
1000000 -5849 -6557 0
1000000 -5850 -7846 0
1000000 -5851 -7605 0
1000000 -5852 -7219 0
1000000 -5853 -7769 0
1000000 -5854 -6423 0
1000000 -5855 -7396 0
1000000 -5856 -7821 0
1000000 -5857 -6964 0
1000000 -5858 -6563 0
1000000 -5859 -7801 0
1000000 -5860 -7161 0
1000000 -5861 -6559 0
1000000 -5862 -7204 0
1000000 -5863 -7440 0
1000000 -5864 -6538 0
1000000 -5865 -7419 0
1000000 -5866 -7051 0
1000000 -5867 -6752 0
1000000 -5868 -6874 0
1000000 -5869 -7246 0
1000000 -5870 -6735 0
1000000 -5871 -6565 0
1000000 -5872 -6921 0
1000000 -5873 -6929 0
1000000 -5874 -6568 0
1000000 -5875 -7075 0
1000000 -5876 -6549 0
1000000 -5877 -7316 0
1000000 -5878 -6525 0
1000000 -5879 -6554 0
1000000 -5880 -7721 0
1000000 -5881 -6620 0
1000000 -5882 -6509 0
1000000 -5883 -7803 0
1000000 -5884 -7078 0
1000000 -5885 -6771 0
1000000 -5886 -7776 0
1000000 -5887 -7554 0
1000000 -5888 -6945 0
1000000 -5889 -6427 0
1000000 -5890 -7475 0
1000000 -5891 -6844 0
1000000 -5892 -6618 0
1000000 -5893 -6691 0
1000000 -5894 -7268 0
1000000 -5895 -6745 0
1000000 -5896 -6762 0
1000000 -5897 -6557 0
1000000 -5898 -7202 0
1000000 -5899 -7712 0
1000000 -5900 -7587 0
1000000 -5901 -6404 0
1000000 -5902 -6841 0
1000000 -5903 -7226 0
1000000 -5904 -7733 0
1000000 -5905 -7315 0
1000000 -5906 -6449 0
1000000 -5907 -6989 0
1000000 -5908 -7609 0
1000000 -5909 -6641 0
1000000 -5910 -7632 0
1000000 -5911 -7343 0
1000000 -5912 -7790 0
1000000 -5913 -6741 0
1000000 -5914 -7557 0
1000000 -5915 -6696 0
1000000 -5916 -7573 0
1000000 -5917 -6406 0
1000000 -5918 -7764 0
1000000 -5919 -7834 0
1000000 -5920 -6526 0
1000000 -5921 -6709 0
1000000 -5922 -7895 0
1000000 -5923 -7645 0
1000000 -5924 -7114 0
1000000 -5925 -7824 0
1000000 -5926 -6645 0
1000000 -5927 -6534 0
1000000 -5928 -7541 0
1000000 -5929 -7192 0
1000000 -5930 -7774 0
1000000 -5931 -7169 0
1000000 -5932 -7622 0
1000000 -5933 -7576 0
1000000 -5934 -6869 0
1000000 -5935 -7293 0
1000000 -5936 -7538 0
1000000 -5937 -6754 0
1000000 -5938 -6723 0
1000000 -5939 -7831 0
1000000 -5940 -7844 0
1000000 -5941 -7411 0
1000000 -5942 -7522 0
1000000 -5943 -6715 0
1000000 -5944 -6932 0
1000000 -5945 -7649 0
1000000 -5946 -7061 0
1000000 -5947 -7897 0
1000000 -5948 -6653 0
1000000 -5949 -7026 0
1000000 -5950 -6537 0
1000000 -5951 -6715 0
1000000 -5952 -7615 0
1000000 -5953 -6608 0
1000000 -5954 -6676 0
1000000 -5955 -6777 0
1000000 -5956 -7290 0
1000000 -5957 -7278 0
1000000 -5958 -7289 0
1000000 -5959 -7247 0
1000000 -5960 -7020 0
1000000 -5961 -7444 0
1000000 -5962 -7335 0
1000000 -5963 -6516 0
1000000 -5964 -7009 0
1000000 -5965 -6403 0
1000000 -5966 -7080 0
1000000 -5967 -7135 0
1000000 -5968 -7734 0
1000000 -5969 -7800 0
1000000 -5970 -7661 0
1000000 -5971 -7105 0
1000000 -5972 -7166 0
1000000 -5973 -7130 0
1000000 -5974 -6701 0
1000000 -5975 -6872 0
1000000 -5976 -7424 0
1000000 -5977 -7360 0
1000000 -5978 -7881 0
1000000 -5979 -7251 0
1000000 -5980 -7653 0
1000000 -5981 -7710 0
1000000 -5982 -7565 0
1000000 -5983 -7456 0
1000000 -5984 -6571 0
1000000 -5985 -7741 0
1000000 -5986 -7569 0
1000000 -5987 -6860 0
1000000 -5988 -6719 0
1000000 -5989 -7374 0
1000000 -5990 -6880 0
1000000 -5991 -7697 0
1000000 -5992 -6639 0
1000000 -5993 -6409 0
1000000 -5994 -7267 0
1000000 -5995 -7274 0
1000000 -5996 -7195 0
1000000 -5997 -6521 0
1000000 -5998 -7231 0
1000000 -5999 -7074 0
1000000 -6000 -6652 0
1000000 -6001 -7599 0
1000000 -6002 -7400 0
1000000 -6003 -7082 0
1000000 -6004 -7475 0
1000000 -6005 -7822 0
1000000 -6006 -7084 0
1000000 -6007 -7707 0
1000000 -6008 -7893 0
1000000 -6009 -6501 0
1000000 -6010 -7655 0
1000000 -6011 -7629 0
1000000 -6012 -6410 0
1000000 -6013 -7701 0
1000000 -6014 -7739 0
1000000 -6015 -7401 0
1000000 -6016 -7038 0
1000000 -6017 -6702 0
1000000 -6018 -7756 0
1000000 -6019 -6489 0
1000000 -6020 -6724 0
1000000 -6021 -7383 0
1000000 -6022 -7265 0
1000000 -6023 -6723 0
1000000 -6024 -7896 0
1000000 -6025 -6710 0
1000000 -6026 -7394 0
1000000 -6027 -7702 0
1000000 -6028 -6742 0
1000000 -6029 -7342 0
1000000 -6030 -7853 0
1000000 -6031 -7050 0
1000000 -6032 -7489 0
1000000 -6033 -6750 0
1000000 -6034 -7450 0
1000000 -6035 -7518 0
1000000 -6036 -6991 0
1000000 -6037 -7014 0
1000000 -6038 -7679 0
1000000 -6039 -6780 0
1000000 -6040 -6440 0
1000000 -6041 -7392 0
1000000 -6042 -6807 0
1000000 -6043 -7404 0
1000000 -6044 -6997 0
1000000 -6045 -7355 0
1000000 -6046 -7135 0
1000000 -6047 -7015 0
1000000 -6048 -7108 0
1000000 -6049 -6570 0
1000000 -6050 -6758 0
1000000 -6051 -6957 0
1000000 -6052 -6697 0
1000000 -6053 -7448 0
1000000 -6054 -6604 0
1000000 -6055 -7059 0
1000000 -6056 -6873 0
1000000 -6057 -7560 0
1000000 -6058 -7476 0
1000000 -6059 -6530 0
1000000 -6060 -7164 0
1000000 -6061 -6699 0
1000000 -6062 -7412 0
1000000 -6063 -6949 0
1000000 -6064 -7376 0
1000000 -6065 -6574 0
1000000 -6066 -7436 0
1000000 -6067 -7254 0
1000000 -6068 -7388 0
1000000 -6069 -7751 0
1000000 -6070 -7378 0
1000000 -6071 -6591 0
1000000 -6072 -7462 0
1000000 -6073 -7423 0
1000000 -6074 -7725 0
1000000 -6075 -7059 0
1000000 -6076 -7735 0
1000000 -6077 -7399 0
1000000 -6078 -6988 0
1000000 -6079 -6777 0
1000000 -6080 -6920 0
1000000 -6081 -7154 0
1000000 -6082 -6420 0
1000000 -6083 -6434 0
1000000 -6084 -6413 0
1000000 -6085 -7790 0
1000000 -6086 -6500 0
1000000 -6087 -7278 0
1000000 -6088 -7440 0
1000000 -6089 -6508 0
1000000 -6090 -7697 0
1000000 -6091 -7884 0
1000000 -6092 -7346 0
1000000 -6093 -7474 0
1000000 -6094 -6940 0
1000000 -6095 -7828 0
1000000 -6096 -7525 0
1000000 -6097 -7220 0
1000000 -6098 -6712 0
1000000 -6099 -6784 0
1000000 -6100 -7443 0
1000000 -6101 -7801 0
1000000 -6102 -7457 0
1000000 -6103 -6698 0
1000000 -6104 -7579 0
1000000 -6105 -7180 0
1000000 -6106 -7453 0
1000000 -6107 -7728 0
1000000 -6108 -7048 0
1000000 -6109 -7199 0
1000000 -6110 -7328 0
1000000 -6111 -7833 0
1000000 -6112 -6571 0
1000000 -6113 -7724 0
1000000 -6114 -6856 0
1000000 -6115 -7178 0
1000000 -6116 -7057 0
1000000 -6117 -7496 0
1000000 -6118 -7394 0
1000000 -6119 -6656 0
1000000 -6120 -6906 0
1000000 -6121 -7444 0
1000000 -6122 -7669 0
1000000 -6123 -7213 0
1000000 -6124 -6729 0
1000000 -6125 -6723 0
1000000 -6126 -6608 0
1000000 -6127 -7109 0
1000000 -6128 -7091 0
1000000 -6129 -7355 0
1000000 -6130 -7158 0
1000000 -6131 -7572 0
1000000 -6132 -6953 0
1000000 -6133 -7816 0
1000000 -6134 -7506 0
1000000 -6135 -7164 0
1000000 -6136 -7662 0
1000000 -6137 -7635 0
1000000 -6138 -6932 0
1000000 -6139 -6770 0
1000000 -6140 -7809 0
1000000 -6141 -7423 0
1000000 -6142 -6675 0
1000000 -6143 -7009 0
1000000 -6144 -6426 0
1000000 -6145 -6673 0
1000000 -6146 -6651 0
1000000 -6147 -6566 0
1000000 -6148 -6705 0
1000000 -6149 -6760 0
1000000 -6150 -7406 0
1000000 -6151 -6826 0
1000000 -6152 -6860 0
1000000 -6153 -6483 0
1000000 -6154 -7185 0
1000000 -6155 -6746 0
1000000 -6156 -7433 0
1000000 -6157 -6609 0
1000000 -6158 -7613 0
1000000 -6159 -7134 0
1000000 -6160 -7766 0
1000000 -6161 -6465 0
1000000 -6162 -6793 0
1000000 -6163 -6737 0
1000000 -6164 -6710 0
1000000 -6165 -6415 0
1000000 -6166 -7532 0
1000000 -6167 -6743 0
1000000 -6168 -6559 0
1000000 -6169 -7219 0
1000000 -6170 -7005 0
1000000 -6171 -7364 0
1000000 -6172 -7483 0
1000000 -6173 -7267 0
1000000 -6174 -6661 0
1000000 -6175 -7863 0
1000000 -6176 -7826 0
1000000 -6177 -7866 0
1000000 -6178 -6652 0
1000000 -6179 -6436 0
1000000 -6180 -7663 0
1000000 -6181 -7290 0
1000000 -6182 -7634 0
1000000 -6183 -6963 0
1000000 -6184 -7697 0
1000000 -6185 -6962 0
1000000 -6186 -7633 0
1000000 -6187 -7877 0
1000000 -6188 -6770 0
1000000 -6189 -7401 0
1000000 -6190 -7614 0
1000000 -6191 -6643 0
1000000 -6192 -6775 0
1000000 -6193 -6425 0
1000000 -6194 -7771 0
1000000 -6195 -7277 0
1000000 -6196 -6921 0
1000000 -6197 -7152 0
1000000 -6198 -7708 0
1000000 -6199 -6699 0
1000000 -6200 -7467 0
1000000 -6201 -7818 0
1000000 -6202 -7669 0
1000000 -6203 -7359 0
1000000 -6204 -7633 0
1000000 -6205 -7546 0
1000000 -6206 -6647 0
1000000 -6207 -7689 0
1000000 -6208 -7611 0
1000000 -6209 -7855 0
1000000 -6210 -7559 0
1000000 -6211 -7740 0
1000000 -6212 -7167 0
1000000 -6213 -6929 0
1000000 -6214 -7430 0
1000000 -6215 -7404 0
1000000 -6216 -6764 0
1000000 -6217 -7861 0
1000000 -6218 -7692 0
1000000 -6219 -7825 0
1000000 -6220 -7044 0
1000000 -6221 -6456 0
1000000 -6222 -6562 0
1000000 -6223 -6550 0
1000000 -6224 -7508 0
1000000 -6225 -6631 0
1000000 -6226 -7177 0
1000000 -6227 -7208 0
1000000 -6228 -6837 0
1000000 -6229 -7107 0
1000000 -6230 -7641 0
1000000 -6231 -7047 0
1000000 -6232 -7889 0
1000000 -6233 -7229 0
1000000 -6234 -7215 0
1000000 -6235 -6422 0
1000000 -6236 -7779 0
1000000 -6237 -6416 0
1000000 -6238 -6859 0
1000000 -6239 -6609 0
1000000 -6240 -6628 0
1000000 -6241 -7416 0
1000000 -6242 -6672 0
1000000 -6243 -6914 0
1000000 -6244 -7606 0
1000000 -6245 -6814 0
1000000 -6246 -7178 0
1000000 -6247 -7361 0
1000000 -6248 -7403 0
1000000 -6249 -6899 0
1000000 -6250 -6655 0
1000000 -6251 -7107 0
1000000 -6252 -7771 0
1000000 -6253 -7119 0
1000000 -6254 -7767 0
1000000 -6255 -7090 0
1000000 -6256 -6656 0
1000000 -6257 -7357 0
1000000 -6258 -6523 0
1000000 -6259 -7544 0
1000000 -6260 -7810 0
1000000 -6261 -7134 0
1000000 -6262 -6767 0
1000000 -6263 -7508 0
1000000 -6264 -6827 0
1000000 -6265 -6878 0
1000000 -6266 -6587 0
1000000 -6267 -6949 0
1000000 -6268 -7520 0
1000000 -6269 -7691 0
1000000 -6270 -6443 0
1000000 -6271 -7025 0
1000000 -6272 -7888 0
1000000 -6273 -6567 0
1000000 -6274 -6468 0
1000000 -6275 -7723 0
1000000 -6276 -7749 0
1000000 -6277 -6770 0
1000000 -6278 -7610 0
1000000 -6279 -7398 0
1000000 -6280 -6851 0
1000000 -6281 -7295 0
1000000 -6282 -7568 0
1000000 -6283 -7471 0
1000000 -6284 -6605 0
1000000 -6285 -6576 0
1000000 -6286 -6658 0
1000000 -6287 -7813 0
1000000 -6288 -7594 0
1000000 -6289 -6822 0
1000000 -6290 -6455 0
1000000 -6291 -6473 0
1000000 -6292 -7865 0
1000000 -6293 -7050 0
1000000 -6294 -7103 0
1000000 -6295 -7838 0
1000000 -6296 -6895 0
1000000 -6297 -6804 0
1000000 -6298 -7349 0
1000000 -6299 -6952 0
1000000 -6300 -7764 0
1000000 -6301 -7579 0
1000000 -6302 -6623 0
1000000 -6303 -7435 0
1000000 -6304 -7197 0
1000000 -6305 -7608 0
1000000 -6306 -7710 0
1000000 -6307 -6869 0
1000000 -6308 -7408 0
1000000 -6309 -7657 0
1000000 -6310 -7330 0
1000000 -6311 -7146 0
1000000 -6312 -6867 0
1000000 -6313 -6954 0
1000000 -6314 -7435 0
1000000 -6315 -6785 0
1000000 -6316 -7689 0
1000000 -6317 -7760 0
1000000 -6318 -6440 0
1000000 -6319 -7288 0
1000000 -6320 -7035 0
1000000 -6321 -7659 0
1000000 -6322 -6547 0
1000000 -6323 -7572 0
1000000 -6324 -7294 0
1000000 -6325 -6562 0
1000000 -6326 -7451 0
1000000 -6327 -6462 0
1000000 -6328 -7692 0
1000000 -6329 -7018 0
1000000 -6330 -7194 0
1000000 -6331 -7490 0
1000000 -6332 -7552 0
1000000 -6333 -7189 0
1000000 -6334 -7728 0
1000000 -6335 -7839 0
1000000 -6336 -7180 0
1000000 -6337 -6687 0
1000000 -6338 -6730 0
1000000 -6339 -7031 0
1000000 -6340 -7053 0
1000000 -6341 -7667 0
1000000 -6342 -6603 0
1000000 -6343 -7058 0
1000000 -6344 -6533 0
1000000 -6345 -7853 0
1000000 -6346 -7517 0
1000000 -6347 -6939 0
1000000 -6348 -7760 0
1000000 -6349 -6576 0
1000000 -6350 -6530 0
1000000 -6351 -6846 0
1000000 -6352 -7305 0
1000000 -6353 -7063 0
1000000 -6354 -7127 0
1000000 -6355 -7152 0
1000000 -6356 -7741 0
1000000 -6357 -7786 0
1000000 -6358 -7066 0
1000000 -6359 -7528 0
1000000 -6360 -6704 0
1000000 -6361 -7388 0
1000000 -6362 -6734 0
1000000 -6363 -6952 0
1000000 -6364 -7802 0
1000000 -6365 -6909 0
1000000 -6366 -7503 0
1000000 -6367 -7473 0
1000000 -6368 -7658 0
1000000 -6369 -7434 0
1000000 -6370 -7613 0
1000000 -6371 -7125 0
1000000 -6372 -7513 0
1000000 -6373 -7776 0
1000000 -6374 -6787 0
1000000 -6375 -7277 0
1000000 -6376 -7758 0
1000000 -6377 -6890 0
1000000 -6378 -6515 0
1000000 -6379 -7098 0
1000000 -6380 -7551 0
1000000 -6381 -6725 0
1000000 -6382 -7699 0
1000000 -6383 -6915 0
1000000 -6384 -7641 0
1000000 -6385 -6829 0
1000000 -6386 -7659 0
1000000 -6387 -6419 0
1000000 -6388 -7892 0
1000000 -6389 -7742 0
1000000 -6390 -6534 0
1000000 -6391 -7222 0
1000000 -6392 -6478 0
1000000 -6393 -6555 0
1000000 -6394 -7156 0
1000000 -6395 -7619 0
1000000 -6396 -6505 0
1000000 -6397 -7533 0
1000000 -6398 -6554 0
1000000 -6399 -7508 0
1000000 -6400 -7243 0
5500 -6401 0
8700 -6402 0
7700 -6403 0
5500 -6404 0
8700 -6405 0
5200 -6406 0
8700 -6407 0
8700 -6408 0
5100 -6409 0
5500 -6410 0
7700 -6411 0
5200 -6412 0
5100 -6413 0
8700 -6414 0
5200 -6415 0
7700 -6416 0
5200 -6417 0
5200 -6418 0
5500 -6419 0
7700 -6420 0
8700 -6421 0
5500 -6422 0
5500 -6423 0
8700 -6424 0
5100 -6425 0
7700 -6426 0
5200 -6427 0
5100 -6428 0
7700 -6429 0
7700 -6430 0
5200 -6431 0
5100 -6432 0
5100 -6433 0
5100 -6434 0
5200 -6435 0
5200 -6436 0
7700 -6437 0
5100 -6438 0
8700 -6439 0
7700 -6440 0
8700 -6441 0
7700 -6442 0
8700 -6443 0
5200 -6444 0
7700 -6445 0
7700 -6446 0
5500 -6447 0
8700 -6448 0
7700 -6449 0
7700 -6450 0
5200 -6451 0
8700 -6452 0
5100 -6453 0
8700 -6454 0
5100 -6455 0
7700 -6456 0
8700 -6457 0
8700 -6458 0
8700 -6459 0
8700 -6460 0
8700 -6461 0
5500 -6462 0
5500 -6463 0
7700 -6464 0
5100 -6465 0
8700 -6466 0
5200 -6467 0
7700 -6468 0
7700 -6469 0
8700 -6470 0
8700 -6471 0
5100 -6472 0
5500 -6473 0
7700 -6474 0
7700 -6475 0
8700 -6476 0
7700 -6477 0
5200 -6478 0
5100 -6479 0
8700 -6480 0
5100 -6481 0
7700 -6482 0
5500 -6483 0
5500 -6484 0
5200 -6485 0
5200 -6486 0
8700 -6487 0
5200 -6488 0
7700 -6489 0
8700 -6490 0
5500 -6491 0
5100 -6492 0
5100 -6493 0
7700 -6494 0
7700 -6495 0
5200 -6496 0
7700 -6497 0
5100 -6498 0
8700 -6499 0
5100 -6500 0
5200 -6501 0
7700 -6502 0
5500 -6503 0
5200 -6504 0
5500 -6505 0
8700 -6506 0
5100 -6507 0
5500 -6508 0
7700 -6509 0
5500 -6510 0
5200 -6511 0
5100 -6512 0
8700 -6513 0
5200 -6514 0
7700 -6515 0
5500 -6516 0
7700 -6517 0
5500 -6518 0
5100 -6519 0
8700 -6520 0
5100 -6521 0
5100 -6522 0
8700 -6523 0
7700 -6524 0
8700 -6525 0
5500 -6526 0
5500 -6527 0
5100 -6528 0
5200 -6529 0
5500 -6530 0
5100 -6531 0
5200 -6532 0
8700 -6533 0
5200 -6534 0
7700 -6535 0
5100 -6536 0
5100 -6537 0
5100 -6538 0
5500 -6539 0
7700 -6540 0
5200 -6541 0
8700 -6542 0
5200 -6543 0
7700 -6544 0
5200 -6545 0
7700 -6546 0
5500 -6547 0
7700 -6548 0
7700 -6549 0
7700 -6550 0
7700 -6551 0
5200 -6552 0
5100 -6553 0
5500 -6554 0
8700 -6555 0
5200 -6556 0
5200 -6557 0
5200 -6558 0
7700 -6559 0
8700 -6560 0
5200 -6561 0
5200 -6562 0
8700 -6563 0
5100 -6564 0
5100 -6565 0
5500 -6566 0
8700 -6567 0
8700 -6568 0
7700 -6569 0
5200 -6570 0
5100 -6571 0
7700 -6572 0
5500 -6573 0
5100 -6574 0
5200 -6575 0
5500 -6576 0
5500 -6577 0
5200 -6578 0
7700 -6579 0
5200 -6580 0
8700 -6581 0
5100 -6582 0
5200 -6583 0
5100 -6584 0
8700 -6585 0
8700 -6586 0
8700 -6587 0
5200 -6588 0
7700 -6589 0
5100 -6590 0
5200 -6591 0
5500 -6592 0
7700 -6593 0
5100 -6594 0
7700 -6595 0
5200 -6596 0
5100 -6597 0
5200 -6598 0
8700 -6599 0
5500 -6600 0
5500 -6601 0
8700 -6602 0
7700 -6603 0
7700 -6604 0
5200 -6605 0
5500 -6606 0
7700 -6607 0
5200 -6608 0
8700 -6609 0
5200 -6610 0
8700 -6611 0
5500 -6612 0
5500 -6613 0
7700 -6614 0
5200 -6615 0
5500 -6616 0
5100 -6617 0
7700 -6618 0
5100 -6619 0
5200 -6620 0
5100 -6621 0
5200 -6622 0
7700 -6623 0
5200 -6624 0
5500 -6625 0
7700 -6626 0
5100 -6627 0
5100 -6628 0
5500 -6629 0
7700 -6630 0
8700 -6631 0
5100 -6632 0
5500 -6633 0
8700 -6634 0
7700 -6635 0
5200 -6636 0
8700 -6637 0
7700 -6638 0
8700 -6639 0
5500 -6640 0
7700 -6641 0
7700 -6642 0
5200 -6643 0
7700 -6644 0
5500 -6645 0
7700 -6646 0
7700 -6647 0
5100 -6648 0
5500 -6649 0
5100 -6650 0
8700 -6651 0
8700 -6652 0
5500 -6653 0
5100 -6654 0
8700 -6655 0
5100 -6656 0
7700 -6657 0
7700 -6658 0
7700 -6659 0
7700 -6660 0
7700 -6661 0
5500 -6662 0
5100 -6663 0
5100 -6664 0
7700 -6665 0
8700 -6666 0
5500 -6667 0
8700 -6668 0
5100 -6669 0
7700 -6670 0
7700 -6671 0
5200 -6672 0
5200 -6673 0
7700 -6674 0
8700 -6675 0
5500 -6676 0
8700 -6677 0
8700 -6678 0
5100 -6679 0
8700 -6680 0
8700 -6681 0
5100 -6682 0
5100 -6683 0
5100 -6684 0
5100 -6685 0
5100 -6686 0
5500 -6687 0
5200 -6688 0
5200 -6689 0
5500 -6690 0
5500 -6691 0
8700 -6692 0
5500 -6693 0
5200 -6694 0
7700 -6695 0
7700 -6696 0
7700 -6697 0
8700 -6698 0
5200 -6699 0
5100 -6700 0
5100 -6701 0
7700 -6702 0
8700 -6703 0
7700 -6704 0
5500 -6705 0
5500 -6706 0
8700 -6707 0
8700 -6708 0
8700 -6709 0
8700 -6710 0
7700 -6711 0
8700 -6712 0
8700 -6713 0
8700 -6714 0
5500 -6715 0
5200 -6716 0
5500 -6717 0
5500 -6718 0
5500 -6719 0
5200 -6720 0
5200 -6721 0
5500 -6722 0
8700 -6723 0
5500 -6724 0
5500 -6725 0
5100 -6726 0
5100 -6727 0
5500 -6728 0
5200 -6729 0
5500 -6730 0
7700 -6731 0
5500 -6732 0
5500 -6733 0
7700 -6734 0
5500 -6735 0
5500 -6736 0
5500 -6737 0
5100 -6738 0
8700 -6739 0
5100 -6740 0
8700 -6741 0
8700 -6742 0
7700 -6743 0
5500 -6744 0
5500 -6745 0
8700 -6746 0
7700 -6747 0
5100 -6748 0
7700 -6749 0
7700 -6750 0
8700 -6751 0
5100 -6752 0
5100 -6753 0
8700 -6754 0
5100 -6755 0
5100 -6756 0
5500 -6757 0
5500 -6758 0
5100 -6759 0
5500 -6760 0
5100 -6761 0
8700 -6762 0
8700 -6763 0
7700 -6764 0
8700 -6765 0
5100 -6766 0
5500 -6767 0
5500 -6768 0
8700 -6769 0
5100 -6770 0
5200 -6771 0
7700 -6772 0
5100 -6773 0
8700 -6774 0
5200 -6775 0
5500 -6776 0
8700 -6777 0
7700 -6778 0
5200 -6779 0
5200 -6780 0
8700 -6781 0
5100 -6782 0
8700 -6783 0
5200 -6784 0
5500 -6785 0
7700 -6786 0
5500 -6787 0
5200 -6788 0
5500 -6789 0
5100 -6790 0
8700 -6791 0
5200 -6792 0
7700 -6793 0
7700 -6794 0
5100 -6795 0
5500 -6796 0
5500 -6797 0
7700 -6798 0
5200 -6799 0
5500 -6800 0
5200 -6801 0
7700 -6802 0
5200 -6803 0
5100 -6804 0
7700 -6805 0
5200 -6806 0
8700 -6807 0
5100 -6808 0
5200 -6809 0
7700 -6810 0
5200 -6811 0
8700 -6812 0
5500 -6813 0
5200 -6814 0
7700 -6815 0
8700 -6816 0
5500 -6817 0
5200 -6818 0
5500 -6819 0
5200 -6820 0
5200 -6821 0
5100 -6822 0
5500 -6823 0
5500 -6824 0
8700 -6825 0
5200 -6826 0
5200 -6827 0
5100 -6828 0
5500 -6829 0
8700 -6830 0
5500 -6831 0
7700 -6832 0
8700 -6833 0
7700 -6834 0
8700 -6835 0
5100 -6836 0
5200 -6837 0
5500 -6838 0
8700 -6839 0
5200 -6840 0
5200 -6841 0
7700 -6842 0
5100 -6843 0
5100 -6844 0
7700 -6845 0
5200 -6846 0
7700 -6847 0
5200 -6848 0
5100 -6849 0
5200 -6850 0
5200 -6851 0
5100 -6852 0
7700 -6853 0
8700 -6854 0
5200 -6855 0
5500 -6856 0
5500 -6857 0
7700 -6858 0
5200 -6859 0
5200 -6860 0
8700 -6861 0
8700 -6862 0
5500 -6863 0
5500 -6864 0
5500 -6865 0
5500 -6866 0
5200 -6867 0
5500 -6868 0
8700 -6869 0
5200 -6870 0
5100 -6871 0
7700 -6872 0
8700 -6873 0
7700 -6874 0
5100 -6875 0
5100 -6876 0
5500 -6877 0
5500 -6878 0
5100 -6879 0
5200 -6880 0
5200 -6881 0
8700 -6882 0
7700 -6883 0
5200 -6884 0
5200 -6885 0
5100 -6886 0
7700 -6887 0
5100 -6888 0
7700 -6889 0
5100 -6890 0
5100 -6891 0
5500 -6892 0
5500 -6893 0
5200 -6894 0
5500 -6895 0
5200 -6896 0
5200 -6897 0
7700 -6898 0
5200 -6899 0
5200 -6900 0
5200 -6901 0
5500 -6902 0
5500 -6903 0
8700 -6904 0
5100 -6905 0
7700 -6906 0
8700 -6907 0
5200 -6908 0
5200 -6909 0
8700 -6910 0
7700 -6911 0
5200 -6912 0
5200 -6913 0
5500 -6914 0
5100 -6915 0
5200 -6916 0
5100 -6917 0
5100 -6918 0
5100 -6919 0
5200 -6920 0
5200 -6921 0
5100 -6922 0
8700 -6923 0
5100 -6924 0
5500 -6925 0
5200 -6926 0
7700 -6927 0
5200 -6928 0
5100 -6929 0
5200 -6930 0
5100 -6931 0
7700 -6932 0
7700 -6933 0
7700 -6934 0
5500 -6935 0
5500 -6936 0
5100 -6937 0
5500 -6938 0
8700 -6939 0
7700 -6940 0
7700 -6941 0
5100 -6942 0
5500 -6943 0
7700 -6944 0
5200 -6945 0
5500 -6946 0
5200 -6947 0
7700 -6948 0
7700 -6949 0
5200 -6950 0
7700 -6951 0
5500 -6952 0
8700 -6953 0
8700 -6954 0
8700 -6955 0
7700 -6956 0
5100 -6957 0
5500 -6958 0
5500 -6959 0
7700 -6960 0
5500 -6961 0
7700 -6962 0
8700 -6963 0
5500 -6964 0
5100 -6965 0
7700 -6966 0
5500 -6967 0
5200 -6968 0
5200 -6969 0
5100 -6970 0
5100 -6971 0
5200 -6972 0
7700 -6973 0
5500 -6974 0
5200 -6975 0
5100 -6976 0
5500 -6977 0
7700 -6978 0
5200 -6979 0
5100 -6980 0
5200 -6981 0
7700 -6982 0
5100 -6983 0
5500 -6984 0
5200 -6985 0
5500 -6986 0
8700 -6987 0
7700 -6988 0
5200 -6989 0
5100 -6990 0
7700 -6991 0
8700 -6992 0
5100 -6993 0
7700 -6994 0
7700 -6995 0
5200 -6996 0
8700 -6997 0
5200 -6998 0
5500 -6999 0
5100 -7000 0
8700 -7001 0
7700 -7002 0
7700 -7003 0
5500 -7004 0
7700 -7005 0
5100 -7006 0
5200 -7007 0
8700 -7008 0
5100 -7009 0
5500 -7010 0
5100 -7011 0
5500 -7012 0
5100 -7013 0
7700 -7014 0
7700 -7015 0
5500 -7016 0
5100 -7017 0
5100 -7018 0
5200 -7019 0
5200 -7020 0
8700 -7021 0
7700 -7022 0
5500 -7023 0
7700 -7024 0
5100 -7025 0
7700 -7026 0
5200 -7027 0
5100 -7028 0
7700 -7029 0
8700 -7030 0
5200 -7031 0
5200 -7032 0
7700 -7033 0
5100 -7034 0
5100 -7035 0
5200 -7036 0
5100 -7037 0
8700 -7038 0
5500 -7039 0
5100 -7040 0
8700 -7041 0
5100 -7042 0
5200 -7043 0
8700 -7044 0
5200 -7045 0
7700 -7046 0
5100 -7047 0
5100 -7048 0
5200 -7049 0
5100 -7050 0
5500 -7051 0
5100 -7052 0
8700 -7053 0
7700 -7054 0
5200 -7055 0
8700 -7056 0
8700 -7057 0
8700 -7058 0
7700 -7059 0
5200 -7060 0
5200 -7061 0
7700 -7062 0
5500 -7063 0
8700 -7064 0
5200 -7065 0
7700 -7066 0
7700 -7067 0
8700 -7068 0
7700 -7069 0
5100 -7070 0
8700 -7071 0
5200 -7072 0
8700 -7073 0
5500 -7074 0
8700 -7075 0
8700 -7076 0
5500 -7077 0
8700 -7078 0
7700 -7079 0
5200 -7080 0
5200 -7081 0
5100 -7082 0
5200 -7083 0
5200 -7084 0
5500 -7085 0
8700 -7086 0
8700 -7087 0
7700 -7088 0
8700 -7089 0
5500 -7090 0
7700 -7091 0
7700 -7092 0
5100 -7093 0
8700 -7094 0
5500 -7095 0
5200 -7096 0
5500 -7097 0
5500 -7098 0
5500 -7099 0
7700 -7100 0
5100 -7101 0
7700 -7102 0
5500 -7103 0
5200 -7104 0
7700 -7105 0
5500 -7106 0
5200 -7107 0
8700 -7108 0
8700 -7109 0
5500 -7110 0
5100 -7111 0
5100 -7112 0
5500 -7113 0
5100 -7114 0
5100 -7115 0
5100 -7116 0
7700 -7117 0
5200 -7118 0
5500 -7119 0
8700 -7120 0
5100 -7121 0
5500 -7122 0
7700 -7123 0
7700 -7124 0
5100 -7125 0
5200 -7126 0
8700 -7127 0
5200 -7128 0
8700 -7129 0
8700 -7130 0
5500 -7131 0
8700 -7132 0
8700 -7133 0
7700 -7134 0
5200 -7135 0
5200 -7136 0
7700 -7137 0
5100 -7138 0
5500 -7139 0
5200 -7140 0
5100 -7141 0
7700 -7142 0
5500 -7143 0
7700 -7144 0
5100 -7145 0
5200 -7146 0
5200 -7147 0
8700 -7148 0
7700 -7149 0
8700 -7150 0
7700 -7151 0
5200 -7152 0
7700 -7153 0
7700 -7154 0
5500 -7155 0
5100 -7156 0
5500 -7157 0
5500 -7158 0
8700 -7159 0
7700 -7160 0
5100 -7161 0
5200 -7162 0
7700 -7163 0
7700 -7164 0
5500 -7165 0
5100 -7166 0
8700 -7167 0
5200 -7168 0
5200 -7169 0
5500 -7170 0
5200 -7171 0
7700 -7172 0
7700 -7173 0
5500 -7174 0
8700 -7175 0
7700 -7176 0
8700 -7177 0
8700 -7178 0
5200 -7179 0
7700 -7180 0
5200 -7181 0
5500 -7182 0
7700 -7183 0
5500 -7184 0
5200 -7185 0
5200 -7186 0
5200 -7187 0
7700 -7188 0
5200 -7189 0
5500 -7190 0
8700 -7191 0
7700 -7192 0
5100 -7193 0
5500 -7194 0
7700 -7195 0
5200 -7196 0
5100 -7197 0
5100 -7198 0
7700 -7199 0
5200 -7200 0
5500 -7201 0
5500 -7202 0
8700 -7203 0
5200 -7204 0
8700 -7205 0
5500 -7206 0
5200 -7207 0
8700 -7208 0
7700 -7209 0
7700 -7210 0
5100 -7211 0
5500 -7212 0
5500 -7213 0
8700 -7214 0
8700 -7215 0
5100 -7216 0
8700 -7217 0
5100 -7218 0
5200 -7219 0
7700 -7220 0
5200 -7221 0
5200 -7222 0
8700 -7223 0
7700 -7224 0
8700 -7225 0
5100 -7226 0
7700 -7227 0
7700 -7228 0
8700 -7229 0
5500 -7230 0
5200 -7231 0
7700 -7232 0
8700 -7233 0
5200 -7234 0
5200 -7235 0
5100 -7236 0
8700 -7237 0
5500 -7238 0
5500 -7239 0
5100 -7240 0
5100 -7241 0
8700 -7242 0
5500 -7243 0
5200 -7244 0
8700 -7245 0
7700 -7246 0
8700 -7247 0
5500 -7248 0
5200 -7249 0
5100 -7250 0
5200 -7251 0
5100 -7252 0
7700 -7253 0
8700 -7254 0
5500 -7255 0
7700 -7256 0
8700 -7257 0
5100 -7258 0
5500 -7259 0
5500 -7260 0
5100 -7261 0
5200 -7262 0
5200 -7263 0
5200 -7264 0
5500 -7265 0
8700 -7266 0
8700 -7267 0
8700 -7268 0
7700 -7269 0
7700 -7270 0
5200 -7271 0
5200 -7272 0
8700 -7273 0
5200 -7274 0
8700 -7275 0
5100 -7276 0
8700 -7277 0
7700 -7278 0
8700 -7279 0
5200 -7280 0
8700 -7281 0
5200 -7282 0
8700 -7283 0
5500 -7284 0
7700 -7285 0
7700 -7286 0
8700 -7287 0
5100 -7288 0
5200 -7289 0
8700 -7290 0
7700 -7291 0
5100 -7292 0
5200 -7293 0
5500 -7294 0
5500 -7295 0
5200 -7296 0
8700 -7297 0
7700 -7298 0
5200 -7299 0
8700 -7300 0
5200 -7301 0
5200 -7302 0
5100 -7303 0
7700 -7304 0
5500 -7305 0
5500 -7306 0
5100 -7307 0
5500 -7308 0
5500 -7309 0
7700 -7310 0
8700 -7311 0
5200 -7312 0
7700 -7313 0
5100 -7314 0
5100 -7315 0
5500 -7316 0
5500 -7317 0
7700 -7318 0
5100 -7319 0
5100 -7320 0
5200 -7321 0
7700 -7322 0
5200 -7323 0
7700 -7324 0
8700 -7325 0
5100 -7326 0
5500 -7327 0
5100 -7328 0
8700 -7329 0
7700 -7330 0
8700 -7331 0
5100 -7332 0
5200 -7333 0
7700 -7334 0
5200 -7335 0
8700 -7336 0
5500 -7337 0
7700 -7338 0
5100 -7339 0
5200 -7340 0
8700 -7341 0
7700 -7342 0
5500 -7343 0
7700 -7344 0
5500 -7345 0
8700 -7346 0
5200 -7347 0
7700 -7348 0
7700 -7349 0
5200 -7350 0
7700 -7351 0
7700 -7352 0
5100 -7353 0
7700 -7354 0
5100 -7355 0
7700 -7356 0
5200 -7357 0
8700 -7358 0
7700 -7359 0
5200 -7360 0
8700 -7361 0
5100 -7362 0
5200 -7363 0
5500 -7364 0
8700 -7365 0
8700 -7366 0
5500 -7367 0
8700 -7368 0
8700 -7369 0
5500 -7370 0
5200 -7371 0
7700 -7372 0
8700 -7373 0
5200 -7374 0
5200 -7375 0
5500 -7376 0
5200 -7377 0
5500 -7378 0
5200 -7379 0
7700 -7380 0
5100 -7381 0
5200 -7382 0
5200 -7383 0
5200 -7384 0
5500 -7385 0
8700 -7386 0
5500 -7387 0
7700 -7388 0
5500 -7389 0
8700 -7390 0
7700 -7391 0
8700 -7392 0
8700 -7393 0
5100 -7394 0
7700 -7395 0
5100 -7396 0
5100 -7397 0
8700 -7398 0
5100 -7399 0
5500 -7400 0
5100 -7401 0
5100 -7402 0
8700 -7403 0
5200 -7404 0
5500 -7405 0
8700 -7406 0
5200 -7407 0
5500 -7408 0
7700 -7409 0
5500 -7410 0
7700 -7411 0
5500 -7412 0
5200 -7413 0
7700 -7414 0
5100 -7415 0
5500 -7416 0
7700 -7417 0
8700 -7418 0
5500 -7419 0
5500 -7420 0
5200 -7421 0
5200 -7422 0
5200 -7423 0
7700 -7424 0
5100 -7425 0
5500 -7426 0
7700 -7427 0
5500 -7428 0
5100 -7429 0
5200 -7430 0
7700 -7431 0
5100 -7432 0
8700 -7433 0
8700 -7434 0
5500 -7435 0
7700 -7436 0
7700 -7437 0
5500 -7438 0
5500 -7439 0
5100 -7440 0
5100 -7441 0
5200 -7442 0
5500 -7443 0
5200 -7444 0
7700 -7445 0
8700 -7446 0
8700 -7447 0
5200 -7448 0
5500 -7449 0
5500 -7450 0
8700 -7451 0
8700 -7452 0
5200 -7453 0
5200 -7454 0
7700 -7455 0
8700 -7456 0
5500 -7457 0
7700 -7458 0
5200 -7459 0
5200 -7460 0
7700 -7461 0
5100 -7462 0
8700 -7463 0
7700 -7464 0
5500 -7465 0
7700 -7466 0
5100 -7467 0
8700 -7468 0
5200 -7469 0
5200 -7470 0
5200 -7471 0
5200 -7472 0
7700 -7473 0
5100 -7474 0
5100 -7475 0
5200 -7476 0
5500 -7477 0
5200 -7478 0
7700 -7479 0
5100 -7480 0
8700 -7481 0
5200 -7482 0
5200 -7483 0
5500 -7484 0
5500 -7485 0
5100 -7486 0
7700 -7487 0
5200 -7488 0
8700 -7489 0
8700 -7490 0
5200 -7491 0
5100 -7492 0
5100 -7493 0
5500 -7494 0
7700 -7495 0
5200 -7496 0
5200 -7497 0
5500 -7498 0
5200 -7499 0
7700 -7500 0
8700 -7501 0
8700 -7502 0
7700 -7503 0
8700 -7504 0
5100 -7505 0
5200 -7506 0
7700 -7507 0
5100 -7508 0
5500 -7509 0
5100 -7510 0
5500 -7511 0
5500 -7512 0
5100 -7513 0
5500 -7514 0
5100 -7515 0
5200 -7516 0
5200 -7517 0
5500 -7518 0
5200 -7519 0
5100 -7520 0
7700 -7521 0
7700 -7522 0
7700 -7523 0
5100 -7524 0
5500 -7525 0
5100 -7526 0
5500 -7527 0
5500 -7528 0
5200 -7529 0
8700 -7530 0
8700 -7531 0
5200 -7532 0
5500 -7533 0
5500 -7534 0
5200 -7535 0
7700 -7536 0
7700 -7537 0
5100 -7538 0
5200 -7539 0
5200 -7540 0
5100 -7541 0
7700 -7542 0
7700 -7543 0
8700 -7544 0
8700 -7545 0
8700 -7546 0
5500 -7547 0
5100 -7548 0
7700 -7549 0
5500 -7550 0
5200 -7551 0
5100 -7552 0
5500 -7553 0
5500 -7554 0
5200 -7555 0
5500 -7556 0
5500 -7557 0
8700 -7558 0
5200 -7559 0
5200 -7560 0
5200 -7561 0
5100 -7562 0
5200 -7563 0
7700 -7564 0
5100 -7565 0
5100 -7566 0
7700 -7567 0
5200 -7568 0
7700 -7569 0
5500 -7570 0
8700 -7571 0
8700 -7572 0
5500 -7573 0
8700 -7574 0
5500 -7575 0
5500 -7576 0
8700 -7577 0
5500 -7578 0
8700 -7579 0
5200 -7580 0
8700 -7581 0
8700 -7582 0
5200 -7583 0
5100 -7584 0
8700 -7585 0
5500 -7586 0
7700 -7587 0
5200 -7588 0
8700 -7589 0
5200 -7590 0
5200 -7591 0
5500 -7592 0
5500 -7593 0
8700 -7594 0
8700 -7595 0
5200 -7596 0
5200 -7597 0
5200 -7598 0
5500 -7599 0
5200 -7600 0
5100 -7601 0
8700 -7602 0
8700 -7603 0
7700 -7604 0
5100 -7605 0
5200 -7606 0
5500 -7607 0
7700 -7608 0
5500 -7609 0
5500 -7610 0
5200 -7611 0
5200 -7612 0
5200 -7613 0
5100 -7614 0
5100 -7615 0
5100 -7616 0
7700 -7617 0
5500 -7618 0
5200 -7619 0
5200 -7620 0
5200 -7621 0
5100 -7622 0
5100 -7623 0
5100 -7624 0
5200 -7625 0
8700 -7626 0
5500 -7627 0
5100 -7628 0
5500 -7629 0
5200 -7630 0
5100 -7631 0
7700 -7632 0
5100 -7633 0
5500 -7634 0
7700 -7635 0
5200 -7636 0
5200 -7637 0
5500 -7638 0
5200 -7639 0
5100 -7640 0
7700 -7641 0
5200 -7642 0
5200 -7643 0
5500 -7644 0
8700 -7645 0
7700 -7646 0
8700 -7647 0
5200 -7648 0
7700 -7649 0
5200 -7650 0
8700 -7651 0
5100 -7652 0
8700 -7653 0
5100 -7654 0
7700 -7655 0
5100 -7656 0
5200 -7657 0
8700 -7658 0
7700 -7659 0
5200 -7660 0
5200 -7661 0
7700 -7662 0
5200 -7663 0
8700 -7664 0
5100 -7665 0
8700 -7666 0
7700 -7667 0
5500 -7668 0
5200 -7669 0
8700 -7670 0
8700 -7671 0
8700 -7672 0
8700 -7673 0
5100 -7674 0
5200 -7675 0
5500 -7676 0
5200 -7677 0
5200 -7678 0
7700 -7679 0
8700 -7680 0
8700 -7681 0
5100 -7682 0
5500 -7683 0
5500 -7684 0
7700 -7685 0
7700 -7686 0
7700 -7687 0
8700 -7688 0
8700 -7689 0
5100 -7690 0
5500 -7691 0
5500 -7692 0
7700 -7693 0
5200 -7694 0
5500 -7695 0
5100 -7696 0
8700 -7697 0
5500 -7698 0
5100 -7699 0
8700 -7700 0
5200 -7701 0
7700 -7702 0
7700 -7703 0
7700 -7704 0
5500 -7705 0
5100 -7706 0
7700 -7707 0
8700 -7708 0
5100 -7709 0
5100 -7710 0
5500 -7711 0
5500 -7712 0
5200 -7713 0
5200 -7714 0
5500 -7715 0
5500 -7716 0
5100 -7717 0
5100 -7718 0
5500 -7719 0
5100 -7720 0
5500 -7721 0
5100 -7722 0
5500 -7723 0
8700 -7724 0
5500 -7725 0
8700 -7726 0
7700 -7727 0
8700 -7728 0
7700 -7729 0
5200 -7730 0
5100 -7731 0
5200 -7732 0
5500 -7733 0
8700 -7734 0
7700 -7735 0
7700 -7736 0
8700 -7737 0
5500 -7738 0
8700 -7739 0
5200 -7740 0
5200 -7741 0
5500 -7742 0
8700 -7743 0
5200 -7744 0
7700 -7745 0
7700 -7746 0
5100 -7747 0
8700 -7748 0
5500 -7749 0
7700 -7750 0
7700 -7751 0
5200 -7752 0
7700 -7753 0
8700 -7754 0
8700 -7755 0
5100 -7756 0
5200 -7757 0
8700 -7758 0
8700 -7759 0
5200 -7760 0
5200 -7761 0
5200 -7762 0
5200 -7763 0
5100 -7764 0
7700 -7765 0
5500 -7766 0
5200 -7767 0
8700 -7768 0
5500 -7769 0
5100 -7770 0
5500 -7771 0
5500 -7772 0
7700 -7773 0
7700 -7774 0
5200 -7775 0
8700 -7776 0
5200 -7777 0
5500 -7778 0
5200 -7779 0
5500 -7780 0
8700 -7781 0
5100 -7782 0
5500 -7783 0
5100 -7784 0
7700 -7785 0
5200 -7786 0
5200 -7787 0
5100 -7788 0
7700 -7789 0
7700 -7790 0
7700 -7791 0
5500 -7792 0
7700 -7793 0
5100 -7794 0
5100 -7795 0
8700 -7796 0
5200 -7797 0
5200 -7798 0
8700 -7799 0
5100 -7800 0
5100 -7801 0
5100 -7802 0
5200 -7803 0
7700 -7804 0
5200 -7805 0
8700 -7806 0
7700 -7807 0
5500 -7808 0
5500 -7809 0
5100 -7810 0
7700 -7811 0
5200 -7812 0
8700 -7813 0
5100 -7814 0
5100 -7815 0
7700 -7816 0
8700 -7817 0
5500 -7818 0
5100 -7819 0
5100 -7820 0
7700 -7821 0
5100 -7822 0
7700 -7823 0
8700 -7824 0
5500 -7825 0
5500 -7826 0
5100 -7827 0
5100 -7828 0
7700 -7829 0
8700 -7830 0
7700 -7831 0
5200 -7832 0
5100 -7833 0
5500 -7834 0
5500 -7835 0
7700 -7836 0
7700 -7837 0
5100 -7838 0
7700 -7839 0
5500 -7840 0
5500 -7841 0
5500 -7842 0
5200 -7843 0
7700 -7844 0
5100 -7845 0
5500 -7846 0
5200 -7847 0
7700 -7848 0
8700 -7849 0
5100 -7850 0
5100 -7851 0
5100 -7852 0
5100 -7853 0
8700 -7854 0
7700 -7855 0
7700 -7856 0
7700 -7857 0
5100 -7858 0
8700 -7859 0
5200 -7860 0
5100 -7861 0
8700 -7862 0
5500 -7863 0
7700 -7864 0
5100 -7865 0
5100 -7866 0
8700 -7867 0
7700 -7868 0
5200 -7869 0
5500 -7870 0
8700 -7871 0
5200 -7872 0
5200 -7873 0
5500 -7874 0
5500 -7875 0
5500 -7876 0
5200 -7877 0
8700 -7878 0
5200 -7879 0
8700 -7880 0
5200 -7881 0
5500 -7882 0
7700 -7883 0
5100 -7884 0
5200 -7885 0
5100 -7886 0
5100 -7887 0
5100 -7888 0
5200 -7889 0
7700 -7890 0
5100 -7891 0
5200 -7892 0
5200 -7893 0
5200 -7894 0
5200 -7895 0
5200 -7896 0
8700 -7897 0
8700 -7898 0
5100 -7899 0
8700 -7900 0
4400 3401 0
2500 3402 0
2500 3403 0
1800 3404 0
2400 3405 0
1600 3406 0
1800 3407 0
1800 3408 0
1600 3409 0
2500 3410 0
2500 3411 0
2400 3412 0
2500 3413 0
1800 3414 0
1800 3415 0
1800 3416 0
1600 3417 0
2500 3418 0
2500 3419 0
2500 3420 0
2500 3421 0
2400 3422 0
2400 3423 0
1800 3424 0
1800 3425 0
1600 3426 0
4400 3427 0
1800 3428 0
2500 3429 0
1800 3430 0
1800 3431 0
2400 3432 0
2500 3433 0
1600 3434 0
1600 3435 0
1600 3436 0
1800 3437 0
1600 3438 0
1600 3439 0
1600 3440 0
2400 3441 0
2500 3442 0
2400 3443 0
2500 3444 0
2400 3445 0
2500 3446 0
1600 3447 0
4400 3448 0
1600 3449 0
4400 3450 0
1600 3451 0
2400 3452 0
4400 3453 0
1600 3454 0
1800 3455 0
4400 3456 0
2500 3457 0
2400 3458 0
1600 3459 0
1600 3460 0
2500 3461 0
1600 3462 0
1600 3463 0
2500 3464 0
2500 3465 0
1800 3466 0
1800 3467 0
2500 3468 0
4400 3469 0
4400 3470 0
4400 3471 0
2400 3472 0
1800 3473 0
4400 3474 0
4400 3475 0
4400 3476 0
2500 3477 0
1600 3478 0
2400 3479 0
1600 3480 0
1800 3481 0
1600 3482 0
2400 3483 0
4400 3484 0
4400 3485 0
2500 3486 0
2500 3487 0
2400 3488 0
4400 3489 0
1600 3490 0
1600 3491 0
2400 3492 0
2500 3493 0
1600 3494 0
1800 3495 0
2400 3496 0
1800 3497 0
1800 3498 0
2500 3499 0
4400 3500 0
2400 3501 0
4400 3502 0
1600 3503 0
1600 3504 0
2400 3505 0
2500 3506 0
1600 3507 0
1600 3508 0
4400 3509 0
1600 3510 0
2500 3511 0
1600 3512 0
1600 3513 0
1800 3514 0
2500 3515 0
1600 3516 0
2500 3517 0
2500 3518 0
1600 3519 0
1600 3520 0
2500 3521 0
4400 3522 0
4400 3523 0
2500 3524 0
2500 3525 0
4400 3526 0
4400 3527 0
1800 3528 0
4400 3529 0
4400 3530 0
2400 3531 0
1600 3532 0
1800 3533 0
1800 3534 0
2500 3535 0
2400 3536 0
1600 3537 0
1800 3538 0
4400 3539 0
4400 3540 0
4400 3541 0
1600 3542 0
1800 3543 0
1600 3544 0
2500 3545 0
2500 3546 0
2400 3547 0
2500 3548 0
1800 3549 0
1800 3550 0
1800 3551 0
4400 3552 0
4400 3553 0
1800 3554 0
2500 3555 0
2500 3556 0
2400 3557 0
1600 3558 0
2400 3559 0
1600 3560 0
2500 3561 0
1800 3562 0
4400 3563 0
2400 3564 0
2400 3565 0
2500 3566 0
1600 3567 0
2400 3568 0
1600 3569 0
2400 3570 0
1800 3571 0
2500 3572 0
1600 3573 0
2500 3574 0
4400 3575 0
2500 3576 0
1600 3577 0
1600 3578 0
4400 3579 0
4400 3580 0
2400 3581 0
1600 3582 0
2500 3583 0
4400 3584 0
2500 3585 0
4400 3586 0
1600 3587 0
4400 3588 0
1600 3589 0
4400 3590 0
2400 3591 0
4400 3592 0
2400 3593 0
2400 3594 0
2500 3595 0
1600 3596 0
4400 3597 0
4400 3598 0
1800 3599 0
4400 3600 0
1600 3601 0
1600 3602 0
4400 3603 0
2400 3604 0
1800 3605 0
1600 3606 0
1800 3607 0
1800 3608 0
1600 3609 0
2400 3610 0
2400 3611 0
1600 3612 0
4400 3613 0
4400 3614 0
1800 3615 0
4400 3616 0
1800 3617 0
4400 3618 0
2400 3619 0
2400 3620 0
2400 3621 0
4400 3622 0
1800 3623 0
1800 3624 0
2400 3625 0
2400 3626 0
4400 3627 0
4400 3628 0
1800 3629 0
2500 3630 0
1800 3631 0
4400 3632 0
1600 3633 0
4400 3634 0
4400 3635 0
1600 3636 0
4400 3637 0
1800 3638 0
1600 3639 0
2500 3640 0
4400 3641 0
2500 3642 0
2500 3643 0
1600 3644 0
2400 3645 0
2500 3646 0
2500 3647 0
2400 3648 0
1800 3649 0
2400 3650 0
1800 3651 0
1800 3652 0
2400 3653 0
2500 3654 0
1800 3655 0
2400 3656 0
4400 3657 0
2500 3658 0
1800 3659 0
1600 3660 0
2500 3661 0
4400 3662 0
4400 3663 0
2400 3664 0
4400 3665 0
1600 3666 0
2400 3667 0
4400 3668 0
1800 3669 0
2500 3670 0
1600 3671 0
1600 3672 0
1600 3673 0
1800 3674 0
4400 3675 0
2500 3676 0
2500 3677 0
1800 3678 0
2400 3679 0
4400 3680 0
1600 3681 0
2400 3682 0
1800 3683 0
4400 3684 0
4400 3685 0
4400 3686 0
2400 3687 0
2400 3688 0
1800 3689 0
1600 3690 0
2400 3691 0
2500 3692 0
2400 3693 0
2400 3694 0
4400 3695 0
2500 3696 0
1600 3697 0
2500 3698 0
1600 3699 0
1800 3700 0
4400 3701 0
1800 3702 0
2400 3703 0
2400 3704 0
4400 3705 0
1800 3706 0
2500 3707 0
1800 3708 0
1600 3709 0
2400 3710 0
2500 3711 0
2400 3712 0
1800 3713 0
4400 3714 0
2500 3715 0
4400 3716 0
1800 3717 0
1600 3718 0
4400 3719 0
4400 3720 0
1800 3721 0
2500 3722 0
1800 3723 0
4400 3724 0
2400 3725 0
2400 3726 0
4400 3727 0
2500 3728 0
4400 3729 0
2400 3730 0
1600 3731 0
4400 3732 0
4400 3733 0
1600 3734 0
2500 3735 0
1800 3736 0
2400 3737 0
2400 3738 0
1800 3739 0
1800 3740 0
1800 3741 0
1800 3742 0
2400 3743 0
4400 3744 0
4400 3745 0
1600 3746 0
4400 3747 0
2500 3748 0
2500 3749 0
1800 3750 0
1600 3751 0
2400 3752 0
4400 3753 0
4400 3754 0
2400 3755 0
2500 3756 0
1800 3757 0
1600 3758 0
2500 3759 0
1600 3760 0
1800 3761 0
4400 3762 0
1800 3763 0
2500 3764 0
4400 3765 0
1800 3766 0
4400 3767 0
4400 3768 0
1600 3769 0
1600 3770 0
2500 3771 0
1800 3772 0
2400 3773 0
1800 3774 0
4400 3775 0
2500 3776 0
2500 3777 0
2400 3778 0
4400 3779 0
4400 3780 0
2500 3781 0
2500 3782 0
2400 3783 0
2400 3784 0
1600 3785 0
2500 3786 0
2400 3787 0
4400 3788 0
1600 3789 0
2500 3790 0
2400 3791 0
2500 3792 0
1600 3793 0
1800 3794 0
2500 3795 0
2500 3796 0
2500 3797 0
2500 3798 0
2400 3799 0
1800 3800 0
4400 3801 0
2500 3802 0
4400 3803 0
2400 3804 0
1800 3805 0
1600 3806 0
1600 3807 0
1600 3808 0
1600 3809 0
1600 3810 0
1800 3811 0
2500 3812 0
1600 3813 0
2500 3814 0
4400 3815 0
2500 3816 0
4400 3817 0
2500 3818 0
4400 3819 0
2500 3820 0
2500 3821 0
1800 3822 0
4400 3823 0
2500 3824 0
1800 3825 0
1800 3826 0
4400 3827 0
2500 3828 0
1800 3829 0
1600 3830 0
1600 3831 0
1600 3832 0
2500 3833 0
1600 3834 0
2400 3835 0
4400 3836 0
2400 3837 0
2400 3838 0
1600 3839 0
4400 3840 0
1800 3841 0
2400 3842 0
1800 3843 0
1800 3844 0
2500 3845 0
4400 3846 0
4400 3847 0
2400 3848 0
2500 3849 0
2500 3850 0
2500 3851 0
4400 3852 0
4400 3853 0
1600 3854 0
4400 3855 0
4400 3856 0
2500 3857 0
1800 3858 0
2400 3859 0
1800 3860 0
2400 3861 0
1600 3862 0
4400 3863 0
2400 3864 0
2400 3865 0
2400 3866 0
2400 3867 0
4400 3868 0
1800 3869 0
2400 3870 0
2500 3871 0
2400 3872 0
4400 3873 0
2500 3874 0
4400 3875 0
1600 3876 0
4400 3877 0
2500 3878 0
1800 3879 0
2500 3880 0
1800 3881 0
2500 3882 0
2400 3883 0
4400 3884 0
1600 3885 0
1800 3886 0
1800 3887 0
2400 3888 0
2400 3889 0
2500 3890 0
1800 3891 0
4400 3892 0
2500 3893 0
2400 3894 0
1800 3895 0
1600 3896 0
1600 3897 0
1800 3898 0
4400 3899 0
1800 3900 0
4400 3901 0
2400 3902 0
4400 3903 0
4400 3904 0
1800 3905 0
1800 3906 0
1600 3907 0
2400 3908 0
2500 3909 0
1800 3910 0
2400 3911 0
2400 3912 0
1600 3913 0
1800 3914 0
1800 3915 0
2400 3916 0
1800 3917 0
1600 3918 0
1600 3919 0
1600 3920 0
1800 3921 0
1800 3922 0
1600 3923 0
4400 3924 0
2500 3925 0
2400 3926 0
4400 3927 0
2500 3928 0
1800 3929 0
2400 3930 0
4400 3931 0
2400 3932 0
1800 3933 0
2500 3934 0
2500 3935 0
2500 3936 0
4400 3937 0
2500 3938 0
4400 3939 0
4400 3940 0
1600 3941 0
4400 3942 0
2400 3943 0
2500 3944 0
4400 3945 0
1800 3946 0
4400 3947 0
4400 3948 0
1600 3949 0
2400 3950 0
1800 3951 0
1600 3952 0
2400 3953 0
4400 3954 0
1800 3955 0
2400 3956 0
1600 3957 0
4400 3958 0
4400 3959 0
2500 3960 0
1600 3961 0
1800 3962 0
4400 3963 0
2500 3964 0
2400 3965 0
4400 3966 0
2400 3967 0
4400 3968 0
2400 3969 0
1600 3970 0
2400 3971 0
2400 3972 0
4400 3973 0
4400 3974 0
2400 3975 0
1600 3976 0
1800 3977 0
2500 3978 0
2400 3979 0
1600 3980 0
2400 3981 0
2500 3982 0
1800 3983 0
1800 3984 0
2400 3985 0
2500 3986 0
2400 3987 0
4400 3988 0
1800 3989 0
1600 3990 0
1600 3991 0
1600 3992 0
2500 3993 0
2500 3994 0
1800 3995 0
2500 3996 0
4400 3997 0
1800 3998 0
1800 3999 0
4400 4000 0
4400 4001 0
4400 4002 0
2400 4003 0
1600 4004 0
1600 4005 0
1800 4006 0
4400 4007 0
2500 4008 0
4400 4009 0
1800 4010 0
1600 4011 0
2400 4012 0
4400 4013 0
1600 4014 0
1800 4015 0
1800 4016 0
1600 4017 0
1600 4018 0
4400 4019 0
2500 4020 0
4400 4021 0
2400 4022 0
1600 4023 0
2400 4024 0
2400 4025 0
2500 4026 0
4400 4027 0
1800 4028 0
2400 4029 0
2400 4030 0
2400 4031 0
2400 4032 0
1800 4033 0
4400 4034 0
2500 4035 0
2400 4036 0
1600 4037 0
1800 4038 0
2500 4039 0
1600 4040 0
1600 4041 0
1600 4042 0
2400 4043 0
4400 4044 0
2400 4045 0
1600 4046 0
2500 4047 0
2400 4048 0
2500 4049 0
2400 4050 0
4400 4051 0
4400 4052 0
2400 4053 0
2400 4054 0
4400 4055 0
2500 4056 0
4400 4057 0
2400 4058 0
2500 4059 0
2400 4060 0
1800 4061 0
2400 4062 0
4400 4063 0
1600 4064 0
4400 4065 0
4400 4066 0
2500 4067 0
1800 4068 0
2500 4069 0
2400 4070 0
1600 4071 0
4400 4072 0
1600 4073 0
1600 4074 0
2400 4075 0
2400 4076 0
1600 4077 0
4400 4078 0
2400 4079 0
4400 4080 0
2400 4081 0
4400 4082 0
4400 4083 0
1800 4084 0
2400 4085 0
1800 4086 0
1600 4087 0
4400 4088 0
4400 4089 0
2500 4090 0
2400 4091 0
1600 4092 0
1600 4093 0
2400 4094 0
2500 4095 0
2500 4096 0
2400 4097 0
4400 4098 0
4400 4099 0
1600 4100 0
2400 4101 0
4400 4102 0
2500 4103 0
2400 4104 0
1600 4105 0
4400 4106 0
4400 4107 0
2500 4108 0
4400 4109 0
4400 4110 0
2500 4111 0
2500 4112 0
1600 4113 0
2400 4114 0
4400 4115 0
4400 4116 0
2500 4117 0
1600 4118 0
4400 4119 0
1600 4120 0
1800 4121 0
2500 4122 0
4400 4123 0
1600 4124 0
2400 4125 0
1600 4126 0
1600 4127 0
1800 4128 0
4400 4129 0
4400 4130 0
2500 4131 0
1600 4132 0
2400 4133 0
1800 4134 0
1600 4135 0
2400 4136 0
2500 4137 0
1800 4138 0
4400 4139 0
4400 4140 0
1600 4141 0
1800 4142 0
2400 4143 0
2500 4144 0
2500 4145 0
4400 4146 0
4400 4147 0
2500 4148 0
4400 4149 0
2500 4150 0
1600 4151 0
2400 4152 0
1800 4153 0
1600 4154 0
1800 4155 0
2500 4156 0
2400 4157 0
1600 4158 0
4400 4159 0
1800 4160 0
1800 4161 0
4400 4162 0
1600 4163 0
4400 4164 0
1800 4165 0
4400 4166 0
1800 4167 0
1600 4168 0
2400 4169 0
1600 4170 0
4400 4171 0
4400 4172 0
1600 4173 0
2400 4174 0
1800 4175 0
4400 4176 0
4400 4177 0
1600 4178 0
1800 4179 0
1800 4180 0
4400 4181 0
1800 4182 0
1600 4183 0
2400 4184 0
2500 4185 0
2400 4186 0
1600 4187 0
2400 4188 0
2500 4189 0
2400 4190 0
4400 4191 0
1600 4192 0
1800 4193 0
4400 4194 0
4400 4195 0
2500 4196 0
2400 4197 0
1600 4198 0
2500 4199 0
2500 4200 0
2400 4201 0
1600 4202 0
4400 4203 0
1600 4204 0
2500 4205 0
2500 4206 0
1800 4207 0
2400 4208 0
1800 4209 0
2500 4210 0
4400 4211 0
2500 4212 0
1600 4213 0
1600 4214 0
4400 4215 0
4400 4216 0
1800 4217 0
4400 4218 0
2500 4219 0
2400 4220 0
1600 4221 0
1600 4222 0
2500 4223 0
2400 4224 0
4400 4225 0
1800 4226 0
2400 4227 0
2500 4228 0
4400 4229 0
4400 4230 0
4400 4231 0
2400 4232 0
4400 4233 0
2400 4234 0
2500 4235 0
1800 4236 0
2400 4237 0
2500 4238 0
2400 4239 0
2500 4240 0
1800 4241 0
1600 4242 0
1800 4243 0
1600 4244 0
1600 4245 0
4400 4246 0
2400 4247 0
4400 4248 0
2500 4249 0
2500 4250 0
2500 4251 0
4400 4252 0
1800 4253 0
4400 4254 0
4400 4255 0
1800 4256 0
1800 4257 0
1800 4258 0
2400 4259 0
4400 4260 0
2400 4261 0
1600 4262 0
1600 4263 0
4400 4264 0
2500 4265 0
1800 4266 0
2400 4267 0
1600 4268 0
4400 4269 0
2500 4270 0
4400 4271 0
2500 4272 0
4400 4273 0
1800 4274 0
1800 4275 0
2500 4276 0
4400 4277 0
1800 4278 0
4400 4279 0
4400 4280 0
1800 4281 0
1600 4282 0
1600 4283 0
4400 4284 0
1600 4285 0
2400 4286 0
1800 4287 0
1600 4288 0
1600 4289 0
4400 4290 0
2500 4291 0
1600 4292 0
2500 4293 0
1800 4294 0
2500 4295 0
1600 4296 0
2400 4297 0
2400 4298 0
1800 4299 0
1600 4300 0
1800 4301 0
4400 4302 0
4400 4303 0
2500 4304 0
1800 4305 0
2400 4306 0
1800 4307 0
2500 4308 0
1600 4309 0
1800 4310 0
2500 4311 0
4400 4312 0
2400 4313 0
1600 4314 0
1800 4315 0
1800 4316 0
2400 4317 0
4400 4318 0
1800 4319 0
2400 4320 0
2400 4321 0
1600 4322 0
2400 4323 0
2400 4324 0
2400 4325 0
1800 4326 0
2400 4327 0
2400 4328 0
2400 4329 0
2400 4330 0
4400 4331 0
1800 4332 0
2400 4333 0
2500 4334 0
2500 4335 0
2500 4336 0
1600 4337 0
4400 4338 0
2500 4339 0
4400 4340 0
2500 4341 0
1600 4342 0
1800 4343 0
4400 4344 0
1800 4345 0
1600 4346 0
4400 4347 0
1800 4348 0
1600 4349 0
2400 4350 0
4400 4351 0
1800 4352 0
1600 4353 0
2400 4354 0
4400 4355 0
2400 4356 0
2500 4357 0
4400 4358 0
1600 4359 0
1600 4360 0
4400 4361 0
2500 4362 0
4400 4363 0
1800 4364 0
1600 4365 0
2400 4366 0
1600 4367 0
2500 4368 0
4400 4369 0
1600 4370 0
1800 4371 0
2500 4372 0
2500 4373 0
2400 4374 0
1600 4375 0
4400 4376 0
2500 4377 0
1800 4378 0
1800 4379 0
4400 4380 0
1800 4381 0
2400 4382 0
4400 4383 0
1800 4384 0
2400 4385 0
1800 4386 0
1600 4387 0
4400 4388 0
1800 4389 0
1800 4390 0
2400 4391 0
1600 4392 0
1600 4393 0
2400 4394 0
1600 4395 0
1800 4396 0
1800 4397 0
1600 4398 0
1800 4399 0
1600 4400 0
2400 4401 0
4400 4402 0
2400 4403 0
4400 4404 0
2400 4405 0
2500 4406 0
1800 4407 0
2400 4408 0
4400 4409 0
1600 4410 0
1600 4411 0
2400 4412 0
2400 4413 0
2400 4414 0
1600 4415 0
2500 4416 0
2400 4417 0
1600 4418 0
1600 4419 0
2400 4420 0
4400 4421 0
4400 4422 0
1800 4423 0
1600 4424 0
1800 4425 0
1800 4426 0
4400 4427 0
4400 4428 0
2500 4429 0
1600 4430 0
2500 4431 0
2400 4432 0
2500 4433 0
2400 4434 0
1800 4435 0
1600 4436 0
2500 4437 0
1600 4438 0
1800 4439 0
1800 4440 0
1800 4441 0
1800 4442 0
4400 4443 0
4400 4444 0
1800 4445 0
1800 4446 0
2500 4447 0
1600 4448 0
2500 4449 0
1800 4450 0
4400 4451 0
2400 4452 0
4400 4453 0
4400 4454 0
4400 4455 0
2400 4456 0
1800 4457 0
1800 4458 0
1800 4459 0
4400 4460 0
1600 4461 0
1600 4462 0
2500 4463 0
1600 4464 0
4400 4465 0
1800 4466 0
1600 4467 0
2400 4468 0
2400 4469 0
1800 4470 0
1600 4471 0
4400 4472 0
4400 4473 0
1600 4474 0
2500 4475 0
2500 4476 0
2400 4477 0
1800 4478 0
2400 4479 0
1800 4480 0
1800 4481 0
1800 4482 0
1800 4483 0
4400 4484 0
1600 4485 0
1800 4486 0
1600 4487 0
1800 4488 0
4400 4489 0
4400 4490 0
1600 4491 0
1600 4492 0
2400 4493 0
2400 4494 0
2500 4495 0
2400 4496 0
2400 4497 0
1800 4498 0
2500 4499 0
2400 4500 0
2400 4501 0
1600 4502 0
2500 4503 0
2500 4504 0
2500 4505 0
1600 4506 0
4400 4507 0
2500 4508 0
2500 4509 0
1600 4510 0
4400 4511 0
2500 4512 0
2500 4513 0
1800 4514 0
4400 4515 0
2400 4516 0
2500 4517 0
1600 4518 0
1800 4519 0
2400 4520 0
2400 4521 0
1800 4522 0
1600 4523 0
2400 4524 0
2400 4525 0
4400 4526 0
2400 4527 0
2500 4528 0
2500 4529 0
1800 4530 0
1800 4531 0
1600 4532 0
1600 4533 0
4400 4534 0
1800 4535 0
4400 4536 0
1600 4537 0
2400 4538 0
4400 4539 0
2400 4540 0
4400 4541 0
4400 4542 0
1600 4543 0
4400 4544 0
1600 4545 0
4400 4546 0
4400 4547 0
1800 4548 0
1800 4549 0
1600 4550 0
4400 4551 0
2400 4552 0
2500 4553 0
1600 4554 0
1800 4555 0
1800 4556 0
1600 4557 0
1800 4558 0
2400 4559 0
1800 4560 0
2500 4561 0
2500 4562 0
4400 4563 0
2400 4564 0
1800 4565 0
1800 4566 0
1600 4567 0
4400 4568 0
2500 4569 0
1600 4570 0
1600 4571 0
1800 4572 0
2500 4573 0
1600 4574 0
1800 4575 0
4400 4576 0
2400 4577 0
2500 4578 0
4400 4579 0
1800 4580 0
2400 4581 0
1600 4582 0
4400 4583 0
1600 4584 0
1600 4585 0
2400 4586 0
2400 4587 0
1600 4588 0
1600 4589 0
2400 4590 0
1800 4591 0
2500 4592 0
1600 4593 0
2400 4594 0
4400 4595 0
4400 4596 0
1800 4597 0
1800 4598 0
4400 4599 0
1800 4600 0
1600 4601 0
2400 4602 0
2500 4603 0
2400 4604 0
2400 4605 0
1800 4606 0
2500 4607 0
1600 4608 0
4400 4609 0
1600 4610 0
1800 4611 0
4400 4612 0
1600 4613 0
2400 4614 0
1800 4615 0
2500 4616 0
2400 4617 0
2500 4618 0
4400 4619 0
2500 4620 0
2400 4621 0
2500 4622 0
1800 4623 0
1800 4624 0
2400 4625 0
1600 4626 0
2500 4627 0
2400 4628 0
2500 4629 0
2400 4630 0
2500 4631 0
1600 4632 0
2400 4633 0
1800 4634 0
1600 4635 0
1800 4636 0
1600 4637 0
1800 4638 0
1600 4639 0
2500 4640 0
1800 4641 0
2500 4642 0
2400 4643 0
2500 4644 0
1800 4645 0
1600 4646 0
2500 4647 0
4400 4648 0
1600 4649 0
2400 4650 0
2400 4651 0
1800 4652 0
1600 4653 0
2500 4654 0
2500 4655 0
2400 4656 0
1600 4657 0
1600 4658 0
2400 4659 0
2500 4660 0
2400 4661 0
1600 4662 0
2500 4663 0
4400 4664 0
2400 4665 0
1600 4666 0
1600 4667 0
1800 4668 0
1800 4669 0
2400 4670 0
2500 4671 0
4400 4672 0
4400 4673 0
2500 4674 0
1800 4675 0
1600 4676 0
1800 4677 0
2400 4678 0
1800 4679 0
2500 4680 0
2400 4681 0
2500 4682 0
2400 4683 0
1600 4684 0
1800 4685 0
2500 4686 0
2400 4687 0
1800 4688 0
4400 4689 0
2500 4690 0
1600 4691 0
2400 4692 0
2500 4693 0
2500 4694 0
4400 4695 0
1600 4696 0
4400 4697 0
2400 4698 0
1800 4699 0
2500 4700 0
2400 4701 0
2400 4702 0
1600 4703 0
2500 4704 0
4400 4705 0
1800 4706 0
2500 4707 0
2500 4708 0
1800 4709 0
2400 4710 0
4400 4711 0
2500 4712 0
2400 4713 0
1600 4714 0
2400 4715 0
1800 4716 0
4400 4717 0
1800 4718 0
1600 4719 0
2400 4720 0
2500 4721 0
1600 4722 0
1800 4723 0
2400 4724 0
1800 4725 0
2500 4726 0
1600 4727 0
1600 4728 0
4400 4729 0
1800 4730 0
4400 4731 0
1600 4732 0
2400 4733 0
4400 4734 0
2400 4735 0
4400 4736 0
1800 4737 0
1800 4738 0
1600 4739 0
1800 4740 0
4400 4741 0
4400 4742 0
2400 4743 0
2500 4744 0
4400 4745 0
2400 4746 0
1600 4747 0
1800 4748 0
1800 4749 0
4400 4750 0
1800 4751 0
1600 4752 0
2500 4753 0
4400 4754 0
1600 4755 0
2400 4756 0
2500 4757 0
4400 4758 0
1800 4759 0
4400 4760 0
2400 4761 0
1800 4762 0
2500 4763 0
4400 4764 0
1600 4765 0
2400 4766 0
4400 4767 0
1600 4768 0
4400 4769 0
2400 4770 0
4400 4771 0
1800 4772 0
1800 4773 0
1600 4774 0
1800 4775 0
2500 4776 0
2500 4777 0
4400 4778 0
2500 4779 0
2500 4780 0
2400 4781 0
2400 4782 0
2500 4783 0
2400 4784 0
2500 4785 0
1600 4786 0
2400 4787 0
2500 4788 0
2500 4789 0
4400 4790 0
1600 4791 0
1600 4792 0
4400 4793 0
4400 4794 0
4400 4795 0
1800 4796 0
2500 4797 0
1800 4798 0
2400 4799 0
4400 4800 0
2500 4801 0
2500 4802 0
2400 4803 0
1600 4804 0
2500 4805 0
1600 4806 0
2500 4807 0
1800 4808 0
4400 4809 0
1600 4810 0
1800 4811 0
2500 4812 0
4400 4813 0
1800 4814 0
4400 4815 0
2500 4816 0
2500 4817 0
1800 4818 0
2500 4819 0
2400 4820 0
4400 4821 0
2500 4822 0
2500 4823 0
2400 4824 0
4400 4825 0
1600 4826 0
2400 4827 0
2400 4828 0
4400 4829 0
2400 4830 0
4400 4831 0
2400 4832 0
4400 4833 0
4400 4834 0
1600 4835 0
2500 4836 0
4400 4837 0
1800 4838 0
1600 4839 0
1600 4840 0
2500 4841 0
2400 4842 0
2400 4843 0
4400 4844 0
1600 4845 0
4400 4846 0
1800 4847 0
2400 4848 0
4400 4849 0
4400 4850 0
1600 4851 0
1800 4852 0
1800 4853 0
4400 4854 0
1800 4855 0
1800 4856 0
1600 4857 0
1600 4858 0
1800 4859 0
4400 4860 0
2400 4861 0
4400 4862 0
4400 4863 0
2400 4864 0
1600 4865 0
4400 4866 0
1800 4867 0
1800 4868 0
1600 4869 0
1600 4870 0
1600 4871 0
2500 4872 0
2500 4873 0
1800 4874 0
4400 4875 0
2500 4876 0
4400 4877 0
2400 4878 0
1800 4879 0
2500 4880 0
1800 4881 0
2400 4882 0
2400 4883 0
1800 4884 0
2500 4885 0
1800 4886 0
4400 4887 0
4400 4888 0
4400 4889 0
4400 4890 0
4400 4891 0
2400 4892 0
2500 4893 0
2500 4894 0
1600 4895 0
1800 4896 0
2400 4897 0
2400 4898 0
1800 4899 0
1800 4900 0
4400 4901 0
2400 4902 0
2400 4903 0
1800 4904 0
1800 4905 0
2500 4906 0
4400 4907 0
1600 4908 0
4400 4909 0
2400 4910 0
2500 4911 0
1800 4912 0
1600 4913 0
2400 4914 0
1600 4915 0
4400 4916 0
2500 4917 0
4400 4918 0
1800 4919 0
2500 4920 0
4400 4921 0
1600 4922 0
2500 4923 0
2500 4924 0
1800 4925 0
1800 4926 0
1600 4927 0
1600 4928 0
2500 4929 0
2400 4930 0
4400 4931 0
2500 4932 0
1600 4933 0
2500 4934 0
1800 4935 0
4400 4936 0
2500 4937 0
1800 4938 0
4400 4939 0
4400 4940 0
2400 4941 0
1800 4942 0
4400 4943 0
2400 4944 0
2400 4945 0
2500 4946 0
1600 4947 0
1600 4948 0
4400 4949 0
4400 4950 0
4400 4951 0
2500 4952 0
2400 4953 0
1600 4954 0
1800 4955 0
1600 4956 0
2400 4957 0
2400 4958 0
1800 4959 0
2500 4960 0
1600 4961 0
4400 4962 0
2500 4963 0
4400 4964 0
1600 4965 0
1800 4966 0
2500 4967 0
1600 4968 0
4400 4969 0
1600 4970 0
2400 4971 0
2400 4972 0
1600 4973 0
4400 4974 0
2400 4975 0
1600 4976 0
1600 4977 0
4400 4978 0
2400 4979 0
4400 4980 0
4400 4981 0
4400 4982 0
2400 4983 0
2400 4984 0
2500 4985 0
1800 4986 0
1600 4987 0
1800 4988 0
4400 4989 0
2500 4990 0
2500 4991 0
1600 4992 0
1600 4993 0
1800 4994 0
1800 4995 0
2400 4996 0
1800 4997 0
1800 4998 0
4400 4999 0
2500 5000 0
1800 5001 0
2400 5002 0
1800 5003 0
4400 5004 0
1600 5005 0
4400 5006 0
2400 5007 0
1600 5008 0
2500 5009 0
2400 5010 0
2400 5011 0
1800 5012 0
2400 5013 0
2500 5014 0
2500 5015 0
2500 5016 0
2400 5017 0
4400 5018 0
2400 5019 0
1800 5020 0
2500 5021 0
1800 5022 0
2500 5023 0
1800 5024 0
1600 5025 0
1600 5026 0
2500 5027 0
1800 5028 0
2400 5029 0
4400 5030 0
2400 5031 0
2400 5032 0
4400 5033 0
4400 5034 0
1800 5035 0
4400 5036 0
1600 5037 0
4400 5038 0
2400 5039 0
2500 5040 0
1600 5041 0
4400 5042 0
4400 5043 0
2500 5044 0
1800 5045 0
2400 5046 0
2500 5047 0
1800 5048 0
2400 5049 0
4400 5050 0
1800 5051 0
2500 5052 0
1600 5053 0
2500 5054 0
2500 5055 0
1600 5056 0
1800 5057 0
1800 5058 0
2500 5059 0
2500 5060 0
1800 5061 0
1600 5062 0
2400 5063 0
1600 5064 0
4400 5065 0
2500 5066 0
1800 5067 0
1600 5068 0
4400 5069 0
4400 5070 0
2500 5071 0
2400 5072 0
2400 5073 0
4400 5074 0
1600 5075 0
4400 5076 0
2500 5077 0
2500 5078 0
2400 5079 0
4400 5080 0
1800 5081 0
1800 5082 0
1600 5083 0
1600 5084 0
2400 5085 0
2500 5086 0
1800 5087 0
1800 5088 0
1800 5089 0
1800 5090 0
2400 5091 0
4400 5092 0
1800 5093 0
2500 5094 0
1800 5095 0
1600 5096 0
2500 5097 0
4400 5098 0
1800 5099 0
2400 5100 0
2400 5101 0
1800 5102 0
1600 5103 0
2400 5104 0
2500 5105 0
1600 5106 0
4400 5107 0
4400 5108 0
2400 5109 0
1600 5110 0
2400 5111 0
4400 5112 0
2400 5113 0
1600 5114 0
1800 5115 0
4400 5116 0
1800 5117 0
1600 5118 0
4400 5119 0
2400 5120 0
2400 5121 0
2400 5122 0
4400 5123 0
4400 5124 0
2400 5125 0
2400 5126 0
1800 5127 0
4400 5128 0
2400 5129 0
1600 5130 0
2400 5131 0
4400 5132 0
2400 5133 0
1800 5134 0
2500 5135 0
4400 5136 0
4400 5137 0
2500 5138 0
2400 5139 0
1800 5140 0
2400 5141 0
2500 5142 0
1800 5143 0
1600 5144 0
1600 5145 0
1800 5146 0
1600 5147 0
1800 5148 0
2400 5149 0
2400 5150 0
2500 5151 0
2400 5152 0
2400 5153 0
2500 5154 0
4400 5155 0
4400 5156 0
1800 5157 0
4400 5158 0
4400 5159 0
4400 5160 0
2400 5161 0
4400 5162 0
2400 5163 0
2400 5164 0
2500 5165 0
1800 5166 0
2500 5167 0
1600 5168 0
2400 5169 0
4400 5170 0
4400 5171 0
1600 5172 0
1800 5173 0
2400 5174 0
1600 5175 0
1600 5176 0
1600 5177 0
2400 5178 0
2400 5179 0
2400 5180 0
2400 5181 0
2500 5182 0
1600 5183 0
2500 5184 0
1800 5185 0
1600 5186 0
2400 5187 0
2400 5188 0
2400 5189 0
2500 5190 0
2400 5191 0
1600 5192 0
4400 5193 0
1600 5194 0
1800 5195 0
1600 5196 0
2400 5197 0
1600 5198 0
1600 5199 0
2500 5200 0
4400 5201 0
1600 5202 0
1800 5203 0
1600 5204 0
4400 5205 0
4400 5206 0
4400 5207 0
4400 5208 0
4400 5209 0
2500 5210 0
4400 5211 0
2500 5212 0
1600 5213 0
1600 5214 0
2500 5215 0
2400 5216 0
4400 5217 0
4400 5218 0
1600 5219 0
2500 5220 0
4400 5221 0
1600 5222 0
4400 5223 0
2500 5224 0
2400 5225 0
1800 5226 0
1600 5227 0
1600 5228 0
1800 5229 0
1800 5230 0
1600 5231 0
2400 5232 0
1600 5233 0
1800 5234 0
4400 5235 0
2500 5236 0
4400 5237 0
2400 5238 0
1600 5239 0
1600 5240 0
2500 5241 0
4400 5242 0
2500 5243 0
2400 5244 0
4400 5245 0
4400 5246 0
2400 5247 0
1600 5248 0
1600 5249 0
1800 5250 0
1600 5251 0
2500 5252 0
2400 5253 0
1600 5254 0
4400 5255 0
2400 5256 0
1600 5257 0
2500 5258 0
1800 5259 0
1800 5260 0
2400 5261 0
2500 5262 0
2500 5263 0
2500 5264 0
1600 5265 0
1800 5266 0
2500 5267 0
4400 5268 0
1600 5269 0
4400 5270 0
4400 5271 0
2400 5272 0
1600 5273 0
4400 5274 0
1600 5275 0
2500 5276 0
2400 5277 0
1800 5278 0
4400 5279 0
2400 5280 0
2400 5281 0
2400 5282 0
2400 5283 0
2500 5284 0
1600 5285 0
1800 5286 0
1800 5287 0
1600 5288 0
1800 5289 0
2400 5290 0
2500 5291 0
2400 5292 0
2400 5293 0
2500 5294 0
4400 5295 0
1800 5296 0
2500 5297 0
1600 5298 0
1600 5299 0
1600 5300 0
4400 5301 0
2500 5302 0
4400 5303 0
1600 5304 0
2400 5305 0
2400 5306 0
4400 5307 0
1600 5308 0
1600 5309 0
1600 5310 0
1600 5311 0
2500 5312 0
4400 5313 0
4400 5314 0
2500 5315 0
2400 5316 0
4400 5317 0
1800 5318 0
4400 5319 0
4400 5320 0
2400 5321 0
2500 5322 0
2400 5323 0
2400 5324 0
2500 5325 0
1800 5326 0
2500 5327 0
2400 5328 0
2500 5329 0
4400 5330 0
4400 5331 0
1800 5332 0
1800 5333 0
2500 5334 0
2500 5335 0
2500 5336 0
1600 5337 0
2400 5338 0
2400 5339 0
1800 5340 0
4400 5341 0
4400 5342 0
4400 5343 0
4400 5344 0
2400 5345 0
1600 5346 0
4400 5347 0
1800 5348 0
2500 5349 0
2500 5350 0
1800 5351 0
1800 5352 0
1800 5353 0
1600 5354 0
2500 5355 0
1600 5356 0
4400 5357 0
2500 5358 0
1800 5359 0
1600 5360 0
2400 5361 0
2500 5362 0
1800 5363 0
1800 5364 0
4400 5365 0
1600 5366 0
4400 5367 0
2400 5368 0
2400 5369 0
4400 5370 0
2500 5371 0
2500 5372 0
4400 5373 0
4400 5374 0
2500 5375 0
1600 5376 0
4400 5377 0
1800 5378 0
1600 5379 0
4400 5380 0
1800 5381 0
1800 5382 0
4400 5383 0
4400 5384 0
4400 5385 0
1800 5386 0
2400 5387 0
4400 5388 0
4400 5389 0
1600 5390 0
4400 5391 0
1600 5392 0
1600 5393 0
2400 5394 0
4400 5395 0
2400 5396 0
1800 5397 0
2400 5398 0
2500 5399 0
2500 5400 0
2500 5401 0
1600 5402 0
2500 5403 0
2400 5404 0
4400 5405 0
1600 5406 0
1600 5407 0
2500 5408 0
1800 5409 0
1800 5410 0
4400 5411 0
2400 5412 0
2500 5413 0
2400 5414 0
1800 5415 0
1800 5416 0
2500 5417 0
1800 5418 0
1800 5419 0
4400 5420 0
4400 5421 0
1800 5422 0
2500 5423 0
2500 5424 0
1800 5425 0
1800 5426 0
1600 5427 0
4400 5428 0
4400 5429 0
2500 5430 0
2400 5431 0
2400 5432 0
1800 5433 0
1800 5434 0
1600 5435 0
1600 5436 0
2500 5437 0
2400 5438 0
1600 5439 0
2400 5440 0
1600 5441 0
4400 5442 0
1800 5443 0
1600 5444 0
1600 5445 0
2500 5446 0
4400 5447 0
1800 5448 0
4400 5449 0
1800 5450 0
4400 5451 0
4400 5452 0
2500 5453 0
2400 5454 0
4400 5455 0
1800 5456 0
1800 5457 0
2500 5458 0
2400 5459 0
1800 5460 0
2500 5461 0
1800 5462 0
1600 5463 0
4400 5464 0
2400 5465 0
4400 5466 0
4400 5467 0
1600 5468 0
2400 5469 0
4400 5470 0
2500 5471 0
1800 5472 0
1800 5473 0
2500 5474 0
1800 5475 0
1600 5476 0
2500 5477 0
1600 5478 0
2400 5479 0
1800 5480 0
1600 5481 0
1800 5482 0
2400 5483 0
4400 5484 0
1800 5485 0
2400 5486 0
2500 5487 0
1800 5488 0
2500 5489 0
2400 5490 0
2500 5491 0
1600 5492 0
4400 5493 0
2500 5494 0
1600 5495 0
4400 5496 0
2400 5497 0
2400 5498 0
1800 5499 0
1600 5500 0
4400 5501 0
1800 5502 0
1800 5503 0
2400 5504 0
2500 5505 0
4400 5506 0
2400 5507 0
2400 5508 0
2500 5509 0
1600 5510 0
1600 5511 0
4400 5512 0
2500 5513 0
2500 5514 0
1800 5515 0
2500 5516 0
4400 5517 0
2500 5518 0
1800 5519 0
1600 5520 0
2500 5521 0
2500 5522 0
4400 5523 0
1800 5524 0
2500 5525 0
4400 5526 0
1800 5527 0
2400 5528 0
1800 5529 0
2400 5530 0
2400 5531 0
1800 5532 0
1800 5533 0
4400 5534 0
1800 5535 0
1600 5536 0
2500 5537 0
1800 5538 0
2400 5539 0
2400 5540 0
1800 5541 0
2500 5542 0
2500 5543 0
4400 5544 0
4400 5545 0
4400 5546 0
2500 5547 0
2400 5548 0
4400 5549 0
1800 5550 0
4400 5551 0
1800 5552 0
1800 5553 0
2400 5554 0
1800 5555 0
4400 5556 0
2400 5557 0
2400 5558 0
2500 5559 0
1800 5560 0
4400 5561 0
1800 5562 0
4400 5563 0
1600 5564 0
2500 5565 0
2400 5566 0
2500 5567 0
1600 5568 0
2500 5569 0
2500 5570 0
1600 5571 0
2500 5572 0
2500 5573 0
1600 5574 0
1600 5575 0
2400 5576 0
4400 5577 0
4400 5578 0
1600 5579 0
4400 5580 0
1800 5581 0
1800 5582 0
1800 5583 0
2400 5584 0
4400 5585 0
2500 5586 0
1600 5587 0
4400 5588 0
2400 5589 0
2500 5590 0
1600 5591 0
2500 5592 0
1600 5593 0
1800 5594 0
1600 5595 0
1600 5596 0
2400 5597 0
2400 5598 0
2400 5599 0
4400 5600 0
1800 5601 0
1800 5602 0
1600 5603 0
2400 5604 0
1800 5605 0
1800 5606 0
1600 5607 0
1600 5608 0
2500 5609 0
2500 5610 0
1600 5611 0
2500 5612 0
1800 5613 0
1600 5614 0
1600 5615 0
2400 5616 0
1800 5617 0
1800 5618 0
4400 5619 0
4400 5620 0
2400 5621 0
4400 5622 0
2500 5623 0
1600 5624 0
2500 5625 0
1800 5626 0
4400 5627 0
2500 5628 0
1800 5629 0
4400 5630 0
1600 5631 0
1600 5632 0
4400 5633 0
1600 5634 0
2400 5635 0
4400 5636 0
2400 5637 0
4400 5638 0
2400 5639 0
1600 5640 0
1600 5641 0
2500 5642 0
1800 5643 0
2400 5644 0
4400 5645 0
1600 5646 0
1600 5647 0
4400 5648 0
1800 5649 0
4400 5650 0
2400 5651 0
2400 5652 0
2500 5653 0
4400 5654 0
1600 5655 0
2500 5656 0
4400 5657 0
4400 5658 0
1600 5659 0
1800 5660 0
4400 5661 0
2500 5662 0
1600 5663 0
2400 5664 0
1800 5665 0
1600 5666 0
2500 5667 0
4400 5668 0
2500 5669 0
4400 5670 0
1600 5671 0
1800 5672 0
1600 5673 0
2500 5674 0
2500 5675 0
2400 5676 0
2400 5677 0
4400 5678 0
2500 5679 0
2400 5680 0
2400 5681 0
1600 5682 0
4400 5683 0
1800 5684 0
1600 5685 0
4400 5686 0
4400 5687 0
1600 5688 0
2400 5689 0
2400 5690 0
1800 5691 0
1800 5692 0
4400 5693 0
1800 5694 0
1600 5695 0
1800 5696 0
2500 5697 0
4400 5698 0
2500 5699 0
4400 5700 0
4400 5701 0
1600 5702 0
2400 5703 0
1800 5704 0
2500 5705 0
1800 5706 0
4400 5707 0
2500 5708 0
2500 5709 0
4400 5710 0
1800 5711 0
2500 5712 0
1800 5713 0
2500 5714 0
2400 5715 0
1600 5716 0
4400 5717 0
1600 5718 0
1800 5719 0
1600 5720 0
1600 5721 0
1600 5722 0
1600 5723 0
4400 5724 0
2400 5725 0
2400 5726 0
1600 5727 0
2400 5728 0
2400 5729 0
4400 5730 0
1600 5731 0
1800 5732 0
1600 5733 0
2400 5734 0
1800 5735 0
2400 5736 0
2400 5737 0
2500 5738 0
2500 5739 0
2500 5740 0
2400 5741 0
1600 5742 0
1600 5743 0
2400 5744 0
2500 5745 0
2400 5746 0
1600 5747 0
1600 5748 0
4400 5749 0
1600 5750 0
4400 5751 0
2400 5752 0
1600 5753 0
4400 5754 0
1600 5755 0
4400 5756 0
1600 5757 0
1600 5758 0
1800 5759 0
2400 5760 0
2400 5761 0
1600 5762 0
4400 5763 0
2500 5764 0
4400 5765 0
1600 5766 0
2400 5767 0
4400 5768 0
1800 5769 0
1600 5770 0
4400 5771 0
4400 5772 0
1800 5773 0
2500 5774 0
2500 5775 0
4400 5776 0
1600 5777 0
1800 5778 0
2500 5779 0
4400 5780 0
1600 5781 0
2500 5782 0
2400 5783 0
4400 5784 0
1800 5785 0
1600 5786 0
4400 5787 0
2500 5788 0
4400 5789 0
4400 5790 0
2500 5791 0
2400 5792 0
1600 5793 0
2500 5794 0
4400 5795 0
4400 5796 0
1800 5797 0
4400 5798 0
2500 5799 0
1800 5800 0
4400 5801 0
2500 5802 0
1600 5803 0
1600 5804 0
4400 5805 0
1600 5806 0
4400 5807 0
1800 5808 0
1600 5809 0
1800 5810 0
1800 5811 0
1800 5812 0
2400 5813 0
2500 5814 0
4400 5815 0
1800 5816 0
4400 5817 0
1800 5818 0
2500 5819 0
1600 5820 0
4400 5821 0
2400 5822 0
4400 5823 0
2500 5824 0
1800 5825 0
4400 5826 0
2500 5827 0
1800 5828 0
1600 5829 0
2500 5830 0
2400 5831 0
4400 5832 0
2500 5833 0
1800 5834 0
1800 5835 0
2400 5836 0
4400 5837 0
1800 5838 0
1800 5839 0
1800 5840 0
2500 5841 0
2500 5842 0
4400 5843 0
2400 5844 0
4400 5845 0
2400 5846 0
1600 5847 0
1800 5848 0
2400 5849 0
1800 5850 0
2400 5851 0
1600 5852 0
2400 5853 0
4400 5854 0
2500 5855 0
1800 5856 0
2500 5857 0
2400 5858 0
4400 5859 0
2400 5860 0
1600 5861 0
1600 5862 0
1600 5863 0
2400 5864 0
1600 5865 0
2400 5866 0
2400 5867 0
4400 5868 0
1800 5869 0
2500 5870 0
1800 5871 0
2500 5872 0
2500 5873 0
2400 5874 0
1600 5875 0
1600 5876 0
1600 5877 0
1800 5878 0
1600 5879 0
4400 5880 0
2400 5881 0
1600 5882 0
1600 5883 0
1600 5884 0
1800 5885 0
2400 5886 0
4400 5887 0
1600 5888 0
2500 5889 0
1800 5890 0
1600 5891 0
1600 5892 0
1800 5893 0
4400 5894 0
2500 5895 0
2500 5896 0
4400 5897 0
1800 5898 0
1600 5899 0
4400 5900 0
1800 5901 0
1800 5902 0
1800 5903 0
1800 5904 0
2500 5905 0
1800 5906 0
4400 5907 0
1600 5908 0
1600 5909 0
2400 5910 0
4400 5911 0
2400 5912 0
4400 5913 0
1800 5914 0
2400 5915 0
1800 5916 0
4400 5917 0
2500 5918 0
2500 5919 0
2500 5920 0
2500 5921 0
1600 5922 0
2500 5923 0
4400 5924 0
2500 5925 0
1600 5926 0
1800 5927 0
2400 5928 0
1800 5929 0
1800 5930 0
2400 5931 0
2500 5932 0
2500 5933 0
4400 5934 0
2500 5935 0
2500 5936 0
4400 5937 0
2400 5938 0
4400 5939 0
2500 5940 0
2500 5941 0
2500 5942 0
4400 5943 0
2400 5944 0
1600 5945 0
4400 5946 0
2400 5947 0
2500 5948 0
2400 5949 0
1800 5950 0
1800 5951 0
1600 5952 0
2500 5953 0
1600 5954 0
1800 5955 0
1600 5956 0
1800 5957 0
1800 5958 0
2400 5959 0
2500 5960 0
1800 5961 0
2500 5962 0
1600 5963 0
1600 5964 0
1800 5965 0
2500 5966 0
1800 5967 0
1800 5968 0
2400 5969 0
1600 5970 0
2500 5971 0
1600 5972 0
2400 5973 0
4400 5974 0
1600 5975 0
2400 5976 0
1600 5977 0
2500 5978 0
2400 5979 0
4400 5980 0
1600 5981 0
2400 5982 0
4400 5983 0
2500 5984 0
1600 5985 0
1800 5986 0
2500 5987 0
2500 5988 0
2500 5989 0
2500 5990 0
4400 5991 0
1800 5992 0
1600 5993 0
2500 5994 0
1600 5995 0
2400 5996 0
2500 5997 0
2500 5998 0
1600 5999 0
1800 6000 0
2400 6001 0
1800 6002 0
1600 6003 0
4400 6004 0
2500 6005 0
4400 6006 0
1600 6007 0
1600 6008 0
1600 6009 0
1600 6010 0
2500 6011 0
4400 6012 0
2400 6013 0
2500 6014 0
1600 6015 0
1600 6016 0
2500 6017 0
4400 6018 0
4400 6019 0
1800 6020 0
1800 6021 0
1800 6022 0
1600 6023 0
2500 6024 0
2500 6025 0
1800 6026 0
4400 6027 0
1800 6028 0
2500 6029 0
1600 6030 0
1800 6031 0
2400 6032 0
2400 6033 0
4400 6034 0
2500 6035 0
1600 6036 0
2400 6037 0
1800 6038 0
1600 6039 0
2500 6040 0
1800 6041 0
1600 6042 0
2500 6043 0
1600 6044 0
2400 6045 0
2400 6046 0
2500 6047 0
2400 6048 0
2500 6049 0
4400 6050 0
2400 6051 0
1600 6052 0
1600 6053 0
2500 6054 0
4400 6055 0
1800 6056 0
1600 6057 0
4400 6058 0
1600 6059 0
2500 6060 0
2500 6061 0
1800 6062 0
2500 6063 0
1800 6064 0
2500 6065 0
1600 6066 0
2500 6067 0
2400 6068 0
4400 6069 0
1600 6070 0
4400 6071 0
2400 6072 0
4400 6073 0
2400 6074 0
2500 6075 0
2500 6076 0
2400 6077 0
1600 6078 0
2500 6079 0
1600 6080 0
4400 6081 0
2500 6082 0
2400 6083 0
2400 6084 0
2500 6085 0
2400 6086 0
2500 6087 0
1800 6088 0
2500 6089 0
1600 6090 0
4400 6091 0
2400 6092 0
4400 6093 0
2500 6094 0
2500 6095 0
2500 6096 0
1600 6097 0
4400 6098 0
4400 6099 0
2400 6100 0
2500 6101 0
2400 6102 0
1600 6103 0
1800 6104 0
1600 6105 0
1800 6106 0
2500 6107 0
4400 6108 0
4400 6109 0
2400 6110 0
1800 6111 0
2400 6112 0
2500 6113 0
4400 6114 0
2400 6115 0
1800 6116 0
2500 6117 0
2500 6118 0
1800 6119 0
2400 6120 0
1600 6121 0
2400 6122 0
1800 6123 0
4400 6124 0
2400 6125 0
1600 6126 0
2400 6127 0
4400 6128 0
2500 6129 0
2400 6130 0
2500 6131 0
4400 6132 0
1600 6133 0
2400 6134 0
2500 6135 0
1600 6136 0
2500 6137 0
2500 6138 0
2500 6139 0
2400 6140 0
2500 6141 0
4400 6142 0
1800 6143 0
1600 6144 0
1600 6145 0
2400 6146 0
2400 6147 0
2400 6148 0
1800 6149 0
4400 6150 0
1600 6151 0
1600 6152 0
2400 6153 0
2400 6154 0
4400 6155 0
2500 6156 0
4400 6157 0
2400 6158 0
1600 6159 0
4400 6160 0
2500 6161 0
1800 6162 0
1800 6163 0
1600 6164 0
2500 6165 0
4400 6166 0
2400 6167 0
2400 6168 0
2500 6169 0
4400 6170 0
2500 6171 0
4400 6172 0
1800 6173 0
4400 6174 0
4400 6175 0
2400 6176 0
1600 6177 0
2400 6178 0
1800 6179 0
2500 6180 0
2400 6181 0
2500 6182 0
2400 6183 0
1600 6184 0
1600 6185 0
2400 6186 0
2400 6187 0
2500 6188 0
2500 6189 0
1800 6190 0
1800 6191 0
2400 6192 0
1600 6193 0
1800 6194 0
1800 6195 0
4400 6196 0
1600 6197 0
2500 6198 0
2500 6199 0
2500 6200 0
4400 6201 0
2400 6202 0
2400 6203 0
2500 6204 0
1600 6205 0
4400 6206 0
2500 6207 0
2500 6208 0
2400 6209 0
1600 6210 0
4400 6211 0
4400 6212 0
1800 6213 0
1600 6214 0
2400 6215 0
1800 6216 0
2400 6217 0
2500 6218 0
1800 6219 0
2400 6220 0
2500 6221 0
2400 6222 0
1600 6223 0
2400 6224 0
1600 6225 0
2400 6226 0
2500 6227 0
1600 6228 0
4400 6229 0
1600 6230 0
2500 6231 0
1600 6232 0
2400 6233 0
2400 6234 0
4400 6235 0
1600 6236 0
2400 6237 0
1600 6238 0
1800 6239 0
2400 6240 0
1600 6241 0
2400 6242 0
1800 6243 0
1800 6244 0
2400 6245 0
1800 6246 0
2400 6247 0
2500 6248 0
4400 6249 0
2500 6250 0
1800 6251 0
2400 6252 0
2500 6253 0
1600 6254 0
1600 6255 0
1600 6256 0
2400 6257 0
1800 6258 0
2400 6259 0
1800 6260 0
4400 6261 0
2400 6262 0
4400 6263 0
2400 6264 0
4400 6265 0
4400 6266 0
2400 6267 0
2500 6268 0
1600 6269 0
4400 6270 0
1600 6271 0
2400 6272 0
4400 6273 0
1600 6274 0
1600 6275 0
1800 6276 0
2500 6277 0
1600 6278 0
2400 6279 0
2400 6280 0
1800 6281 0
1600 6282 0
4400 6283 0
2400 6284 0
4400 6285 0
2400 6286 0
4400 6287 0
2500 6288 0
1600 6289 0
2500 6290 0
2500 6291 0
1600 6292 0
4400 6293 0
2500 6294 0
1600 6295 0
4400 6296 0
1600 6297 0
1600 6298 0
2500 6299 0
1600 6300 0
1600 6301 0
2400 6302 0
2500 6303 0
4400 6304 0
2500 6305 0
1600 6306 0
2400 6307 0
2400 6308 0
1800 6309 0
1800 6310 0
2400 6311 0
2500 6312 0
2500 6313 0
1600 6314 0
1800 6315 0
2400 6316 0
1600 6317 0
4400 6318 0
4400 6319 0
2500 6320 0
1600 6321 0
1600 6322 0
2400 6323 0
1600 6324 0
2400 6325 0
1800 6326 0
1600 6327 0
2500 6328 0
2500 6329 0
1600 6330 0
1800 6331 0
4400 6332 0
2500 6333 0
1800 6334 0
1600 6335 0
1800 6336 0
4400 6337 0
4400 6338 0
4400 6339 0
2400 6340 0
2500 6341 0
4400 6342 0
1800 6343 0
2500 6344 0
4400 6345 0
1800 6346 0
2500 6347 0
2500 6348 0
1600 6349 0
1800 6350 0
1600 6351 0
4400 6352 0
2500 6353 0
1800 6354 0
1800 6355 0
2400 6356 0
4400 6357 0
2500 6358 0
4400 6359 0
2400 6360 0
2400 6361 0
1800 6362 0
2400 6363 0
4400 6364 0
2500 6365 0
1600 6366 0
4400 6367 0
2400 6368 0
2400 6369 0
1800 6370 0
1800 6371 0
1800 6372 0
4400 6373 0
1600 6374 0
1800 6375 0
2500 6376 0
2500 6377 0
1800 6378 0
1800 6379 0
1600 6380 0
1600 6381 0
4400 6382 0
4400 6383 0
2500 6384 0
1600 6385 0
4400 6386 0
4400 6387 0
1800 6388 0
1600 6389 0
4400 6390 0
1800 6391 0
2500 6392 0
2400 6393 0
1600 6394 0
2500 6395 0
2500 6396 0
1600 6397 0
2400 6398 0
1800 6399 0
2500 6400 0
13195 -3004 0
7600 -2607 0
7220 -2619 0
13300 1630 1463 -2967 0
380 1630 -1463 2967 0
13414 1630 -1463 -2967 0
14250 -1630 1463 2967 0
17575 -1630 1463 -2967 0
14345 -1630 -1463 2967 0
17603 -1630 -1463 -2967 0
27885 1003 -3118 0
34320 -1003 3118 0
39897 -1003 -3118 0
14326 2520 1045 -3378 0
4524 2520 -1045 3378 0
17131 2520 -1045 -3378 0
35815 -2520 1045 3378 0
36531 -2520 1045 -3378 0
36041 -2520 -1045 3378 0
36672 -2520 -1045 -3378 0
8560 2000 3195 1798 1641 -2744 0
7490 2000 3195 1798 -1641 2744 0
10058 2000 3195 1798 -1641 -2744 0
3424 2000 3195 -1798 1641 2744 0
9245 2000 3195 -1798 1641 -2744 0
8517 2000 3195 -1798 -1641 2744 0
10263 2000 3195 -1798 -1641 -2744 0
2675 2000 -3195 1798 1641 2744 0
9095 2000 -3195 1798 1641 -2744 0
8292 2000 -3195 1798 -1641 2744 0
10219 2000 -3195 1798 -1641 -2744 0
5243 2000 -3195 -1798 1641 2744 0
9609 2000 -3195 -1798 1641 -2744 0
9063 2000 -3195 -1798 -1641 2744 0
10373 2000 -3195 -1798 -1641 -2744 0
8560 -2000 3195 1798 1641 2744 0
10272 -2000 3195 1798 1641 -2744 0
10058 -2000 3195 1798 -1641 2744 0
10572 -2000 3195 1798 -1641 -2744 0
9245 -2000 3195 -1798 1641 2744 0
10409 -2000 3195 -1798 1641 -2744 0
10263 -2000 3195 -1798 -1641 2744 0
10613 -2000 3195 -1798 -1641 -2744 0
9095 -2000 -3195 1798 1641 2744 0
10379 -2000 -3195 1798 1641 -2744 0
10219 -2000 -3195 1798 -1641 2744 0
10604 -2000 -3195 1798 -1641 -2744 0
9609 -2000 -3195 -1798 1641 2744 0
10482 -2000 -3195 -1798 1641 -2744 0
10373 -2000 -3195 -1798 -1641 2744 0
10635 -2000 -3195 -1798 -1641 -2744 0
1984 -1005 0
2675 -2461 0
930 3186 1880 2712 -2504 0
1116 3186 1880 -2712 2504 0
1879 3186 1880 -2712 -2504 0
2480 3186 -1880 2712 2504 0
3038 3186 -1880 2712 -2504 0
3150 3186 -1880 -2712 2504 0
3607 3186 -1880 -2712 -2504 0
5890 -3186 1880 2712 2504 0
5937 -3186 1880 2712 -2504 0
5946 -3186 1880 -2712 2504 0
5984 -3186 1880 -2712 -2504 0
6014 -3186 -1880 2712 2504 0
6042 -3186 -1880 2712 -2504 0
6047 -3186 -1880 -2712 2504 0
6070 -3186 -1880 -2712 -2504 0
5148 1934 -1519 0
23595 -1934 1519 0
25912 -1934 -1519 0
124 1675 1875 -2804 0
3410 1675 -1875 2804 0
3466 1675 -1875 -2804 0
2480 -1675 1875 2804 0
2554 -1675 1875 -2804 0
4526 -1675 -1875 2804 0
4559 -1675 -1875 -2804 0
3770 1128 1790 -1544 0
26390 1128 -1790 1544 0
27521 1128 -1790 -1544 0
32045 -1128 1790 1544 0
32611 -1128 1790 -1544 0
36003 -1128 -1790 1544 0
36173 -1128 -1790 -1544 0
3420 -2515 0
40755 1196 -2346 0
34320 -1196 2346 0
42471 -1196 -2346 0
744 1712 -2525 0
4030 -1712 2525 0
4290 -1712 -2525 0
3420 1064 1195 2741 3290 -1211 0
6080 1064 1195 2741 -3290 1211 0
8406 1064 1195 2741 -3290 -1211 0
7220 1064 1195 -2741 3290 1211 0
9340 1064 1195 -2741 3290 -1211 0
10990 1064 1195 -2741 -3290 1211 0
12431 1064 1195 -2741 -3290 -1211 0
18050 1064 -1195 2741 3290 1211 0
18221 1064 -1195 2741 3290 -1211 0
18354 1064 -1195 2741 -3290 1211 0
18470 1064 -1195 2741 -3290 -1211 0
18411 1064 -1195 -2741 3290 1211 0
18517 1064 -1195 -2741 3290 -1211 0
18599 1064 -1195 -2741 -3290 1211 0
18672 1064 -1195 -2741 -3290 -1211 0
7600 -1064 1195 2741 3290 1211 0
9652 -1064 1195 2741 3290 -1211 0
11248 -1064 1195 2741 -3290 1211 0
12643 -1064 1195 2741 -3290 -1211 0
11932 -1064 1195 -2741 3290 1211 0
13204 -1064 1195 -2741 3290 -1211 0
14194 -1064 1195 -2741 -3290 1211 0
15059 -1064 1195 -2741 -3290 -1211 0
18430 -1064 -1195 2741 3290 1211 0
18533 -1064 -1195 2741 3290 -1211 0
18612 -1064 -1195 2741 -3290 1211 0
18682 -1064 -1195 2741 -3290 -1211 0
18647 -1064 -1195 -2741 3290 1211 0
18710 -1064 -1195 -2741 3290 -1211 0
18760 -1064 -1195 -2741 -3290 1211 0
18803 -1064 -1195 -2741 -3290 -1211 0
2480 3028 1852 -3322 0
1240 3028 -1852 3322 0
3224 3028 -1852 -3322 0
3720 -3028 1852 3322 0
4712 -3028 1852 -3322 0
4216 -3028 -1852 3322 0
5010 -3028 -1852 -3322 0
3770 -1136 0
535 1747 -1764 0
4815 -1747 1764 0
5109 -1747 -1764 0
1885 -1247 0
1885 -3334 0
32175 1127 -3326 0
10725 -1127 3326 0
34856 -1127 -3326 0
930 1561 -2572 0
5890 -1561 2572 0
5937 -1561 -2572 0
4960 -1845 0
5580 1335 -3379 0
1860 -1335 3379 0
5766 -1335 -3379 0
26390 -3284 0
5350 2245 2048 -1785 0
1070 2245 -2048 1785 0
5885 2245 -2048 -1785 0
3210 -2245 2048 1785 0
6955 -2245 2048 -1785 0
3959 -2245 -2048 1785 0
7330 -2245 -2048 -1785 0
9095 -2067 0
16302 3071 -2835 0
7722 -3071 2835 0
21090 -3071 -2835 0
7600 -1201 0
1860 1987 2166 -1413 0
124 1987 -2166 1413 0
1947 1987 -2166 -1413 0
1860 -1987 2166 1413 0
3162 -1987 2166 -1413 0
1947 -1987 -2166 1413 0
3223 -1987 -2166 -1413 0
5655 1179 3244 2670 1106 -1479 0
4524 1179 3244 2670 -1106 1479 0
9500 1179 3244 2670 -1106 -1479 0
7540 1179 3244 -2670 1106 1479 0
12064 1179 3244 -2670 1106 -1479 0
11159 1179 3244 -2670 -1106 1479 0
15140 1179 3244 -2670 -1106 -1479 0
11310 1179 -3244 2670 1106 1479 0
15269 1179 -3244 2670 1106 -1479 0
14477 1179 -3244 2670 -1106 1479 0
17960 1179 -3244 2670 -1106 -1479 0
16588 1179 -3244 -2670 1106 1479 0
19755 1179 -3244 -2670 1106 -1479 0
19121 1179 -3244 -2670 -1106 1479 0
21908 1179 -3244 -2670 -1106 -1479 0
3770 -1179 3244 2670 1106 1479 0
8859 -1179 3244 2670 1106 -1479 0
7842 -1179 3244 2670 -1106 1479 0
12320 -1179 3244 2670 -1106 -1479 0
10556 -1179 3244 -2670 1106 1479 0
14628 -1179 3244 -2670 1106 -1479 0
13813 -1179 3244 -2670 -1106 1479 0
17396 -1179 3244 -2670 -1106 -1479 0
13949 -1179 -3244 2670 1106 1479 0
17512 -1179 -3244 2670 1106 -1479 0
16799 -1179 -3244 2670 -1106 1479 0
19934 -1179 -3244 2670 -1106 -1479 0
18699 -1179 -3244 -2670 1106 1479 0
21549 -1179 -3244 -2670 1106 -1479 0
20979 -1179 -3244 -2670 -1106 1479 0
23487 -1179 -3244 -2670 -1106 -1479 0
1885 -2630 0
4290 2421 2391 2815 1882 -2883 0
17160 2421 2391 2815 -1882 2883 0
19734 2421 2391 2815 -1882 -2883 0
8580 2421 2391 -2815 1882 2883 0
12012 2421 2391 -2815 1882 -2883 0
22308 2421 2391 -2815 -1882 2883 0
24367 2421 2391 -2815 -1882 -2883 0
4290 2421 -2391 2815 1882 2883 0
8151 2421 -2391 2815 1882 -2883 0
19734 2421 -2391 2815 -1882 2883 0
22051 2421 -2391 2815 -1882 -2883 0
12012 2421 -2391 -2815 1882 2883 0
15101 2421 -2391 -2815 1882 -2883 0
24367 2421 -2391 -2815 -1882 2883 0
26220 2421 -2391 -2815 -1882 -2883 0
15015 -2421 2391 2815 1882 2883 0
17803 -2421 2391 2815 1882 -2883 0
26169 -2421 2391 2815 -1882 2883 0
27842 -2421 2391 2815 -1882 -2883 0
20592 -2421 2391 -2815 1882 2883 0
22823 -2421 2391 -2815 1882 -2883 0
29515 -2421 2391 -2815 -1882 2883 0
30854 -2421 2391 -2815 -1882 -2883 0
17803 -2421 -2391 2815 1882 2883 0
20313 -2421 -2391 2815 1882 -2883 0
27842 -2421 -2391 2815 -1882 2883 0
29348 -2421 -2391 2815 -1882 -2883 0
22823 -2421 -2391 -2815 1882 2883 0
24831 -2421 -2391 -2815 1882 -2883 0
30854 -2421 -2391 -2815 -1882 2883 0
32058 -2421 -2391 -2815 -1882 -2883 0
2675 -1957 0
7600 -2597 0
3410 1654 1768 -1307 0
4960 1654 -1768 1307 0
5642 1654 -1768 -1307 0
1116 -1654 1768 1307 0
3912 -1654 1768 -1307 0
5183 -1654 -1768 1307 0
5742 -1654 -1768 -1307 0
38610 1162 1186 -2645 0
2145 1162 -1186 2645 0
38825 1162 -1186 -2645 0
25740 -1162 1186 2645 0
41184 -1162 1186 -2645 0
26598 -1162 -1186 2645 0
41270 -1162 -1186 -2645 0
5148 -1801 0
4815 2122 3153 -1163 0
3424 2122 -3153 1163 0
6698 2122 -3153 -1163 0
2675 -2122 3153 1163 0
6286 -2122 3153 -1163 0
5243 -2122 -3153 1163 0
7699 -2122 -3153 -1163 0
6650 -1818 0
7600 -1100 0
17100 1809 -1092 0
11400 -1809 1092 0
18240 -1809 -1092 0
6955 1401 -2595 0
1605 -1401 2595 0
7517 -1401 -2595 0
8560 1368 -1194 0
3424 -1368 1194 0
9245 -1368 -1194 0
1885 1489 1545 -3142 0
12064 1489 -1545 3142 0
13346 1489 -1545 -3142 0
14326 -1489 1545 3142 0
15495 -1489 1545 -3142 0
21806 -1489 -1545 3142 0
22600 -1489 -1545 -3142 0
20735 -1948 0
3424 1569 1191 2216 1938 -1303 0
6955 1569 1191 2216 -1938 1303 0
8153 1569 1191 2216 -1938 -1303 0
8560 1569 1191 -2216 1938 1303 0
9245 1569 1191 -2216 1938 -1303 0
9951 1569 1191 -2216 -1938 1303 0
10191 1569 1191 -2216 -1938 -1303 0
4815 1569 -1191 2216 1938 1303 0
6698 1569 -1191 2216 1938 -1303 0
8640 1569 -1191 2216 -1938 1303 0
9299 1569 -1191 2216 -1938 -1303 0
9523 1569 -1191 -2216 1938 1303 0
9900 1569 -1191 -2216 1938 -1303 0
10288 1569 -1191 -2216 -1938 1303 0
10420 1569 -1191 -2216 -1938 -1303 0
8025 -1569 1191 2216 1938 1303 0
8881 -1569 1191 2216 1938 -1303 0
9764 -1569 1191 2216 -1938 1303 0
10063 -1569 1191 2216 -1938 -1303 0
10165 -1569 1191 -2216 1938 1303 0
10336 -1569 1191 -2216 1938 -1303 0
10513 -1569 1191 -2216 -1938 1303 0
10573 -1569 1191 -2216 -1938 -1303 0
9229 -1569 -1191 2216 1938 1303 0
9700 -1569 -1191 2216 1938 -1303 0
10185 -1569 -1191 2216 -1938 1303 0
10350 -1569 -1191 2216 -1938 -1303 0
10406 -1569 -1191 -2216 1938 1303 0
10500 -1569 -1191 -2216 1938 -1303 0
10597 -1569 -1191 -2216 -1938 1303 0
10630 -1569 -1191 -2216 -1938 -1303 0
23595 2451 1559 -3016 0
4290 2451 -1559 3016 0
25525 2451 -1559 -3016 0
6435 -2451 1559 3016 0
26491 -2451 1559 -3016 0
10081 -2451 -1559 3016 0
28132 -2451 -1559 -3016 0
13728 -2992 0
17160 3147 -1069 0
36465 -3147 1069 0
39039 -3147 -1069 0
5700 2784 2262 -1375 0
12350 2784 -2262 1375 0
14345 2784 -2262 -1375 0
950 -2784 2262 1375 0
6365 -2784 2262 -1375 0
12683 -2784 -2262 1375 0
14578 -2784 -2262 -1375 0
32045 2027 -3355 0
11310 -2027 3355 0
33742 -2027 -3355 0
24505 -1581 0
12350 -2486 0
744 3386 1265 -2845 0
1550 3386 -1265 2845 0
2108 3386 -1265 -2845 0
1240 -3386 1265 2845 0
1835 -3386 1265 -2845 0
2480 -3386 -1265 2845 0
2926 -3386 -1265 -2845 0
23595 2208 -1427 0
8580 -2208 1427 0
27456 -2208 -1427 0
18850 1954 3126 -1610 0
20735 1954 -3126 1610 0
29218 1954 -3126 -1610 0
12064 -1954 3126 1610 0
24882 -1954 3126 -1610 0
26164 -1954 -3126 1610 0
31932 -1954 -3126 -1610 0
3410 2211 3328 -3053 0
4650 2211 -3328 3053 0
5502 2211 -3328 -3053 0
3720 -2211 3328 3053 0
5084 -2211 3328 -3053 0
5580 -2211 -3328 3053 0
5921 -2211 -3328 -3053 0
1605 2193 1829 -2316 0
1926 2193 -1829 2316 0
3242 2193 -1829 -2316 0
2675 -2193 1829 2316 0
3879 -2193 1829 -2316 0
4120 -2193 -1829 2316 0
5107 -2193 -1829 -2316 0
18850 2872 2942 -1721 0
754 2872 -2942 1721 0
19227 2872 -2942 -1721 0
18850 -2872 2942 1721 0
28275 -2872 2942 -1721 0
19227 -2872 -2942 1721 0
28463 -2872 -2942 -1721 0
1116 1705 -1423 0
1860 -1705 1423 0
2641 -1705 -1423 0
11400 1713 3357 2286 -1560 0
950 1713 3357 -2286 1560 0
11780 1713 3357 -2286 -1560 0
5700 1713 -3357 2286 1560 0
13680 1713 -3357 2286 -1560 0
6365 1713 -3357 -2286 1560 0
13946 1713 -3357 -2286 -1560 0
3420 -1713 3357 2286 1560 0
12768 -1713 3357 2286 -1560 0
4199 -1713 3357 -2286 1560 0
13080 -1713 3357 -2286 -1560 0
8094 -1713 -3357 2286 1560 0
14638 -1713 -3357 2286 -1560 0
8639 -1713 -3357 -2286 1560 0
14856 -1713 -3357 -2286 -1560 0
6955 -2198 0
3424 1982 -3095 0
8560 -1982 3095 0
9245 -1982 -3095 0
14250 3021 -1571 0
3420 -3021 1571 0
15105 -3021 -1571 0
6080 -3289 0
13195 1436 2398 -2675 0
26390 1436 -2398 2675 0
30348 1436 -2398 -2675 0
1885 -1436 2398 2675 0
14420 -1436 2398 -2675 0
26956 -1436 -2398 2675 0
30716 -1436 -2398 -2675 0
930 1153 -2531 0
5580 -1153 2531 0
5673 -1153 -2531 0
5270 2511 -2161 0
310 -2511 2161 0
5316 -2511 -2161 0
6420 1129 -2325 0
8025 -1129 2325 0
9630 -1129 -2325 0
9425 -2348 0
2145 1425 -2294 0
40755 -1425 2294 0
40862 -1425 -2294 0
950 3057 3116 -1292 0
16150 3057 -3116 1292 0
16292 3057 -3116 -1292 0
10450 -3057 3116 1292 0
10878 -3057 3116 -1292 0
17718 -3057 -3116 1292 0
17782 -3057 -3116 -1292 0
2140 -2100 0
2280 2709 -1797 0
4750 -2709 1797 0
6460 -2709 -1797 0
7600 3383 1138 -1256 0
2280 3383 -1138 1256 0
8968 3383 -1138 -1256 0
950 -3383 1138 1256 0
8170 -3383 1138 -1256 0
3116 -3383 -1138 1256 0
9470 -3383 -1138 -1256 0
15015 1556 -1298 0
6435 -1556 1298 0
19198 -1556 -1298 0
2850 2610 2717 -1215 0
6080 2610 -2717 1215 0
8018 2610 -2717 -1215 0
380 -2610 2717 1215 0
3173 -2610 2717 -1215 0
6338 -2610 -2717 1215 0
8238 -2610 -2717 -1215 0
4280 2569 1503 2454 2378 -2051 0
6420 2569 1503 2454 -2378 2051 0
8132 2569 1503 2454 -2378 -2051 0
1070 2569 1503 -2454 2378 2051 0
4922 2569 1503 -2454 2378 -2051 0
6848 2569 1503 -2454 -2378 2051 0
8389 2569 1503 -2454 -2378 -2051 0
4280 2569 -1503 2454 2378 2051 0
6848 2569 -1503 2454 2378 -2051 0
8132 2569 -1503 2454 -2378 2051 0
9159 2569 -1503 2454 -2378 -2051 0
4922 2569 -1503 -2454 2378 2051 0
7233 2569 -1503 -2454 2378 -2051 0
8389 2569 -1503 -2454 -2378 2051 0
9313 2569 -1503 -2454 -2378 -2051 0
3210 -2569 1503 2454 2378 2051 0
6206 -2569 1503 2454 2378 -2051 0
7704 -2569 1503 2454 -2378 2051 0
8902 -2569 1503 2454 -2378 -2051 0
3959 -2569 1503 -2454 2378 2051 0
6655 -2569 1503 -2454 2378 -2051 0
8004 -2569 1503 -2454 -2378 2051 0
9082 -2569 1503 -2454 -2378 -2051 0
6206 -2569 -1503 2454 2378 2051 0
8004 -2569 -1503 2454 2378 -2051 0
8902 -2569 -1503 2454 -2378 2051 0
9621 -2569 -1503 2454 -2378 -2051 0
6655 -2569 -1503 -2454 2378 2051 0
8273 -2569 -1503 -2454 2378 -2051 0
9082 -2569 -1503 -2454 -2378 2051 0
9729 -2569 -1503 -2454 -2378 -2051 0
13728 1002 -2785 0
23595 -1002 2785 0
29773 -1002 -2785 0
4030 2917 2615 -1167 0
1860 2917 -2615 1167 0
4681 2917 -2615 -1167 0
1240 -2917 2615 1167 0
4464 -2917 2615 -1167 0
2728 -2917 -2615 1167 0
4985 -2917 -2615 -1167 0
1900 3317 1438 -2473 0
8550 3317 -1438 2473 0
9595 3317 -1438 -2473 0
2280 -3317 1438 2473 0
3952 -3317 1438 -2473 0
9804 -3317 -1438 2473 0
10724 -3317 -1438 -2473 0
535 -2529 0
930 2512 -1935 0
5270 -2512 1935 0
5410 -2512 -1935 0
7600 -2453 0
3745 2154 -2737 0
3745 -2154 2737 0
6179 -2154 -2737 0
14326 1940 -1707 0
30160 -1940 1707 0
33025 -1940 -1707 0
3770 1419 2988 -1738 0
11310 1419 -2988 1738 0
13949 1419 -2988 -1738 0
18850 -1419 2988 1738 0
20735 -1419 2988 -1738 0
24505 -1419 -2988 1738 0
25825 -1419 -2988 -1738 0
30160 3129 -2365 0
11310 -3129 2365 0
32422 -3129 -2365 0
620 2011 1046 1404 1233 -3066 0
1860 2011 1046 1404 -1233 3066 0
2294 2011 1046 1404 -1233 -3066 0
1550 2011 1046 -1404 1233 3066 0
2015 2011 1046 -1404 1233 -3066 0
2945 2011 1046 -1404 -1233 3066 0
3271 2011 1046 -1404 -1233 -3066 0
2170 2011 -1046 1404 1233 3066 0
2573 2011 -1046 1404 1233 -3066 0
3379 2011 -1046 1404 -1233 3066 0
3661 2011 -1046 1404 -1233 -3066 0
3177 2011 -1046 -1404 1233 3066 0
3480 2011 -1046 -1404 1233 -3066 0
4084 2011 -1046 -1404 -1233 3066 0
4296 2011 -1046 -1404 -1233 -3066 0
1860 -2011 1046 1404 1233 3066 0
2294 -2011 1046 1404 1233 -3066 0
3162 -2011 1046 1404 -1233 3066 0
3466 -2011 1046 1404 -1233 -3066 0
2945 -2011 1046 -1404 1233 3066 0
3271 -2011 1046 -1404 1233 -3066 0
3922 -2011 1046 -1404 -1233 3066 0
4149 -2011 1046 -1404 -1233 -3066 0
3379 -2011 -1046 1404 1233 3066 0
3661 -2011 -1046 1404 1233 -3066 0
4225 -2011 -1046 1404 -1233 3066 0
4423 -2011 -1046 1404 -1233 -3066 0
4084 -2011 -1046 -1404 1233 3066 0
4296 -2011 -1046 -1404 1233 -3066 0
4719 -2011 -1046 -1404 -1233 3066 0
4867 -2011 -1046 -1404 -1233 -3066 0
9630 2979 -2716 0
4280 -2979 2716 0
10058 -2979 -2716 0
6080 3212 -1469 0
1900 -3212 1469 0
7372 -3212 -1469 0
6955 2242 2834 -2818 0
535 2242 -2834 2818 0
7142 2242 -2834 -2818 0
7490 -2242 2834 2818 0
9577 -2242 2834 -2818 0
7650 -2242 -2834 2818 0
9633 -2242 -2834 -2818 0
38610 -3344 0
16965 1632 2510 -2255 0
22620 1632 -2510 2255 0
29406 1632 -2510 -2255 0
15080 -1632 2510 2255 0
25259 -1632 2510 -2255 0
28652 -1632 -2510 2255 0
32724 -1632 -2510 -2255 0
744 3396 -2320 0
4340 -3396 2320 0
4563 -3396 -2320 0
4290 2647 2611 1688 -1724 0
32175 2647 2611 -1688 1724 0
33248 2647 2611 -1688 -1724 0
15015 2647 -2611 1688 1724 0
17803 2647 -2611 1688 -1724 0
35929 2647 -2611 -1688 1724 0
36626 2647 -2611 -1688 -1724 0
16302 -2647 2611 1688 1724 0
18962 -2647 2611 1688 -1724 0
36250 -2647 2611 -1688 1724 0
36915 -2647 2611 -1688 -1724 0
25611 -2647 -2611 1688 1724 0
27340 -2647 -2611 1688 -1724 0
38578 -2647 -2611 -1688 1724 0
39010 -2647 -2611 -1688 -1724 0
32045 -2345 0
35815 1139 -1344 0
1885 -1139 1344 0
35909 -1139 -1344 0
744 -2955 0
32045 2974 1564 -1101 0
4524 2974 -1564 1101 0
32724 2974 -1564 -1101 0
5655 -2974 1564 1101 0
32893 -2974 1564 -1101 0
9500 -2974 -1564 1101 0
33470 -2974 -1564 -1101 0
2140 2448 1660 2989 -2429 0
4066 2448 1660 -2989 2429 0
5393 2448 1660 -2989 -2429 0
1070 2448 -1660 2989 2429 0
2996 2448 -1660 2989 -2429 0
4729 2448 -1660 -2989 2429 0
5924 2448 -1660 -2989 -2429 0
7490 -2448 1660 2989 2429 0
8132 -2448 1660 2989 -2429 0
8710 -2448 1660 -2989 2429 0
9108 -2448 1660 -2989 -2429 0
7811 -2448 -1660 2989 2429 0
8389 -2448 -1660 2989 -2429 0
8909 -2448 -1660 -2989 2429 0
9267 -2448 -1660 -2989 -2429 0
9095 1241 -2022 0
214 -1241 2022 0
9127 -1241 -2022 0
930 -3345 0
18850 -1577 0
9500 1919 -2065 0
17100 -1919 2065 0
18050 -1919 -2065 0
10450 2954 -2995 0
13300 -2954 2995 0
16435 -2954 -2995 0
3770 1074 3017 1732 -2107 0
11310 1074 3017 -1732 2107 0
13949 1074 3017 -1732 -2107 0
22620 1074 -3017 1732 2107 0
24128 1074 -3017 1732 -2107 0
27144 1074 -3017 -1732 2107 0
28200 1074 -3017 -1732 -2107 0
20735 -1074 3017 1732 2107 0
22431 -1074 3017 1732 -2107 0
25825 -1074 3017 -1732 2107 0
27012 -1074 3017 -1732 -2107 0
30914 -1074 -3017 1732 2107 0
31593 -1074 -3017 1732 -2107 0
32950 -1074 -3017 -1732 2107 0
33425 -1074 -3017 -1732 -2107 0
2140 -1353 0
38610 2292 1448 -2204 0
21450 2292 -1448 2204 0
40755 2292 -1448 -2204 0
32175 -2292 1448 2204 0
41827 -2292 1448 -2204 0
37538 -2292 -1448 2204 0
42364 -2292 -1448 -2204 0
19305 2553 2374 2032 1207 -3257 0
6435 2553 2374 2032 -1207 3257 0
22844 2553 2374 2032 -1207 -3257 0
10725 2553 2374 -2032 1207 3257 0
25204 2553 2374 -2032 1207 -3257 0
15551 2553 2374 -2032 -1207 3257 0
27858 2553 2374 -2032 -1207 -3257 0
4290 2553 -2374 2032 1207 3257 0
21664 2553 -2374 2032 1207 -3257 0
10081 2553 -2374 2032 -1207 3257 0
24850 2553 -2374 2032 -1207 -3257 0
13942 2553 -2374 -2032 1207 3257 0
26973 2553 -2374 -2032 1207 -3257 0
18286 2553 -2374 -2032 -1207 3257 0
29362 2553 -2374 -2032 -1207 -3257 0
21450 -2553 2374 2032 1207 3257 0
31102 -2553 2374 2032 1207 -3257 0
24667 -2553 2374 2032 -1207 3257 0
32872 -2553 2374 2032 -1207 -3257 0
26812 -2553 2374 -2032 1207 3257 0
34052 -2553 2374 -2032 1207 -3257 0
29226 -2553 2374 -2032 -1207 3257 0
35379 -2553 2374 -2032 -1207 -3257 0
23595 -2553 -2374 2032 1207 3257 0
32282 -2553 -2374 2032 1207 -3257 0
26491 -2553 -2374 2032 -1207 3257 0
33875 -2553 -2374 2032 -1207 -3257 0
28421 -2553 -2374 -2032 1207 3257 0
34937 -2553 -2374 -2032 1207 -3257 0
30593 -2553 -2374 -2032 -1207 3257 0
36131 -2553 -2374 -2032 -1207 -3257 0
8560 -2778 0
4290 3248 -2860 0
7722 -3248 2860 0
11240 -3248 -2860 0
15015 1300 1645 1518 -2078 0
30030 1300 1645 -1518 2078 0
34534 1300 1645 -1518 -2078 0
17160 1300 -1645 1518 2078 0
26169 1300 -1645 1518 -2078 0
35178 1300 -1645 -1518 2078 0
37881 1300 -1645 -1518 -2078 0
19305 -1300 1645 1518 2078 0
27563 -1300 1645 1518 -2078 0
35821 -1300 1645 -1518 2078 0
38299 -1300 1645 -1518 -2078 0
28743 -1300 -1645 1518 2078 0
33698 -1300 -1645 1518 -2078 0
38653 -1300 -1645 -1518 2078 0
40139 -1300 -1645 -1518 -2078 0
18050 -2364 0
4290 1263 -2549 0
25740 -1263 2549 0
27456 -1263 -2549 0
1240 -1870 0
18850 3359 -2941 0
28275 -3359 2941 0
32988 -3359 -2941 0
3420 2230 1491 1216 -1536 0
18050 2230 1491 -1216 1536 0
18221 2230 1491 -1216 -1536 0
9500 2230 -1491 1216 1536 0
11210 2230 -1491 1216 -1536 0
18525 2230 -1491 -1216 1536 0
18611 2230 -1491 -1216 -1536 0
6650 -2230 1491 1216 1536 0
8873 -2230 1491 1216 -1536 0
18383 -2230 1491 -1216 1536 0
18494 -2230 1491 -1216 -1536 0
12825 -2230 -1491 1216 1536 0
13937 -2230 -1491 1216 -1536 0
18691 -2230 -1491 -1216 1536 0
18747 -2230 -1491 -1216 -1536 0
4340 1598 1050 -2165 0
4960 1598 -1050 2165 0
5828 1598 -1050 -2165 0
2480 -1598 1050 2165 0
5084 -1598 1050 -2165 0
5456 -1598 -1050 2165 0
5977 -1598 -1050 -2165 0
14250 1656 1937 -3373 0
7600 1656 -1937 3373 0
16150 1656 -1937 -3373 0
5700 -1656 1937 3373 0
15675 -1656 1937 -3373 0
11020 -1656 -1937 3373 0
17005 -1656 -1937 -3373 0
5700 1222 1131 1030 -3099 0
13300 1222 1131 -1030 3099 0
15010 1222 1131 -1030 -3099 0
11400 1222 -1131 1030 3099 0
13680 1222 -1131 1030 -3099 0
16720 1222 -1131 -1030 3099 0
17404 1222 -1131 -1030 -3099 0
16150 -1222 1131 1030 3099 0
17005 -1222 1131 1030 -3099 0
18145 -1222 1131 -1030 3099 0
18402 -1222 1131 -1030 -3099 0
17860 -1222 -1131 1030 3099 0
18202 -1222 -1131 1030 -3099 0
18658 -1222 -1131 -1030 3099 0
18761 -1222 -1131 -1030 -3099 0
2850 1927 1357 -1672 0
18050 1927 -1357 1672 0
18193 1927 -1357 -1672 0
3420 -1927 1357 1672 0
5757 -1927 1357 -1672 0
18221 -1927 -1357 1672 0
18338 -1927 -1357 -1672 0
9630 -2756 0
18850 3204 -1871 0
18850 -3204 1871 0
28275 -3204 -1871 0
3210 2880 -1596 0
9630 -2880 1596 0
9951 -2880 -1596 0
3420 -3316 0
18050 -1994 0
24505 2822 -1212 0
11310 -2822 1212 0
28463 -2822 -1212 0
6080 -3351 0
3410 -1916 0
5350 -2518 0
310 -1528 0
12870 2984 -1082 0
10725 -2984 1082 0
20378 -2984 -1082 0
5270 3038 2205 -1204 0
124 3038 -2205 1204 0
5289 3038 -2205 -1204 0
310 -3038 2205 1204 0
5316 -3038 2205 -1204 0
428 -3038 -2205 1204 0
5334 -3038 -2205 -1204 0
14326 3302 3107 -1485 0
12064 3302 -3107 1485 0
21806 3302 -3107 -1485 0
14326 -3302 3107 1485 0
23208 -3302 3107 -1485 0
21806 -3302 -3107 1485 0
27846 -3302 -3107 -1485 0
2850 1004 1591 -2162 0
6080 1004 -1591 2162 0
8018 1004 -1591 -2162 0
3800 -1004 1591 2162 0
6080 -1004 1591 -2162 0
8664 -1004 -1591 2162 0
10214 -1004 -1591 -2162 0
7540 -2173 0
6955 1811 3180 1360 -2236 0
9630 1811 3180 -1360 2236 0
10325 1811 3180 -1360 -2236 0
3424 1811 -3180 1360 2236 0
8153 1811 -3180 1360 -2236 0
9972 1811 -3180 -1360 2236 0
10445 1811 -3180 -1360 -2236 0
4066 -1811 3180 1360 2236 0
8378 -1811 3180 1360 -2236 0
10037 -1811 3180 -1360 2236 0
10468 -1811 3180 -1360 -2236 0
6189 -1811 -3180 1360 2236 0
9121 -1811 -3180 1360 -2236 0
10249 -1811 -3180 -1360 2236 0
10542 -1811 -3180 -1360 -2236 0
3745 2274 2787 -1268 0
3745 2274 -2787 1268 0
6179 2274 -2787 -1268 0
4280 -2274 2787 1268 0
6527 -2274 2787 -1268 0
6527 -2274 -2787 1268 0
7988 -2274 -2787 -1268 0
24505 -1037 0
5890 3184 1726 1926 3332 -2213 0
4960 3184 1726 1926 -3332 2213 0
6138 3184 1726 1926 -3332 -2213 0
930 3184 1726 -1926 3332 2213 0
5937 3184 1726 -1926 3332 -2213 0
5146 3184 1726 -1926 -3332 2213 0
6147 3184 1726 -1926 -3332 -2213 0
5270 3184 -1726 1926 3332 2213 0
6153 3184 -1726 1926 3332 -2213 0
6014 3184 -1726 1926 -3332 2213 0
6191 3184 -1726 1926 -3332 -2213 0
5410 3184 -1726 -1926 3332 2213 0
6160 3184 -1726 -1926 3332 -2213 0
6042 3184 -1726 -1926 -3332 2213 0
6192 3184 -1726 -1926 -3332 -2213 0
5890 -3184 1726 1926 3332 2213 0
6184 -3184 1726 1926 3332 -2213 0
6138 -3184 1726 1926 -3332 2213 0
6197 -3184 1726 1926 -3332 -2213 0
5937 -3184 1726 -1926 3332 2213 0
6187 -3184 1726 -1926 3332 -2213 0
6147 -3184 1726 -1926 -3332 2213 0
6197 -3184 1726 -1926 -3332 -2213 0
6153 -3184 -1726 1926 3332 2213 0
6198 -3184 -1726 1926 3332 -2213 0
6191 -3184 -1726 1926 -3332 2213 0
6200 -3184 -1726 1926 -3332 -2213 0
6160 -3184 -1726 -1926 3332 2213 0
6198 -3184 -1726 -1926 3332 -2213 0
6192 -3184 -1726 -1926 -3332 2213 0
6200 -3184 -1726 -1926 -3332 -2213 0
4290 -2542 0
1240 2085 1119 -1720 0
2356 2085 -1119 1720 0
3125 2085 -1119 -1720 0
3410 -2085 1119 1720 0
3968 -2085 1119 -1720 0
4470 -2085 -1119 1720 0
4816 -2085 -1119 -1720 0
18050 1930 2846 -2064 0
380 1930 -2846 2064 0
18069 1930 -2846 -2064 0
14250 -1930 2846 2064 0
18762 -1930 2846 -2064 0
14345 -1930 -2846 2064 0
18767 -1930 -2846 -2064 0
380 1727 1285 2001 -2596 0
8550 1727 1285 -2001 2596 0
8759 1727 1285 -2001 -2596 0
18050 1727 -1285 2001 2596 0
18069 1727 -1285 2001 -2596 0
18477 1727 -1285 -2001 2596 0
18488 1727 -1285 -2001 -2596 0
10450 -1727 1285 2001 2596 0
10621 -1727 1285 2001 -2596 0
14297 -1727 1285 -2001 2596 0
14392 -1727 1285 -2001 -2596 0
18572 -1727 -1285 2001 2596 0
18581 -1727 -1285 2001 -2596 0
18765 -1727 -1285 -2001 2596 0
18770 -1727 -1285 -2001 -2596 0
5655 -1113 0
9095 2806 1230 2413 1751 -1095 0
9630 2806 1230 2413 -1751 1095 0
10539 2806 1230 2413 -1751 -1095 0
4815 2806 1230 -2413 1751 1095 0
9817 2806 1230 -2413 1751 -1095 0
10112 2806 1230 -2413 -1751 1095 0
10612 2806 1230 -2413 -1751 -1095 0
5350 2806 -1230 2413 1751 1095 0
9898 2806 -1230 2413 1751 -1095 0
10165 2806 -1230 2413 -1751 1095 0
10620 2806 -1230 2413 -1751 -1095 0
7758 2806 -1230 -2413 1751 1095 0
10259 2806 -1230 -2413 1751 -1095 0
10406 2806 -1230 -2413 -1751 1095 0
10656 2806 -1230 -2413 -1751 -1095 0
8560 -2806 1230 2413 1751 1095 0
10379 -2806 1230 2413 1751 -1095 0
10486 -2806 1230 2413 -1751 1095 0
10668 -2806 1230 2413 -1751 -1095 0
9523 -2806 1230 -2413 1751 1095 0
10523 -2806 1230 -2413 1751 -1095 0
10582 -2806 1230 -2413 -1751 1095 0
10682 -2806 1230 -2413 -1751 -1095 0
9630 -2806 -1230 2413 1751 1095 0
10539 -2806 -1230 2413 1751 -1095 0
10593 -2806 -1230 2413 -1751 1095 0
10684 -2806 -1230 2413 -1751 -1095 0
10112 -2806 -1230 -2413 1751 1095 0
10612 -2806 -1230 -2413 1751 -1095 0
10641 -2806 -1230 -2413 -1751 1095 0
10691 -2806 -1230 -2413 -1751 -1095 0
3770 -3250 0
8560 1308 3245 -2452 0
2140 1308 -3245 2452 0
8988 1308 -3245 -2452 0
2675 -1308 3245 2452 0
9095 -1308 3245 -2452 0
4280 -1308 -3245 2452 0
9416 -1308 -3245 -2452 0
380 2943 2771 2097 1481 -1857 0
3800 2943 2771 2097 -1481 1857 0
4104 2943 2771 2097 -1481 -1857 0
9500 2943 2771 -2097 1481 1857 0
9690 2943 2771 -2097 1481 -1857 0
11400 2943 2771 -2097 -1481 1857 0
11552 2943 2771 -2097 -1481 -1857 0
7600 2943 -2771 2097 1481 1857 0
7828 2943 -2771 2097 1481 -1857 0
9880 2943 -2771 2097 -1481 1857 0
10062 2943 -2771 2097 -1481 -1857 0
13300 2943 -2771 -2097 1481 1857 0
13414 2943 -2771 -2097 1481 -1857 0
14440 2943 -2771 -2097 -1481 1857 0
14531 2943 -2771 -2097 -1481 -1857 0
17100 -2943 2771 2097 1481 1857 0
17138 -2943 2771 2097 1481 -1857 0
17480 -2943 2771 2097 -1481 1857 0
17510 -2943 2771 2097 -1481 -1857 0
18050 -2943 2771 -2097 1481 1857 0
18069 -2943 2771 -2097 1481 -1857 0
18240 -2943 2771 -2097 -1481 1857 0
18255 -2943 2771 -2097 -1481 -1857 0
17860 -2943 -2771 2097 1481 1857 0
17883 -2943 -2771 2097 1481 -1857 0
18088 -2943 -2771 2097 -1481 1857 0
18106 -2943 -2771 2097 -1481 -1857 0
18430 -2943 -2771 -2097 1481 1857 0
18441 -2943 -2771 -2097 1481 -1857 0
18544 -2943 -2771 -2097 -1481 1857 0
18553 -2943 -2771 -2097 -1481 -1857 0
3410 1667 3206 -2700 0
3410 1667 -3206 2700 0
4945 1667 -3206 -2700 0
4650 -1667 3206 2700 0
5502 -1667 3206 -2700 0
5502 -1667 -3206 2700 0
5886 -1667 -3206 -2700 0
2790 2605 -3337 0
3720 -2605 3337 0
4836 -2605 -3337 0
1984 2308 -1108 0
3410 -2308 1108 0
4303 -2308 -1108 0
30160 2812 3058 -1107 0
26390 2812 -3058 1107 0
35438 2812 -3058 -1107 0
4524 -2812 3058 1107 0
31065 -2812 3058 -1107 0
27747 -2812 -3058 1107 0
35709 -2812 -3058 -1107 0
5148 -2958 0
3770 1075 -2182 0
13195 -1075 2182 0
15645 -1075 -2182 0
3210 -2586 0
620 2980 2788 2944 -2838 0
4650 2980 2788 -2944 2838 0
4805 2980 2788 -2944 -2838 0
1860 2980 -2788 2944 2838 0
2294 2980 -2788 2944 -2838 0
5115 2980 -2788 -2944 2838 0
5223 2980 -2788 -2944 -2838 0
310 -2980 2788 2944 2838 0
899 -2980 2788 2944 -2838 0
4727 -2980 2788 -2944 2838 0
4875 -2980 2788 -2944 -2838 0
2077 -2980 -2788 2944 2838 0
2489 -2980 -2788 2944 -2838 0
5169 -2980 -2788 -2944 2838 0
5272 -2980 -2788 -2944 -2838 0
30030 1782 -2233 0
38610 -1782 2233 0
41613 -1782 -2233 0
5148 1874 -2775 0
36465 -1874 2775 0
37237 -1874 -2775 0
9425 3166 -1776 0
33930 -3166 1776 0
34873 -3166 -1776 0
9630 -2257 0
5580 -3387 0
1284 1283 -1902 0
6955 -1283 1902 0
7404 -1283 -1902 0
20735 -1418 0
15080 1959 -2903 0
12064 -1959 2903 0
22318 -1959 -2903 0
10165 2539 -3312 0
7490 -2539 3312 0
10539 -2539 -3312 0
754 2174 -1824 0
30160 -2174 1824 0
30311 -2174 -1824 0
11400 -1432 0
23595 2317 -2852 0
40755 -2317 2852 0
41935 -2317 -2852 0
3424 1744 -2156 0
6955 -1744 2156 0
8153 -1744 -2156 0
3424 2616 3155 -1673 0
4815 2616 -3155 1673 0
6698 2616 -3155 -1673 0
535 -2616 3155 1673 0
3788 -2616 3155 -1673 0
5109 -2616 -3155 1673 0
6898 -2616 -3155 -1673 0
3424 1250 3269 -1496 0
2140 1250 -3269 1496 0
4879 1250 -3269 -1496 0
9095 -1250 3269 1496 0
9609 -1250 3269 -1496 0
9416 -1250 -3269 1496 0
9827 -1250 -3269 -1496 0
12064 2314 2392 1274 -2693 0
12064 2314 2392 -1274 2693 0
20268 2314 2392 -1274 -2693 0
24505 2314 -2392 1274 2693 0
28727 2314 -2392 1274 -2693 0
28727 2314 -2392 -1274 2693 0
31599 2314 -2392 -1274 -2693 0
6786 -2314 2392 1274 2693 0
16678 -2314 2392 1274 -2693 0
16678 -2314 2392 -1274 2693 0
23405 -2314 2392 -1274 -2693 0
26880 -2314 -2392 1274 2693 0
30342 -2314 -2392 1274 -2693 0
30342 -2314 -2392 -1274 2693 0
32697 -2314 -2392 -1274 -2693 0
1984 3189 -1104 0
5270 -3189 1104 0
5568 -3189 -1104 0
10725 -1480 0
1284 1628 2782 1369 -1823 0
4280 1628 2782 -1369 1823 0
5050 1628 2782 -1369 -1823 0
5350 1628 -2782 1369 1823 0
5992 1628 -2782 1369 -1823 0
7490 1628 -2782 -1369 1823 0
7875 1628 -2782 -1369 -1823 0
1070 -1628 2782 1369 1823 0
2226 -1628 2782 1369 -1823 0
4922 -1628 2782 -1369 1823 0
5615 -1628 2782 -1369 -1823 0
5885 -1628 -2782 1369 1823 0
6463 -1628 -2782 1369 -1823 0
7811 -1628 -2782 -1369 1823 0
8158 -1628 -2782 -1369 -1823 0
32045 1501 1859 -1169 0
7540 1501 -1859 1169 0
33176 1501 -1859 -1169 0
1885 -1501 1859 1169 0
32328 -1501 1859 -1169 0
9048 -1501 -1859 1169 0
33402 -1501 -1859 -1169 0
4524 2699 -1380 0
30160 -2699 1380 0
31065 -2699 -1380 0
9095 1873 -3298 0
3210 -1873 3298 0
9577 -1873 -3298 0
34320 1166 2719 1442 -3088 0
4290 1166 2719 -1442 3088 0
35178 1166 2719 -1442 -3088 0
7722 1166 -2719 1442 3088 0
35864 1166 -2719 1442 -3088 0
11240 1166 -2719 -1442 3088 0
36568 1166 -2719 -1442 -3088 0
2145 -1166 2719 1442 3088 0
34749 -1166 2719 1442 -3088 0
6221 -1166 2719 -1442 3088 0
35564 -1166 2719 -1442 -3088 0
9481 -1166 -2719 1442 3088 0
36216 -1166 -2719 1442 -3088 0
12823 -1166 -2719 -1442 3088 0
36885 -1166 -2719 -1442 -3088 0
214 3381 3327 -1849 0
535 3381 -3327 1849 0
738 3381 -3327 -1849 0
3424 -3381 3327 1849 0
3570 -3381 3327 -1849 0
3788 -3381 -3327 1849 0
3926 -3381 -3327 -1849 0
1926 1446 -2635 0
2140 -1446 2635 0
3681 -1446 -2635 0
5580 3217 -2466 0
5270 -3217 2466 0
6107 -3217 -2466 0
124 1293 -3313 0
2356 -1293 3313 0
2433 -1293 -3313 0
3420 1392 2275 -1024 0
13300 1392 -2275 1024 0
14326 1392 -2275 -1024 0
2850 -1392 2275 1024 0
5757 -1392 2275 -1024 0
14155 -1392 -2275 1024 0
15027 -1392 -2275 -1024 0
3420 1305 1379 -2807 0
9500 1305 -1379 2807 0
11210 1305 -1379 -2807 0
3420 -1305 1379 2807 0
6224 -1305 1379 -2807 0
11210 -1305 -1379 2807 0
12612 -1305 -1379 -2807 0
11310 2874 1913 -2342 0
15080 2874 -1913 2342 0
21866 2874 -1913 -2342 0
11310 -2874 1913 2342 0
19227 -2874 1913 -2342 0
21866 -2874 -1913 2342 0
26616 -2874 -1913 -2342 0
5890 -2640 0
2790 1416 -1942 0
4960 -1416 1942 0
5518 -1416 -1942 0
16150 2008 1831 -2136 0
4750 2008 -1831 2136 0
16862 2008 -1831 -2136 0
13300 -2008 1831 2136 0
18145 -2008 1831 -2136 0
14725 -2008 -1831 2136 0
18359 -2008 -1831 -2136 0
4960 3199 2469 -2160 0
2170 3199 -2469 2160 0
5394 3199 -2469 -2160 0
2170 -3199 2469 2160 0
5394 -3199 2469 -2160 0
3580 -3199 -2469 2160 0
5676 -3199 -2469 -2160 0
9500 1066 2633 1516 2289 -2751 0
8550 1066 2633 1516 -2289 2751 0
13775 1066 2633 1516 -2289 -2751 0
15200 1066 2633 -1516 2289 2751 0
17100 1066 2633 -1516 2289 -2751 0
16910 1066 2633 -1516 -2289 2751 0
17955 1066 2633 -1516 -2289 -2751 0
7600 1066 -2633 1516 2289 2751 0
13300 1066 -2633 1516 2289 -2751 0
12730 1066 -2633 1516 -2289 2751 0
15865 1066 -2633 1516 -2289 -2751 0
16720 1066 -2633 -1516 2289 2751 0
17860 1066 -2633 -1516 2289 -2751 0
17746 1066 -2633 -1516 -2289 2751 0
18373 1066 -2633 -1516 -2289 -2751 0
11400 -1066 2633 1516 2289 2751 0
15200 -1066 2633 1516 2289 -2751 0
14820 -1066 2633 1516 -2289 2751 0
16910 -1066 2633 1516 -2289 -2751 0
17480 -1066 2633 -1516 2289 2751 0
18240 -1066 2633 -1516 2289 -2751 0
18164 -1066 2633 -1516 -2289 2751 0
18582 -1066 2633 -1516 -2289 -2751 0
14440 -1066 -2633 1516 2289 2751 0
16720 -1066 -2633 1516 2289 -2751 0
16492 -1066 -2633 1516 -2289 2751 0
17746 -1066 -2633 1516 -2289 -2751 0
18088 -1066 -2633 -1516 2289 2751 0
18544 -1066 -2633 -1516 2289 -2751 0
18498 -1066 -2633 -1516 -2289 2751 0
18749 -1066 -2633 -1516 -2289 -2751 0
16150 3156 2462 -2625 0
6080 3156 -2462 2625 0
17062 3156 -2462 -2625 0
7600 -3156 2462 2625 0
17290 -3156 2462 -2625 0
11248 -3156 -2462 2625 0
17837 -3156 -2462 -2625 0
20735 2857 1032 2519 -3182 0
24505 2857 1032 -2519 3182 0
31762 2857 1032 -2519 -3182 0
4524 2857 -1032 2519 3182 0
22771 2857 -1032 2519 -3182 0
26088 2857 -1032 -2519 3182 0
32475 2857 -1032 -2519 -3182 0
20735 -2857 1032 2519 3182 0
30066 -2857 1032 2519 -3182 0
31762 -2857 1032 -2519 3182 0
35028 -2857 1032 -2519 -3182 0
22771 -2857 -1032 2519 3182 0
30982 -2857 -1032 2519 -3182 0
32475 -2857 -1032 -2519 3182 0
35349 -2857 -1032 -2519 -3182 0
33930 2859 -2746 0
11310 -2859 2746 0
35061 -2859 -2746 0
2280 -2760 0
1926 1073 -2105 0
1605 -1073 2105 0
3242 -1073 -2105 0
28275 2106 -2976 0
11310 -2106 2976 0
31102 -2106 -2976 0
124 2495 -3114 0
1116 -2495 3114 0
1218 -2495 -3114 0
7540 2998 -3138 0
4524 -2998 3138 0
11159 -2998 -3138 0
2170 1702 -1869 0
1550 -1702 1869 0
3177 -1702 -1869 0
13728 -1984 0
5270 2679 -1337 0
4340 -2679 1337 0
5921 -2679 -1337 0
4066 2111 -2599 0
1070 -2111 2599 0
4729 -2111 -2599 0
12870 1924 2203 3103 3149 -2265 0
40755 1924 2203 3103 -3149 2265 0
41399 1924 2203 3103 -3149 -2265 0
21450 1924 2203 -3103 3149 2265 0
27885 1924 2203 -3103 3149 -2265 0
41827 1924 2203 -3103 -3149 2265 0
42149 1924 2203 -3103 -3149 -2265 0
13728 1924 -2203 3103 3149 2265 0
22480 1924 -2203 3103 3149 -2265 0
41441 1924 -2203 3103 -3149 2265 0
41879 1924 -2203 3103 -3149 -2265 0
28314 1924 -2203 -3103 3149 2265 0
32690 1924 -2203 -3103 3149 -2265 0
42171 1924 -2203 -3103 -3149 2265 0
42389 1924 -2203 -3103 -3149 -2265 0
23595 -1924 2203 3103 3149 2265 0
29387 -1924 2203 3103 3149 -2265 0
41935 -1924 2203 3103 -3149 2265 0
42224 -1924 2203 3103 -3149 -2265 0
33248 -1924 2203 -3103 3149 2265 0
36143 -1924 2203 -3103 3149 -2265 0
42417 -1924 2203 -3103 -3149 2265 0
42562 -1924 2203 -3103 -3149 -2265 0
29773 -1924 -2203 3103 3149 2265 0
33711 -1924 -2203 3103 3149 -2265 0
42244 -1924 -2203 3103 -3149 2265 0
42441 -1924 -2203 3103 -3149 -2265 0
36336 -1924 -2203 -3103 3149 2265 0
38305 -1924 -2203 -3103 3149 -2265 0
42572 -1924 -2203 -3103 -3149 2265 0
42670 -1924 -2203 -3103 -3149 -2265 0
4066 1304 2720 1181 -2487 0
4815 1304 2720 -1181 2487 0
7051 1304 2720 -1181 -2487 0
10165 1304 -2720 1181 2487 0
10368 1304 -2720 1181 -2487 0
10406 1304 -2720 -1181 2487 0
10518 1304 -2720 -1181 -2487 0
4280 -1304 2720 1181 2487 0
6720 -1304 2720 1181 -2487 0
7169 -1304 2720 -1181 2487 0
8511 -1304 2720 -1181 -2487 0
10379 -1304 -2720 1181 2487 0
10501 -1304 -2720 1181 -2487 0
10523 -1304 -2720 -1181 2487 0
10591 -1304 -2720 -1181 -2487 0
4030 1422 2313 -1552 0
1860 1422 -2313 1552 0
4681 1422 -2313 -1552 0
2356 -1422 2313 1552 0
4855 -1422 2313 -1552 0
3509 -1422 -2313 1552 0
5258 -1422 -2313 -1552 0
18850 2307 2871 -1788 0
11310 2307 -2871 1788 0
24505 2307 -2871 -1788 0
6786 -2307 2871 1788 0
22243 -2307 2871 -1788 0
16060 -2307 -2871 1788 0
26880 -2307 -2871 -1788 0
5350 2224 3154 -1370 0
3210 2224 -3154 1370 0
6955 2224 -3154 -1370 0
8560 -2224 3154 1370 0
9630 -2224 3154 -1370 0
9202 -2224 -3154 1370 0
9951 -2224 -3154 -1370 0
14250 2327 -3143 0
5700 -2327 3143 0
15675 -2327 -3143 0
744 1974 -3216 0
310 -1974 3216 0
1017 -1974 -3216 0
8580 -3303 0
13300 2567 -1085 0
3800 -2567 1085 0
14440 -2567 -1085 0
4280 2938 2814 1662 -2509 0
3210 2938 2814 -1662 2509 0
6206 2938 2814 -1662 -2509 0
2140 2938 -2814 1662 2509 0
5564 2938 -2814 1662 -2509 0
4708 2938 -2814 -1662 2509 0
7105 2938 -2814 -1662 -2509 0
3745 -2938 2814 1662 2509 0
6527 -2938 2814 1662 -2509 0
5832 -2938 2814 -1662 2509 0
7779 -2938 2814 -1662 -2509 0
5136 -2938 -2814 1662 2509 0
7362 -2938 -2814 1662 -2509 0
6805 -2938 -2814 -1662 2509 0
8363 -2938 -2814 -1662 -2509 0
3720 -1792 0
5700 2116 1508 -1527 0
950 2116 -1508 1527 0
6365 2116 -1508 -1527 0
950 -2116 1508 1527 0
6365 -2116 1508 -1527 0
1853 -2116 -1508 1527 0
6997 -2116 -1508 -1527 0
2675 -1273 0
1926 -2095 0
3424 1026 3148 -3123 0
1605 1026 -3148 3123 0
4515 1026 -3148 -3123 0
3424 -1026 3148 3123 0
5752 -1026 3148 -3123 0
4515 -1026 -3148 3123 0
6494 -1026 -3148 -3123 0
8025 3389 1213 2748 -3252 0
8560 3389 1213 -2748 3252 0
10165 3389 1213 -2748 -3252 0
4280 3389 -1213 2748 3252 0
9095 3389 -1213 2748 -3252 0
9416 3389 -1213 -2748 3252 0
10379 3389 -1213 -2748 -3252 0
3745 -3389 1213 2748 3252 0
8961 -3389 1213 2748 -3252 0
9309 -3389 1213 -2748 3252 0
10352 -3389 1213 -2748 -3252 0
6527 -3389 -1213 2748 3252 0
9657 -3389 -1213 2748 -3252 0
9865 -3389 -1213 -2748 3252 0
10491 -3389 -1213 -2748 -3252 0
1900 1269 -2331 0
13300 -1269 2331 0
13870 -1269 -2331 0
32045 -1276 0
9500 2031 1590 2774 3210 -1042 0
13300 2031 1590 2774 -3210 1042 0
16150 2031 1590 2774 -3210 -1042 0
7600 2031 1590 -2774 3210 1042 0
13300 2031 1590 -2774 3210 -1042 0
15580 2031 1590 -2774 -3210 1042 0
17290 2031 1590 -2774 -3210 -1042 0
14250 2031 -1590 2774 3210 1042 0
16625 2031 -1590 2774 3210 -1042 0
17575 2031 -1590 2774 -3210 1042 0
18288 2031 -1590 2774 -3210 -1042 0
16150 2031 -1590 -2774 3210 1042 0
17575 2031 -1590 -2774 3210 -1042 0
18145 2031 -1590 -2774 -3210 1042 0
18572 2031 -1590 -2774 -3210 -1042 0
2850 -2031 1590 2774 3210 1042 0
10925 -2031 1590 2774 3210 -1042 0
14155 -2031 1590 2774 -3210 1042 0
16578 -2031 1590 2774 -3210 -1042 0
9310 -2031 1590 -2774 3210 1042 0
14155 -2031 1590 -2774 3210 -1042 0
16093 -2031 1590 -2774 -3210 1042 0
17547 -2031 1590 -2774 -3210 -1042 0
14962 -2031 -1590 2774 3210 1042 0
16981 -2031 -1590 2774 3210 -1042 0
17789 -2031 -1590 2774 -3210 1042 0
18394 -2031 -1590 2774 -3210 -1042 0
16578 -2031 -1590 -2774 3210 1042 0
17789 -2031 -1590 -2774 3210 -1042 0
18273 -2031 -1590 -2774 -3210 1042 0
18637 -2031 -1590 -2774 -3210 -1042 0
17160 -2793 0
4066 3122 -2758 0
3424 -3122 2758 0
6189 -3122 -2758 0
18850 -1116 0
32045 2221 2523 -2278 0
4524 2221 -2523 2278 0
32724 2221 -2523 -2278 0
4524 -2221 2523 2278 0
32724 -2221 2523 -2278 0
8505 -2221 -2523 2278 0
33321 -2221 -2523 -2278 0
4280 1973 2450 -1199 0
6420 1973 -2450 1199 0
8132 1973 -2450 -1199 0
6955 -1973 2450 1199 0
8453 -1973 2450 -1199 0
9202 -1973 -2450 1199 0
9801 -1973 -2450 -1199 0
15200 1400 -1208 0
6080 -1400 1208 0
16416 -1400 -1208 0
6650 1876 -1631 0
11400 -1876 1631 0
14060 -1876 -1631 0
18850 -1961 0
10725 2676 1311 -3074 0
38610 2676 -1311 3074 0
39683 2676 -1311 -3074 0
2145 -2676 1311 3074 0
12334 -2676 1311 -3074 0
38825 -2676 -1311 3074 0
39843 -2676 -1311 -3074 0
8550 1219 1777 2505 -3255 0
1900 1219 1777 -2505 3255 0
9595 1219 1777 -2505 -3255 0
11400 1219 -1777 2505 3255 0
14820 1219 -1777 2505 -3255 0
12160 1219 -1777 -2505 3255 0
15238 1219 -1777 -2505 -3255 0
380 -1219 1777 2505 3255 0
8759 -1219 1777 2505 -3255 0
2242 -1219 1777 -2505 3255 0
9783 -1219 1777 -2505 -3255 0
11552 -1219 -1777 2505 3255 0
14904 -1219 -1777 2505 -3255 0
12297 -1219 -1777 -2505 3255 0
15313 -1219 -1777 -2505 -3255 0
19305 1105 -1945 0
38610 -1105 1945 0
40541 -1105 -1945 0
10450 2884 -1514 0
16150 -2884 1514 0
17718 -2884 -1514 0
7600 2394 2283 3068 -3069 0
380 2394 2283 -3068 3069 0
7828 2394 2283 -3068 -3069 0
8550 2394 -2283 3068 3069 0
12730 2394 -2283 3068 -3069 0
8759 2394 -2283 -3068 3069 0
12855 2394 -2283 -3068 -3069 0
380 -2394 2283 3068 3069 0
7828 -2394 2283 3068 -3069 0
752 -2394 2283 -3068 3069 0
8051 -2394 2283 -3068 -3069 0
8759 -2394 -2283 3068 3069 0
12855 -2394 -2283 3068 -3069 0
8964 -2394 -2283 -3068 3069 0
12978 -2394 -2283 -3068 -3069 0
6955 2243 -2628 0
1070 -2243 2628 0
7330 -2243 -2628 0
32175 1477 1697 -1851 0
40755 1477 -1697 1851 0
42364 1477 -1697 -1851 0
5148 -1477 1697 1851 0
33462 -1477 1697 -1851 0
41012 -1477 -1697 1851 0
42428 -1477 -1697 -1851 0
4815 2671 -1515 0
1605 -2671 1515 0
5698 -2671 -1515 0
620 -1184 0
6650 2140 1524 -2086 0
17100 2140 -1524 2086 0
17765 2140 -1524 -2086 0
17100 -2140 1524 2086 0
17765 -2140 1524 -2086 0
18810 -2140 -1524 2086 0
18877 -2140 -1524 -2086 0
1926 1270 2465 -2115 0
4280 1270 -2465 2115 0
5436 1270 -2465 -2115 0
8025 -1270 2465 2115 0
8506 -1270 2465 -2115 0
9095 -1270 -2465 2115 0
9384 -1270 -2465 -2115 0
9425 3178 2322 3311 -1566 0
7540 3178 2322 -3311 1566 0
15080 3178 2322 -3311 -1566 0
13195 3178 -2322 3311 1566 0
19321 3178 -2322 3311 -1566 0
18096 3178 -2322 -3311 1566 0
22997 3178 -2322 -3311 -1566 0
24505 -3178 2322 3311 1566 0
27804 -3178 2322 3311 -1566 0
27144 -3178 2322 -3311 1566 0
29783 -3178 2322 -3311 -1566 0
29123 -3178 -2322 3311 1566 0
31267 -3178 -2322 3311 -1566 0
30839 -3178 -2322 -3311 1566 0
32554 -3178 -2322 -3311 -1566 0
6955 -1971 0
3410 2537 1748 3052 1608 -3086 0
124 2537 1748 3052 -1608 3086 0
3466 2537 1748 3052 -1608 -3086 0
2356 2537 1748 -3052 1608 3086 0
4470 2537 1748 -3052 1608 -3086 0
2433 2537 1748 -3052 -1608 3086 0
4505 2537 1748 -3052 -1608 -3086 0
4030 2537 -1748 3052 1608 3086 0
5223 2537 -1748 3052 1608 -3086 0
4073 2537 -1748 3052 -1608 3086 0
5243 2537 -1748 3052 -1608 -3086 0
4855 2537 -1748 -3052 1608 3086 0
5595 2537 -1748 -3052 1608 -3086 0
4882 2537 -1748 -3052 -1608 3086 0
5607 2537 -1748 -3052 -1608 -3086 0
4960 -2537 1748 3052 1608 3086 0
5642 -2537 1748 3052 1608 -3086 0
4985 -2537 1748 3052 -1608 3086 0
5653 -2537 1748 3052 -1608 -3086 0
5431 -2537 1748 -3052 1608 3086 0
5854 -2537 1748 -3052 1608 -3086 0
5447 -2537 1748 -3052 -1608 3086 0
5861 -2537 1748 -3052 -1608 -3086 0
5766 -2537 -1748 3052 1608 3086 0
6005 -2537 -1748 3052 1608 -3086 0
5775 -2537 -1748 3052 -1608 3086 0
6009 -2537 -1748 3052 -1608 -3086 0
5931 -2537 -1748 -3052 1608 3086 0
6079 -2537 -1748 -3052 1608 -3086 0
5936 -2537 -1748 -3052 -1608 3086 0
6081 -2537 -1748 -3052 -1608 -3086 0
6786 -1693 0
1926 1029 1531 3090 -1192 0
8025 1029 1531 -3090 1192 0
8506 1029 1531 -3090 -1192 0
3210 1029 -1531 3090 1192 0
4558 1029 -1531 3090 -1192 0
8827 1029 -1531 -3090 1192 0
9165 1029 -1531 -3090 -1192 0
3424 -1029 1531 3090 1192 0
4734 -1029 1531 3090 -1192 0
8881 -1029 1531 -3090 1192 0
9208 -1029 1531 -3090 -1192 0
5607 -1029 -1531 3090 1192 0
6524 -1029 -1531 3090 -1192 0
9427 -1029 -1531 -3090 1192 0
9656 -1029 -1531 -3090 -1192 0
4280 -2724 0
26390 3064 1679 2573 -1864 0
1885 3064 1679 -2573 1864 0
26956 3064 1679 -2573 -1864 0
13195 3064 -1679 2573 1864 0
30348 3064 -1679 2573 -1864 0
14420 3064 -1679 -2573 1864 0
30716 3064 -1679 -2573 -1864 0
35815 -3064 1679 2573 1864 0
37134 -3064 1679 2573 -1864 0
35909 -3064 1679 -2573 1864 0
37163 -3064 1679 -2573 -1864 0
36475 -3064 -1679 2573 1864 0
37332 -3064 -1679 2573 -1864 0
36536 -3064 -1679 -2573 1864 0
37351 -3064 -1679 -2573 -1864 0
4650 1543 2697 1110 -2210 0
4650 1543 2697 -1110 2210 0
5812 1543 2697 -1110 -2210 0
5890 1543 -2697 1110 2210 0
6123 1543 -2697 1110 -2210 0
6123 1543 -2697 -1110 2210 0
6181 1543 -2697 -1110 -2210 0
2480 -1543 2697 1110 2210 0
5270 -1543 2697 1110 -2210 0
5270 -1543 2697 -1110 2210 0
5968 -1543 2697 -1110 -2210 0
6014 -1543 -2697 1110 2210 0
6153 -1543 -2697 1110 -2210 0
6153 -1543 -2697 -1110 2210 0
6188 -1543 -2697 -1110 -2210 0
34320 1611 1120 -2418 0
19305 1611 -1120 2418 0
38181 1611 -1120 -2418 0
16302 -1611 1120 2418 0
37580 -1611 1120 -2418 0
28271 -1611 -1120 2418 0
39974 -1611 -1120 -2418 0
10725 2468 -2621 0
15015 -2468 2621 0
21986 -2468 -2621 0
3800 2516 1717 -2844 0
18050 2516 -1717 2844 0
18240 2516 -1717 -2844 0
380 -2516 1717 2844 0
4104 -2516 1717 -2844 0
18069 -2516 -1717 2844 0
18255 -2516 -1717 -2844 0
35815 1585 -2795 0
32045 -1585 2795 0
37417 -1585 -2795 0
4750 -1253 0
1885 3321 -1563 0
1885 -3321 1563 0
3676 -3321 -1563 0
4340 2920 1504 -2953 0
2480 2920 -1504 2953 0
5084 2920 -1504 -2953 0
310 -2920 1504 2953 0
4433 -2920 1504 -2953 0
2666 -2920 -1504 2953 0
5140 -2920 -1504 -2953 0
23595 2256 2681 -2856 0
6435 2256 -2681 2856 0
26491 2256 -2681 -2856 0
19305 -2256 2681 2856 0
32282 -2256 2681 -2856 0
22844 -2256 -2681 2856 0
33875 -2256 -2681 -2856 0
7220 1646 -3102 0
3420 -1646 3102 0
9340 -1646 -3102 0
1605 2271 -3087 0
1605 -2271 3087 0
2969 -2271 -3087 0
2356 2931 3161 -1932 0
5580 2931 -3161 1932 0
5816 2931 -3161 -1932 0
5890 -2931 3161 1932 0
6008 -2931 3161 -1932 0
6169 -2931 -3161 1932 0
6181 -2931 -3161 -1932 0
28275 -3008 0
13728 -1805 0
10725 1936 3076 -1548 0
10725 1936 -3076 1548 0
18769 1936 -3076 -1548 0
8580 -1936 3076 1548 0
17160 -1936 3076 -1548 0
17160 -1936 -3076 1548 0
23595 -1936 -3076 -1548 0
14250 2545 1706 -2801 0
7600 2545 -1706 2801 0
16150 2545 -1706 -2801 0
3800 -2545 1706 2801 0
15200 -2545 1706 -2801 0
9880 -2545 -1706 2801 0
16720 -2545 -1706 -2801 0
21450 -1149 0
5655 1034 -1911 0
12064 -1034 1911 0
15909 -1034 -1911 0
30030 2608 -2643 0
12870 -2608 2643 0
33891 -2608 -2643 0
7722 -3062 0
1116 3009 -1867 0
4960 -3009 1867 0
5183 -3009 -1867 0
1070 1554 1993 -2268 0
2140 1554 -1993 2268 0
2996 1554 -1993 -2268 0
4280 -1554 1993 2268 0
4922 -1554 1993 -2268 0
5564 -1554 -1993 2268 0
6078 -1554 -1993 -2268 0
1860 -1089 0
13728 -2215 0
25740 2196 -1038 0
4290 -2196 1038 0
27456 -2196 -1038 0
754 2981 2359 1483 1412 -2093 0
13195 2981 2359 1483 -1412 2093 0
13685 2981 2359 1483 -1412 -2093 0
22620 2981 2359 -1483 1412 2093 0
22922 2981 2359 -1483 1412 -2093 0
27898 2981 2359 -1483 -1412 2093 0
28094 2981 2359 -1483 -1412 -2093 0
5655 2981 -2359 1483 1412 2093 0
6296 2981 -2359 1483 1412 -2093 0
16871 2981 -2359 1483 -1412 2093 0
17287 2981 -2359 1483 -1412 -2093 0
24882 2981 -2359 -1483 1412 2093 0
25138 2981 -2359 -1483 1412 -2093 0
29368 2981 -2359 -1483 -1412 2093 0
29535 2981 -2359 -1483 -1412 -2093 0
15080 -2981 2359 1483 1412 2093 0
15532 -2981 2359 1483 1412 -2093 0
22997 -2981 2359 1483 -1412 2093 0
23291 -2981 2359 1483 -1412 -2093 0
28652 -2981 2359 -1483 1412 2093 0
28833 -2981 2359 -1483 1412 -2093 0
31819 -2981 2359 -1483 -1412 2093 0
31936 -2981 2359 -1483 -1412 -2093 0
18473 -2981 -2359 1483 1412 2093 0
18858 -2981 -2359 1483 1412 -2093 0
25202 -2981 -2359 1483 -1412 2093 0
25452 -2981 -2359 1483 -1412 -2093 0
30009 -2981 -2359 -1483 1412 2093 0
30163 -2981 -2359 -1483 1412 -2093 0
32701 -2981 -2359 -1483 -1412 2093 0
32801 -2981 -2359 -1483 -1412 -2093 0
7600 2102 2344 3309 -1296 0
18050 2102 2344 -3309 1296 0
18430 2102 2344 -3309 -1296 0
13300 2102 -2344 3309 1296 0
15580 2102 -2344 3309 -1296 0
18715 2102 -2344 -3309 1296 0
18829 2102 -2344 -3309 -1296 0
2850 -2102 2344 3309 1296 0
9310 -2102 2344 3309 -1296 0
18193 -2102 2344 -3309 1296 0
18515 -2102 2344 -3309 -1296 0
14155 -2102 -2344 3309 1296 0
16093 -2102 -2344 3309 -1296 0
18758 -2102 -2344 -3309 1296 0
18855 -2102 -2344 -3309 -1296 0
620 2896 1772 -1130 0
744 2896 -1772 1130 0
1290 2896 -1772 -1130 0
5270 -2896 1772 1130 0
5363 -2896 1772 -1130 0
5382 -2896 -1772 1130 0
5463 -2896 -1772 -1130 0
4524 1252 -1872 0
1885 -1252 1872 0
6183 -1252 -1872 0
3770 1678 1152 -2932 0
7540 1678 -1152 2932 0
10556 1678 -1152 -2932 0
15080 -1678 1152 2932 0
17342 -1678 1152 -2932 0
19604 -1678 -1152 2932 0
21414 -1678 -1152 -2932 0
214 2467 -3392 0
10165 -2467 3392 0
10176 -2467 -3392 0
3770 -3394 0
9630 2552 -2303 0
535 -2552 2303 0
9684 -2552 -2303 0
6786 1396 -2480 0
26390 -1396 2480 0
28426 -1396 -2480 0
3424 -3175 0
5270 -1288 0
1605 2427 -2912 0
3424 -2427 2912 0
4515 -2427 -2912 0
3770 3030 1715 -3234 0
24505 3030 -1715 3234 0
25825 3030 -1715 -3234 0
754 -3030 1715 3234 0
4449 -3030 1715 -3234 0
24769 -3030 -1715 3234 0
26062 -3030 -1715 -3234 0
3424 3018 -1649 0
4066 -3018 1649 0
6189 -3018 -1649 0
7540 1365 -1324 0
9425 -1365 1324 0
15080 -1365 -1324 0
930 2408 3274 -1040 0
5890 2408 -3274 1040 0
5937 2408 -3274 -1040 0
5890 -2408 3274 1040 0
5937 -2408 3274 -1040 0
6184 -2408 -3274 1040 0
6187 -2408 -3274 -1040 0
2145 2904 2548 2560 1850 -2726 0
40755 2904 2548 2560 -1850 2726 0
40862 2904 2548 2560 -1850 -2726 0
23595 2904 2548 -2560 1850 2726 0
24560 2904 2548 -2560 1850 -2726 0
41935 2904 2548 -2560 -1850 2726 0
41983 2904 2548 -2560 -1850 -2726 0
6435 2904 -2548 2560 1850 2726 0
8258 2904 -2548 2560 1850 -2726 0
41077 2904 -2548 2560 -1850 2726 0
41168 2904 -2548 2560 -1850 -2726 0
26491 2904 -2548 -2560 1850 2726 0
27311 2904 -2548 -2560 1850 -2726 0
42080 2904 -2548 -2560 -1850 2726 0
42121 2904 -2548 -2560 -1850 -2726 0
38610 -2904 2548 2560 1850 2726 0
38825 -2904 2548 2560 1850 -2726 0
42686 -2904 2548 2560 -1850 2726 0
42696 -2904 2548 2560 -1850 -2726 0
40970 -2904 2548 -2560 1850 2726 0
41066 -2904 2548 -2560 1850 -2726 0
42803 -2904 2548 -2560 -1850 2726 0
42808 -2904 2548 -2560 -1850 -2726 0
39254 -2904 -2548 2560 1850 2726 0
39436 -2904 -2548 2560 1850 -2726 0
42718 -2904 -2548 2560 -1850 2726 0
42727 -2904 -2548 2560 -1850 -2726 0
41259 -2904 -2548 -2560 1850 2726 0
41341 -2904 -2548 -2560 1850 -2726 0
42818 -2904 -2548 -2560 -1850 2726 0
42822 -2904 -2548 -2560 -1850 -2726 0
5885 3158 2532 -1796 0
2140 3158 -2532 1796 0
6848 3158 -2532 -1796 0
10165 -3158 2532 1796 0
10459 -3158 2532 -1796 0
10272 -3158 -2532 1796 0
10507 -3158 -2532 -1796 0
2675 1202 2280 -1992 0
1070 1202 -2280 1992 0
3477 1202 -2280 -1992 0
4280 -1202 2280 1992 0
5885 -1202 2280 -1992 0
4922 -1202 -2280 1992 0
6366 -1202 -2280 -1992 0
930 2305 -1161 0
5580 -2305 1161 0
5673 -2305 -1161 0
7600 1027 -3259 0
950 -1027 3259 0
8170 -1027 -3259 0
950 -1334 0
2356 -3318 0
744 -1071 0
930 2936 3261 -2833 0
310 2936 -3261 2833 0
1194 2936 -3261 -2833 0
2480 -2936 3261 2833 0
3038 -2936 3261 -2833 0
2666 -2936 -3261 2833 0
3196 -2936 -3261 -2833 0
15015 3169 3023 -2694 0
13728 3169 -3023 2694 0
23938 3169 -3023 -2694 0
27885 -3169 3023 2694 0
33140 -3169 3023 -2694 0
32690 -3169 -3023 2694 0
36263 -3169 -3023 -2694 0
24505 1760 -1346 0
14326 -1760 1346 0
29519 -1760 -1346 0
620 2614 2978 1589 2263 -1203 0
4650 2614 2978 1589 -2263 1203 0
4805 2614 2978 1589 -2263 -1203 0
620 2614 2978 -1589 2263 1203 0
1178 2614 2978 -1589 2263 -1203 0
4805 2614 2978 -1589 -2263 1203 0
4945 2614 2978 -1589 -2263 -1203 0
5580 2614 -2978 1589 2263 1203 0
5642 2614 -2978 1589 2263 -1203 0
6045 2614 -2978 1589 -2263 1203 0
6061 2614 -2978 1589 -2263 -1203 0
5642 2614 -2978 -1589 2263 1203 0
5698 2614 -2978 -1589 2263 -1203 0
6061 2614 -2978 -1589 -2263 1203 0
6074 2614 -2978 -1589 -2263 -1203 0
124 -2614 2978 1589 2263 1203 0
732 -2614 2978 1589 2263 -1203 0
4681 -2614 2978 1589 -2263 1203 0
4833 -2614 2978 1589 -2263 -1203 0
732 -2614 2978 -1589 2263 1203 0
1278 -2614 2978 -1589 2263 -1203 0
4833 -2614 2978 -1589 -2263 1203 0
4970 -2614 2978 -1589 -2263 -1203 0
5592 -2614 -2978 1589 2263 1203 0
5653 -2614 -2978 1589 2263 -1203 0
6048 -2614 -2978 1589 -2263 1203 0
6063 -2614 -2978 1589 -2263 -1203 0
5653 -2614 -2978 -1589 2263 1203 0
5708 -2614 -2978 -1589 2263 -1203 0
6063 -2614 -2978 -1589 -2263 1203 0
6077 -2614 -2978 -1589 -2263 -1203 0
13728 1473 -1190 0
36465 -1473 1190 0
38524 -1473 -1190 0
10725 2528 1231 2039 1573 -1495 0
15015 2528 1231 2039 -1573 1495 0
21986 2528 1231 2039 -1573 -1495 0
23595 2528 1231 -2039 1573 1495 0
28421 2528 1231 -2039 1573 -1495 0
30352 2528 1231 -2039 -1573 1495 0
33489 2528 1231 -2039 -1573 -1495 0
16302 2528 -1231 2039 1573 1495 0
22952 2528 -1231 2039 1573 -1495 0
25611 2528 -1231 2039 -1573 1495 0
29933 2528 -1231 2039 -1573 -1495 0
30931 2528 -1231 -2039 1573 1495 0
33923 2528 -1231 -2039 1573 -1495 0
35120 2528 -1231 -2039 -1573 1495 0
37065 2528 -1231 -2039 -1573 -1495 0
858 -2528 1231 2039 1573 1495 0
11369 -2528 1231 2039 1573 -1495 0
15573 -2528 1231 2039 -1573 1495 0
22405 -2528 1231 2039 -1573 -1495 0
23981 -2528 1231 -2039 1573 1495 0
28711 -2528 1231 -2039 1573 -1495 0
30603 -2528 1231 -2039 -1573 1495 0
33677 -2528 1231 -2039 -1573 -1495 0
16834 -2528 -1231 2039 1573 1495 0
23350 -2528 -1231 2039 1573 -1495 0
25957 -2528 -1231 2039 -1573 1495 0
30193 -2528 -1231 2039 -1573 -1495 0
31170 -2528 -1231 -2039 1573 1495 0
34103 -2528 -1231 -2039 1573 -1495 0
35276 -2528 -1231 -2039 -1573 1495 0
37182 -2528 -1231 -2039 -1573 -1495 0
14250 -1668 0
3100 2228 1310 2753 -2765 0
1860 2228 1310 -2753 2765 0
4030 2228 1310 -2753 -2765 0
1984 2228 -1310 2753 2765 0
4092 2228 -1310 2753 -2765 0
3249 2228 -1310 -2753 2765 0
4724 2228 -1310 -2753 -2765 0
124 -2228 1310 2753 2765 0
3162 -2228 1310 2753 -2765 0
1947 -2228 1310 -2753 2765 0
4073 -2228 1310 -2753 -2765 0
2068 -2228 -1310 2753 2765 0
4134 -2228 -1310 2753 -2765 0
3308 -2228 -1310 -2753 2765 0
4754 -2228 -1310 -2753 -2765 0
14250 2355 -3094 0
950 -2355 3094 0
14488 -2355 -3094 0
32175 1653 -1482 0
4290 -1653 1482 0
33248 -1653 -1482 0
9500 2390 3032 -1049 0
3800 2390 -3032 1049 0
11400 2390 -3032 -1049 0
6650 -2390 3032 1049 0
12825 -2390 3032 -1049 0
9120 -2390 -3032 1049 0
14060 -2390 -3032 -1049 0
4280 1574 -2517 0
214 -1574 2517 0
4408 -1574 -2517 0
16965 2584 1903 2057 -1316 0
18850 2584 1903 -2057 1316 0
27332 2584 1903 -2057 -1316 0
6786 2584 -1903 2057 1316 0
20697 2584 -1903 2057 -1316 0
22243 2584 -1903 -2057 1316 0
29199 2584 -1903 -2057 -1316 0
1885 -2584 1903 2057 1316 0
18002 -2584 1903 2057 -1316 0
19793 -2584 1903 -2057 1316 0
27851 -2584 1903 -2057 -1316 0
8332 -2584 -1903 2057 1316 0
21547 -2584 -1903 2057 -1316 0
23016 -2584 -1903 -2057 1316 0
29624 -2584 -1903 -2057 -1316 0
23595 1960 1121 -1666 0
38610 1960 -1121 1666 0
40970 1960 -1121 -1666 0
7722 -1960 1121 1666 0
27070 -1960 1121 -1666 0
39382 -1960 -1121 1666 0
41317 -1960 -1121 -1666 0
12870 2299 -3133 0
40755 -2299 3133 0
41399 -2299 -3133 0
25740 1065 1784 -1277 0
10725 1065 -1784 1277 0
30030 1065 -1784 -1277 0
19305 -1065 1784 1277 0
33462 -1065 1784 -1277 0
25204 -1065 -1784 1277 0
35821 -1065 -1784 -1277 0
10725 2732 3096 1018 -2755 0
7722 2732 3096 -1018 2755 0
16516 2732 3096 -1018 -2755 0
38610 2732 -3096 1018 2755 0
39683 2732 -3096 1018 -2755 0
39382 2732 -3096 -1018 2755 0
40262 2732 -3096 -1018 -2755 0
34320 -2732 3096 1018 2755 0
36465 -2732 3096 1018 -2755 0
35864 -2732 3096 -1018 2755 0
37623 -2732 3096 -1018 -2755 0
42042 -2732 -3096 1018 2755 0
42256 -2732 -3096 1018 -2755 0
42196 -2732 -3096 -1018 2755 0
42372 -2732 -3096 -1018 -2755 0
4815 2430 -1225 0
6420 -2430 1225 0
8346 -2430 -1225 0
2480 -1487 0
1860 2683 2899 1458 2474 -3093 0
1240 2683 2899 1458 -2474 3093 0
2728 2683 2899 1458 -2474 -3093 0
124 2683 2899 -1458 2474 3093 0
1947 2683 2899 -1458 2474 -3093 0
1339 2683 2899 -1458 -2474 3093 0
2797 2683 2899 -1458 -2474 -3093 0
1550 2683 -2899 1458 2474 3093 0
2945 2683 -2899 1458 2474 -3093 0
2480 2683 -2899 1458 -2474 3093 0
3596 2683 -2899 1458 -2474 -3093 0
1643 2683 -2899 -1458 2474 3093 0
3010 2683 -2899 -1458 2474 -3093 0
2554 2683 -2899 -1458 -2474 3093 0
3648 2683 -2899 -1458 -2474 -3093 0
3720 -2683 2899 1458 2474 3093 0
4464 -2683 2899 1458 2474 -3093 0
4216 -2683 2899 1458 -2474 3093 0
4811 -2683 2899 1458 -2474 -3093 0
3770 -2683 2899 -1458 2474 3093 0
4499 -2683 2899 -1458 2474 -3093 0
4256 -2683 2899 -1458 -2474 3093 0
4839 -2683 2899 -1458 -2474 -3093 0
4340 -2683 -2899 1458 2474 3093 0
4898 -2683 -2899 1458 2474 -3093 0
4712 -2683 -2899 1458 -2474 3093 0
5158 -2683 -2899 1458 -2474 -3093 0
4377 -2683 -2899 -1458 2474 3093 0
4924 -2683 -2899 -1458 2474 -3093 0
4742 -2683 -2899 -1458 -2474 3093 0
5179 -2683 -2899 -1458 -2474 -3093 0
18050 -1016 0
1116 -2381 0
380 1709 -1624 0
13300 -1709 1624 0
13414 -1709 -1624 0
28275 2356 -2574 0
20735 -2356 2574 0
33459 -2356 -2574 0
7722 2098 3164 -3176 0
15015 2098 -3164 3176 0
20034 2098 -3164 -3176 0
858 -2098 3164 3176 0
8426 -2098 3164 -3176 0
15573 -2098 -3164 3176 0
20492 -2098 -3164 -3176 0
4815 -2581 0
25740 3045 3098 2866 1447 -3364 0
25740 3045 3098 2866 -1447 3364 0
36036 3045 3098 2866 -1447 -3364 0
17160 3045 3098 -2866 1447 3364 0
32604 3045 3098 -2866 1447 -3364 0
32604 3045 3098 -2866 -1447 3364 0
38782 3045 3098 -2866 -1447 -3364 0
34320 3045 -3098 2866 1447 3364 0
39468 3045 -3098 2866 1447 -3364 0
39468 3045 -3098 2866 -1447 3364 0
41527 3045 -3098 2866 -1447 -3364 0
37752 3045 -3098 -2866 1447 3364 0
40841 3045 -3098 -2866 1447 -3364 0
40841 3045 -3098 -2866 -1447 3364 0
42076 3045 -3098 -2866 -1447 -3364 0
25740 -3045 3098 2866 1447 3364 0
36036 -3045 3098 2866 1447 -3364 0
36036 -3045 3098 2866 -1447 3364 0
40154 -3045 3098 2866 -1447 -3364 0
32604 -3045 3098 -2866 1447 3364 0
38782 -3045 3098 -2866 1447 -3364 0
38782 -3045 3098 -2866 -1447 3364 0
41253 -3045 3098 -2866 -1447 -3364 0
39468 -3045 -3098 2866 1447 3364 0
41527 -3045 -3098 2866 1447 -3364 0
41527 -3045 -3098 2866 -1447 3364 0
42351 -3045 -3098 2866 -1447 -3364 0
40841 -3045 -3098 -2866 1447 3364 0
42076 -3045 -3098 -2866 1447 -3364 0
42076 -3045 -3098 -2866 -1447 3364 0
42571 -3045 -3098 -2866 -1447 -3364 0
7540 -1860 0
4280 2420 1861 1746 1398 -1769 0
10165 2420 1861 1746 -1398 1769 0
10379 2420 1861 1746 -1398 -1769 0
9630 2420 1861 -1746 1398 1769 0
10058 2420 1861 -1746 1398 -1769 0
10647 2420 1861 -1746 -1398 1769 0
10668 2420 1861 -1746 -1398 -1769 0
3210 2420 -1861 1746 1398 1769 0
6206 2420 -1861 1746 1398 -1769 0
10325 2420 -1861 1746 -1398 1769 0
10475 2420 -1861 1746 -1398 -1769 0
9951 2420 -1861 -1746 1398 1769 0
10251 2420 -1861 -1746 1398 -1769 0
10663 2420 -1861 -1746 -1398 1769 0
10678 2420 -1861 -1746 -1398 -1769 0
214 -2420 1861 1746 1398 1769 0
4408 -2420 1861 1746 1398 -1769 0
10176 -2420 1861 1746 -1398 1769 0
10385 -2420 1861 1746 -1398 -1769 0
9651 -2420 1861 -1746 1398 1769 0
10071 -2420 1861 -1746 1398 -1769 0
10648 -2420 1861 -1746 -1398 1769 0
10669 -2420 1861 -1746 -1398 -1769 0
3360 -2420 -1861 1746 1398 1769 0
6296 -2420 -1861 1746 1398 -1769 0
10333 -2420 -1861 1746 -1398 1769 0
10480 -2420 -1861 1746 -1398 -1769 0
9966 -2420 -1861 -1746 1398 1769 0
10260 -2420 -1861 -1746 1398 -1769 0
10663 -2420 -1861 -1746 -1398 1769 0
10678 -2420 -1861 -1746 -1398 -1769 0
4280 3358 -3026 0
8025 -3358 3026 0
9095 -3358 -3026 0
18050 1443 -2986 0
17100 -1443 2986 0
18905 -1443 -2986 0
1900 -2226 0
16302 -3117 0
6650 2685 2494 2445 -1681 0
9500 2685 2494 -2445 1681 0
12825 2685 2494 -2445 -1681 0
1900 2685 -2494 2445 1681 0
7885 2685 -2494 2445 -1681 0
10450 2685 -2494 -2445 1681 0
13443 2685 -2494 -2445 -1681 0
1900 -2685 2494 2445 1681 0
7885 -2685 2494 2445 -1681 0
10450 -2685 2494 -2445 1681 0
13443 -2685 2494 -2445 -1681 0
3610 -2685 -2494 2445 1681 0
8996 -2685 -2494 2445 -1681 0
11305 -2685 -2494 -2445 1681 0
13998 -2685 -2494 -2445 -1681 0
36465 2033 -3168 0
6435 -2033 3168 0
37430 -2033 -3168 0
2170 2041 1586 1970 -1806 0
1860 2041 1586 -1970 1806 0
3379 2041 1586 -1970 -1806 0
4340 2041 -1586 1970 1806 0
4991 2041 -1586 1970 -1806 0
4898 2041 -1586 -1970 1806 0
5354 2041 -1586 -1970 -1806 0
4340 -2041 1586 1970 1806 0
4991 -2041 1586 1970 -1806 0
4898 -2041 1586 -1970 1806 0
5354 -2041 1586 -1970 -1806 0
5642 -2041 -1586 1970 1806 0
5837 -2041 -1586 1970 -1806 0
5809 -2041 -1586 -1970 1806 0
5946 -2041 -1586 -1970 -1806 0
10165 2808 2535 1472 1205 -3006 0
9095 2808 2535 1472 -1205 3006 0
10620 2808 2535 1472 -1205 -3006 0
9630 2808 2535 -1472 1205 3006 0
10647 2808 2535 -1472 1205 -3006 0
10539 2808 2535 -1472 -1205 3006 0
10692 2808 2535 -1472 -1205 -3006 0
9095 2808 -2535 1472 1205 3006 0
10620 2808 -2535 1472 1205 -3006 0
10459 2808 -2535 1472 -1205 3006 0
10688 2808 -2535 1472 -1205 -3006 0
10539 2808 -2535 -1472 1205 3006 0
10692 2808 -2535 -1472 1205 -3006 0
10676 2808 -2535 -1472 -1205 3006 0
10699 2808 -2535 -1472 -1205 -3006 0
8025 -2808 2535 1472 1205 3006 0
10566 -2808 2535 1472 1205 -3006 0
10299 -2808 2535 1472 -1205 3006 0
10680 -2808 2535 1472 -1205 -3006 0
10433 -2808 2535 -1472 1205 3006 0
10687 -2808 2535 -1472 1205 -3006 0
10660 -2808 2535 -1472 -1205 3006 0
10698 -2808 2535 -1472 -1205 -3006 0
10299 -2808 -2535 1472 1205 3006 0
10680 -2808 -2535 1472 1205 -3006 0
10640 -2808 -2535 1472 -1205 3006 0
10697 -2808 -2535 1472 -1205 -3006 0
10660 -2808 -2535 -1472 1205 3006 0
10698 -2808 -2535 -1472 1205 -3006 0
10694 -2808 -2535 -1472 -1205 3006 0
10700 -2808 -2535 -1472 -1205 -3006 0
3800 2354 -1539 0
4750 -2354 1539 0
7600 -2354 -1539 0
9095 1617 2164 2222 -1759 0
2675 1617 2164 -2222 1759 0
9496 1617 2164 -2222 -1759 0
6420 1617 -2164 2222 1759 0
10058 1617 -2164 2222 -1759 0
7490 1617 -2164 -2222 1759 0
10219 1617 -2164 -2222 -1759 0
4815 -1617 2164 2222 1759 0
9817 -1617 2164 2222 -1759 0
6286 -1617 2164 -2222 1759 0
10038 -1617 2164 -2222 -1759 0
8346 -1617 -2164 2222 1759 0
10347 -1617 -2164 2222 -1759 0
8934 -1617 -2164 -2222 1759 0
10435 -1617 -2164 -2222 -1759 0
2145 -2007 0
4750 -1229 0
380 2870 2589 -1952 0
8550 2870 -2589 1952 0
8759 2870 -2589 -1952 0
950 -2870 2589 1952 0
1311 -2870 2589 -1952 0
9073 -2870 -2589 1952 0
9271 -2870 -2589 -1952 0
6786 2858 3215 -3179 0
22620 2858 -3215 3179 0
25334 2858 -3215 -3179 0
32045 -2858 3215 3179 0
33063 -2858 3215 -3179 0
35438 -2858 -3215 3179 0
35845 -2858 -3215 -3179 0
930 2350 1791 -3000 0
5580 2350 -1791 3000 0
5673 2350 -1791 -3000 0
3720 -2350 1791 3000 0
4092 -2350 1791 -3000 0
5952 -2350 -1791 3000 0
5989 -2350 -1791 -3000 0
1926 2372 -2696 0
3745 -2372 2696 0
4997 -2372 -2696 0
8550 3331 -2432 0
2280 -3331 2432 0
9804 -3331 -2432 0
6786 3105 -2781 0
7540 -3105 2781 0
12969 -3105 -2781 0
17100 1538 -3347 0
380 -1538 3347 0
17138 -1538 -3347 0
4280 2108 2087 -3339 0
9095 2108 -2087 3339 0
9737 2108 -2087 -3339 0
8560 -2108 2087 3339 0
9416 -2108 2087 -3339 0
10379 -2108 -2087 3339 0
10507 -2108 -2087 -3339 0
7722 2470 -1844 0
21450 -2470 1844 0
25311 -2470 -1844 0
4524 3209 1918 2580 -3125 0
20735 3209 1918 -2580 3125 0
22771 3209 1918 -2580 -3125 0
24505 3209 -1918 2580 3125 0
26088 3209 -1918 2580 -3125 0
31762 3209 -1918 -2580 3125 0
32475 3209 -1918 -2580 -3125 0
26390 -3209 1918 2580 3125 0
27747 -3209 1918 2580 -3125 0
32611 -3209 1918 -2580 3125 0
33221 -3209 1918 -2580 -3125 0
33742 -3209 -1918 2580 3125 0
34217 -3209 -1918 2580 -3125 0
35919 -3209 -1918 -2580 3125 0
36132 -3209 -1918 -2580 -3125 0
4290 2254 -1755 0
25740 -2254 1755 0
27456 -2254 -1755 0
4650 1289 3160 2805 -1881 0
2790 1289 3160 -2805 1881 0
5348 1289 3160 -2805 -1881 0
4340 1289 -3160 2805 1881 0
5735 1289 -3160 2805 -1881 0
5177 1289 -3160 -2805 1881 0
5944 1289 -3160 -2805 -1881 0
2790 -1289 3160 2805 1881 0
5348 -1289 3160 2805 -1881 0
4324 -1289 3160 -2805 1881 0
5731 -1289 3160 -2805 -1881 0
5177 -1289 -3160 2805 1881 0
5944 -1289 -3160 2805 -1881 0
5637 -1289 -3160 -2805 1881 0
6059 -1289 -3160 -2805 -1881 0
18850 -3229 0
27885 2946 -2272 0
25740 -2946 2272 0
36894 -2946 -2272 0
9425 2351 -1093 0
754 -2351 1093 0
9991 -2351 -1093 0
26390 -1137 0
35815 -1266 0
6080 1905 -2295 0
17100 -1905 2295 0
17708 -1905 -2295 0
15080 -1364 0
35815 1389 2358 -1355 0
15080 1389 -2358 1355 0
36569 1389 -2358 -1355 0
26390 -1389 2358 1355 0
37134 -1389 2358 -1355 0
30914 -1389 -2358 1355 0
37361 -1389 -2358 -1355 0
13728 -3001 0
8550 2157 -1387 0
2850 -2157 1387 0
10117 -2157 -1387 0
18050 1087 2167 3203 -2284 0
6080 1087 2167 -3203 2284 0
18354 1087 2167 -3203 -2284 0
14250 1087 -2167 3203 2284 0
18762 1087 -2167 3203 -2284 0
15770 1087 -2167 -3203 2284 0
18839 1087 -2167 -3203 -2284 0
13300 -1087 2167 3203 2284 0
18715 -1087 2167 3203 -2284 0
15124 -1087 2167 -3203 2284 0
18806 -1087 2167 -3203 -2284 0
17575 -1087 -2167 3203 2284 0
18929 -1087 -2167 3203 -2284 0
18031 -1087 -2167 -3203 2284 0
18952 -1087 -2167 -3203 -2284 0
16302 -1198 0
11400 -2310 0
5890 1549 1968 2766 -1638 0
5890 1549 1968 -2766 1638 0
6184 1549 1968 -2766 -1638 0
4340 1549 -1968 2766 1638 0
6107 1549 -1968 2766 -1638 0
6107 1549 -1968 -2766 1638 0
6195 1549 -1968 -2766 -1638 0
4340 -1549 1968 2766 1638 0
6107 -1549 1968 2766 -1638 0
6107 -1549 1968 -2766 1638 0
6195 -1549 1968 -2766 -1638 0
5642 -1549 -1968 2766 1638 0
6172 -1549 -1968 2766 -1638 0
6172 -1549 -1968 -2766 1638 0
6199 -1549 -1968 -2766 -1638 0
33930 2672 1224 -1542 0
24505 2672 -1224 1542 0
36381 2672 -1224 -1542 0
13195 -2672 1224 1542 0
35250 -2672 1224 -1542 0
29123 -2672 -1224 1542 0
36842 -2672 -1224 -1542 0
26390 2960 1330 1189 -1894 0
1885 2960 1330 -1189 1894 0
26956 2960 1330 -1189 -1894 0
3770 2960 -1330 1189 1894 0
27521 2960 -1330 1189 -1894 0
5467 2960 -1330 -1189 1894 0
28030 2960 -1330 -1189 -1894 0
24505 -2960 1330 1189 1894 0
33742 -2960 1330 1189 -1894 0
25165 -2960 1330 -1189 1894 0
33939 -2960 1330 -1189 -1894 0
25825 -2960 -1330 1189 1894 0
34137 -2960 -1330 1189 -1894 0
26418 -2960 -1330 -1189 1894 0
34315 -2960 -1330 -1189 -1894 0
3745 -1770 0
4030 -1140 0
6955 3104 -1627 0
3210 -3104 1627 0
8078 -3104 -1627 0
4750 2969 -2285 0
10450 -2969 2285 0
12588 -2969 -2285 0
15080 -2046 0
7220 1505 2103 2799 -3194 0
6650 1505 2103 -2799 3194 0
11343 1505 2103 -2799 -3194 0
15200 1505 -2103 2799 3194 0
16644 1505 -2103 2799 -3194 0
16530 1505 -2103 -2799 3194 0
17469 1505 -2103 -2799 -3194 0
7600 -1505 2103 2799 3194 0
11932 -1505 2103 2799 -3194 0
11590 -1505 2103 -2799 3194 0
14406 -1505 2103 -2799 -3194 0
16720 -1505 -2103 2799 3194 0
17586 -1505 -2103 2799 -3194 0
17518 -1505 -2103 -2799 3194 0
18081 -1505 -2103 -2799 -3194 0
16965 2629 1450 -3007 0
1885 2629 -1450 3007 0
18002 2629 -1450 -3007 0
35815 -2629 1450 3007 0
36663 -2629 1450 -3007 0
35909 -2629 -1450 3007 0
36715 -2629 -1450 -3007 0
4960 -3323 0
38610 1492 1332 -2498 0
40755 1492 -1332 2498 0
42686 1492 -1332 -2498 0
30030 -1492 1332 2498 0
41613 -1492 1332 -2498 0
42256 -1492 -1332 2498 0
42836 -1492 -1332 -2498 0
9095 3043 -3077 0
4066 -3043 3077 0
9705 -3043 -3077 0
13300 -2957 0
1605 2276 -2460 0
8560 -2276 2460 0
8881 -2276 -2460 0
17100 1775 -2499 0
5700 -1775 2499 0
17670 -1775 -2499 0
2140 1322 1612 2066 -2073 0
8560 1322 1612 -2066 2073 0
8988 1322 1612 -2066 -2073 0
3210 1322 -1612 2066 2073 0
4708 1322 -1612 2066 -2073 0
9202 1322 -1612 -2066 2073 0
9502 1322 -1612 -2066 -2073 0
2675 -1322 1612 2066 2073 0
4280 -1322 1612 2066 -2073 0
9095 -1322 1612 -2066 2073 0
9416 -1322 1612 -2066 -2073 0
5083 -1322 -1612 2066 2073 0
6206 -1322 -1612 2066 -2073 0
9577 -1322 -1612 -2066 2073 0
9801 -1322 -1612 -2066 -2073 0
3745 1176 2575 1258 -1568 0
2675 1176 2575 -1258 1568 0
5484 1176 2575 -1258 -1568 0
8025 1176 -2575 1258 1568 0
8961 1176 -2575 1258 -1568 0
8694 1176 -2575 -1258 1568 0
9396 1176 -2575 -1258 -1568 0
10165 -1176 2575 1258 1568 0
10352 -1176 2575 1258 -1568 0
10299 -1176 2575 -1258 1568 0
10439 -1176 2575 -1258 -1568 0
10566 -1176 -2575 1258 1568 0
10613 -1176 -2575 1258 -1568 0
10600 -1176 -2575 -1258 1568 0
10635 -1176 -2575 -1258 -1568 0
1284 2333 3136 -2152 0
8560 2333 -3136 2152 0
8817 2333 -3136 -2152 0
5350 -2333 3136 2152 0
5992 -2333 3136 -2152 0
9630 -2333 -3136 2152 0
9758 -2333 -3136 -2152 0
17100 -1822 0
2280 2357 2655 -2153 0
6080 2357 -2655 2153 0
7630 2357 -2655 -2153 0
7220 -2357 2655 2153 0
8634 -2357 2655 -2153 0
10990 -2357 -2655 2153 0
11951 -2357 -2655 -2153 0
17160 2186 1648 2710 -1227 0
36465 2186 1648 -2710 1227 0
39039 2186 1648 -2710 -1227 0
12870 2186 -1648 2710 1227 0
24882 2186 -1648 2710 -1227 0
38395 2186 -1648 -2710 1227 0
40197 2186 -1648 -2710 -1227 0
30030 -2186 1648 2710 1227 0
35178 -2186 1648 2710 -1227 0
40969 -2186 1648 -2710 1227 0
41742 -2186 1648 -2710 -1227 0
33891 -2186 -1648 2710 1227 0
37495 -2186 -1648 2710 -1227 0
41549 -2186 -1648 -2710 1227 0
42089 -2186 -1648 -2710 -1227 0
5270 3029 1976 1639 1650 -3271 0
1860 3029 1976 1639 -1650 3271 0
5549 3029 1976 1639 -1650 -3271 0
4030 3029 1976 -1639 1650 3271 0
5874 3029 1976 -1639 1650 -3271 0
4681 3029 1976 -1639 -1650 3271 0
5972 3029 1976 -1639 -1650 -3271 0
3100 3029 -1976 1639 1650 3271 0
5735 3029 -1976 1639 1650 -3271 0
4030 3029 -1976 1639 -1650 3271 0
5874 3029 -1976 1639 -1650 -3271 0
5115 3029 -1976 -1639 1650 3271 0
6037 3029 -1976 -1639 1650 -3271 0
5441 3029 -1976 -1639 -1650 3271 0
6086 3029 -1976 -1639 -1650 -3271 0
4340 -3029 1976 1639 1650 3271 0
5921 -3029 1976 1639 1650 -3271 0
4898 -3029 1976 1639 -1650 3271 0
6005 -3029 1976 1639 -1650 -3271 0
5549 -3029 1976 -1639 1650 3271 0
6102 -3029 1976 -1639 1650 -3271 0
5744 -3029 1976 -1639 -1650 3271 0
6132 -3029 1976 -1639 -1650 -3271 0
5270 -3029 -1976 1639 1650 3271 0
6061 -3029 -1976 1639 1650 -3271 0
5549 -3029 -1976 1639 -1650 3271 0
6102 -3029 -1976 1639 -1650 -3271 0
5874 -3029 -1976 -1639 1650 3271 0
6151 -3029 -1976 -1639 1650 -3271 0
5972 -3029 -1976 -1639 -1650 3271 0
6166 -3029 -1976 -1639 -1650 -3271 0
1116 1393 1006 -1584 0
2170 1393 -1006 1584 0
2895 1393 -1006 -1584 0
124 -1393 1006 1584 0
1218 -1393 1006 -1584 0
2251 -1393 -1006 1584 0
2961 -1393 -1006 -1584 0
6435 2076 2547 -2040 0
21450 2076 -2547 2040 0
24667 2076 -2547 -2040 0
23595 -2076 2547 2040 0
26491 -2076 2547 -2040 0
33248 -2076 -2547 2040 0
34695 -2076 -2547 -2040 0
14250 -2975 0
4290 -2326 0
6650 -1367 0
16965 1758 1669 -2816 0
7540 1758 -1669 2816 0
21112 1758 -1669 -2816 0
32045 -1758 1669 2816 0
34590 -1758 1669 -2816 0
33176 -1758 -1669 2816 0
35212 -1758 -1669 -2816 0
7600 3235 2851 1686 -3256 0
6080 3235 2851 -1686 3256 0
11248 3235 2851 -1686 -3256 0
1900 3235 -2851 1686 3256 0
8740 3235 -2851 1686 -3256 0
7372 3235 -2851 -1686 3256 0
12023 3235 -2851 -1686 -3256 0
10450 -3235 2851 1686 3256 0
13870 -3235 2851 1686 -3256 0
13186 -3235 2851 -1686 3256 0
15512 -3235 2851 -1686 -3256 0
11305 -3235 -2851 1686 3256 0
14383 -3235 -2851 1686 -3256 0
13767 -3235 -2851 -1686 3256 0
15860 -3235 -2851 -1686 -3256 0
20735 1532 2044 -1039 0
30160 1532 -2044 1039 0
34307 1532 -2044 -1039 0
24505 -1532 2044 1039 0
31762 -1532 2044 -1039 0
35061 -1532 -2044 1039 0
36512 -1532 -2044 -1039 0
930 2661 1891 -2004 0
5580 2661 -1891 2004 0
5673 2661 -1891 -2004 0
1550 -2661 1891 2004 0
2248 -2661 1891 -2004 0
5735 -2661 -1891 2004 0
5805 -2661 -1891 -2004 0
5885 1246 -1348 0
8025 -1246 1348 0
9496 -1246 -1348 0
23595 -1700 0
1284 2206 -3113 0
9095 -2206 3113 0
9288 -2206 -3113 0
23595 1865 1079 -3249 0
17160 1865 -1079 3249 0
31317 1865 -1079 -3249 0
5148 -1865 1079 3249 0
25912 -1865 1079 -3249 0
20249 -1865 -1079 3249 0
32707 -1865 -1079 -3249 0
2145 2862 -2248 0
27885 -2862 2248 0
28636 -2862 -2248 0
7722 2251 1592 -2360 0
10725 2251 -1592 2360 0
16516 2251 -1592 -2360 0
13728 -2251 1592 2360 0
18979 -2251 1592 -2360 0
21021 -2251 -1592 2360 0
24959 -2251 -1592 -2360 0
1860 1366 1884 1601 -3375 0
930 1366 1884 -1601 3375 0
2511 1366 1884 -1601 -3375 0
744 1366 -1884 1601 3375 0
2381 1366 -1884 1601 -3375 0
1562 1366 -1884 -1601 3375 0
2954 1366 -1884 -1601 -3375 0
4030 -1366 1884 1601 3375 0
4681 -1366 1884 1601 -3375 0
4355 -1366 1884 -1601 3375 0
4909 -1366 1884 -1601 -3375 0
4290 -1366 -1884 1601 3375 0
4863 -1366 -1884 1601 -3375 0
4577 -1366 -1884 -1601 3375 0
5064 -1366 -1884 -1601 -3375 0
3770 2892 -1156 0
15080 -2892 1156 0
17342 -2892 -1156 0
1116 -2656 0
16302 2593 -1794 0
10725 -2593 1794 0
22952 -2593 -1794 0
36465 2438 -3108 0
4290 -2438 3108 0
37108 -2438 -3108 0
14250 1929 -1740 0
9500 -1929 1740 0
16625 -1929 -1740 0
35815 -1171 0
2790 2328 1461 1309 1388 -2123 0
310 2328 1461 1309 -1388 2123 0
2961 2328 1461 1309 -1388 -2123 0
1550 2328 1461 -1309 1388 2123 0
3642 2328 1461 -1309 1388 -2123 0
1783 2328 1461 -1309 -1388 2123 0
3770 2328 1461 -1309 -1388 -2123 0
4030 2328 -1461 1309 1388 2123 0
5006 2328 -1461 1309 1388 -2123 0
4138 2328 -1461 1309 -1388 2123 0
5066 2328 -1461 1309 -1388 -2123 0
4573 2328 -1461 -1309 1388 2123 0
5305 2328 -1461 -1309 1388 -2123 0
4654 2328 -1461 -1309 -1388 2123 0
5350 2328 -1461 -1309 -1388 -2123 0
5580 -2328 1461 1309 1388 2123 0
5859 -2328 1461 1309 1388 -2123 0
5611 -2328 1461 1309 -1388 2123 0
5876 -2328 1461 1309 -1388 -2123 0
5735 -2328 1461 -1309 1388 2123 0
5944 -2328 1461 -1309 1388 -2123 0
5758 -2328 1461 -1309 -1388 2123 0
5957 -2328 1461 -1309 -1388 -2123 0
5983 -2328 -1461 1309 1388 2123 0
6081 -2328 -1461 1309 1388 -2123 0
5994 -2328 -1461 1309 -1388 2123 0
6087 -2328 -1461 1309 -1388 -2123 0
6037 -2328 -1461 -1309 1388 2123 0
6110 -2328 -1461 -1309 1388 -2123 0
6045 -2328 -1461 -1309 -1388 2123 0
6115 -2328 -1461 -1309 -1388 -2123 0
4290 3263 -3192 0
8580 -3263 3192 0
12012 -3263 -3192 0
13195 2613 3231 2867 -2750 0
14326 2613 3231 -2867 2750 0
22507 2613 3231 -2867 -2750 0
13195 2613 -3231 2867 2750 0
21772 2613 -3231 2867 -2750 0
22507 2613 -3231 -2867 2750 0
27824 2613 -3231 -2867 -2750 0
9425 -2613 3231 2867 2750 0
19321 -2613 3231 2867 -2750 0
20170 -2613 3231 -2867 2750 0
26305 -2613 3231 -2867 -2750 0
19321 -2613 -3231 2867 2750 0
25754 -2613 -3231 2867 -2750 0
26305 -2613 -3231 -2867 2750 0
30293 -2613 -3231 -2867 -2750 0
4750 2564 2492 1486 -1900 0
5700 2564 2492 -1486 1900 0
9025 2564 2492 -1486 -1900 0
5700 2564 -2492 1486 1900 0
9025 2564 -2492 1486 -1900 0
9690 2564 -2492 -1486 1900 0
12018 2564 -2492 -1486 -1900 0
8550 -2564 2492 1486 1900 0
11162 -2564 2492 1486 -1900 0
11685 -2564 2492 -1486 1900 0
13514 -2564 2492 -1486 -1900 0
11685 -2564 -2492 1486 1900 0
13514 -2564 -2492 1486 -1900 0
13880 -2564 -2492 -1486 1900 0
15160 -2564 -2492 -1486 -1900 0
35815 1771 -2201 0
16965 -1771 2201 0
36663 -1771 -2201 0
3100 2721 1146 1833 2434 -1164 0
310 2721 1146 1833 -2434 1164 0
3255 2721 1146 1833 -2434 -1164 0
1116 2721 1146 -1833 2434 1164 0
3658 2721 1146 -1833 2434 -1164 0
1370 2721 1146 -1833 -2434 1164 0
3785 2721 1146 -1833 -2434 -1164 0
1116 2721 -1146 1833 2434 1164 0
3658 2721 -1146 1833 2434 -1164 0
1370 2721 -1146 1833 -2434 1164 0
3785 2721 -1146 1833 -2434 -1164 0
2031 2721 -1146 -1833 2434 1164 0
4116 2721 -1146 -1833 2434 -1164 0
2240 2721 -1146 -1833 -2434 1164 0
4220 2721 -1146 -1833 -2434 -1164 0
124 -2721 1146 1833 2434 1164 0
3162 -2721 1146 1833 2434 -1164 0
428 -2721 1146 1833 -2434 1164 0
3314 -2721 1146 1833 -2434 -1164 0
1218 -2721 1146 -1833 2434 1164 0
3709 -2721 1146 -1833 2434 -1164 0
1467 -2721 1146 -1833 -2434 1164 0
3833 -2721 1146 -1833 -2434 -1164 0
1218 -2721 -1146 1833 2434 1164 0
3709 -2721 -1146 1833 2434 -1164 0
1467 -2721 -1146 1833 -2434 1164 0
3833 -2721 -1146 1833 -2434 -1164 0
2114 -2721 -1146 -1833 2434 1164 0
4157 -2721 -1146 -1833 2434 -1164 0
2319 -2721 -1146 -1833 -2434 1164 0
4259 -2721 -1146 -1833 -2434 -1164 0
36465 1907 -1733 0
25740 -1907 1733 0
40326 -1907 -1733 0
14326 1664 -1376 0
35815 -1664 1376 0
36531 -1664 -1376 0
14250 1261 3356 2790 -2293 0
1900 1261 3356 -2790 2293 0
14725 1261 3356 -2790 -2293 0
11400 1261 -3356 2790 2293 0
17100 1261 -3356 2790 -2293 0
12160 1261 -3356 -2790 2293 0
17290 1261 -3356 -2790 -2293 0
950 -1261 3356 2790 2293 0
14488 -1261 3356 2790 -2293 0
2755 -1261 3356 -2790 2293 0
14939 -1261 3356 -2790 -2293 0
11780 -1261 -3356 2790 2293 0
17195 -1261 -3356 2790 -2293 0
12502 -1261 -3356 -2790 2293 0
17375 -1261 -3356 -2790 -2293 0
1240 2169 2993 1059 -1690 0
5270 2169 2993 -1059 1690 0
5456 2169 2993 -1059 -1690 0
1984 2169 -2993 1059 1690 0
2827 2169 -2993 1059 -1690 0
5568 2169 -2993 -1059 1690 0
5694 2169 -2993 -1059 -1690 0
1116 -2169 2993 1059 1690 0
2133 -2169 2993 1059 -1690 0
5437 -2169 2993 -1059 1690 0
5590 -2169 2993 -1059 -1690 0
2743 -2169 -2993 1059 1690 0
3434 -2169 -2993 1059 -1690 0
5681 -2169 -2993 -1059 1690 0
5785 -2169 -2993 -1059 -1690 0
34320 2128 1722 2622 1424 -2591 0
6435 2128 1722 2622 -1424 2591 0
35607 2128 1722 2622 -1424 -2591 0
7722 2128 1722 -2622 1424 2591 0
35864 2128 1722 -2622 1424 -2591 0
12999 2128 1722 -2622 -1424 2591 0
36920 2128 1722 -2622 -1424 -2591 0
13728 2128 -1722 2622 1424 2591 0
37066 2128 -1722 2622 1424 -2591 0
18104 2128 -1722 2622 -1424 2591 0
37941 2128 -1722 2622 -1424 -2591 0
18979 2128 -1722 -2622 1424 2591 0
38116 2128 -1722 -2622 1424 -2591 0
22567 2128 -1722 -2622 -1424 2591 0
38833 2128 -1722 -2622 -1424 -2591 0
858 -2128 1722 2622 1424 2591 0
34492 -2128 1722 2622 1424 -2591 0
7164 -2128 1722 2622 -1424 2591 0
35753 -2128 1722 2622 -1424 -2591 0
8426 -2128 1722 -2622 1424 2591 0
36005 -2128 1722 -2622 1424 -2591 0
13597 -2128 1722 -2622 -1424 2591 0
37039 -2128 1722 -2622 -1424 -2591 0
14311 -2128 -1722 2622 1424 2591 0
37182 -2128 -1722 2622 1424 -2591 0
18600 -2128 -1722 2622 -1424 2591 0
38040 -2128 -1722 2622 -1424 -2591 0
19457 -2128 -1722 -2622 1424 2591 0
38211 -2128 -1722 -2622 1424 -2591 0
22974 -2128 -1722 -2622 -1424 2591 0
38915 -2128 -1722 -2622 -1424 -2591 0
12350 1452 2956 -1259 0
2280 1452 -2956 1259 0
13148 1452 -2956 -1259 0
15200 -1452 2956 1259 0
17670 -1452 2956 -1259 0
15656 -1452 -2956 1259 0
17830 -1452 -2956 -1259 0
9630 1165 1741 -1183 0
5885 1165 -1741 1183 0
10219 1165 -1741 -1183 0
7490 -1165 1741 1183 0
10379 -1165 1741 -1183 0
9255 -1165 -1741 1183 0
10556 -1165 -1741 -1183 0
32045 1468 3109 2701 -1789 0
30160 1468 3109 -2701 1789 0
36569 1468 3109 -2701 -1789 0
22620 1468 -3109 2701 1789 0
35438 1468 -3109 2701 -1789 0
34684 1468 -3109 -2701 1789 0
37248 1468 -3109 -2701 -1789 0
24505 -1468 3109 2701 1789 0
35721 -1468 3109 2701 -1789 0
35061 -1468 3109 -2701 1789 0
37304 -1468 3109 -2701 -1789 0
32422 -1468 -3109 2701 1789 0
36908 -1468 -3109 2701 -1789 0
36644 -1468 -3109 -2701 1789 0
37542 -1468 -3109 -2701 -1789 0
26390 1718 -2632 0
18850 -1718 2632 0
32045 -1718 -2632 0
24505 2497 2476 -1460 0
26390 2497 -2476 1460 0
33742 2497 -2476 -1460 0
12064 -2497 2476 1460 0
28727 -2497 2476 -1460 0
30009 -2497 -2476 1460 0
35008 -2497 -2476 -1460 0
14326 3222 -2885 0
1885 -3222 2885 0
15495 -3222 -2885 0
1284 2412 -2343 0
214 -2412 2343 0
1472 -2412 -2343 0
930 2947 2813 -1647 0
2170 2947 -2813 1647 0
2775 2947 -2813 -1647 0
2790 -2947 2813 1647 0
3302 -2947 2813 -1647 0
3984 -2947 -2813 1647 0
4316 -2947 -2813 -1647 0
2790 1023 -2190 0
3410 -1023 2190 0
4665 -1023 -2190 0
34320 2764 -2841 0
17160 -2764 2841 0
37752 -2764 -2841 0
535 1175 -3241 0
214 -1175 3241 0
738 -1175 -3241 0
8560 -1011 0
950 -3019 0
10165 2113 1754 -3292 0
8560 2113 -1754 3292 0
10593 2113 -1754 -3292 0
9095 -2113 1754 3292 0
10620 -2113 1754 -3292 0
10379 -2113 -1754 3292 0
10684 -2113 -1754 -3292 0
2170 -1403 0
2145 -2026 0
2850 2352 2404 -2650 0
7220 2352 -2404 2650 0
8987 2352 -2404 -2650 0
950 -2352 2404 2650 0
3658 -2352 2404 -2650 0
7809 -2352 -2404 2650 0
9488 -2352 -2404 -2650 0
13195 -2035 0
3100 2718 -1035 0
930 -2718 1035 0
3565 -2718 -1035 0
2280 3333 -2948 0
380 -3333 2948 0
2614 -3333 -2948 0
13728 2715 -3197 0
40755 -2715 3197 0
41441 -2715 -3197 0
4290 -2266 0
5890 1410 -2446 0
4960 -1410 2446 0
6138 -1410 -2446 0
2850 -2411 0
4340 -2455 0
9630 3291 1214 1466 -1511 0
10165 3291 1214 -1466 1511 0
10647 3291 1214 -1466 -1511 0
6420 3291 -1214 1466 1511 0
10272 3291 -1214 1466 -1511 0
10486 3291 -1214 -1466 1511 0
10679 3291 -1214 -1466 -1511 0
5350 -3291 1214 1466 1511 0
10165 -3291 1214 1466 -1511 0
10433 -3291 1214 -1466 1511 0
10673 -3291 1214 -1466 -1511 0
8560 -3291 -1214 1466 1511 0
10486 -3291 -1214 1466 -1511 0
10593 -3291 -1214 -1466 1511 0
10689 -3291 -1214 -1466 -1511 0
9630 1091 2907 -3335 0
7490 1091 -2907 3335 0
10379 1091 -2907 -3335 0
4066 -1091 2907 3335 0
10037 -1091 2907 -3335 0
8710 -1091 -2907 3335 0
10501 -1091 -2907 -3335 0
8580 2300 2084 -3346 0
30030 2300 -2084 3346 0
32604 2300 -2084 -3346 0
7722 -2300 2084 3346 0
14758 -2300 2084 -3346 0
32347 -2300 -2084 3346 0
34457 -2300 -2084 -3346 0
16302 1359 3374 -2340 0
8580 1359 -3374 2340 0
21622 1359 -3374 -2340 0
10725 -1359 3374 2340 0
22952 -1359 3374 -2340 0
17160 -1359 -3374 2340 0
26941 -1359 -3374 -2340 0
27885 1132 2734 -1315 0
5148 1132 -2734 1315 0
29687 1132 -2734 -1315 0
21450 -1132 2734 1315 0
35392 -1132 2734 -1315 0
24024 -1132 -2734 1315 0
36293 -1132 -2734 -1315 0
5350 1009 2341 2915 -1817 0
1926 1009 2341 -2915 1817 0
6313 1009 2341 -2915 -1817 0
1926 1009 -2341 2915 1817 0
6313 1009 -2341 2915 -1817 0
3505 1009 -2341 -2915 1817 0
7103 1009 -2341 -2915 -1817 0
535 -1009 2341 2915 1817 0
5618 -1009 2341 2915 -1817 0
2365 -1009 2341 -2915 1817 0
6532 -1009 2341 -2915 -1817 0
2365 -1009 -2341 2915 1817 0
6532 -1009 -2341 2915 -1817 0
3865 -1009 -2341 -2915 1817 0
7283 -1009 -2341 -2915 -1817 0
33930 -1593 0
14250 3002 1513 -2200 0
1900 3002 -1513 2200 0
14725 3002 -1513 -2200 0
18050 -3002 1513 2200 0
18762 -3002 1513 -2200 0
18145 -3002 -1513 2200 0
18786 -3002 -1513 -2200 0
9425 3059 2015 2776 -1112 0
20735 3059 2015 -2776 1112 0
24976 3059 2015 -2776 -1112 0
13195 3059 -2015 2776 1112 0
19321 3059 -2015 2776 -1112 0
26673 3059 -2015 -2776 1112 0
29430 3059 -2015 -2776 -1112 0
24505 -3059 2015 2776 1112 0
27804 -3059 2015 2776 -1112 0
31762 -3059 2015 -2776 1112 0
33247 -3059 2015 -2776 -1112 0
29123 -3059 -2015 2776 1112 0
31267 -3059 -2015 2776 -1112 0
33840 -3059 -2015 -2776 1112 0
34805 -3059 -2015 -2776 -1112 0
8580 -2502 0
17160 1351 2443 3282 -1321 0
17160 1351 2443 -3282 1321 0
27456 1351 2443 -3282 -1321 0
38610 1351 -2443 3282 1321 0
40326 1351 -2443 3282 -1321 0
40326 1351 -2443 -3282 1321 0
41356 1351 -2443 -3282 -1321 0
13728 -1351 2443 3282 1321 0
25397 -1351 2443 3282 -1321 0
25397 -1351 2443 -3282 1321 0
32398 -1351 2443 -3282 -1321 0
39983 -1351 -2443 3282 1321 0
41150 -1351 -2443 3282 -1321 0
41150 -1351 -2443 -3282 1321 0
41850 -1351 -2443 -3282 -1321 0
2675 1550 2393 -3167 0
5350 1550 -2393 3167 0
6688 1550 -2393 -3167 0
4280 -1550 2393 3167 0
5885 -1550 2393 -3167 0
7490 -1550 -2393 3167 0
8292 -1550 -2393 -3167 0
3424 3371 -1264 0
5885 -3371 1264 0
7426 -3371 -1264 0
4340 -2638 0
8580 -3163 0
2170 1885 2407 1275 -2141 0
930 1885 2407 -1275 2141 0
2775 1885 2407 -1275 -2141 0
1240 1885 -2407 1275 2141 0
2976 1885 -2407 1275 -2141 0
1984 1885 -2407 -1275 2141 0
3460 1885 -2407 -1275 -2141 0
2356 -1885 2407 1275 2141 0
3701 -1885 2407 1275 -2141 0
2933 -1885 2407 -1275 2141 0
4076 -1885 2407 -1275 -2141 0
3125 -1885 -2407 1275 2141 0
4201 -1885 -2407 1275 -2141 0
3586 -1885 -2407 -1275 2141 0
4501 -1885 -2407 -1275 -2141 0
17100 2403 1779 -2363 0
11400 2403 -1779 2363 0
18240 2403 -1779 -2363 0
9500 -2403 1779 2363 0
18050 -2403 1779 -2363 0
15200 -2403 -1779 2363 0
18620 -2403 -1779 -2363 0
4340 -2952 0
36465 1897 -1497 0
6435 -1897 1497 0
37430 -1897 -1497 0
9425 2533 3100 2544 -1522 0
3770 2533 3100 -2544 1522 0
12252 2533 3100 -2544 -1522 0
16965 2533 -3100 2544 1522 0
22149 2533 -3100 2544 -1522 0
19038 2533 -3100 -2544 1522 0
23704 2533 -3100 -2544 -1522 0
15080 -2533 3100 2544 1522 0
20735 -2533 3100 2544 -1522 0
17342 -2533 3100 -2544 1522 0
22431 -2533 3100 -2544 -1522 0
25259 -2533 -3100 2544 1522 0
28369 -2533 -3100 2544 -1522 0
26503 -2533 -3100 -2544 1522 0
29302 -2533 -3100 -2544 -1522 0
5350 2800 -1680 0
8025 -2800 1680 0
9362 -2800 -1680 0
1240 3286 -1044 0
1116 -3286 1044 0
2133 -3286 -1044 0
7540 2406 2659 -1402 0
3770 2406 -2659 1402 0
10556 2406 -2659 -1402 0
20735 -2406 2659 1402 0
24128 -2406 2659 -1402 0
22431 -2406 -2659 1402 0
25485 -2406 -2659 -1402 0
22620 3131 -1319 0
13195 -3131 1319 0
27898 -3131 -1319 0
20735 2809 3237 1558 -1507 0
35815 2809 3237 -1558 1507 0
36852 2809 3237 -1558 -1507 0
30160 2809 -3237 1558 1507 0
34307 2809 -3237 1558 -1507 0
37323 2809 -3237 -1558 1507 0
37530 2809 -3237 -1558 -1507 0
16965 -2809 3237 1558 1507 0
28369 -2809 3237 1558 -1507 0
36663 -2809 3237 -1558 1507 0
37233 -2809 3237 -1558 -1507 0
33553 -2809 -3237 1558 1507 0
35834 -2809 -3237 1558 -1507 0
37493 -2809 -3237 -1558 1507 0
37607 -2809 -3237 -1558 -1507 0
3100 1328 1999 -1853 0
4650 1328 -1999 1853 0
5425 1328 -1999 -1853 0
3100 -1328 1999 1853 0
4650 -1328 1999 -1853 0
5425 -1328 -1999 1853 0
5812 -1328 -1999 -1853 0
22620 -2893 0
11310 2985 -2324 0
1885 -2985 2324 0
12630 -2985 -2324 0
1860 1459 1025 -2759 0
5890 1459 -1025 2759 0
5983 1459 -1025 -2759 0
124 -1459 1025 2759 0
1947 -1459 1025 -2759 0
5896 -1459 -1025 2759 0
5987 -1459 -1025 -2759 0
4066 2241 1053 -1997 0
1926 2241 -1053 1997 0
5260 2241 -1053 -1997 0
214 -2241 1053 1997 0
4199 -2241 1053 -1997 0
2101 -2241 -1053 1997 0
5369 -2241 -1053 -1997 0
4750 3220 2824 -1840 0
6080 3220 -2824 1840 0
9310 3220 -2824 -1840 0
6080 -3220 2824 1840 0
9310 -3220 2824 -1840 0
10214 -3220 -2824 1840 0
12411 -3220 -2824 -1840 0
7490 1122 -1397 0
6955 -1122 1397 0
9577 -1122 -1397 0
26390 3385 -1525 0
20735 -3385 1525 0
32611 -3385 -1525 0
19305 3041 1780 2376 -1847 0
16302 3041 1780 -2376 1847 0
28271 3041 1780 -2376 -1847 0
27885 3041 -1780 2376 1847 0
34642 3041 -1780 2376 -1847 0
33591 3041 -1780 -2376 1847 0
37780 3041 -1780 -2376 -1847 0
8580 -3041 1780 2376 1847 0
24024 -3041 1780 2376 -1847 0
21622 -3041 1780 -2376 1847 0
31197 -3041 1780 -2376 -1847 0
30888 -3041 -1780 2376 1847 0
36293 -3041 -1780 2376 -1847 0
35453 -3041 -1780 -2376 1847 0
38804 -3041 -1780 -2376 -1847 0
5885 2772 2018 -2666 0
3424 2772 -2018 2666 0
7426 2772 -2018 -2666 0
4066 -2772 2018 2666 0
7715 -2772 2018 -2666 0
6189 -2772 -2018 2666 0
8670 -2772 -2018 -2666 0
7220 3343 -2189 0
10450 -3343 2189 0
13699 -3343 -2189 0
30030 2304 -2405 0
6435 -2304 2405 0
31961 -2304 -2405 0
8580 -2246 0
28275 2939 1619 -3366 0
24505 2939 -1619 3366 0
34401 2939 -1619 -3366 0
11310 -2939 1619 3366 0
31102 -2939 1619 -3366 0
28463 -2939 -1619 3366 0
35391 -2939 -1619 -3366 0
38610 2235 3400 2909 -3360 0
30030 2235 3400 -2909 3360 0
41613 2235 3400 -2909 -3360 0
4290 2235 -3400 2909 3360 0
39039 2235 -3400 2909 -3360 0
31317 2235 -3400 -2909 3360 0
41742 2235 -3400 -2909 -3360 0
16302 -2235 3400 2909 3360 0
40240 -2235 3400 2909 -3360 0
34921 -2235 3400 -2909 3360 0
42102 -2235 3400 -2909 -3360 0
18962 -2235 -3400 2909 3360 0
40506 -2235 -3400 2909 -3360 0
35719 -2235 -3400 -2909 3360 0
42182 -2235 -3400 -2909 -3360 0
2850 1417 2146 1373 2424 -2024 0
7600 1417 2146 1373 -2424 2024 0
9310 1417 2146 1373 -2424 -2024 0
7220 1417 2146 -1373 2424 2024 0
8987 1417 2146 -1373 2424 -2024 0
11932 1417 2146 -1373 -2424 2024 0
12992 1417 2146 -1373 -2424 -2024 0
10450 1417 -2146 1373 2424 2024 0
11733 1417 -2146 1373 2424 -2024 0
13870 1417 -2146 1373 -2424 2024 0
14640 1417 -2146 1373 -2424 -2024 0
13699 1417 -2146 -1373 2424 2024 0
14494 1417 -2146 -1373 2424 -2024 0
15819 1417 -2146 -1373 -2424 2024 0
16296 1417 -2146 -1373 -2424 -2024 0
18050 -1417 2146 1373 2424 2024 0
18193 -1417 2146 1373 2424 -2024 0
18430 -1417 2146 1373 -2424 2024 0
18515 -1417 2146 1373 -2424 -2024 0
18411 -1417 2146 -1373 2424 2024 0
18499 -1417 2146 -1373 2424 -2024 0
18647 -1417 2146 -1373 -2424 2024 0
18700 -1417 2146 -1373 -2424 -2024 0
18572 -1417 -2146 1373 2424 2024 0
18637 -1417 -2146 1373 2424 -2024 0
18744 -1417 -2146 1373 -2424 2024 0
18782 -1417 -2146 1373 -2424 -2024 0
18735 -1417 -2146 -1373 2424 2024 0
18775 -1417 -2146 -1373 2424 -2024 0
18841 -1417 -2146 -1373 -2424 2024 0
18865 -1417 -2146 -1373 -2424 -2024 0
23595 1699 3162 3251 2090 -2583 0
5148 1699 3162 3251 -2090 2583 0
25912 1699 3162 3251 -2090 -2583 0
6435 1699 3162 -3251 2090 2583 0
26491 1699 3162 -3251 2090 -2583 0
10811 1699 3162 -3251 -2090 2583 0
28460 1699 3162 -3251 -2090 -2583 0
30030 1699 -3162 3251 2090 2583 0
37108 1699 -3162 3251 2090 -2583 0
31574 1699 -3162 3251 -2090 2583 0
37803 1699 -3162 3251 -2090 -2583 0
31961 1699 -3162 -3251 2090 2583 0
37977 1699 -3162 -3251 2090 -2583 0
33273 1699 -3162 -3251 -2090 2583 0
38568 1699 -3162 -3251 -2090 -2583 0
34320 -1699 3162 3251 2090 2583 0
39039 -1699 3162 3251 2090 -2583 0
35350 -1699 3162 3251 -2090 2583 0
39502 -1699 3162 3251 -2090 -2583 0
35607 -1699 3162 -3251 2090 2583 0
39618 -1699 3162 -3251 2090 -2583 0
36482 -1699 3162 -3251 -2090 2583 0
40012 -1699 3162 -3251 -2090 -2583 0
40326 -1699 -3162 3251 2090 2583 0
41742 -1699 -3162 3251 2090 -2583 0
40635 -1699 -3162 3251 -2090 2583 0
41881 -1699 -3162 3251 -2090 -2583 0
40712 -1699 -3162 -3251 2090 2583 0
41915 -1699 -3162 -3251 2090 -2583 0
40975 -1699 -3162 -3251 -2090 2583 0
42034 -1699 -3162 -3251 -2090 -2583 0
380 3363 1749 3165 -1077 0
18050 3363 1749 -3165 1077 0
18069 3363 1749 -3165 -1077 0
950 3363 -1749 3165 1077 0
1311 3363 -1749 3165 -1077 0
18097 3363 -1749 -3165 1077 0
18116 3363 -1749 -3165 -1077 0
2280 -3363 1749 3165 1077 0
2614 -3363 1749 3165 -1077 0
18164 -3363 1749 -3165 1077 0
18181 -3363 1749 -3165 -1077 0
3116 -3363 -1749 3165 1077 0
3434 -3363 -1749 3165 -1077 0
18206 -3363 -1749 -3165 1077 0
18222 -3363 -1749 -3165 -1077 0
6435 2145 -2588 0
6435 -2145 2588 0
11905 -2145 -2588 0
30030 -2777 0
1070 -1010 0
858 1642 -1445 0
25740 -1642 1445 0
26083 -1642 -1445 0
25740 1464 -1041 0
858 -1464 1041 0
26083 -1464 -1041 0
6650 1815 -2606 0
18050 -1815 2606 0
18383 -1815 -2606 0
930 -1793 0
38610 -2101 0
17100 2863 2298 -3135 0
16150 2863 -2298 3135 0
18715 2863 -2298 -3135 0
7600 -2863 2298 3135 0
17860 -2863 2298 -3135 0
17290 -2863 -2298 3135 0
18829 -2863 -2298 -3135 0
9425 1362 2023 -2197 0
4524 1362 -2023 2197 0
12818 1362 -2023 -2197 0
33930 -1362 2023 2197 0
34873 -1362 2023 -2197 0
34382 -1362 -2023 2197 0
35212 -1362 -2023 -2197 0
6435 3336 2060 -2927 0
30030 3336 -2060 2927 0
31961 3336 -2060 -2927 0
5148 -3336 2060 2927 0
10811 -3336 2060 -2927 0
31574 -3336 -2060 2927 0
33273 -3336 -2060 -2927 0
5270 1878 2229 -1846 0
2356 1878 -2229 1846 0
5623 1878 -2229 -1846 0
2170 -1878 2229 1846 0
5595 -1878 2229 -1846 0
3701 -1878 -2229 1846 0
5825 -1878 -2229 -1846 0
5885 1278 3279 -1941 0
3424 1278 -3279 1941 0
7426 1278 -3279 -1941 0
2675 -1278 3279 1941 0
7089 -1278 3279 -1941 0
5243 -1278 -3279 1941 0
8244 -1278 -3279 -1941 0
124 2457 -3266 0
310 -2457 3266 0
428 -2457 -3266 0
1926 -2971 0
3210 1665 1603 -2318 0
4280 1665 -1603 2318 0
6206 1665 -1603 -2318 0
8560 -1665 1603 2318 0
9202 -1665 1603 -2318 0
9416 -1665 -1603 2318 0
9801 -1665 -1603 -2318 0
754 -2561 0
30030 2388 2387 -2019 0
21450 2388 -2387 2019 0
36465 2388 -2387 -2019 0
13728 -2388 2387 2019 0
34148 -2388 2387 -2019 0
28314 -2388 -2387 2019 0
38524 -2388 -2387 -2019 0
124 2195 2937 -2244 0
4030 2195 -2937 2244 0
4073 2195 -2937 -2244 0
4960 -2195 2937 2244 0
4985 -2195 2937 -2244 0
5766 -2195 -2937 2244 0
5775 -2195 -2937 -2244 0
20735 -2966 0
1240 -1710 0
214 2541 1488 1143 -2664 0
7490 2541 1488 -1143 2664 0
7554 2541 1488 -1143 -2664 0
1070 2541 -1488 1143 2664 0
1263 2541 -1488 1143 -2664 0
7811 2541 -1488 -1143 2664 0
7869 2541 -1488 -1143 -2664 0
3210 -2541 1488 1143 2664 0
3360 -2541 1488 1143 -2664 0
8453 -2541 1488 -1143 2664 0
8498 -2541 1488 -1143 -2664 0
3959 -2541 -1488 1143 2664 0
4094 -2541 -1488 1143 -2664 0
8678 -2541 -1488 -1143 2664 0
8718 -2541 -1488 -1143 -2664 0
4750 3092 -2410 0
4750 -3092 2410 0
8312 -3092 -2410 0
620 3037 3307 -1607 0
1550 3037 -3307 1607 0
2015 3037 -3307 -1607 0
3100 -3037 3307 1607 0
3410 -3037 3307 -1607 0
3875 -3037 -3307 1607 0
4107 -3037 -3307 -1607 0
5270 3193 1317 2673 -2688 0
5580 3193 1317 -2673 2688 0
6107 3193 1317 -2673 -2688 0
2790 3193 -1317 2673 2688 0
5688 3193 -1317 2673 -2688 0
5859 3193 -1317 -2673 2688 0
6149 3193 -1317 -2673 -2688 0
1550 -3193 1317 2673 2688 0
5502 -3193 1317 2673 -2688 0
5735 -3193 1317 -2673 2688 0
6130 -3193 1317 -2673 -2688 0
3642 -3193 -1317 2673 2688 0
5816 -3193 -1317 2673 -2688 0
5944 -3193 -1317 -2673 2688 0
6162 -3193 -1317 -2673 -2688 0
124 2301 3097 -2836 0
5580 2301 -3097 2836 0
5592 2301 -3097 -2836 0
744 -2301 3097 2836 0
853 -2301 3097 -2836 0
5654 -2301 -3097 2836 0
5665 -2301 -3097 -2836 0
4290 -2259 0
1860 2384 1799 -1956 0
2790 2384 -1799 1956 0
3813 2384 -1799 -1956 0
310 -2384 1799 1956 0
2077 -2384 1799 -1956 0
2961 -2384 -1799 1956 0
3932 -2384 -1799 -1956 0
3720 -1621 0
25740 -3020 0
5885 3174 -2653 0
6420 -3174 2653 0
8774 -3174 -2653 0
8560 1048 -1877 0
10165 -1048 1877 0
10593 -1048 -1877 0
23595 1729 2514 -1188 0
12870 1729 -2514 1188 0
29387 1729 -2514 -1188 0
34320 -1729 2514 1188 0
39039 -1729 2514 -1188 0
36894 -1729 -2514 1188 0
40197 -1729 -2514 -1188 0
18050 2225 -1055 0
14250 -2225 1055 0
18762 -2225 -1055 0
34320 2555 2921 -2861 0
19305 2555 -2921 2861 0
38181 2555 -2921 -2861 0
7722 -2555 2921 2861 0
35864 -2555 2921 -2861 0
23552 -2555 -2921 2861 0
39030 -2555 -2921 -2861 0
4750 1028 1575 -2431 0
15200 1028 -1575 2431 0
16150 1028 -1575 -2431 0
380 -1028 1575 2431 0
5035 -1028 1575 -2431 0
15276 -1028 -1575 2431 0
16207 -1028 -1575 -2431 0
2790 1716 -2557 0
124 -1716 2557 0
2858 -1716 -2557 0
4340 3276 -2456 0
1550 -3276 2456 0
4805 -3276 -2456 0
1550 -1228 0
4280 2855 1178 -1841 0
7490 2855 -1178 1841 0
8774 2855 -1178 -1841 0
4280 -2855 1178 1841 0
6848 -2855 1178 -1841 0
8774 -2855 -1178 1841 0
9544 -2855 -1178 -1841 0
7600 2695 1978 -1737 0
3800 2695 -1978 1737 0
9880 2695 -1978 -1737 0
2850 -2695 1978 1737 0
9310 -2695 1978 -1737 0
6080 -2695 -1978 1737 0
11248 -2695 -1978 -1737 0
10450 3067 1151 -2843 0
16150 3067 -1151 2843 0
17718 3067 -1151 -2843 0
6080 -3067 1151 2843 0
13186 -3067 1151 -2843 0
17062 -3067 -1151 2843 0
18128 -3067 -1151 -2843 0
3420 2017 -1512 0
6080 -2017 1512 0
8406 -2017 -1512 0
16965 -1657 0
2145 2383 1808 1896 -1931 0
36465 2383 1808 -1896 1931 0
36787 2383 1808 -1896 -1931 0
8580 2383 -1808 1896 1931 0
10296 2383 -1808 1896 -1931 0
37752 2383 -1808 -1896 1931 0
38009 2383 -1808 -1896 -1931 0
25740 -2383 1808 1896 1931 0
26598 -2383 1808 1896 -1931 0
40326 -2383 1808 -1896 1931 0
40455 -2383 1808 -1896 -1931 0
29172 -2383 -1808 1896 1931 0
29858 -2383 -1808 1896 -1931 0
40841 -2383 -1808 -1896 1931 0
40944 -2383 -1808 -1896 -1931 0
1860 1493 2382 -2972 0
1550 1493 -2382 2972 0
2945 1493 -2382 -2972 0
1550 -1493 2382 2972 0
2945 -1493 2382 -2972 0
2712 -1493 -2382 2972 0
3759 -1493 -2382 -2972 0
35815 1086 3393 2419 -1421 0
33930 1086 3393 -2419 1421 0
37512 1086 3393 -2419 -1421 0
32045 1086 -3393 2419 1421 0
37417 1086 -3393 2419 -1421 0
37134 1086 -3393 -2419 1421 0
37672 1086 -3393 -2419 -1421 0
35815 -1086 3393 2419 1421 0
37606 -1086 3393 2419 -1421 0
37512 -1086 3393 -2419 1421 0
37691 -1086 3393 -2419 -1421 0
37417 -1086 -3393 2419 1421 0
37686 -1086 -3393 2419 -1421 0
37672 -1086 -3393 -2419 1421 0
37699 -1086 -3393 -2419 -1421 0
33930 2839 -1557 0
12064 -2839 1557 0
35136 -2839 -1557 0
12870 3314 -3042 0
30030 -3314 3042 0
33891 -3314 -3042 0
3424 1529 -1609 0
1070 -1529 1609 0
4152 -1529 -1609 0
3424 2250 3015 2728 -1901 0
8025 2250 3015 -2728 1901 0
8881 2250 3015 -2728 -1901 0
10165 2250 -3015 2728 1901 0
10336 2250 -3015 2728 -1901 0
10566 2250 -3015 -2728 1901 0
10609 2250 -3015 -2728 -1901 0
6420 -2250 3015 2728 1901 0
7790 -2250 3015 2728 -1901 0
9630 -2250 3015 -2728 1901 0
9972 -2250 3015 -2728 -1901 0
10486 -2250 -3015 2728 1901 0
10554 -2250 -3015 2728 -1901 0
10647 -2250 -3015 -2728 1901 0
10664 -2250 -3015 -2728 -1901 0
3100 1381 -1081 0
5890 -1381 1081 0
6045 -1381 -1081 0
18050 2914 1955 -2558 0
950 2914 -1955 2558 0
18097 2914 -1955 -2558 0
9500 -2914 1955 2558 0
18525 -2914 1955 -2558 0
9975 -2914 -1955 2558 0
18549 -2914 -1955 -2558 0
3210 2530 2375 1449 3265 -1323 0
4066 2530 2375 1449 -3265 1323 0
6056 2530 2375 1449 -3265 -1323 0
4066 2530 2375 -1449 3265 1323 0
6056 2530 2375 -1449 3265 -1323 0
6587 2530 2375 -1449 -3265 1323 0
7821 2530 2375 -1449 -3265 -1323 0
7490 2530 -2375 1449 3265 1323 0
8453 2530 -2375 1449 3265 -1323 0
8710 2530 -2375 1449 -3265 1323 0
9307 2530 -2375 1449 -3265 -1323 0
8710 2530 -2375 -1449 3265 1323 0
9307 2530 -2375 -1449 3265 -1323 0
9466 2530 -2375 -1449 -3265 1323 0
9836 2530 -2375 -1449 -3265 -1323 0
2675 -2530 2375 1449 3265 1323 0
5083 -2530 2375 1449 3265 -1323 0
5725 -2530 2375 1449 -3265 1323 0
7217 -2530 2375 1449 -3265 -1323 0
5725 -2530 2375 -1449 3265 1323 0
7217 -2530 2375 -1449 3265 -1323 0
7615 -2530 2375 -1449 -3265 1323 0
8541 -2530 2375 -1449 -3265 -1323 0
8292 -2530 -2375 1449 3265 1323 0
9015 -2530 -2375 1449 3265 -1323 0
9207 -2530 -2375 1449 -3265 1323 0
9655 -2530 -2375 1449 -3265 -1323 0
9207 -2530 -2375 -1449 3265 1323 0
9655 -2530 -2375 -1449 3265 -1323 0
9775 -2530 -2375 -1449 -3265 1323 0
10052 -2530 -2375 -1449 -3265 -1323 0
22620 3146 1257 -2665 0
18850 3146 -1257 2665 0
30160 3146 -1257 -2665 0
13195 -3146 1257 2665 0
27898 -3146 1257 -2665 0
25448 -3146 -1257 2665 0
32799 -3146 -1257 -2665 0
16150 2624 1476 -3348 0
2280 2624 -1476 3348 0
16492 2624 -1476 -3348 0
4750 -2624 1476 3348 0
16862 -2624 1476 -3348 0
6460 -2624 -1476 3348 0
17119 -2624 -1476 -3348 0
4650 3025 -2669 0
3720 -3025 2669 0
5580 -3025 -2669 0
4960 1996 2786 -1372 0
124 1996 -2786 1372 0
4985 1996 -2786 -1372 0
5580 -1996 2786 1372 0
6076 -1996 2786 -1372 0
5592 -1996 -2786 1372 0
6078 -1996 -2786 -1372 0
32175 1429 1021 1835 2773 -1879 0
27885 1429 1021 1835 -2773 1879 0
39146 1429 1021 1835 -2773 -1879 0
7722 1429 1021 -1835 2773 1879 0
34105 1429 1021 -1835 2773 -1879 0
30588 1429 1021 -1835 -2773 1879 0
39822 1429 1021 -1835 -2773 -1879 0
2145 1429 -1021 1835 2773 1879 0
32711 1429 -1021 1835 2773 -1879 0
28636 1429 -1021 1835 -2773 1879 0
39334 1429 -1021 1835 -2773 -1879 0
9481 1429 -1021 -1835 2773 1879 0
34545 1429 -1021 -1835 2773 -1879 0
31203 1429 -1021 -1835 -2773 1879 0
39976 1429 -1021 -1835 -2773 -1879 0
27885 -1429 1021 1835 2773 1879 0
39146 -1429 1021 1835 2773 -1879 0
37645 -1429 1021 1835 -2773 1879 0
41586 -1429 1021 1835 -2773 -1879 0
30588 -1429 1021 -1835 2773 1879 0
39822 -1429 1021 -1835 2773 -1879 0
38591 -1429 1021 -1835 -2773 1879 0
41823 -1429 1021 -1835 -2773 -1879 0
28636 -1429 -1021 1835 2773 1879 0
39334 -1429 -1021 1835 2773 -1879 0
37908 -1429 -1021 1835 -2773 1879 0
41652 -1429 -1021 1835 -2773 -1879 0
31203 -1429 -1021 -1835 2773 1879 0
39976 -1429 -1021 -1835 2773 -1879 0
38806 -1429 -1021 -1835 -2773 1879 0
41877 -1429 -1021 -1835 -2773 -1879 0
124 2028 1541 -2644 0
930 2028 -1541 2644 0
1035 2028 -1541 -2644 0
4960 -2028 1541 2644 0
4985 -2028 1541 -2644 0
5146 -2028 -1541 2644 0
5167 -2028 -1541 -2644 0
4030 3201 2527 -1426 0
744 3201 -2527 1426 0
4290 3201 -2527 -1426 0
1860 -3201 2527 1426 0
4681 -3201 2527 -1426 0
2381 -3201 -2527 1426 0
4863 -3201 -2527 -1426 0
2356 -2566 0
744 2118 1123 -1236 0
3410 2118 -1123 1236 0
3745 2118 -1123 -1236 0
4960 -2118 1123 1236 0
5109 -2118 1123 -1236 0
5642 -2118 -1123 1236 0
5709 -2118 -1123 -1236 0
20735 -1944 0
21450 2742 2253 -3012 0
38610 2742 -2253 3012 0
40755 2742 -2253 -3012 0
15015 -2742 2253 3012 0
28958 -2742 2253 -3012 0
40112 -2742 -2253 3012 0
41506 -2742 -2253 -3012 0
9630 3039 2543 -2722 0
214 3039 -2543 2722 0
9651 3039 -2543 -2722 0
4066 -3039 2543 2722 0
10037 -3039 2543 -2722 0
4199 -3039 -2543 2722 0
10050 -3039 -2543 -2722 0
13300 -2690 0
30160 1251 -1766 0
33930 -1251 1766 0
36946 -1251 -1766 0
4280 1187 -2258 0
1070 -1187 2258 0
4922 -1187 -2258 0
12350 1056 1174 -2521 0
5700 1056 -1174 2521 0
14345 1056 -1174 -2521 0
6650 -1056 1174 2521 0
14678 -1056 1174 -2521 0
10355 -1056 -1174 2521 0
15974 -1056 -1174 -2521 0
950 1399 2319 1385 -2088 0
7220 1399 2319 -1385 2088 0
7809 1399 2319 -1385 -2088 0
18050 1399 -2319 1385 2088 0
18097 1399 -2319 1385 -2088 0
18411 1399 -2319 -1385 2088 0
18440 1399 -2319 -1385 -2088 0
8550 -1399 2319 1385 2088 0
9073 -1399 2319 1385 -2088 0
12521 -1399 2319 -1385 2088 0
12845 -1399 2319 -1385 -2088 0
18477 -1399 -2319 1385 2088 0
18504 -1399 -2319 1385 -2088 0
18676 -1399 -2319 -1385 2088 0
18692 -1399 -2319 -1385 -2088 0
5885 3267 2933 -3152 0
1070 3267 -2933 3152 0
6366 3267 -2933 -3152 0
3745 -3267 2933 3152 0
7570 -3267 2933 -3152 0
4440 -3267 -2933 3152 0
7883 -3267 -2933 -3152 0
3424 1281 -1696 0
3210 -1281 1696 0
5607 -1281 -1696 0
8025 1570 -2401 0
8025 -1570 2401 0
10031 -1570 -2401 0
15200 2706 1813 -2124 0
2280 2706 -1813 2124 0
15656 2706 -1813 -2124 0
17100 -2706 1813 2124 0
18620 -2706 1813 -2124 0
17328 -2706 -1813 2124 0
18666 -2706 -1813 -2124 0
3745 1244 -1083 0
1070 -1244 1083 0
4440 -1244 -1083 0
6080 -1374 0
8025 2070 -1454 0
1070 -2070 1454 0
8292 -2070 -1454 0
4524 1014 2369 3128 -2827 0
13195 1014 2369 -3128 2827 0
16136 1014 2369 -3128 -2827 0
9425 1014 -2369 3128 2827 0
12818 1014 -2369 3128 -2827 0
19321 1014 -2369 -3128 2827 0
21527 1014 -2369 -3128 -2827 0
24505 -1014 2369 3128 2827 0
26088 -1014 2369 3128 -2827 0
29123 -1014 2369 -3128 2827 0
30152 -1014 2369 -3128 -2827 0
27804 -1014 -2369 3128 2827 0
28991 -1014 -2369 3128 -2827 0
31267 -1014 -2369 -3128 2827 0
32039 -1014 -2369 -3128 -2827 0
2480 1336 2171 2887 -2220 0
2790 1336 2171 -2887 2220 0
4154 1336 2171 -2887 -2220 0
2356 1336 -2171 2887 2220 0
3894 1336 -2171 2887 -2220 0
4086 1336 -2171 -2887 2220 0
4931 1336 -2171 -2887 -2220 0
2480 -1336 2171 2887 2220 0
3968 -1336 2171 2887 -2220 0
4154 -1336 2171 -2887 2220 0
4972 -1336 2171 -2887 -2220 0
3894 -1336 -2171 2887 2220 0
4816 -1336 -2171 2887 -2220 0
4931 -1336 -2171 -2887 2220 0
5439 -1336 -2171 -2887 -2220 0
4815 1170 2025 2767 -3198 0
4815 1170 2025 -2767 3198 0
7463 1170 2025 -2767 -3198 0
4815 1170 -2025 2767 3198 0
7463 1170 -2025 2767 -3198 0
7463 1170 -2025 -2767 3198 0
8920 1170 -2025 -2767 -3198 0
3424 -1170 2025 2767 3198 0
6698 -1170 2025 2767 -3198 0
6698 -1170 2025 -2767 3198 0
8499 -1170 2025 -2767 -3198 0
6698 -1170 -2025 2767 3198 0
8499 -1170 -2025 2767 -3198 0
8499 -1170 -2025 -2767 3198 0
9489 -1170 -2025 -2767 -3198 0
30160 2135 -1287 0
22620 -2135 1287 0
34684 -2135 -1287 0
22620 2435 2362 -1478 0
24505 2435 -2362 1478 0
32422 2435 -2362 -1478 0
5655 -2435 2362 1478 0
24882 -2435 2362 -1478 0
26484 -2435 -2362 1478 0
33214 -2435 -2362 -1478 0
21450 2692 3342 -1158 0
12870 2692 -3342 1158 0
27885 2692 -3342 -1158 0
15015 -2692 3342 1158 0
28958 -2692 3342 -1158 0
23381 -2692 -3342 1158 0
33140 -2692 -3342 -1158 0
14326 -2865 0
4960 1135 1643 2780 2012 -1683 0
4650 1135 1643 2780 -2012 1683 0
5890 1135 1643 2780 -2012 -1683 0
1550 1135 1643 -2780 2012 1683 0
5270 1135 1643 -2780 2012 -1683 0
5038 1135 1643 -2780 -2012 1683 0
5968 1135 1643 -2780 -2012 -1683 0
1116 1135 -1643 2780 2012 1683 0
5183 1135 -1643 2780 2012 -1683 0
4929 1135 -1643 2780 -2012 1683 0
5946 1135 -1643 2780 -2012 -1683 0
2387 1135 -1643 -2780 2012 1683 0
5437 1135 -1643 -2780 2012 -1683 0
5247 1135 -1643 -2780 -2012 1683 0
6009 1135 -1643 -2780 -2012 -1683 0
2356 -1135 1643 2780 2012 1683 0
5431 -1135 1643 2780 2012 -1683 0
5239 -1135 1643 2780 -2012 1683 0
6008 -1135 1643 2780 -2012 -1683 0
3317 -1135 1643 -2780 2012 1683 0
5623 -1135 1643 -2780 2012 -1683 0
5479 -1135 1643 -2780 -2012 1683 0
6056 -1135 1643 -2780 -2012 -1683 0
3048 -1135 -1643 2780 2012 1683 0
5570 -1135 -1643 2780 2012 -1683 0
5412 -1135 -1643 2780 -2012 1683 0
6042 -1135 -1643 2780 -2012 -1683 0
3836 -1135 -1643 -2780 2012 1683 0
5727 -1135 -1643 -2780 2012 -1683 0
5609 -1135 -1643 -2780 -2012 1683 0
6082 -1135 -1643 -2780 -2012 -1683 0
20735 1345 2181 -3258 0
7540 1345 -2181 3258 0
24128 1345 -2181 -3258 0
32045 -1345 2181 3258 0
35155 -1345 2181 -3258 0
33176 -1345 -2181 3258 0
35664 -1345 -2181 -3258 0
2140 -2488 0
35815 1390 1670 -1602 0
18850 1390 -1670 1602 0
36757 1390 -1670 -1602 0
9425 -1390 1670 1602 0
36286 -1390 1670 -1602 0
23562 -1390 -1670 1602 0
36993 -1390 -1670 -1602 0
6650 1652 1553 -2791 0
6650 1652 -1553 2791 0
10972 1652 -1553 -2791 0
2850 -1652 1553 2791 0
8503 -1652 1553 -2791 0
8503 -1652 -1553 2791 0
12177 -1652 -1553 -2791 0
26390 2337 2840 -2540 0
32045 2337 -2840 2540 0
36003 2337 -2840 -2540 0
20735 -2337 2840 2540 0
32611 -2337 2840 -2540 0
35155 -2337 -2840 2540 0
36937 -2337 -2840 -2540 0
36465 2334 1057 -2179 0
13728 2334 -1057 2179 0
38524 2334 -1057 -2179 0
25740 -2334 1057 2179 0
40326 -2334 1057 -2179 0
31231 -2334 -1057 2179 0
41150 -2334 -1057 -2179 0
21450 2277 -3003 0
34320 -2277 3003 0
38610 -2277 -3003 0
2145 1168 2061 2677 -1985 0
858 1168 2061 -2677 1985 0
2960 1168 2061 -2677 -1985 0
858 1168 -2061 2677 1985 0
2960 1168 -2061 2677 -1985 0
1699 1168 -2061 -2677 1985 0
3759 1168 -2061 -2677 -1985 0
21450 -1168 2061 2677 1985 0
22523 -1168 2061 2677 -1985 0
21879 -1168 2061 -2677 1985 0
22930 -1168 2061 -2677 -1985 0
21879 -1168 -2061 2677 1985 0
22930 -1168 -2061 2677 -1985 0
22299 -1168 -2061 -2677 1985 0
23329 -1168 -2061 -2677 -1985 0
36465 1297 1012 1371 2199 -2910 0
32175 1297 1012 1371 -2199 2910 0
41291 1297 1012 1371 -2199 -2910 0
27885 1297 1012 -1371 2199 2910 0
40648 1297 1012 -1371 2199 -2910 0
39146 1297 1012 -1371 -2199 2910 0
42337 1297 1012 -1371 -2199 -2910 0
30030 1297 -1012 1371 2199 2910 0
40969 1297 -1012 1371 2199 -2910 0
39683 1297 -1012 1371 -2199 2910 0
42417 1297 -1012 1371 -2199 -2910 0
38395 1297 -1012 -1371 2199 2910 0
42224 1297 -1012 -1371 2199 -2910 0
41774 1297 -1012 -1371 -2199 2910 0
42731 1297 -1012 -1371 -2199 -2910 0
25740 -1297 1012 1371 2199 2910 0
40326 -1297 1012 1371 2199 -2910 0
38610 -1297 1012 1371 -2199 2910 0
42256 -1297 1012 1371 -2199 -2910 0
36894 -1297 1012 -1371 2199 2910 0
41999 -1297 1012 -1371 2199 -2910 0
41399 -1297 1012 -1371 -2199 2910 0
42675 -1297 1012 -1371 -2199 -2910 0
37752 -1297 -1012 1371 2199 2910 0
42128 -1297 -1012 1371 2199 -2910 0
41613 -1297 -1012 1371 -2199 2910 0
42707 -1297 -1012 1371 -2199 -2910 0
41098 -1297 -1012 -1371 2199 2910 0
42630 -1297 -1012 -1371 2199 -2910 0
42450 -1297 -1012 -1371 -2199 2910 0
42832 -1297 -1012 -1371 -2199 -2910 0
1885 1052 1783 -1521 0
26390 1052 -1783 1521 0
26956 1052 -1783 -1521 0
33930 -1052 1783 1521 0
34119 -1052 1783 -1521 0
36569 -1052 -1783 1521 0
36626 -1052 -1783 -1521 0
3210 2127 -2627 0
1284 -2127 2627 0
4109 -2127 -2627 0
2790 1572 2414 1687 1682 -1197 0
2790 1572 2414 1687 -1682 1197 0
4324 1572 2414 1687 -1682 -1197 0
2170 1572 2414 -1687 1682 1197 0
3984 1572 2414 -1687 1682 -1197 0
3984 1572 2414 -1687 -1682 1197 0
4981 1572 2414 -1687 -1682 -1197 0
124 1572 -2414 1687 1682 1197 0
2858 1572 -2414 1687 1682 -1197 0
2858 1572 -2414 1687 -1682 1197 0
4362 1572 -2414 1687 -1682 -1197 0
2251 1572 -2414 -1687 1682 1197 0
4028 1572 -2414 -1687 1682 -1197 0
4028 1572 -2414 -1687 -1682 1197 0
5005 1572 -2414 -1687 -1682 -1197 0
2480 -1572 2414 1687 1682 1197 0
4154 -1572 2414 1687 1682 -1197 0
4154 -1572 2414 1687 -1682 1197 0
5075 -1572 2414 1687 -1682 -1197 0
3782 -1572 2414 -1687 1682 1197 0
4870 -1572 2414 -1687 1682 -1197 0
4870 -1572 2414 -1687 -1682 1197 0
5469 -1572 2414 -1687 -1682 -1197 0
2554 -1572 -2414 1687 1682 1197 0
4195 -1572 -2414 1687 1682 -1197 0
4195 -1572 -2414 1687 -1682 1197 0
5097 -1572 -2414 1687 -1682 -1197 0
3830 -1572 -2414 -1687 1682 1197 0
4897 -1572 -2414 -1687 1682 -1197 0
4897 -1572 -2414 -1687 -1682 1197 0
5483 -1572 -2414 -1687 -1682 -1197 0
10450 -1812 0
744 3091 -1245 0
124 -3091 1245 0
853 -3091 -1245 0
6650 1220 -1147 0
6080 -1220 1147 0
10602 -1220 -1147 0
40755 2080 1868 1778 -1015 0
40755 2080 1868 -1778 1015 0
42793 2080 1868 -1778 -1015 0
16302 2080 -1868 1778 1015 0
41570 2080 -1868 1778 -1015 0
41570 2080 -1868 -1778 1015 0
42834 2080 -1868 -1778 -1015 0
15015 -2080 1868 1778 1015 0
41506 -2080 1868 1778 -1015 0
41506 -2080 1868 -1778 1015 0
42830 -2080 1868 -1778 -1015 0
25611 -2080 -1868 1778 1015 0
42036 -2080 -1868 1778 -1015 0
42036 -2080 -1868 -1778 1015 0
42857 -2080 -1868 -1778 -1015 0
19305 1141 -1855 0
25740 -1141 1855 0
33462 -1141 -1855 0
5655 1384 -2951 0
7540 -1384 2951 0
12064 -1384 -2951 0
18050 1019 -1391 0
8550 -1019 1391 0
18477 -1019 -1391 0
9095 1830 3278 2099 -1534 0
4815 1830 3278 -2099 1534 0
9817 1830 3278 -2099 -1534 0
4066 1830 -3278 2099 1534 0
9705 1830 -3278 2099 -1534 0
7051 1830 -3278 -2099 1534 0
10153 1830 -3278 -2099 -1534 0
10165 -1830 3278 2099 1534 0
10620 -1830 3278 2099 -1534 0
10406 -1830 3278 -2099 1534 0
10656 -1830 3278 -2099 -1534 0
10368 -1830 -3278 2099 1534 0
10650 -1830 -3278 2099 -1534 0
10518 -1830 -3278 -2099 1534 0
10673 -1830 -3278 -2099 -1534 0
1284 -2183 0
34320 1904 2094 -3240 0
5148 1904 -2094 3240 0
35350 1904 -2094 -3240 0
16302 -1904 2094 3240 0
37580 -1904 2094 -3240 0
19494 -1904 -2094 3240 0
38219 -1904 -2094 -3240 0
24505 1925 -1185 0
12064 -1925 1185 0
28727 -1925 -1185 0
4650 1795 -1888 0
124 -1795 1888 0
4681 -1795 -1888 0
1550 -3390 0
38610 -2126 0
33930 -2598 0
6786 1767 2513 -2674 0
12064 1767 -2513 2674 0
16678 1767 -2513 -2674 0
32045 -1767 2513 2674 0
33063 -1767 2513 -2674 0
33855 -1767 -2513 2674 0
34547 -1767 -2513 -2674 0
4960 3262 -1826 0
4030 -3262 1826 0
5766 -3262 -1826 0
3420 2339 -1061 0
3420 -2339 1061 0
6224 -2339 -1061 0
2280 1599 2854 -2428 0
6080 1599 -2854 2428 0
7630 1599 -2854 -2428 0
17100 -1599 2854 2428 0
17328 -1599 2854 -2428 0
17708 -1599 -2854 2428 0
17863 -1599 -2854 -2428 0
32045 1502 -3177 0
3770 -1502 3177 0
32611 -1502 -3177 0
27885 2379 2618 -2705 0
25740 2379 -2618 2705 0
36894 2379 -2618 -2705 0
36465 -2379 2618 2705 0
40648 -2379 2618 -2705 0
40326 -2379 -2618 2705 0
41999 -2379 -2618 -2705 0
14326 -1886 0
10450 1094 1145 1537 1969 -3213 0
2280 1094 1145 1537 -1969 3213 0
11476 1094 1145 1537 -1969 -3213 0
6650 1094 1145 -1537 1969 3213 0
13443 1094 1145 -1537 1969 -3213 0
8132 1094 1145 -1537 -1969 3213 0
14109 1094 1145 -1537 -1969 -3213 0
2850 1094 -1145 1537 1969 3213 0
11733 1094 -1145 1537 1969 -3213 0
4788 1094 -1145 1537 -1969 3213 0
12605 1094 -1145 1537 -1969 -3213 0
8503 1094 -1145 -1537 1969 3213 0
14276 1094 -1145 -1537 1969 -3213 0
9762 1094 -1145 -1537 -1969 3213 0
14843 1094 -1145 -1537 -1969 -3213 0
950 -1094 1145 1537 1969 3213 0
10878 -1094 1145 1537 1969 -3213 0
3116 -1094 1145 1537 -1969 3213 0
11852 -1094 1145 1537 -1969 -3213 0
7268 -1094 1145 -1537 1969 3213 0
13720 -1094 1145 -1537 1969 -3213 0
8675 -1094 1145 -1537 -1969 3213 0
14354 -1094 1145 -1537 -1969 -3213 0
3658 -1094 -1145 1537 1969 3213 0
12096 -1094 -1145 1537 1969 -3213 0
5499 -1094 -1145 1537 -1969 3213 0
12924 -1094 -1145 1537 -1969 -3213 0
9027 -1094 -1145 -1537 1969 3213 0
14512 -1094 -1145 -1537 1969 -3213 0
10224 -1094 -1145 -1537 -1969 3213 0
15051 -1094 -1145 -1537 -1969 -3213 0
5655 3277 -3299 0
33930 -3277 3299 0
34496 -3277 -3299 0
2140 -3013 0
19305 3080 -1725 0
34320 -3080 1725 0
38181 -3080 -1725 0
9425 -2731 0
4750 2687 2842 -2637 0
14250 2687 -2842 2637 0
15438 2687 -2842 -2637 0
17100 -2687 2842 2637 0
17575 -2687 2842 -2637 0
18525 -2687 -2842 2637 0
18644 -2687 -2842 -2637 0
3720 2708 -2908 0
2356 -2708 2908 0
4662 -2708 -2908 0
4290 2503 3150 -1800 0
858 2503 -3150 1800 0
5062 2503 -3150 -1800 0
15015 -2503 3150 1800 0
17803 -2503 3150 -1800 0
15573 -2503 -3150 1800 0
18305 -2503 -3150 -1800 0
12350 3014 2329 2021 2729 -1409 0
6650 3014 2329 2021 -2729 1409 0
14678 3014 2329 2021 -2729 -1409 0
11400 3014 2329 -2021 2729 1409 0
16340 3014 2329 -2021 2729 -1409 0
14060 3014 2329 -2021 -2729 1409 0
17271 3014 2329 -2021 -2729 -1409 0
13300 3014 -2329 2021 2729 1409 0
17005 3014 -2329 2021 2729 -1409 0
15295 3014 -2329 2021 -2729 1409 0
17703 3014 -2329 2021 -2729 -1409 0
16720 3014 -2329 -2021 2729 1409 0
18202 3014 -2329 -2021 2729 -1409 0
17518 3014 -2329 -2021 -2729 1409 0
18481 3014 -2329 -2021 -2729 -1409 0
8550 -3014 2329 2021 2729 1409 0
15343 -3014 2329 2021 2729 -1409 0
12207 -3014 2329 2021 -2729 1409 0
16623 -3014 2329 2021 -2729 -1409 0
14820 -3014 2329 -2021 2729 1409 0
17537 -3014 2329 -2021 2729 -1409 0
16283 -3014 2329 -2021 -2729 1409 0
18049 -3014 2329 -2021 -2729 -1409 0
15865 -3014 -2329 2021 2729 1409 0
17903 -3014 -2329 2021 2729 -1409 0
16962 -3014 -2329 2021 -2729 1409 0
18287 -3014 -2329 2021 -2729 -1409 0
17746 -3014 -2329 -2021 2729 1409 0
18561 -3014 -2329 -2021 2729 -1409 0
18185 -3014 -2329 -2021 -2729 1409 0
18715 -3014 -2329 -2021 -2729 -1409 0
7600 2592 1752 -2689 0
12350 2592 -1752 2689 0
15010 2592 -1752 -2689 0
11400 -2592 1752 2689 0
14440 -2592 1752 -2689 0
16340 -2592 -1752 2689 0
17404 -2592 -1752 -2689 0
3100 2134 -1097 0
1550 -2134 1097 0
3875 -2134 -1097 0
744 1912 -2493 0
4340 -1912 2493 0
4563 -1912 -2493 0
744 2663 1980 -1708 0
744 2663 -1980 1708 0
1399 2663 -1980 -1708 0
1550 -2663 1980 1708 0
2108 -2663 1980 -1708 0
2108 -2663 -1980 1708 0
2599 -2663 -1980 -1708 0
4340 2172 1762 -1343 0
4960 2172 -1762 1343 0
5828 2172 -1762 -1343 0
5890 -2172 1762 1343 0
6107 -2172 1762 -1343 0
6138 -2172 -1762 1343 0
6181 -2172 -1762 -1343 0
8025 3236 -1031 0
3745 -3236 1031 0
8961 -3236 -1031 0
27885 2730 -2821 0
32175 -2730 2821 0
39146 -2730 -2821 0
9425 2873 1431 1347 -1080 0
7540 2873 1431 -1347 1080 0
15080 2873 1431 -1347 -1080 0
1885 2873 -1431 1347 1080 0
10839 2873 -1431 1347 -1080 0
9048 2873 -1431 -1347 1080 0
16211 2873 -1431 -1347 -1080 0
18850 -2873 1431 1347 1080 0
23562 -2873 1431 1347 -1080 0
22620 -2873 1431 -1347 1080 0
26390 -2873 1431 -1347 -1080 0
19793 -2873 -1431 1347 1080 0
24269 -2873 -1431 1347 -1080 0
23374 -2873 -1431 -1347 1080 0
26956 -2873 -1431 -1347 -1080 0
6080 3253 1898 -3368 0
6650 3253 -1898 3368 0
10602 3253 -1898 -3368 0
8550 -3253 1898 3368 0
11894 -3253 1898 -3368 0
12207 -3253 -1898 3368 0
14381 -3253 -1898 -3368 0
38610 3365 -2704 0
40755 -3365 2704 0
42686 -3365 -2704 0
3424 1290 3300 -1634 0
3745 1290 -3300 1634 0
5971 1290 -3300 -1634 0
6955 -1290 3300 1634 0
8153 -1290 3300 -1634 0
8266 -1290 -3300 1634 0
9045 -1290 -3300 -1634 0
4960 -1920 0
3420 2579 -2568 0
6080 -2579 2568 0
8406 -2579 -2568 0
9425 3134 2158 -1013 0
15080 3134 -2158 1013 0
20735 3134 -2158 -1013 0
30160 -3134 2158 1013 0
32045 -3134 2158 -1013 0
33176 -3134 -2158 1013 0
34307 -3134 -2158 -1013 0
1900 -1625 0
11310 -3079 0
5148 2918 1731 -1623 0
10725 2918 -1731 1623 0
14586 2918 -1731 -1623 0
8580 -2918 1731 1623 0
12698 -2918 1731 -1623 0
17160 -2918 -1731 1623 0
20249 -2918 -1731 -1623 0
10725 1159 -2740 0
2145 -1159 2740 0
12334 -1159 -2740 0
4280 -2149 0
7540 -2396 0
30160 1939 2762 -1499 0
754 1939 -2762 1499 0
30311 1939 -2762 -1499 0
22620 -1939 2762 1499 0
34684 -1939 2762 -1499 0
22922 -1939 -2762 1499 0
34744 -1939 -2762 -1499 0
3800 3055 -1177 0
9500 -3055 1177 0
11400 -3055 -1177 0
4340 1456 -2338 0
5270 -1456 2338 0
5921 -1456 -2338 0
13728 1803 2389 -1892 0
13728 1803 -2389 1892 0
23063 1803 -2389 -1892 0
6435 -1803 2389 1892 0
18104 -1803 2389 -1892 0
18104 -1803 -2389 1892 0
26039 -1803 -2389 -1892 0
754 -1352 0
1860 -2929 0
3424 1462 -2119 0
4815 -1462 2119 0
6698 -1462 -2119 0
4960 2682 -1509 0
744 -2682 1509 0
5109 -2682 -1509 0
4524 -2789 0
25740 1981 -2940 0
40755 -1981 2940 0
42042 -1981 -2940 0
32175 2577 -3121 0
10725 -2577 3121 0
34856 -2577 -3121 0
6955 2881 -1965 0
9095 -2881 1965 0
10138 -2881 -1965 0
3720 1983 -3140 0
1550 -1983 3140 0
4340 -1983 -3140 0
1885 3202 3296 -2247 0
13195 3202 -3296 2247 0
14420 3202 -3296 -2247 0
26390 -3202 3296 2247 0
26956 -3202 3296 -2247 0
30348 -3202 -3296 2247 0
30716 -3202 -3296 -2247 0
27885 2792 -1977 0
7722 -2792 1977 0
30588 -2792 -1977 0
2170 3281 3132 3208 -1067 0
4960 3281 3132 -3208 1067 0
5394 3281 3132 -3208 -1067 0
1860 3281 -3132 3208 1067 0
3379 3281 -3132 3208 -1067 0
5332 3281 -3132 -3208 1067 0
5636 3281 -3132 -3208 -1067 0
744 -3281 3132 3208 1067 0
2654 -3281 3132 3208 -1067 0
5109 -3281 3132 -3208 1067 0
5491 -3281 3132 -3208 -1067 0
2381 -3281 -3132 3208 1067 0
3718 -3281 -3132 3208 -1067 0
5436 -3281 -3132 -3208 1067 0
5704 -3281 -3132 -3208 -1067 0
18050 -2371 0
19305 2261 2368 2042 2441 -2458 0
25740 2261 2368 2042 -2441 2458 0
33462 2261 2368 2042 -2441 -2458 0
34320 2261 2368 -2042 2441 2458 0
38181 2261 2368 -2042 2441 -2458 0
39468 2261 2368 -2042 -2441 2458 0
41012 2261 2368 -2042 -2441 -2458 0
15015 2261 -2368 2042 2441 2458 0
27563 2261 -2368 2042 2441 -2458 0
31746 2261 -2368 2042 -2441 2458 0
36765 2261 -2368 2042 -2441 -2458 0
37323 2261 -2368 -2042 2441 2458 0
39833 2261 -2368 -2042 2441 -2458 0
40669 2261 -2368 -2042 -2441 2458 0
41673 2261 -2368 -2042 -2441 -2458 0
27885 -2261 2368 2042 2441 2458 0
34642 -2261 2368 2042 2441 -2458 0
36894 -2261 2368 2042 -2441 2458 0
39597 -2261 2368 2042 -2441 -2458 0
39897 -2261 2368 -2042 2441 2458 0
41248 -2261 2368 -2042 2441 -2458 0
41699 -2261 2368 -2042 -2441 2458 0
42239 -2261 2368 -2042 -2441 -2458 0
33140 -2261 -2368 2042 2441 2458 0
37532 -2261 -2368 2042 2441 -2458 0
38996 -2261 -2368 2042 -2441 2458 0
40753 -2261 -2368 2042 -2441 -2458 0
40948 -2261 -2368 -2042 2441 2458 0
41826 -2261 -2368 -2042 2441 -2458 0
42119 -2261 -2368 -2042 -2441 2458 0
42471 -2261 -2368 -2042 -2441 -2458 0
32175 3297 1595 -1339 0
4290 3297 -1595 1339 0
33248 3297 -1595 -1339 0
19305 -3297 1595 1339 0
37001 -3297 1595 -1339 0
21664 -3297 -1595 1339 0
37591 -3297 -1595 -1339 0
620 3048 2783 -3022 0
620 3048 -2783 3022 0
1178 3048 -2783 -3022 0
744 -3048 2783 3022 0
1290 -3048 2783 -3022 0
1290 -3048 -2783 3022 0
1781 -3048 -2783 -3022 0
18050 1394 1963 -2120 0
18050 1394 -1963 2120 0
18952 1394 -1963 -2120 0
5700 -1394 1963 2120 0
18335 -1394 1963 -2120 0
18335 -1394 -1963 2120 0
18967 -1394 -1963 -2120 0
930 2949 -3361 0
2790 -2949 3361 0
3302 -2949 -3361 0
28275 2209 -2612 0
22620 -2209 2612 0
33930 -2209 -2612 0
12350 -2010 0
30160 2761 3034 1282 -2091 0
1885 2761 3034 -1282 2091 0
30537 2761 3034 -1282 -2091 0
1885 2761 -3034 1282 2091 0
30537 2761 -3034 1282 -2091 0
3676 2761 -3034 -1282 2091 0
30895 2761 -3034 -1282 -2091 0
35815 -2761 3034 1282 2091 0
37323 -2761 3034 1282 -2091 0
35909 -2761 3034 -1282 2091 0
37342 -2761 3034 -1282 -2091 0
35909 -2761 -3034 1282 2091 0
37342 -2761 -3034 1282 -2091 0
35999 -2761 -3034 -1282 2091 0
37360 -2761 -3034 -1282 -2091 0
5270 2377 2142 -1714 0
744 2377 -2142 1714 0
5382 2377 -2142 -1714 0
744 -2377 2142 1714 0
5382 -2377 2142 -1714 0
1399 -2377 -2142 1714 0
5480 -2377 -2142 -1714 0
9630 1526 1414 3036 -1723 0
535 1526 1414 -3036 1723 0
9684 1526 1414 -3036 -1723 0
5885 1526 -1414 3036 1723 0
10219 1526 -1414 3036 -1723 0
6126 1526 -1414 -3036 1723 0
10243 1526 -1414 -3036 -1723 0
5885 -1526 1414 3036 1723 0
10219 -1526 1414 3036 -1723 0
6126 -1526 1414 -3036 1723 0
10243 -1526 1414 -3036 -1723 0
8533 -1526 -1414 3036 1723 0
10483 -1526 -1414 3036 -1723 0
8642 -1526 -1414 -3036 1723 0
10494 -1526 -1414 -3036 -1723 0
5885 3137 -2897 0
3424 -3137 2897 0
7426 -3137 -2897 0
15080 2590 2034 2479 -2249 0
4524 2590 2034 -2479 2249 0
17794 2590 2034 -2479 -2249 0
33930 2590 -2034 2479 2249 0
35438 2590 -2034 2479 -2249 0
34382 2590 -2034 -2479 2249 0
35709 2590 -2034 -2479 -2249 0
7540 -2590 2034 2479 2249 0
19604 -2590 2034 2479 -2249 0
11159 -2590 2034 -2479 2249 0
21776 -2590 2034 -2479 -2249 0
34684 -2590 -2034 2479 2249 0
35890 -2590 -2034 2479 -2249 0
35046 -2590 -2034 -2479 2249 0
36108 -2590 -2034 -2479 -2249 0
6955 -2582 0
4960 1329 2962 -3119 0
2790 1329 -2962 3119 0
5518 1329 -2962 -3119 0
2356 -1329 2962 3119 0
5431 -1329 2962 -3119 0
4086 -1329 -2962 3119 0
5777 -1329 -2962 -3119 0
1926 2916 -1949 0
1926 -2916 1949 0
3505 -2916 -1949 0
1605 2702 -2526 0
3745 -2702 2526 0
4788 -2702 -2526 0
1605 -1728 0
18850 -1986 0
21450 2968 2440 -2869 0
10725 2968 -2440 2869 0
26812 2968 -2440 -2869 0
32175 -2968 2440 2869 0
37538 -2968 2440 -2869 0
34856 -2968 -2440 2869 0
38878 -2968 -2440 -2869 0
1900 1433 2425 -2902 0
18050 1433 -2425 2902 0
18145 1433 -2425 -2902 0
950 -1433 2425 2902 0
2755 -1433 2425 -2902 0
18097 -1433 -2425 2902 0
18188 -1433 -2425 -2902 0
17160 1284 1058 1635 -3101 0
19305 1284 1058 -1635 3101 0
28743 1284 1058 -1635 -3101 0
30030 1284 -1058 1635 3101 0
35178 1284 -1058 1635 -3101 0
35821 1284 -1058 -1635 3101 0
38653 1284 -1058 -1635 -3101 0
30030 -1284 1058 1635 3101 0
35178 -1284 1058 1635 -3101 0
35821 -1284 1058 -1635 3101 0
38653 -1284 1058 -1635 -3101 0
39039 -1284 -1058 1635 3101 0
40583 -1284 -1058 1635 -3101 0
40776 -1284 -1058 -1635 3101 0
41626 -1284 -1058 -1635 -3101 0
5700 -2194 0
1900 1240 1102 2054 2290 -3127 0
2280 1240 1102 2054 -2290 3127 0
3952 1240 1102 2054 -2290 -3127 0
5700 1240 1102 -2054 2290 3127 0
7030 1240 1102 -2054 2290 -3127 0
7296 1240 1102 -2054 -2290 3127 0
8466 1240 1102 -2054 -2290 -3127 0
11400 1240 -1102 2054 2290 3127 0
12160 1240 -1102 2054 2290 -3127 0
12312 1240 -1102 2054 -2290 3127 0
12981 1240 -1102 2054 -2290 -3127 0
13680 1240 -1102 -2054 2290 3127 0
14212 1240 -1102 -2054 2290 -3127 0
14318 1240 -1102 -2054 -2290 3127 0
14787 1240 -1102 -2054 -2290 -3127 0
14250 -1240 1102 2054 2290 3127 0
14725 -1240 1102 2054 2290 -3127 0
14820 -1240 1102 2054 -2290 3127 0
15238 -1240 1102 2054 -2290 -3127 0
15675 -1240 1102 -2054 2290 3127 0
16008 -1240 1102 -2054 2290 -3127 0
16074 -1240 1102 -2054 -2290 3127 0
16367 -1240 1102 -2054 -2290 -3127 0
17100 -1240 -1102 2054 2290 3127 0
17290 -1240 -1102 2054 2290 -3127 0
17328 -1240 -1102 2054 -2290 3127 0
17495 -1240 -1102 2054 -2290 -3127 0
17670 -1240 -1102 -2054 2290 3127 0
17803 -1240 -1102 -2054 2290 -3127 0
17830 -1240 -1102 -2054 -2290 3127 0
17947 -1240 -1102 -2054 -2290 -3127 0
4340 3061 -2733 0
2356 -3061 2733 0
5047 -3061 -2733 0
9425 2030 -2522 0
33930 -2030 2522 0
34873 -2030 -2522 0
1860 1810 -2043 0
3410 -1810 2043 0
4247 -1810 -2043 0
2850 3187 2894 -3310 0
8550 3187 -2894 3310 0
10117 3187 -2894 -3310 0
12350 -3187 2894 3310 0
13347 -3187 2894 -3310 0
15343 -3187 -2894 3310 0
15891 -3187 -2894 -3310 0
16150 2104 2481 -1070 0
9500 2104 -2481 1070 0
17575 2104 -2481 -1070 0
6080 -2104 2481 1070 0
17062 -2104 2481 -1070 0
12540 -2104 -2481 1070 0
18031 -2104 -2481 -1070 0
32175 2385 1451 1825 -1893 0
15015 2385 1451 -1825 1893 0
35929 2385 1451 -1825 -1893 0
32175 2385 -1451 1825 1893 0
40219 2385 -1451 1825 -1893 0
35929 2385 -1451 -1825 1893 0
41157 2385 -1451 -1825 -1893 0
17160 -2385 1451 1825 1893 0
36465 -2385 1451 1825 -1893 0
26169 -2385 1451 -1825 1893 0
38717 -2385 1451 -1825 -1893 0
36465 -2385 -1451 1825 1893 0
41291 -2385 -1451 1825 -1893 0
38717 -2385 -1451 -1825 1893 0
41854 -2385 -1451 -1825 -1893 0
32045 2745 2323 -3397 0
16965 2745 -2323 3397 0
34590 2745 -2323 -3397 0
3770 -2745 2323 3397 0
32611 -2745 2323 -3397 0
19038 -2745 -2323 3397 0
34901 -2745 -2323 -3397 0
744 2935 2478 1562 -2485 0
2356 2935 2478 -1562 2485 0
2817 2935 2478 -1562 -2485 0
930 2935 -2478 1562 2485 0
1562 2935 -2478 1562 -2485 0
2933 2935 -2478 -1562 2485 0
3325 2935 -2478 -1562 -2485 0
4030 -2935 2478 1562 2485 0
4290 -2935 2478 1562 -2485 0
4855 -2935 2478 -1562 2485 0
5016 -2935 2478 -1562 -2485 0
4355 -2935 -2478 1562 2485 0
4577 -2935 -2478 1562 -2485 0
5056 -2935 -2478 -1562 2485 0
5194 -2935 -2478 -1562 -2485 0
30160 2143 3243 -3130 0
18850 2143 -3243 3130 0
33930 2143 -3243 -3130 0
16965 -2143 3243 3130 0
33553 -2143 3243 -3130 0
27332 -2143 -3243 3130 0
35627 -2143 -3243 -3130 0
15200 1331 -1090 0
12350 -1331 1090 0
17670 -1331 -1090 0
3800 1206 2757 -3073 0
1900 1206 -2757 3073 0
5320 1206 -2757 -3073 0
12350 -1206 2757 3073 0
13680 -1206 2757 -3073 0
13015 -1206 -2757 3073 0
14212 -1206 -2757 -3073 0
30160 1651 1966 -2279 0
22620 1651 -1966 2279 0
34684 1651 -1966 -2279 0
20735 -1651 1966 2279 0
34307 -1651 1966 -2279 0
30914 -1651 -1966 2279 0
36343 -1651 -1966 -2279 0
3800 -2005 0
4340 2422 1579 -1701 0
1550 2422 -1579 1701 0
4805 2422 -1579 -1701 0
124 -2422 1579 1701 0
4377 -2422 1579 -1701 0
1643 -2422 -1579 1701 0
4833 -2422 -1579 -1701 0
18050 2417 -2187 0
7220 -2417 2187 0
18411 -2417 -2187 0
3770 3145 2973 -1594 0
15080 3145 -2973 1594 0
17342 3145 -2973 -1594 0
32045 -3145 2973 1594 0
32611 -3145 2973 -1594 0
34307 -3145 -2973 1594 0
34646 -3145 -2973 -1594 0
310 3325 1578 2991 1753 -1017 0
4650 3325 1578 2991 -1753 1017 0
4727 3325 1578 2991 -1753 -1017 0
2170 3325 1578 -2991 1753 1017 0
2372 3325 1578 -2991 1753 -1017 0
5193 3325 1578 -2991 -1753 1017 0
5243 3325 1578 -2991 -1753 -1017 0
3410 3325 -1578 2991 1753 1017 0
3549 3325 -1578 2991 1753 -1017 0
5502 3325 -1578 2991 -1753 1017 0
5537 3325 -1578 2991 -1753 -1017 0
4387 3325 -1578 -2991 1753 1017 0
4477 3325 -1578 -2991 1753 -1017 0
5747 3325 -1578 -2991 -1753 1017 0
5769 3325 -1578 -2991 -1753 -1017 0
4030 -3325 1578 2991 1753 1017 0
4138 -3325 1578 2991 1753 -1017 0
5657 -3325 1578 2991 -1753 1017 0
5685 -3325 1578 2991 -1753 -1017 0
4789 -3325 1578 -2991 1753 1017 0
4860 -3325 1578 -2991 1753 -1017 0
5847 -3325 1578 -2991 -1753 1017 0
5865 -3325 1578 -2991 -1753 -1017 0
5223 -3325 -1578 2991 1753 1017 0
5272 -3325 -1578 2991 1753 -1017 0
5956 -3325 -1578 2991 -1753 1017 0
5968 -3325 -1578 2991 -1753 -1017 0
5565 -3325 -1578 -2991 1753 1017 0
5597 -3325 -1578 -2991 1753 -1017 0
6041 -3325 -1578 -2991 -1753 1017 0
6049 -3325 -1578 -2991 -1753 -1017 0
35815 2185 -1235 0
4524 -2185 1235 0
36041 -2185 -1235 0
214 1506 -2353 0
6955 -1506 2353 0
7030 -1506 -2353 0
36465 -1644 0
7220 -1182 0
3210 2056 3144 -1078 0
4280 2056 -3144 1078 0
6206 2056 -3144 -1078 0
4066 -2056 3144 1078 0
6056 -2056 3144 -1078 0
6720 -2056 -3144 1078 0
7914 -2056 -3144 -1078 0
2170 2110 -1692 0
1860 -2110 1692 0
3379 -2110 -1692 0
744 2524 2848 -2551 0
1116 2524 -2848 2551 0
1726 2524 -2848 -2551 0
3100 -2524 2848 2551 0
3472 -2524 2848 -2551 0
3658 -2524 -2848 2551 0
3963 -2524 -2848 -2551 0
5655 -2919 0
3100 1606 2168 1325 2658 -1200 0
310 1606 2168 1325 -2658 1200 0
3255 1606 2168 1325 -2658 -1200 0
2170 1606 2168 -1325 2658 1200 0
4185 1606 2168 -1325 2658 -1200 0
2372 1606 2168 -1325 -2658 1200 0
4286 1606 2168 -1325 -2658 -1200 0
4960 1606 -2168 1325 2658 1200 0
5580 1606 -2168 1325 2658 -1200 0
5022 1606 -2168 1325 -2658 1200 0
5611 1606 -2168 1325 -2658 -1200 0
5394 1606 -2168 -1325 2658 1200 0
5797 1606 -2168 -1325 2658 -1200 0
5434 1606 -2168 -1325 -2658 1200 0
5817 1606 -2168 -1325 -2658 -1200 0
744 -1606 2168 1325 2658 1200 0
3472 -1606 2168 1325 2658 -1200 0
1017 -1606 2168 1325 -2658 1200 0
3608 -1606 2168 1325 -2658 -1200 0
2654 -1606 2168 -1325 2658 1200 0
4427 -1606 2168 -1325 2658 -1200 0
2831 -1606 2168 -1325 -2658 1200 0
4515 -1606 2168 -1325 -2658 -1200 0
5109 -1606 -2168 1325 2658 1200 0
5654 -1606 -2168 1325 2658 -1200 0
5163 -1606 -2168 1325 -2658 1200 0
5682 -1606 -2168 1325 -2658 -1200 0
5491 -1606 -2168 -1325 2658 1200 0
5845 -1606 -2168 -1325 2658 -1200 0
5526 -1606 -2168 -1325 -2658 1200 0
5863 -1606 -2168 -1325 -2658 -1200 0
15080 2013 2922 -3305 0
3770 2013 -2922 3305 0
17342 2013 -2922 -3305 0
24505 -2013 2922 3305 0
29783 -2013 2922 -3305 0
25825 -2013 -2922 3305 0
30575 -2013 -2922 -3305 0
15015 -3226 0
1900 2868 1484 -1989 0
5700 2868 -1484 1989 0
7030 2868 -1484 -1989 0
3420 -2868 1484 1989 0
4978 -2868 1484 -1989 0
8094 -2868 -1484 1989 0
9185 -2868 -1484 -1989 0
124 -2321 0
6420 -3219 0
5270 1271 -3353 0
5270 -1271 3353 0
6061 -1271 -3353 0
858 2994 1498 3369 -2138 0
5148 2994 1498 -3369 2138 0
5903 2994 1498 -3369 -2138 0
4290 2994 -1498 3369 2138 0
5062 2994 -1498 3369 -2138 0
8923 2994 -1498 -3369 2138 0
9603 2994 -1498 -3369 -2138 0
12870 -2994 1498 3369 2138 0
13471 -2994 1498 3369 -2138 0
16474 -2994 1498 -3369 2138 0
17002 -2994 1498 -3369 -2138 0
15873 -2994 -1498 3369 2138 0
16414 -2994 -1498 3369 -2138 0
19116 -2994 -1498 -3369 2138 0
19592 -2994 -1498 -3369 -2138 0
28275 2554 2538 1819 -3054 0
3770 2554 2538 -1819 3054 0
29218 2554 2538 -1819 -3054 0
3770 2554 -2538 1819 3054 0
29218 2554 -2538 1819 -3054 0
7163 2554 -2538 -1819 3054 0
30066 2554 -2538 -1819 -3054 0
1885 -2554 2538 1819 3054 0
28746 -2554 2538 1819 -3054 0
5467 -2554 2538 -1819 3054 0
29642 -2554 2538 -1819 -3054 0
5467 -2554 -2538 1819 3054 0
29642 -2554 -2538 1819 -3054 0
8690 -2554 -2538 -1819 3054 0
30447 -2554 -2538 -1819 -3054 0
16302 2038 -1209 0
17160 -2038 1209 0
26941 -2038 -1209 0
1550 3200 -2826 0
2356 -3200 2826 0
3317 -3200 -2826 0
12350 3211 3272 2879 2150 -1922 0
1900 3211 3272 2879 -2150 1922 0
13015 3211 3272 2879 -2150 -1922 0
2850 3211 3272 -2879 2150 1922 0
13347 3211 3272 -2879 2150 -1922 0
4465 3211 3272 -2879 -2150 1922 0
13913 3211 3272 -2879 -2150 -1922 0
380 3211 -3272 2879 2150 1922 0
12483 3211 -3272 2879 2150 -1922 0
2242 3211 -3272 2879 -2150 1922 0
13135 3211 -3272 2879 -2150 -1922 0
3173 3211 -3272 -2879 2150 1922 0
13461 3211 -3272 -2879 2150 -1922 0
4756 3211 -3272 -2879 -2150 1922 0
14014 3211 -3272 -2879 -2150 -1922 0
14250 -3211 3272 2879 2150 1922 0
17338 -3211 3272 2879 2150 -1922 0
14725 -3211 3272 2879 -2150 1922 0
17504 -3211 3272 2879 -2150 -1922 0
14962 -3211 3272 -2879 2150 1922 0
17587 -3211 3272 -2879 2150 -1922 0
15366 -3211 3272 -2879 -2150 1922 0
17728 -3211 3272 -2879 -2150 -1922 0
14345 -3211 -3272 2879 2150 1922 0
17371 -3211 -3272 2879 2150 -1922 0
14810 -3211 -3272 2879 -2150 1922 0
17534 -3211 -3272 2879 -2150 -1922 0
15043 -3211 -3272 -2879 2150 1922 0
17615 -3211 -3272 -2879 2150 -1922 0
15439 -3211 -3272 -2879 -2150 1922 0
17754 -3211 -3272 -2879 -2150 -1922 0
7722 1313 2062 2536 -1921 0
34320 1313 2062 -2536 1921 0
35864 1313 2062 -2536 -1921 0
40755 1313 -2062 2536 1921 0
41141 1313 -2062 2536 -1921 0
42471 1313 -2062 -2536 1921 0
42548 1313 -2062 -2536 -1921 0
21450 -1313 2062 2536 1921 0
25311 -1313 2062 2536 -1921 0
38610 -1313 2062 -2536 1921 0
39382 -1313 2062 -2536 -1921 0
41827 -1313 -2062 2536 1921 0
42021 -1313 -2062 2536 -1921 0
42686 -1313 -2062 -2536 1921 0
42724 -1313 -2062 -2536 -1921 0
14326 -1804 0
3745 1843 1260 2500 -1676 0
8025 1843 1260 -2500 1676 0
8961 1843 1260 -2500 -1676 0
2140 1843 -1260 2500 1676 0
5136 1843 -1260 2500 -1676 0
8560 1843 -1260 -2500 1676 0
9309 1843 -1260 -2500 -1676 0
1926 -1843 1260 2500 1676 0
4997 -1843 1260 2500 -1676 0
8506 -1843 1260 -2500 1676 0
9274 -1843 1260 -2500 -1676 0
3681 -1843 -1260 2500 1676 0
6138 -1843 -1260 2500 -1676 0
8945 -1843 -1260 -2500 1676 0
9559 -1843 -1260 -2500 -1676 0
620 2713 2336 1899 2415 -2585 0
1550 2713 2336 1899 -2415 2585 0
2015 2713 2336 1899 -2415 -2585 0
744 2713 2336 -1899 2415 2585 0
1290 2713 2336 -1899 2415 -2585 0
2108 2713 2336 -1899 -2415 2585 0
2517 2713 2336 -1899 -2415 -2585 0
310 2713 -2336 1899 2415 2585 0
899 2713 -2336 1899 2415 -2585 0
1783 2713 -2336 1899 -2415 2585 0
2224 2713 -2336 1899 -2415 -2585 0
1017 2713 -2336 -1899 2415 2585 0
1535 2713 -2336 -1899 2415 -2585 0
2313 2713 -2336 -1899 -2415 2585 0
2701 2713 -2336 -1899 -2415 -2585 0
2480 -2713 2336 1899 2415 2585 0
2852 -2713 2336 1899 2415 -2585 0
3410 -2713 2336 1899 -2415 2585 0
3689 -2713 2336 1899 -2415 -2585 0
2926 -2713 2336 -1899 2415 2585 0
3254 -2713 2336 -1899 2415 -2585 0
3745 -2713 2336 -1899 -2415 2585 0
3990 -2713 2336 -1899 -2415 -2585 0
2666 -2713 -2336 1899 2415 2585 0
3019 -2713 -2336 1899 2415 -2585 0
3549 -2713 -2336 1899 -2415 2585 0
3815 -2713 -2336 1899 -2415 -2585 0
3090 -2713 -2336 -1899 2415 2585 0
3401 -2713 -2336 -1899 2415 -2585 0
3868 -2713 -2336 -1899 -2415 2585 0
4101 -2713 -2336 -1899 -2415 -2585 0
23595 2803 3395 -2987 0
5148 2803 -3395 2987 0
25912 2803 -3395 -2987 0
38610 -2803 3395 2987 0
40970 -2803 3395 -2987 0
39125 -2803 -3395 2987 0
41201 -2803 -3395 -2987 0
4280 -1173 0
1240 1530 -1342 0
5270 -1530 1342 0
5456 -1530 -1342 0
7540 2642 -3225 0
14326 -2642 3225 0
19001 -2642 -3225 0
2280 1854 1383 2963 1551 -2449 0
16150 1854 1383 2963 -1551 2449 0
16492 1854 1383 2963 -1551 -2449 0
5700 1854 1383 -2963 1551 2449 0
7296 1854 1383 -2963 1551 -2449 0
17005 1854 1383 -2963 -1551 2449 0
17244 1854 1383 -2963 -1551 -2449 0
6650 1854 -1383 2963 1551 2449 0
8132 1854 -1383 2963 1551 -2449 0
17147 1854 -1383 2963 -1551 2449 0
17370 1854 -1383 2963 -1551 -2449 0
10355 1854 -1383 -2963 1551 2449 0
11392 1854 -1383 -2963 1551 -2449 0
17703 1854 -1383 -2963 -1551 2449 0
17859 1854 -1383 -2963 -1551 -2449 0
13300 -1854 1383 2963 1551 2449 0
13984 -1854 1383 2963 1551 -2449 0
18145 -1854 1383 2963 -1551 2449 0
18248 -1854 1383 2963 -1551 -2449 0
15010 -1854 1383 -2963 1551 2449 0
15489 -1854 1383 -2963 1551 -2449 0
18402 -1854 1383 -2963 -1551 2449 0
18473 -1854 1383 -2963 -1551 -2449 0
15295 -1854 -1383 2963 1551 2449 0
15740 -1854 -1383 2963 1551 -2449 0
18444 -1854 -1383 2963 -1551 2449 0
18511 -1854 -1383 2963 -1551 -2449 0
16406 -1854 -1383 -2963 1551 2449 0
16718 -1854 -1383 -2963 1551 -2449 0
18611 -1854 -1383 -2963 -1551 2449 0
18658 -1854 -1383 -2963 -1551 -2449 0
12350 2296 -1318 0
16150 -2296 1318 0
18003 -2296 -1318 0
744 1523 -2853 0
1240 -1523 2853 0
1835 -1523 -2853 0
17100 -2144 0
4290 -2386 0
214 1814 2330 -3391 0
8560 1814 -2330 3391 0
8603 1814 -2330 -3391 0
5350 -1814 2330 3391 0
5457 -1814 2330 -3391 0
9630 -1814 -2330 3391 0
9651 -1814 -2330 -3391 0
6650 -1604 0
2675 -3141 0
32045 1043 3151 -1587 0
30160 1043 -3151 1587 0
36569 1043 -3151 -1587 0
11310 -1043 3151 1587 0
33742 -1043 3151 -1587 0
32422 -1043 -3151 1587 0
36908 -1043 -3151 -1587 0
3424 3384 -2490 0
6955 -3384 2490 0
8153 -3384 -2490 0
3800 3190 -1243 0
6650 -3190 1243 0
9120 -3190 -1243 0
2145 1408 2654 -2970 0
27885 1408 -2654 2970 0
28636 1408 -2654 -2970 0
23595 -1408 2654 2970 0
24560 -1408 2654 -2970 0
36143 -1408 -2654 2970 0
36481 -1408 -2654 -2970 0
6420 2464 3283 3354 1951 -1745 0
7490 2464 3283 3354 -1951 1745 0
9416 2464 3283 3354 -1951 -1745 0
1284 2464 3283 -3354 1951 1745 0
6934 2464 3283 -3354 1951 -1745 0
7875 2464 3283 -3354 -1951 1745 0
9570 2464 3283 -3354 -1951 -1745 0
6420 2464 -3283 3354 1951 1745 0
8988 2464 -3283 3354 1951 -1745 0
9416 2464 -3283 3354 -1951 1745 0
10186 2464 -3283 3354 -1951 -1745 0
6934 2464 -3283 -3354 1951 1745 0
9193 2464 -3283 -3354 1951 -1745 0
9570 2464 -3283 -3354 -1951 1745 0
10248 2464 -3283 -3354 -1951 -1745 0
3745 -2464 3283 3354 1951 1745 0
7918 -2464 3283 3354 1951 -1745 0
8613 -2464 3283 3354 -1951 1745 0
9865 -2464 3283 3354 -1951 -1745 0
4580 -2464 3283 -3354 1951 1745 0
8252 -2464 3283 -3354 1951 -1745 0
8864 -2464 3283 -3354 -1951 1745 0
9966 -2464 3283 -3354 -1951 -1745 0
7918 -2464 -3283 3354 1951 1745 0
9587 -2464 -3283 3354 1951 -1745 0
9865 -2464 -3283 3354 -1951 1745 0
10366 -2464 -3283 3354 -1951 -1745 0
8252 -2464 -3283 -3354 1951 1745 0
9721 -2464 -3283 -3354 1951 -1745 0
9966 -2464 -3283 -3354 -1951 1745 0
10406 -2464 -3283 -3354 -1951 -1745 0
23595 3106 2264 -2332 0
6435 3106 -2264 2332 0
26491 3106 -2264 -2332 0
21450 -3106 2264 2332 0
33248 -3106 2264 -2332 0
24667 -3106 -2264 2332 0
34695 -3106 -2264 -2332 0
214 1807 2151 -3242 0
10165 1807 -2151 3242 0
10176 1807 -2151 -3242 0
5350 -1807 2151 3242 0
5457 -1807 2151 -3242 0
10433 -1807 -2151 3242 0
10438 -1807 -2151 -3242 0
7220 2020 2571 1820 1255 -1786 0
950 2020 2571 1820 -1255 1786 0
7809 2020 2571 1820 -1255 -1786 0
6080 2020 2571 -1820 1255 1786 0
10990 2020 2571 -1820 1255 -1786 0
6726 2020 2571 -1820 -1255 1786 0
11390 2020 2571 -1820 -1255 -1786 0
9500 2020 -2571 1820 1255 1786 0
13110 2020 -2571 1820 1255 -1786 0
9975 2020 -2571 1820 -1255 1786 0
13405 2020 -2571 1820 -1255 -1786 0
12540 2020 -2571 -1820 1255 1786 0
14995 2020 -2571 -1820 1255 -1786 0
12863 2020 -2571 -1820 -1255 1786 0
15195 2020 -2571 -1820 -1255 -1786 0
5700 -2020 2571 1820 1255 1786 0
10754 -2020 2571 1820 1255 -1786 0
6365 -2020 2571 1820 -1255 1786 0
11166 -2020 2571 1820 -1255 -1786 0
9956 -2020 2571 -1820 1255 1786 0
13393 -2020 2571 -1820 1255 -1786 0
10408 -2020 2571 -1820 -1255 1786 0
13673 -2020 2571 -1820 -1255 -1786 0
12350 -2020 -2571 1820 1255 1786 0
14877 -2020 -2571 1820 1255 -1786 0
12683 -2020 -2571 1820 -1255 1786 0
15083 -2020 -2571 1820 -1255 -1786 0
14478 -2020 -2571 -1820 1255 1786 0
16196 -2020 -2571 -1820 1255 -1786 0
14704 -2020 -2571 -1820 -1255 1786 0
16337 -2020 -2571 -1820 -1255 -1786 0
7722 1991 1217 -2565 0
10725 1991 -1217 2565 0
16516 1991 -1217 -2565 0
5148 -1991 1217 2565 0
11943 -1991 1217 -2565 0
14586 -1991 -1217 2565 0
19683 -1991 -1217 -2565 0
16302 2823 1234 2882 2475 -2112 0
6435 2823 1234 2882 -2475 2112 0
20292 2823 1234 2882 -2475 -2112 0
5148 2823 1234 -2882 2475 2112 0
19494 2823 1234 -2882 2475 -2112 0
10811 2823 1234 -2882 -2475 2112 0
23005 2823 1234 -2882 -2475 -2112 0
8580 2823 -1234 2882 2475 2112 0
21622 2823 -1234 2882 2475 -2112 0
13728 2823 -1234 2882 -2475 2112 0
24813 2823 -1234 2882 -2475 -2112 0
12698 2823 -1234 -2882 2475 2112 0
24175 2823 -1234 -2882 2475 -2112 0
17229 2823 -1234 -2882 -2475 2112 0
26984 2823 -1234 -2882 -2475 -2112 0
36465 -2823 1234 2882 2475 2112 0
38910 -2823 1234 2882 2475 -2112 0
37430 -2823 1234 2882 -2475 2112 0
39509 -2823 1234 2882 -2475 -2112 0
37237 -2823 1234 -2882 2475 2112 0
39389 -2823 1234 -2882 2475 -2112 0
38087 -2823 1234 -2882 -2475 2112 0
39916 -2823 1234 -2882 -2475 -2112 0
37752 -2823 -1234 2882 2475 2112 0
39708 -2823 -1234 2882 2475 -2112 0
38524 -2823 -1234 2882 -2475 2112 0
40187 -2823 -1234 2882 -2475 -2112 0
38370 -2823 -1234 -2882 2475 2112 0
40091 -2823 -1234 -2882 2475 -2112 0
39049 -2823 -1234 -2882 -2475 2112 0
40513 -2823 -1234 -2882 -2475 -2112 0
16302 1267 1022 2837 -2155 0
19305 1267 1022 -2837 2155 0
28271 1267 1022 -2837 -2155 0
17160 1267 -1022 2837 2155 0
26941 1267 -1022 2837 -2155 0
28743 1267 -1022 -2837 2155 0
34123 1267 -1022 -2837 -2155 0
30030 -1267 1022 2837 2155 0
34921 -1267 1022 2837 -2155 0
35821 -1267 1022 -2837 2155 0
38511 -1267 1022 -2837 -2155 0
35178 -1267 -1022 2837 2155 0
38112 -1267 -1022 2837 -2155 0
38653 -1267 -1022 -2837 2155 0
40267 -1267 -1022 -2837 -2155 0
1605 -3183 0
1284 1923 -3370 0
1926 -1923 3370 0
2979 -1923 -3370 0
5655 1856 -1597 0
15080 -1856 1597 0
18473 -1856 -1597 0
1116 -1428 0
9425 3293 1272 -2507 0
13195 3293 -1272 2507 0
19321 3293 -1272 -2507 0
22620 -3293 1272 2507 0
26390 -3293 1272 -2507 0
27898 -3293 -1272 2507 0
30348 -3293 -1272 -2507 0
2280 2576 -3367 0
14250 -2576 3367 0
14820 -2576 -3367 0
5890 2003 -1415 0
4650 -2003 1415 0
6123 -2003 -1415 0
4815 2779 2047 3382 3173 -1301 0
4066 2779 2047 3382 -3173 1301 0
7051 2779 2047 3382 -3173 -1301 0
1926 2779 2047 -3382 3173 1301 0
5874 2779 2047 -3382 3173 -1301 0
5260 2779 2047 -3382 -3173 1301 0
7708 2779 2047 -3382 -3173 -1301 0
5350 2779 -2047 3382 3173 1301 0
7758 2779 -2047 3382 3173 -1301 0
7383 2779 -2047 3382 -3173 1301 0
8876 2779 -2047 3382 -3173 -1301 0
6313 2779 -2047 -3382 3173 1301 0
8287 2779 -2047 -3382 3173 -1301 0
7980 2779 -2047 -3382 -3173 1301 0
9204 2779 -2047 -3382 -3173 -1301 0
9095 -2779 2047 3382 3173 1301 0
9817 -2779 2047 3382 3173 -1301 0
9705 -2779 2047 3382 -3173 1301 0
10153 -2779 2047 3382 -3173 -1301 0
9384 -2779 2047 -3382 3173 1301 0
9976 -2779 2047 -3382 3173 -1301 0
9884 -2779 2047 -3382 -3173 1301 0
10251 -2779 2047 -3382 -3173 -1301 0
9898 -2779 -2047 3382 3173 1301 0
10259 -2779 -2047 3382 3173 -1301 0
10202 -2779 -2047 3382 -3173 1301 0
10426 -2779 -2047 3382 -3173 -1301 0
10042 -2779 -2047 -3382 3173 1301 0
10338 -2779 -2047 -3382 3173 -1301 0
10292 -2779 -2047 -3382 -3173 1301 0
10476 -2779 -2047 -3382 -3173 -1301 0
1900 3287 3223 2192 -2147 0
2850 3287 3223 -2192 2147 0
4465 3287 3223 -2192 -2147 0
2850 3287 -3223 2192 2147 0
4465 3287 -3223 2192 -2147 0
5273 3287 -3223 -2192 2147 0
6645 3287 -3223 -2192 -2147 0
1900 -3287 3223 2192 2147 0
3610 -3287 3223 2192 -2147 0
4465 -3287 3223 -2192 2147 0
5919 -3287 3223 -2192 -2147 0
4465 -3287 -3223 2192 2147 0
5919 -3287 -3223 2192 -2147 0
6645 -3287 -3223 -2192 2147 0
7881 -3287 -3223 -2192 -2147 0
32175 3065 -2178 0
38610 -3065 2178 0
41827 -3065 -2178 0
5885 1312 3159 -1291 0
535 1312 -3159 1291 0
6126 1312 -3159 -1291 0
1605 -1312 3159 1291 0
6607 -1312 3159 -1291 0
2060 -1312 -3159 1291 0
6812 -1312 -3159 -1291 0
1116 -3031 0
25740 2797 1294 -1471 0
34320 2797 -1294 1471 0
39468 2797 -1294 -1471 0
27885 -2797 1294 1471 0
36894 -2797 1294 -1471 0
39897 -2797 -1294 1471 0
41699 -2797 -1294 -1471 0
13300 -2651 0
40755 2159 1620 2483 -2820 0
15015 2159 1620 -2483 2820 0
41506 2159 1620 -2483 -2820 0
27885 2159 -1620 2483 2820 0
42149 2159 -1620 2483 -2820 0
33140 2159 -1620 -2483 2820 0
42412 2159 -1620 -2483 -2820 0
6435 -2159 1620 2483 2820 0
41077 -2159 1620 2483 -2820 0
19198 -2159 1620 -2483 2820 0
41715 -2159 1620 -2483 -2820 0
30137 -2159 -1620 2483 2820 0
42262 -2159 -1620 2483 -2820 0
34604 -2159 -1620 -2483 2820 0
42485 -2159 -1620 -2483 -2820 0
5580 1248 -2055 0
3100 -1248 2055 0
5890 -1248 -2055 0
4030 1946 -2081 0
5580 -1946 2081 0
5983 -1946 -2081 0
930 2646 -3027 0
5580 -2646 3027 0
5673 -2646 -3027 0
2675 1834 -2218 0
6955 -1834 2218 0
7891 -1834 -2218 0
2145 1908 -1340 0
17160 -1908 1340 0
18447 -1908 -1340 0
1605 2402 -1685 0
2675 -2402 1685 0
3879 -2402 -1685 0
36465 2137 1975 2074 -2923 0
19305 2137 1975 -2074 2923 0
39361 2137 1975 -2074 -2923 0
40755 2137 -1975 2074 2923 0
42578 2137 -1975 2074 -2923 0
41720 2137 -1975 -2074 2923 0
42723 2137 -1975 -2074 -2923 0
21450 -2137 1975 2074 2923 0
39683 -2137 1975 2074 -2923 0
31102 -2137 1975 -2074 2923 0
41130 -2137 1975 -2074 -2923 0
41827 -2137 -1975 2074 2923 0
42739 -2137 -1975 2074 -2923 0
42310 -2137 -1975 -2074 2923 0
42812 -2137 -1975 -2074 -2923 0
5655 2170 -1614 0
18850 -2170 1614 0
21677 -2170 -1614 0
9425 2121 -2631 0
33930 -2121 2631 0
34873 -2121 -2631 0
9630 -3040 0
12350 1546 -1144 0
3420 -1546 1144 0
13547 -1546 -1144 0
9425 1172 2409 -2148 0
24505 1172 -2409 2148 0
27804 1172 -2409 -2148 0
754 -1172 2409 2148 0
9991 -1172 2409 -2148 0
24769 -1172 -2409 2148 0
28002 -1172 -2409 -2148 0
3210 1133 -2570 0
6420 -1133 2570 0
7704 -1133 -2570 0
22620 2059 1180 1618 1580 -3082 0
14326 2059 1180 1618 -1580 3082 0
28350 2059 1180 1618 -1580 -3082 0
18850 2059 1180 -1618 1580 3082 0
30160 2059 1180 -1618 1580 -3082 0
26013 2059 1180 -1618 -1580 3082 0
33025 2059 1180 -1618 -1580 -3082 0
1885 2059 -1180 1618 1580 3082 0
23374 2059 -1180 1618 1580 -3082 0
15495 2059 -1180 1618 -1580 3082 0
28818 2059 -1180 1618 -1580 -3082 0
19793 2059 -1180 -1618 1580 3082 0
30537 2059 -1180 -1618 1580 -3082 0
26597 2059 -1180 -1618 -1580 3082 0
33259 2059 -1180 -1618 -1580 -3082 0
13195 -2059 1180 1618 1580 3082 0
27898 -2059 1180 1618 1580 -3082 0
22507 -2059 1180 1618 -1580 3082 0
31623 -2059 1180 1618 -1580 -3082 0
25448 -2059 1180 -1618 1580 3082 0
32799 -2059 1180 -1618 1580 -3082 0
30103 -2059 1180 -1618 -1580 3082 0
34661 -2059 1180 -1618 -1580 -3082 0
14420 -2059 -1180 1618 1580 3082 0
28388 -2059 -1180 1618 1580 -3082 0
23267 -2059 -1180 1618 -1580 3082 0
31927 -2059 -1180 1618 -1580 -3082 0
26060 -2059 -1180 -1618 1580 3082 0
33044 -2059 -1180 -1618 1580 -3082 0
30483 -2059 -1180 -1618 -1580 3082 0
34813 -2059 -1180 -1618 -1580 -3082 0
18050 2735 -1802 0
10450 -2735 1802 0
18572 -2735 -1802 0
12064 1613 1906 2232 -2267 0
15080 1613 1906 -2232 2267 0
22318 1613 1906 -2232 -2267 0
5655 1613 -1906 2232 2267 0
15909 1613 -1906 2232 -2267 0
18473 1613 -1906 -2232 2267 0
24626 1613 -1906 -2232 -2267 0
4524 -1613 1906 2232 2267 0
15140 -1613 1906 2232 -2267 0
17794 -1613 1906 -2232 2267 0
24164 -1613 1906 -2232 -2267 0
9500 -1613 -1906 2232 2267 0
18524 -1613 -1906 2232 -2267 0
20780 -1613 -1906 -2232 2267 0
26195 -1613 -1906 -2232 -2267 0
858 1842 1947 -1510 0
21450 1842 -1947 1510 0
21879 1842 -1947 -1510 0
34320 -1842 1947 1510 0
34492 -1842 1947 -1510 0
38610 -1842 -1947 1510 0
38696 -1842 -1947 -1510 0
9425 -3275 0
6080 -2399 0
5885 -2657 0
1885 1742 -2439 0
26390 -1742 2439 0
26956 -1742 -2439 0
8560 1051 1663 -3349 0
2675 1051 -1663 3349 0
9095 1051 -1663 -3349 0
3210 -1051 1663 3349 0
9202 -1051 1663 -3349 0
5083 -1051 -1663 3349 0
9577 -1051 -1663 -3349 0
8560 -2049 0
20735 2617 -2433 0
20735 -2617 2433 0
30066 -2617 -2433 0
2356 2002 1979 -2961 0
2790 2002 -1979 2961 0
4086 2002 -1979 -2961 0
1116 -2002 1979 2961 0
3048 -2002 1979 -2961 0
3404 -2002 -1979 2961 0
4466 -2002 -1979 -2961 0
7220 1210 1475 1962 -2508 0
13300 1210 1475 -1962 2508 0
15466 1210 1475 -1962 -2508 0
3420 1210 -1475 1962 2508 0
9340 1210 -1475 1962 -2508 0
14326 1210 -1475 -1962 2508 0
16102 1210 -1475 -1962 -2508 0
2280 -1210 1475 1962 2508 0
8634 -1210 1475 1962 -2508 0
13984 -1210 1475 -1962 2508 0
15890 -1210 1475 -1962 -2508 0
5290 -1210 -1475 1962 2508 0
10500 -1210 -1475 1962 -2508 0
14887 -1210 -1475 -1962 2508 0
16450 -1210 -1475 -1962 -2508 0
15200 1238 1434 -1008 0
1900 1238 -1434 1008 0
15580 1238 -1434 -1008 0
16150 -1238 1434 1008 0
18430 -1238 1434 -1008 0
16435 -1238 -1434 1008 0
18487 -1238 -1434 -1008 0
38610 3120 3295 -2996 0
25740 3120 -3295 2996 0
41184 3120 -3295 -2996 0
32175 -3120 3295 2996 0
41827 -3120 3295 -2996 0
38610 -3120 -3295 2996 0
42471 -3120 -3295 -2996 0
6786 3181 2990 2207 -1020 0
12064 3181 2990 -2207 1020 0
16678 3181 2990 -2207 -1020 0
754 3181 -2990 2207 1020 0
7404 3181 -2990 2207 -1020 0
12577 3181 -2990 -2207 1020 0
17099 3181 -2990 -2207 -1020 0
4524 -3181 2990 2207 1020 0
10496 -3181 2990 2207 -1020 0
15140 -3181 2990 -2207 1020 0
19201 -3181 2990 -2207 -1020 0
5188 -3181 -2990 2207 1020 0
11040 -3181 -2990 2207 -1020 0
15592 -3181 -2990 -2207 1020 0
19571 -3181 -2990 -2207 -1020 0
4960 2129 1405 -2546 0
2480 2129 -1405 2546 0
5456 2129 -1405 -2546 0
1240 -2129 1405 2546 0
5208 -2129 1405 -2546 0
3224 -2129 -1405 2546 0
5605 -2129 -1405 -2546 0
4524 1816 2796 -2623 0
3770 1816 -2796 2623 0
7842 1816 -2796 -2623 0
33930 -1816 2796 2623 0
34382 -1816 2796 -2623 0
34307 -1816 -2796 2623 0
34714 -1816 -2796 -2623 0
6786 -1047 0
26390 1254 1395 -2888 0
24505 1254 -1395 2888 0
33742 1254 -1395 -2888 0
35815 -1254 1395 2888 0
37134 -1254 1395 -2888 0
37040 -1254 -1395 2888 0
37502 -1254 -1395 -2888 0
5890 2864 2397 1734 -2053 0
930 2864 2397 -1734 2053 0
5937 2864 2397 -1734 -2053 0
1984 2864 -2397 1734 2053 0
5989 2864 -2397 1734 -2053 0
2616 2864 -2397 -1734 2053 0
6021 2864 -2397 -1734 -2053 0
1116 -2864 2397 1734 2053 0
5946 -2864 2397 1734 -2053 0
1879 -2864 2397 -1734 2053 0
5984 -2864 2397 -1734 -2053 0
2743 -2864 -2397 1734 2053 0
6027 -2864 -2397 1734 -2053 0
3261 -2864 -2397 -1734 2053 0
6053 -2864 -2397 -1734 -2053 0
1240 1540 -2652 0
4340 -1540 2652 0
4712 -1540 -2652 0
2140 2052 -2075 0
6420 -2052 2075 0
7276 -2052 -2075 0
30030 -3228 0
8580 3075 -2925 0
34320 -3075 2925 0
36036 -3075 -2925 0
3745 -1695 0
17160 3214 -1588 0
8580 -3214 1588 0
22308 -3214 -1588 0
5885 -1114 0
1070 -1950 0
1240 -1354 0
14250 2366 1117 -3294 0
18050 2366 -1117 3294 0
18762 2366 -1117 -3294 0
8550 -2366 1117 3294 0
16388 -2366 1117 -3294 0
18477 -2366 -1117 3294 0
18869 -2366 -1117 -3294 0
11400 2667 -1832 0
380 -2667 1832 0
11552 -2667 -1832 0
18850 1774 -3044 0
4524 -1774 3044 0
21112 -1774 -3044 0
4066 1838 2029 -1109 0
1605 1838 -2029 1109 0
5061 1838 -2029 -1109 0
4815 -1838 2029 1109 0
7051 -1838 2029 -1109 0
5698 -1838 -2029 1109 0
7599 -1838 -2029 -1109 0
20735 1858 1115 -3398 0
5655 1858 -1115 3398 0
23280 1858 -1115 -3398 0
33930 -1858 1115 3398 0
36004 -1858 1115 -3398 0
34496 -1858 -1115 3398 0
36258 -1858 -1115 -3398 0
5270 -2977 0
5270 3060 -1453 0
2356 -3060 1453 0
5623 -3060 -1453 0
19305 1781 -1622 0
30030 -1781 1622 0
35821 -1781 -1622 0
38610 -2641 0
1605 2890 -3399 0
6955 -2890 3399 0
7517 -2890 -3399 0
36465 1535 -2997 0
2145 -1535 2997 0
36787 -1535 -2997 0
10450 2959 -2602 0
6080 -2959 2602 0
13186 -2959 -2602 0
5655 2849 -3139 0
30160 -2849 3139 0
31291 -2849 -3139 0
24505 2886 1084 -2895 0
12064 2886 -1084 2895 0
28727 2886 -1084 -2895 0
24505 -2886 1084 2895 0
33082 -2886 1084 -2895 0
28727 -2886 -1084 2895 0
34560 -2886 -1084 -2895 0
3210 1691 -1467 0
5885 -1691 1467 0
7330 -1691 -1467 0
1550 -2875 0
5270 2727 2459 -1890 0
5270 2727 -2459 1890 0
6061 2727 -2459 -1890 0
1116 -2727 2459 1890 0
5437 -2727 2459 -1890 0
5437 -2727 -2459 1890 0
6086 -2727 -2459 -1890 0
4960 1148 -3254 0
3720 -1148 3254 0
5704 -1148 -3254 0
38610 2562 2626 -2068 0
10725 2562 -2626 2068 0
39683 2562 -2626 -2068 0
17160 -2562 2626 2068 0
40326 -2562 2626 -2068 0
23595 -2562 -2626 2068 0
40970 -2562 -2626 -2068 0
23595 1743 1160 3260 -1457 0
858 1743 1160 -3260 1457 0
23981 1743 1160 -3260 -1457 0
21450 1743 -1160 3260 1457 0
33248 1743 -1160 3260 -1457 0
21879 1743 -1160 -3260 1457 0
33441 1743 -1160 -3260 -1457 0
17160 -1743 1160 3260 1457 0
31317 -1743 1160 3260 -1457 0
17675 -1743 1160 -3260 1457 0
31549 -1743 1160 -3260 -1457 0
30030 -1743 -1160 3260 1457 0
37108 -1743 -1160 3260 -1457 0
30287 -1743 -1160 -3260 1457 0
37224 -1743 -1160 -3260 -1457 0
754 -1054 0
930 2999 2302 2810 -3224 0
1116 2999 2302 -2810 3224 0
1879 2999 2302 -2810 -3224 0
124 2999 -2302 2810 3224 0
1035 2999 -2302 2810 -3224 0
1218 2999 -2302 -2810 3224 0
1965 2999 -2302 -2810 -3224 0
1550 -2999 2302 2810 3224 0
2248 -2999 2302 2810 -3224 0
2387 -2999 2302 -2810 3224 0
2959 -2999 2302 -2810 -3224 0
1643 -2999 -2302 2810 3224 0
2327 -2999 -2302 2810 -3224 0
2463 -2999 -2302 -2810 3224 0
3024 -2999 -2302 -2810 -3224 0
5148 3089 2139 -1756 0
858 3089 -2139 1756 0
5903 3089 -2139 -1756 0
7722 -3089 2139 1756 0
11943 -3089 2139 -1756 0
8426 -3089 -2139 1756 0
12562 -3089 -2139 -1756 0
32045 2891 -1435 0
1885 -2891 1435 0
32328 -2891 -1435 0
12870 2083 -2463 0
6435 -2083 2463 0
17375 -2083 -2463 0
4066 -1972 0
1070 2238 2237 1378 2878 -2288 0
535 2238 2237 1378 -2878 2288 0
1552 2238 2237 1378 -2878 -2288 0
5885 2238 2237 -1378 2878 2288 0
6366 2238 2237 -1378 2878 -2288 0
6126 2238 2237 -1378 -2878 2288 0
6583 2238 2237 -1378 -2878 -2288 0
9095 2238 -2237 1378 2878 2288 0
9255 2238 -2237 1378 2878 -2288 0
9175 2238 -2237 1378 -2878 2288 0
9328 2238 -2237 1378 -2878 -2288 0
9978 2238 -2237 -1378 2878 2288 0
10050 2238 -2237 -1378 2878 -2288 0
10014 2238 -2237 -1378 -2878 2288 0
10082 2238 -2237 -1378 -2878 -2288 0
1926 -2238 2237 1378 2878 2288 0
2803 -2238 2237 1378 2878 -2288 0
2365 -2238 2237 1378 -2878 2288 0
3198 -2238 2237 1378 -2878 -2288 0
6752 -2238 2237 -1378 2878 2288 0
7147 -2238 2237 -1378 2878 -2288 0
6949 -2238 2237 -1378 -2878 2288 0
7324 -2238 2237 -1378 -2878 -2288 0
9384 -2238 -2237 1378 2878 2288 0
9516 -2238 -2237 1378 2878 -2288 0
9450 -2238 -2237 1378 -2878 2288 0
9575 -2238 -2237 1378 -2878 -2288 0
10108 -2238 -2237 -1378 2878 2288 0
10167 -2238 -2237 -1378 2878 -2288 0
10137 -2238 -2237 -1378 -2878 2288 0
10194 -2238 -2237 -1378 -2878 -2288 0
16302 -2315 0
9425 3085 1616 -1953 0
6786 3085 -1616 1953 0
14515 3085 -1616 -1953 0
754 -3085 1616 1953 0
9991 -3085 1616 -1953 0
7404 -3085 -1616 1953 0
14978 -3085 -1616 -1953 0
4960 2009 1474 2668 -3170 0
2170 2009 1474 -2668 3170 0
5394 2009 1474 -2668 -3170 0
2790 2009 -1474 2668 3170 0
5518 2009 -1474 2668 -3170 0
3984 2009 -1474 -2668 3170 0
5757 2009 -1474 -2668 -3170 0
2356 -2009 1474 2668 3170 0
5431 -2009 1474 2668 -3170 0
3701 -2009 1474 -2668 3170 0
5700 -2009 1474 -2668 -3170 0
4086 -2009 -1474 2668 3170 0
5777 -2009 -1474 2668 -3170 0
4826 -2009 -1474 -2668 3170 0
5925 -2009 -1474 -2668 -3170 0
6650 -1350 0
9630 2240 3024 -3232 0
9630 2240 -3024 3232 0
10593 2240 -3024 -3232 0
1070 -2240 3024 3232 0
9737 -2240 3024 -3232 0
9737 -2240 -3024 3232 0
10604 -2240 -3024 -3232 0
4960 -1430 0
13195 1444 1439 -1386 0
5655 1444 -1439 1386 0
16871 1444 -1439 -1386 0
5655 -1444 1439 1386 0
16871 -1444 1439 -1386 0
10462 -1444 -1439 1386 0
19995 -1444 -1439 -1386 0
9500 2219 -2096 0
10450 -2219 2096 0
14725 -2219 -2096 0
1550 3070 -3308 0
310 -3070 3308 0
1783 -3070 -3308 0
1070 2634 3124 1765 2600 -2447 0
5885 2634 3124 1765 -2600 2447 0
6366 2634 3124 1765 -2600 -2447 0
7490 2634 3124 -1765 2600 2447 0
7811 2634 3124 -1765 2600 -2447 0
9255 2634 3124 -1765 -2600 2447 0
9400 2634 3124 -1765 -2600 -2447 0
9095 2634 -3124 1765 2600 2447 0
9255 2634 -3124 1765 2600 -2447 0
9978 2634 -3124 1765 -2600 2447 0
10050 2634 -3124 1765 -2600 -2447 0
10219 2634 -3124 -1765 2600 2447 0
10267 2634 -3124 -1765 2600 -2447 0
10483 2634 -3124 -1765 -2600 2447 0
10505 2634 -3124 -1765 -2600 -2447 0
4066 -2634 3124 1765 2600 2447 0
4729 -2634 3124 1765 2600 -2447 0
7715 -2634 3124 1765 -2600 2447 0
8013 -2634 3124 1765 -2600 -2447 0
8710 -2634 3124 -1765 2600 2447 0
8909 -2634 3124 -1765 2600 -2447 0
9804 -2634 3124 -1765 -2600 2447 0
9894 -2634 3124 -1765 -2600 -2447 0
9705 -2634 -3124 1765 2600 2447 0
9804 -2634 -3124 1765 2600 -2447 0
10252 -2634 -3124 1765 -2600 2447 0
10297 -2634 -3124 1765 -2600 -2447 0
10401 -2634 -3124 -1765 2600 2447 0
10431 -2634 -3124 -1765 2600 -2447 0
10566 -2634 -3124 -1765 -2600 2447 0
10579 -2634 -3124 -1765 -2600 -2447 0
13195 2506 -1928 0
33930 -2506 1928 0
35250 -2506 -1928 0
17160 1490 1998 -2117 0
38610 1490 -1998 2117 0
40326 1490 -1998 -2117 0
17160 -1490 1998 2117 0
27456 -1490 1998 -2117 0
40326 -1490 -1998 2117 0
41356 -1490 -1998 -2117 0
13300 1420 2556 -1995 0
13300 1420 -2556 1995 0
17290 1420 -2556 -1995 0
3420 -1420 2556 1995 0
14326 -1420 2556 -1995 0
14326 -1420 -2556 1995 0
17598 -1420 -2556 -1995 0
2480 -2072 0
6955 2416 -1306 0
6955 -2416 1306 0
9389 -2416 -1306 0
1116 -1072 0
36465 1828 1671 -1411 0
5148 1828 -1671 1411 0
37237 1828 -1671 -1411 0
36465 -1828 1671 1411 0
41935 -1828 1671 -1411 0
37237 -1828 -1671 1411 0
42051 -1828 -1671 -1411 0
214 2698 3233 -1773 0
1926 2698 -3233 1773 0
2101 2698 -3233 -1773 0
4815 -2698 3233 1773 0
4933 -2698 3233 -1773 0
5874 -2698 -3233 1773 0
5971 -2698 -3233 -1773 0
32175 2678 2739 -1677 0
4290 2678 -2739 1677 0
33248 2678 -2739 -1677 0
6435 -2678 2739 1677 0
33784 -2678 2739 -1677 0
10081 -2678 -2739 1677 0
34695 -2678 -2739 -1677 0
40755 2423 -2400 0
36465 -2423 2400 0
42578 -2423 -2400 0
2480 2016 3320 -2587 0
4960 2016 -3320 2587 0
5456 2016 -3320 -2587 0
5580 -2016 3320 2587 0
5828 -2016 3320 -2587 0
6076 -2016 -3320 2587 0
6126 -2016 -3320 -2587 0
12064 1302 2964 2223 -1007 0
20735 1302 2964 -2223 1007 0
26164 1302 2964 -2223 -1007 0
15080 1302 -2964 2223 1007 0
22318 1302 -2964 2223 -1007 0
27521 1302 -2964 -2223 1007 0
30778 1302 -2964 -2223 -1007 0
5655 -1302 2964 2223 1007 0
15909 -1302 2964 2223 -1007 0
23280 -1302 2964 -2223 1007 0
27894 -1302 2964 -2223 -1007 0
18473 -1302 -2964 2223 1007 0
24626 -1302 -2964 2223 -1007 0
29048 -1302 -2964 -2223 1007 0
31817 -1302 -2964 -2223 -1007 0
2356 2982 -2603 0
2170 -2982 2603 0
3701 -2982 -2603 0
1605 -2184 0
8560 1326 3051 1279 -3273 0
4815 1326 3051 -1279 3273 0
9523 1326 3051 -1279 -3273 0
2675 1326 -3051 1279 3273 0
9095 1326 -3051 1279 -3273 0
6286 1326 -3051 -1279 3273 0
9817 1326 -3051 -1279 -3273 0
8560 -1326 3051 1279 3273 0
10272 -1326 3051 1279 -3273 0
9523 -1326 3051 -1279 3273 0
10465 -1326 3051 -1279 -3273 0
9095 -1326 -3051 1279 3273 0
10379 -1326 -3051 1279 -3273 0
9817 -1326 -3051 -1279 3273 0
10523 -1326 -3051 -1279 -3273 0
12350 2911 -2071 0
14250 -2911 2071 0
17338 -2911 -2071 0
3210 2752 -3005 0
214 -2752 3005 0
3360 -2752 -3005 0
535 3049 -3329 0
9095 -3049 3329 0
9175 -3049 -3329 0
22620 1517 3230 2114 -2227 0
30160 1517 3230 -2114 2227 0
34684 1517 3230 -2114 -2227 0
5655 1517 -3230 2114 2227 0
24882 1517 -3230 2114 -2227 0
31291 1517 -3230 -2114 2227 0
35136 1517 -3230 -2114 -2227 0
13195 -1517 3230 2114 2227 0
27898 -1517 3230 2114 -2227 0
32799 -1517 3230 -2114 2227 0
35740 -1517 3230 -2114 -2227 0
16871 -1517 -3230 2114 2227 0
29368 -1517 -3230 2114 -2227 0
33534 -1517 -3230 -2114 2227 0
36034 -1517 -3230 -2114 -2227 0
8550 2636 -3221 0
3420 -2636 3221 0
10431 -2636 -3221 0
4750 2361 2831 -1242 0
12350 2361 -2831 1242 0
14012 2361 -2831 -1242 0
950 -2361 2831 1242 0
5463 -2361 2831 -1242 0
12683 -2361 -2831 1242 0
14262 -2361 -2831 -1242 0
26390 2442 -1711 0
16965 -2442 1711 0
31479 -2442 -1711 0
7722 1637 -2743 0
4290 -1637 2743 0
11240 -1637 -2743 0
2145 1674 -2905 0
858 -1674 2905 0
2960 -1674 -2905 0
858 2089 2370 -3270 0
19305 2089 -2370 3270 0
19777 2089 -2370 -3270 0
2145 -2089 2370 3270 0
2960 -2089 2370 -3270 0
20485 -2089 -2370 3270 0
20933 -2089 -2370 -3270 0
22620 -3376 0
1240 2269 -3011 0
3720 -2269 3011 0
4216 -2269 -3011 0
13728 2639 -2825 0
15015 -2639 2825 0
23938 -2639 -2825 0
3420 2214 1358 -2703 0
10450 2214 -1358 2703 0
11989 2214 -1358 -2703 0
7600 -2214 1358 2703 0
9652 -2214 1358 -2703 0
13870 -2214 -1358 2703 0
14793 -2214 -1358 -2703 0
14250 -1629 0
4280 3035 2489 -2188 0
5350 3035 -2489 2188 0
7490 3035 -2489 -2188 0
2675 -3035 2489 2188 0
5885 -3035 2489 -2188 0
6688 -3035 -2489 2188 0
8292 -3035 -2489 -2188 0
5350 3362 1494 -1839 0
9630 3362 -1494 1839 0
10165 3362 -1494 -1839 0
4815 -3362 1494 1839 0
7758 -3362 1494 -1839 0
10112 -3362 -1494 1839 0
10406 -3362 -1494 -1839 0
33930 2830 3111 1567 -1689 0
3770 2830 3111 -1567 1689 0
34307 2830 3111 -1567 -1689 0
15080 2830 -3111 1567 1689 0
35438 2830 -3111 1567 -1689 0
17342 2830 -3111 -1567 1689 0
35664 2830 -3111 -1567 -1689 0
26390 -2830 3111 1567 1689 0
36569 -2830 3111 1567 -1689 0
27521 -2830 3111 -1567 1689 0
36682 -2830 3111 -1567 -1689 0
30914 -2830 -3111 1567 1689 0
37021 -2830 -3111 1567 -1689 0
31593 -2830 -3111 -1567 1689 0
37089 -2830 -3111 -1567 -1689 0
5700 -3185 0
535 2738 -2380 0
10165 -2738 2380 0
10192 -2738 -2380 0
8560 2063 1914 -1440 0
4815 2063 -1914 1440 0
9523 2063 -1914 -1440 0
1070 -2063 1914 1440 0
8774 -2063 1914 -1440 0
5403 -2063 -1914 1440 0
9641 -2063 -1914 -1440 0
2280 -1827 0
5655 3157 -1232 0
15080 -3157 1232 0
18473 -3157 -1232 0
13300 3196 -1547 0
18050 -3196 1547 0
18715 -3196 -1547 0
5580 2482 1286 -1698 0
1116 2482 -1286 1698 0
5692 2482 -1286 -1698 0
3100 -2482 1286 1698 0
5890 -2482 1286 -1698 0
3658 -2482 -1286 1698 0
5946 -2482 -1286 -1698 0
4524 2604 2913 -1150 0
4524 2604 -2913 1150 0
8505 2604 -2913 -1150 0
26390 -2604 2913 1150 0
27747 -2604 2913 -1150 0
27747 -2604 -2913 1150 0
28942 -2604 -2913 -1150 0
10165 1124 2177 -2297 0
4815 1124 -2177 2297 0
10406 1124 -2177 -2297 0
6955 -1124 2177 2297 0
10513 -1124 2177 -2297 0
8640 -1124 -2177 2297 0
10597 -1124 -2177 -2297 0
11400 -1377 0
15200 -1917 0
12350 -1866 0
11400 3115 2191 -3268 0
6650 3115 -2191 3268 0
14060 3115 -2191 -3268 0
11400 -3115 2191 3268 0
15960 -3115 2191 -3268 0
14060 -3115 -2191 3268 0
17024 -3115 -2191 -3268 0
24505 -2601 0
18050 2945 -2426 0
13300 -2945 2426 0
18715 -2945 -2426 0
3745 1033 3324 1125 -2273 0
9095 1033 3324 -1125 2273 0
9657 1033 3324 -1125 -2273 0
3210 1033 -3324 1125 2273 0
5832 1033 -3324 1125 -2273 0
9577 1033 -3324 -1125 2273 0
9970 1033 -3324 -1125 -2273 0
3745 -1033 3324 1125 2273 0
6179 -1033 3324 1125 -2273 0
9657 -1033 3324 -1125 2273 0
10022 -1033 3324 -1125 -2273 0
5832 -1033 -3324 1125 2273 0
7535 -1033 -3324 1125 -2273 0
9970 -1033 -3324 -1125 2273 0
10225 -1033 -3324 -1125 -2273 0
8580 -2270 0
16965 -2045 0
16150 1154 2794 -2037 0
3420 1154 -2794 2037 0
16663 1154 -2794 -2037 0
13300 -1154 2794 2037 0
18145 -1154 2794 -2037 0
14326 -1154 -2794 2037 0
18299 -1154 -2794 -2037 0
124 1103 -1218 0
5580 -1103 1218 0
5592 -1103 -1218 0
27885 1520 1915 -1226 0
7722 1520 -1915 1226 0
30588 1520 -1915 -1226 0
25740 -1520 1915 1226 0
36894 -1520 1915 -1226 0
28829 -1520 -1915 1226 0
37975 -1520 -1915 -1226 0
16965 2723 3280 -1909 0
5655 2723 -3280 1909 0
20075 2723 -3280 -1909 0
26390 -2723 3280 1909 0
31479 -2723 3280 -1909 0
28087 -2723 -3280 1909 0
32413 -2723 -3280 -1909 0
1284 1076 1314 -2691 0
535 1076 -1314 2691 0
1755 1076 -1314 -2691 0
2675 -1076 1314 2691 0
3638 -1076 1314 -2691 0
3076 -1076 -1314 2691 0
3991 -1076 -1314 -2691 0
7722 2282 -2609 0
38610 -2282 2609 0
39382 -2282 -2609 0
930 1134 2763 1735 -1320 0
5580 1134 2763 -1735 1320 0
5673 1134 2763 -1735 -1320 0
310 1134 -2763 1735 1320 0
1194 1134 -2763 1735 -1320 0
5611 1134 -2763 -1735 1320 0
5699 1134 -2763 -1735 -1320 0
5580 -1134 2763 1735 1320 0
5673 -1134 2763 1735 -1320 0
6138 -1134 2763 -1735 1320 0
6147 -1134 2763 -1735 -1320 0
5611 -1134 -2763 1735 1320 0
5699 -1134 -2763 1735 -1320 0
6141 -1134 -2763 -1735 1320 0
6150 -1134 -2763 -1735 -1320 0
620 1555 1889 -1615 0
1116 1555 -1889 1615 0
1624 1555 -1889 -1615 0
5890 -1555 1889 1615 0
5921 -1555 1889 -1615 0
5946 -1555 -1889 1615 0
5971 -1555 -1889 -1615 0
3410 1295 -2770 0
5270 -1295 2770 0
5781 -1295 -2770 0
4340 1223 2036 1943 -2877 0
5270 1223 2036 -1943 2877 0
5921 1223 2036 -1943 -2877 0
1550 1223 -2036 1943 2877 0
4805 1223 -2036 1943 -2877 0
5502 1223 -2036 -1943 2877 0
5991 1223 -2036 -1943 -2877 0
5890 -1223 2036 1943 2877 0
6107 -1223 2036 1943 -2877 0
6153 -1223 2036 -1943 2877 0
6186 -1223 2036 -1943 -2877 0
5967 -1223 -2036 1943 2877 0
6130 -1223 -2036 1943 -2877 0
6165 -1223 -2036 -1943 2877 0
6190 -1223 -2036 -1943 -2877 0
3210 3056 -2373 0
1926 -3056 2373 0
4558 -3056 -2373 0
3800 3352 -2212 0
8550 -3352 2212 0
10640 -3352 -2212 0
930 2768 -1193 0
1116 -2768 1193 0
1879 -2768 -1193 0
26390 2347 -2649 0
4524 -2347 2649 0
27747 -2347 -2649 0
1605 2832 -2176 0
5885 -2832 2176 0
6607 -2832 -2176 0
3770 3264 -1895 0
35815 -3264 1895 0
36003 -3264 -1895 0
12870 3372 1363 -2471 0
8580 3372 -1363 2471 0
18876 3372 -1363 -2471 0
8580 -3372 1363 2471 0
18876 -3372 1363 -2471 0
15444 -3372 -1363 2471 0
23681 -3372 -1363 -2471 0
4290 -2050 0
2140 -1126 0
2850 2950 -2132 0
2850 -2950 2132 0
5273 -2950 -2132 0
8025 2620 1694 -1338 0
4280 2620 -1694 1338 0
9095 2620 -1694 -1338 0
7490 -2620 1694 1338 0
9898 -2620 1694 -1338 0
8774 -2620 -1694 1338 0
10219 -2620 -1694 -1338 0
8580 -2847 0
16302 1576 3207 -2069 0
2145 1576 -3207 2069 0
17632 1576 -3207 -2069 0
12870 -1576 3207 2069 0
24281 -1576 3207 -2069 0
14372 -1576 -3207 2069 0
25212 -1576 -3207 -2069 0
4650 -2202 0
24505 1062 -1958 0
28275 -1062 1958 0
34401 -1062 -1958 0
13300 2928 -2898 0
14250 -2928 2898 0
17575 -2928 -2898 0
3745 2829 2819 -1836 0
10165 2829 -2819 1836 0
10352 2829 -2819 -1836 0
4280 -2829 2819 1836 0
6527 -2829 2819 -1836 0
10379 -2829 -2819 1836 0
10491 -2829 -2819 -1836 0
310 1761 -3288 0
1116 -1761 3288 0
1370 -1761 -3288 0
3720 1382 -2906 0
3410 -1382 2906 0
5084 -1382 -2906 0
10725 -1757 0
28275 1470 3350 -1763 0
754 1470 -3350 1763 0
28463 1470 -3350 -1763 0
754 -1470 3350 1763 0
28463 -1470 3350 -1763 0
1493 -1470 -3350 1763 0
28648 -1470 -3350 -1763 0
7722 -1099 0
3410 -2900 0
5148 -1096 0
858 2660 1361 -1088 0
32175 2660 -1361 1088 0
32389 2660 -1361 -1088 0
2145 -2660 1361 1088 0
2960 -2660 1361 -1088 0
32711 -2660 -1361 1088 0
32915 -2660 -1361 -1088 0
1900 -3010 0
380 3341 -1633 0
12350 -3341 1633 0
12483 -3341 -1633 0
7722 2079 -3246 0
13728 -2079 3246 0
18979 -2079 -3246 0
2280 2163 1142 -1356 0
3800 2163 -1142 1356 0
5624 2163 -1142 -1356 0
1900 -2163 1142 1356 0
3952 -2163 1142 -1356 0
5320 -2163 -1142 1356 0
6962 -2163 -1142 -1356 0
7220 1704 2472 1582 -2686 0
7600 1704 2472 -1582 2686 0
11932 1704 2472 -1582 -2686 0
4750 1704 -2472 1582 2686 0
10165 1704 -2472 1582 -2686 0
10450 1704 -2472 -1582 2686 0
13699 1704 -2472 -1582 -2686 0
7600 -1704 2472 1582 2686 0
11932 -1704 2472 1582 -2686 0
12160 -1704 2472 -1582 2686 0
14759 -1704 2472 -1582 -2686 0
10450 -1704 -2472 1582 2686 0
13699 -1704 -2472 1582 -2686 0
13870 -1704 -2472 -1582 2686 0
15819 -1704 -2472 -1582 -2686 0
18850 2578 1327 1157 -2092 0
22620 2578 1327 -1157 2092 0
30160 2578 1327 -1157 -2092 0
3770 2578 -1327 1157 2092 0
20735 2578 -1327 1157 -2092 0
24128 2578 -1327 -1157 2092 0
30914 2578 -1327 -1157 -2092 0
30160 -2578 1327 1157 2092 0
33930 -2578 1327 1157 -2092 0
34684 -2578 1327 -1157 2092 0
36192 -2578 1327 -1157 -2092 0
30914 -2578 -1327 1157 2092 0
34307 -2578 -1327 1157 -2092 0
34986 -2578 -1327 -1157 2092 0
36343 -2578 -1327 -1157 -2092 0
20735 -3388 0
4340 -2725 0
5270 2811 2889 -3172 0
1550 2811 -2889 3172 0
5502 2811 -2889 -3172 0
310 -2811 2889 3172 0
5316 -2811 2889 -3172 0
1783 -2811 -2889 3172 0
5537 -2811 -2889 -3172 0
4280 3063 -3218 0
3210 -3063 3218 0
6206 -3063 -3218 0
13728 2901 -3285 0
13728 -2901 3285 0
23063 -2901 -3285 0
18850 2711 2260 -2491 0
30160 2711 -2260 2491 0
33930 2711 -2260 -2491 0
26390 -2711 2260 2491 0
32045 -2711 2260 -2491 0
35438 -2711 -2260 2491 0
36569 -2711 -2260 -2491 0
1984 3247 2934 1237 -1098 0
310 3247 2934 -1237 1098 0
2195 3247 2934 -1237 -1098 0
2480 3247 -2934 1237 1098 0
3670 3247 -2934 1237 -1098 0
2666 3247 -2934 -1237 1098 0
3797 3247 -2934 -1237 -1098 0
4340 -3247 2934 1237 1098 0
4935 -3247 2934 1237 -1098 0
4433 -3247 2934 -1237 1098 0
4998 -3247 2934 -1237 -1098 0
5084 -3247 -2934 1237 1098 0
5441 -3247 -2934 1237 -1098 0
5140 -3247 -2934 -1237 1098 0
5479 -3247 -2934 -1237 -1098 0
6650 3377 2291 3304 1964 -2930 0
10450 3377 2291 3304 -1964 2930 0
13443 3377 2291 3304 -1964 -2930 0
3420 3377 2291 -3304 1964 2930 0
8873 3377 2291 -3304 1964 -2930 0
11989 3377 2291 -3304 -1964 2930 0
14443 3377 2291 -3304 -1964 -2930 0
9500 3377 -2291 3304 1964 2930 0
12825 3377 -2291 3304 1964 -2930 0
14725 3377 -2291 3304 -1964 2930 0
16221 3377 -2291 3304 -1964 -2930 0
11210 3377 -2291 -3304 1964 2930 0
13937 3377 -2291 -3304 1964 -2930 0
15494 3377 -2291 -3304 -1964 2930 0
16721 3377 -2291 -3304 -1964 -2930 0
3800 -3377 2291 3304 1964 2930 0
9120 -3377 2291 3304 1964 -2930 0
12160 -3377 2291 3304 -1964 2930 0
14554 -3377 2291 3304 -1964 -2930 0
6536 -3377 2291 -3304 1964 2930 0
10898 -3377 2291 -3304 1964 -2930 0
13391 -3377 2291 -3304 -1964 2930 0
15354 -3377 2291 -3304 -1964 -2930 0
11400 -3377 -2291 3304 1964 2930 0
14060 -3377 -2291 3304 1964 -2930 0
15580 -3377 -2291 3304 -1964 2930 0
16777 -3377 -2291 3304 -1964 -2930 0
12768 -3377 -2291 -3304 1964 2930 0
14949 -3377 -2291 -3304 1964 -2930 0
16196 -3377 -2291 -3304 -1964 2930 0
17177 -3377 -2291 -3304 -1964 -2930 0
4750 3380 2747 1658 2131 -1407 0
1900 3380 2747 1658 -2131 1407 0
6175 3380 2747 1658 -2131 -1407 0
6080 3380 2747 -1658 2131 1407 0
9310 3380 2747 -1658 2131 -1407 0
7372 3380 2747 -1658 -2131 1407 0
10279 3380 2747 -1658 -2131 -1407 0
16150 3380 -2747 1658 2131 1407 0
16862 3380 -2747 1658 2131 -1407 0
16435 3380 -2747 1658 -2131 1407 0
17076 3380 -2747 1658 -2131 -1407 0
17062 3380 -2747 -1658 2131 1407 0
17547 3380 -2747 -1658 2131 -1407 0
17256 3380 -2747 -1658 -2131 1407 0
17692 3380 -2747 -1658 -2131 -1407 0
8550 -3380 2747 1658 2131 1407 0
11162 -3380 2747 1658 2131 -1407 0
9595 -3380 2747 1658 -2131 1407 0
11946 -3380 2747 1658 -2131 -1407 0
11894 -3380 2747 -1658 2131 1407 0
13671 -3380 2747 -1658 2131 -1407 0
12605 -3380 2747 -1658 -2131 1407 0
14203 -3380 2747 -1658 -2131 -1407 0
17432 -3380 -2747 1658 2131 1407 0
17824 -3380 -2747 1658 2131 -1407 0
17589 -3380 -2747 1658 -2131 1407 0
17942 -3380 -2747 1658 -2131 -1407 0
17934 -3380 -2747 -1658 2131 1407 0
18201 -3380 -2747 -1658 2131 -1407 0
18041 -3380 -2747 -1658 -2131 1407 0
18281 -3380 -2747 -1658 -2131 -1407 0
9630 -2680 0
10450 1967 1883 -2802 0
13300 1967 -1883 2802 0
16435 1967 -1883 -2802 0
2280 -1967 1883 2802 0
11476 -1967 1883 -2802 0
13984 -1967 -1883 2802 0
16743 -1967 -1883 -2802 0
19305 1848 -2924 0
17160 -1848 2924 0
28743 -1848 -2924 0
1240 1262 3330 -1349 0
5270 1262 -3330 1349 0
5456 1262 -3330 -1349 0
930 -1262 3330 1349 0
1984 -1262 3330 -1349 0
5410 -1262 -3330 1349 0
5568 -1262 -3330 -1349 0
8550 1661 -2769 0
7220 -1661 2769 0
12521 -1661 -2769 0
16150 2550 -2563 0
6650 -2550 2563 0
17147 -2550 -2563 0
10450 1910 -1155 0
14250 -1910 1155 0
16862 -1910 -1155 0
16965 2014 -1655 0
6786 -2014 1655 0
20697 -2014 -1655 0
4524 2239 -3205 0
20735 -2239 3205 0
22771 -2239 -3205 0
9500 -1221 0
22620 1887 2109 -3315 0
14326 1887 -2109 3315 0
28350 1887 -2109 -3315 0
18850 -1887 2109 3315 0
30160 -1887 2109 -3315 0
26013 -1887 -2109 3315 0
33025 -1887 -2109 -3315 0
3100 1736 -1739 0
2790 -1736 1739 0
4495 -1736 -1739 0
8550 -1565 0
14326 -2395 0
5885 -3301 0
8550 1750 2436 3340 -1239 0
2280 1750 2436 -3340 1239 0
9804 1750 2436 -3340 -1239 0
17100 1750 -2436 3340 1239 0
17955 1750 -2436 3340 -1239 0
17328 1750 -2436 -3340 1239 0
18080 1750 -2436 -3340 -1239 0
7220 -1750 2436 3340 1239 0
12521 -1750 2436 3340 -1239 0
8634 -1750 2436 -3340 1239 0
13298 -1750 2436 -3340 -1239 0
17822 -1750 -2436 3340 1239 0
18352 -1750 -2436 3340 -1239 0
17963 -1750 -2436 -3340 1239 0
18430 -1750 -2436 -3340 -1239 0
13728 1500 1299 2707 -2281 0
32175 1500 1299 -2707 2281 0
35607 1500 1299 -2707 -2281 0
38610 1500 -1299 2707 2281 0
39983 1500 -1299 2707 -2281 0
41827 1500 -1299 -2707 2281 0
42171 1500 -1299 -2707 -2281 0
34320 -1500 1299 2707 2281 0
37066 -1500 1299 2707 -2281 0
40755 -1500 1299 -2707 2281 0
41441 -1500 1299 -2707 -2281 0
42042 -1500 -1299 2707 2281 0
42317 -1500 -1299 2707 -2281 0
42686 -1500 -1299 -2707 2281 0
42754 -1500 -1299 -2707 -2281 0
5350 1787 2817 1406 -1990 0
7490 1787 2817 -1406 1990 0
9095 1787 2817 -1406 -1990 0
9630 1787 -2817 1406 1990 0
10165 1787 -2817 1406 -1990 0
10379 1787 -2817 -1406 1990 0
10539 1787 -2817 -1406 -1990 0
4280 -1787 2817 1406 1990 0
7490 -1787 2817 1406 -1990 0
8774 -1787 2817 -1406 1990 0
9737 -1787 2817 -1406 -1990 0
10058 -1787 -2817 1406 1990 0
10379 -1787 -2817 1406 -1990 0
10507 -1787 -2817 -1406 1990 0
10604 -1787 -2817 -1406 -1990 0
7540 1583 1118 -2754 0
28275 1583 -1118 2754 0
30160 1583 -1118 -2754 0
16965 -1583 1118 2754 0
21112 -1583 1118 -2754 0
32516 -1583 -1118 2754 0
33553 -1583 -1118 -2754 0
2145 2312 1719 3033 3047 -1821 0
34320 2312 1719 3033 -3047 1821 0
34749 2312 1719 3033 -3047 -1821 0
8580 2312 1719 -3033 3047 1821 0
10296 2312 1719 -3033 3047 -1821 0
36036 2312 1719 -3033 -3047 1821 0
36379 2312 1719 -3033 -3047 -1821 0
38610 2312 -1719 3033 3047 1821 0
38825 2312 -1719 3033 3047 -1821 0
42042 2312 -1719 3033 -3047 1821 0
42085 2312 -1719 3033 -3047 -1821 0
39468 2312 -1719 -3033 3047 1821 0
39640 2312 -1719 -3033 3047 -1821 0
42214 2312 -1719 -3033 -3047 1821 0
42248 2312 -1719 -3033 -3047 -1821 0
40755 -2312 1719 3033 3047 1821 0
40862 -2312 1719 3033 3047 -1821 0
42471 -2312 1719 3033 -3047 1821 0
42492 -2312 1719 3033 -3047 -1821 0
41184 -2312 1719 -3033 3047 1821 0
41270 -2312 1719 -3033 3047 -1821 0
42557 -2312 1719 -3033 -3047 1821 0
42574 -2312 1719 -3033 -3047 -1821 0
42686 -2312 -1719 3033 3047 1821 0
42696 -2312 -1719 3033 3047 -1821 0
42857 -2312 -1719 3033 -3047 1821 0
42859 -2312 -1719 3033 -3047 -1821 0
42728 -2312 -1719 -3033 3047 1821 0
42737 -2312 -1719 -3033 3047 -1821 0
42866 -2312 -1719 -3033 -3047 1821 0
42867 -2312 -1719 -3033 -3047 -1821 0
7490 -2648 0
214 3081 3112 -3050 0
7490 3081 -3112 3050 0
7554 3081 -3112 -3050 0
4815 -3081 3112 3050 0
4933 -3081 3112 -3050 0
8934 -3081 -3112 3050 0
8970 -3081 -3112 -3050 0
9500 2335 1933 1441 -2180 0
4750 2335 1933 -1441 2180 0
11875 2335 1933 -1441 -2180 0
380 2335 -1933 1441 2180 0
9690 2335 -1933 1441 -2180 0
5035 2335 -1933 -1441 2180 0
12018 2335 -1933 -1441 -2180 0
7220 -2335 1933 1441 2180 0
13110 -2335 1933 1441 -2180 0
10165 -2335 1933 -1441 2180 0
14583 -2335 1933 -1441 -2180 0
7456 -2335 -1933 1441 2180 0
13228 -2335 -1933 1441 -2180 0
10342 -2335 -1933 -1441 2180 0
14671 -2335 -1933 -1441 -2180 0
5655 1636 2231 2501 -2736 0
1885 1636 2231 -2501 2736 0
7257 1636 2231 -2501 -2736 0
5655 1636 -2231 2501 2736 0
10462 1636 -2231 2501 -2736 0
7257 1636 -2231 -2501 2736 0
11824 1636 -2231 -2501 -2736 0
15080 -1636 2231 2501 2736 0
18473 -1636 2231 2501 -2736 0
16211 -1636 2231 -2501 2736 0
19434 -1636 2231 -2501 -2736 0
18473 -1636 -2231 2501 2736 0
21357 -1636 -2231 2501 -2736 0
19434 -1636 -2231 -2501 2736 0
22174 -1636 -2231 -2501 -2736 0
2280 2006 -2477 0
3800 -2006 2477 0
5624 -2006 -2477 0
3720 -1465 0
27885 2876 -1837 0
12870 -2876 1837 0
32389 -2876 -1837 0
2356 -2534 0
16302 -2444 0
1550 2798 3084 -2287 0
5270 2798 -3084 2287 0
5502 2798 -3084 -2287 0
620 -2798 3084 2287 0
2015 -2798 3084 -2287 0
5363 -2798 -3084 2287 0
5572 -2798 -3084 -2287 0
1240 3072 -1333 0
4340 -3072 1333 0
4712 -3072 -1333 0
6420 3083 -2311 0
214 -3083 2311 0
6506 -3083 -2311 0
5270 2559 -2496 0
2480 -2559 2496 0
5642 -2559 -2496 0
8025 1060 1600 -1249 0
8560 1060 -1600 1249 0
10165 1060 -1600 -1249 0
2140 -1060 1600 1249 0
8560 -1060 1600 -1249 0
8988 -1060 -1600 1249 0
10272 -1060 -1600 -1249 0
3100 -3338 0
2675 2367 -1640 0
2675 -2367 1640 0
4681 -2367 -1640 0
13728 3110 -1280 0
32175 -3110 1280 0
35607 -3110 -1280 0
5580 3046 3319 -1862 0
5580 3046 -3319 1862 0
6138 3046 -3319 -1862 0
2480 -3046 3319 1862 0
5828 -3046 3319 -1862 0
5828 -3046 -3319 1862 0
6163 -3046 -3319 -1862 0
1240 2130 1684 -3078 0
4650 2130 -1684 3078 0
4960 2130 -1684 -3078 0
3410 -2130 1684 3078 0
3968 -2130 1684 -3078 0
5502 -2130 -1684 3078 0
5642 -2130 -1684 -3078 0
18050 1068 2714 -2175 0
6080 1068 -2714 2175 0
18354 1068 -2714 -2175 0
1900 -1068 2714 2175 0
18145 -1068 2714 -2175 0
7372 -1068 -2714 2175 0
18419 -1068 -2714 -2175 0
34320 2125 2926 -3191 0
34320 2125 -2926 3191 0
41184 2125 -2926 -3191 0
4290 -2125 2926 3191 0
35178 -2125 2926 -3191 0
35178 -2125 -2926 3191 0
41356 -2125 -2926 -3191 0
40755 -2349 0
535 2077 -2828 0
3210 -2077 2828 0
3585 -2077 -2828 0
2356 3227 -1626 0
2790 -3227 1626 0
4086 -3227 -1626 0
28275 -2662 0
23595 1341 2850 -1455 0
13728 1341 -2850 1455 0
29773 1341 -2850 -1455 0
4290 -1341 2850 1455 0
25525 -1341 2850 -1455 0
16645 -1341 -2850 1455 0
31085 -1341 -2850 -1455 0
23595 2484 2965 1863 2217 -2058 0
2145 2484 2965 1863 -2217 2058 0
24560 2484 2965 1863 -2217 -2058 0
4290 2484 2965 -1863 2217 2058 0
25525 2484 2965 -1863 2217 -2058 0
6221 2484 2965 -1863 -2217 2058 0
26394 2484 2965 -1863 -2217 -2058 0
34320 2484 -2965 1863 2217 2058 0
39039 2484 -2965 1863 2217 -2058 0
34749 2484 -2965 1863 -2217 2058 0
39232 2484 -2965 1863 -2217 -2058 0
35178 2484 -2965 -1863 2217 2058 0
39425 2484 -2965 -1863 2217 -2058 0
35564 2484 -2965 -1863 -2217 2058 0
39599 2484 -2965 -1863 -2217 -2058 0
19305 -2484 2965 1863 2217 2058 0
32282 -2484 2965 1863 2217 -2058 0
20485 -2484 2965 1863 -2217 2058 0
32813 -2484 2965 1863 -2217 -2058 0
21664 -2484 2965 -1863 2217 2058 0
33344 -2484 2965 -1863 2217 -2058 0
22726 -2484 2965 -1863 -2217 2058 0
33822 -2484 2965 -1863 -2217 -2058 0
38181 -2484 -2965 1863 2217 2058 0
40776 -2484 -2965 1863 2217 -2058 0
38417 -2484 -2965 1863 -2217 2058 0
40883 -2484 -2965 1863 -2217 -2058 0
38653 -2484 -2965 -1863 2217 2058 0
40989 -2484 -2965 -1863 2217 -2058 0
38865 -2484 -2965 -1863 -2217 2058 0
41084 -2484 -2965 -1863 -2217 -2058 0
6080 2983 1605 3306 -1730 0
380 2983 1605 -3306 1730 0
6338 2983 1605 -3306 -1730 0
7220 2983 -1605 3306 1730 0
10990 2983 -1605 3306 -1730 0
7456 2983 -1605 -3306 1730 0
11150 2983 -1605 -3306 -1730 0
17100 -2983 1605 3306 1730 0
17708 -2983 1605 3306 -1730 0
17138 -2983 1605 -3306 1730 0
17734 -2983 1605 -3306 -1730 0
17822 -2983 -1605 3306 1730 0
18199 -2983 -1605 3306 -1730 0
17846 -2983 -1605 -3306 1730 0
18215 -2983 -1605 -3306 -1730 0
15200 -2594 0
2675 2437 3188 3171 -1111 0
5885 2437 3188 -3171 1111 0
7089 2437 3188 -3171 -1111 0
1926 2437 -3188 3171 1111 0
4120 2437 -3188 3171 -1111 0
6752 2437 -3188 -3171 1111 0
7739 2437 -3188 -3171 -1111 0
3210 -2437 3188 3171 1111 0
5083 -2437 3188 3171 -1111 0
7330 -2437 3188 -3171 1111 0
8172 -2437 3188 -3171 -1111 0
4558 -2437 -3188 3171 1111 0
6094 -2437 -3188 3171 -1111 0
7936 -2437 -3188 -3171 1111 0
8627 -2437 -3188 -3171 -1111 0
6650 1001 2306 -1703 0
380 1001 -2306 1703 0
6897 1001 -2306 -1703 0
10450 -1001 2306 1703 0
13443 -1001 2306 -1703 0
10621 -1001 -2306 1703 0
13554 -1001 -2306 -1703 0
754 3239 -1437 0
13195 -3239 1437 0
13685 -3239 -1437 0
13300 -2133 0
1926 -3238 0
16302 -2309 0
16302 1036 1533 1063 2749 -2684 0
40755 1036 1533 1063 -2749 2684 0
41570 1036 1533 1063 -2749 -2684 0
34320 1036 1533 -1063 2749 2684 0
37580 1036 1533 -1063 2749 -2684 0
42471 1036 1533 -1063 -2749 2684 0
42634 1036 1533 -1063 -2749 -2684 0
30030 1036 -1533 1063 2749 2684 0
34921 1036 -1533 1063 2749 -2684 0
42256 1036 -1533 1063 -2749 2684 0
42501 1036 -1533 1063 -2749 -2684 0
40326 1036 -1533 -1063 2749 2684 0
41304 1036 -1533 -1063 2749 -2684 0
42771 1036 -1533 -1063 -2749 2684 0
42820 1036 -1533 -1063 -2749 -2684 0
34320 -1036 1533 1063 2749 2684 0
37580 -1036 1533 1063 2749 -2684 0
42471 -1036 1533 1063 -2749 2684 0
42634 -1036 1533 1063 -2749 -2684 0
41184 -1036 1533 -1063 2749 2684 0
41836 -1036 1533 -1063 2749 -2684 0
42814 -1036 1533 -1063 -2749 2684 0
42847 -1036 1533 -1063 -2749 -2684 0
40326 -1036 -1533 1063 2749 2684 0
41304 -1036 -1533 1063 2749 -2684 0
42771 -1036 -1533 1063 -2749 2684 0
42820 -1036 -1533 1063 -2749 -2684 0
42385 -1036 -1533 -1063 2749 2684 0
42581 -1036 -1533 -1063 2749 -2684 0
42874 -1036 -1533 -1063 -2749 2684 0
42884 -1036 -1533 -1063 -2749 -2684 0
4815 2252 2082 -2234 0
7490 2252 -2082 2234 0
8934 2252 -2082 -2234 0
8560 -2252 2082 2234 0
9523 -2252 2082 -2234 0
10058 -2252 -2082 2234 0
10347 -2252 -2082 -2234 0
7220 -1988 0
5885 -1659 0
