p wcnf 3950 10594 1000000
1000000 497 -2304 -2649 0
1000000 501 -2304 -2649 0
1000000 211 -2452 -2696 -480 0
1000000 502 -2452 -2696 -480 0
1000000 227 -2943 -2503 -2651 0
1000000 503 -2943 -2503 -2651 0
1000000 297 -2811 -1827 -2973 0
1000000 504 -2811 -1827 -2973 0
1000000 73 -1927 -1768 -1807 0
1000000 505 -1927 -1768 -1807 0
1000000 60 -2198 -2602 0
1000000 506 -2198 -2602 0
1000000 274 -3179 -2422 -1848 0
1000000 507 -3179 -2422 -1848 0
1000000 331 -3132 -2117 -2043 0
1000000 508 -3132 -2117 -2043 0
1000000 442 -2654 -1860 -2436 0
1000000 509 -2654 -1860 -2436 0
1000000 284 -2112 -317 0
1000000 510 -2112 -317 0
1000000 228 -2045 -2712 -3113 0
1000000 511 -2045 -2712 -3113 0
1000000 22 -2488 -2689 -2456 0
1000000 512 -2488 -2689 -2456 0
1000000 69 -1951 -2766 0
1000000 513 -1951 -2766 0
1000000 106 -2951 -2504 -1911 0
1000000 514 -2951 -2504 -1911 0
1000000 224 -3026 -452 0
1000000 515 -3026 -452 0
1000000 312 -2343 -2435 0
1000000 516 -2343 -2435 0
1000000 269 -1921 -2116 0
1000000 517 -1921 -2116 0
1000000 117 -2615 -2101 0
1000000 518 -2615 -2101 0
1000000 253 -2298 -3115 -3093 0
1000000 519 -2298 -3115 -3093 0
1000000 494 -1925 -3007 0
1000000 520 -1925 -3007 0
1000000 418 -2375 -2461 0
1000000 521 -2375 -2461 0
1000000 459 -2694 -2093 -1809 0
1000000 522 -2694 -2093 -1809 0
1000000 176 -1837 -2153 -3023 0
1000000 523 -1837 -2153 -3023 0
1000000 43 -2527 -1918 -2026 0
1000000 524 -2527 -1918 -2026 0
1000000 374 -3003 -3012 0
1000000 525 -3003 -3012 0
1000000 135 -2402 -3155 -3030 0
1000000 526 -2402 -3155 -3030 0
1000000 312 -2617 -330 0
1000000 527 -2617 -330 0
1000000 340 -2913 -375 0
1000000 528 -2913 -375 0
1000000 53 -2892 -3129 -2052 0
1000000 529 -2892 -3129 -2052 0
1000000 403 -2729 -1920 -471 0
1000000 530 -2729 -1920 -471 0
1000000 285 -1772 -2736 -2641 0
1000000 531 -1772 -2736 -2641 0
1000000 228 -2389 -3157 -2445 0
1000000 532 -2389 -3157 -2445 0
1000000 32 -2344 -2255 -2290 0
1000000 533 -2344 -2255 -2290 0
1000000 308 -2347 -1903 0
1000000 534 -2347 -1903 0
1000000 106 -2863 -2266 -2568 0
1000000 535 -2863 -2266 -2568 0
1000000 453 -2970 -2577 0
1000000 536 -2970 -2577 0
1000000 11 -1767 -370 0
1000000 537 -1767 -370 0
1000000 305 -2311 -2195 0
1000000 538 -2311 -2195 0
1000000 477 -2858 -2398 -3126 0
1000000 539 -2858 -2398 -3126 0
1000000 188 -1736 -3139 -225 0
1000000 540 -1736 -3139 -225 0
1000000 35 -1791 -3097 0
1000000 541 -1791 -3097 0
1000000 485 -2337 -2089 0
1000000 542 -2337 -2089 0
1000000 9 -1953 -1798 -2167 0
1000000 543 -1953 -1798 -2167 0
1000000 16 -2733 -1848 0
1000000 544 -2733 -1848 0
1000000 417 -2792 -2168 0
1000000 545 -2792 -2168 0
1000000 134 -1776 -480 0
1000000 546 -1776 -480 0
1000000 200 -1997 -2382 0
1000000 547 -1997 -2382 0
1000000 194 -2231 -2412 0
1000000 548 -2231 -2412 0
1000000 164 -2569 -2518 0
1000000 549 -2569 -2518 0
1000000 124 -2000 -2470 -2839 0
1000000 550 -2000 -2470 -2839 0
1000000 284 -1973 -2580 -2264 0
1000000 551 -1973 -2580 -2264 0
1000000 309 -2773 -2669 -2363 0
1000000 552 -2773 -2669 -2363 0
1000000 395 -2594 -1985 -2655 0
1000000 553 -2594 -1985 -2655 0
1000000 329 -1869 -463 0
1000000 554 -1869 -463 0
1000000 45 -2392 -2158 -475 0
1000000 555 -2392 -2158 -475 0
1000000 30 -3172 -1719 -2312 0
1000000 556 -3172 -1719 -2312 0
1000000 68 -2659 -2082 0
1000000 557 -2659 -2082 0
1000000 140 -1722 -2675 -1960 0
1000000 558 -1722 -2675 -1960 0
1000000 148 -2057 -2467 -3168 0
1000000 559 -2057 -2467 -3168 0
1000000 387 -3040 -2528 -1960 0
1000000 560 -3040 -2528 -1960 0
1000000 123 -2480 -2175 -1729 0
1000000 561 -2480 -2175 -1729 0
1000000 405 -2041 -2514 -2427 0
1000000 562 -2041 -2514 -2427 0
1000000 209 -2785 -2189 0
1000000 563 -2785 -2189 0
1000000 99 -2190 -2568 -2296 0
1000000 564 -2190 -2568 -2296 0
1000000 457 -1822 -2773 -2153 0
1000000 565 -1822 -2773 -2153 0
1000000 492 -3125 -2004 -2324 0
1000000 566 -3125 -2004 -2324 0
1000000 13 -2718 -2528 0
1000000 567 -2718 -2528 0
1000000 30 -1731 -2964 0
1000000 568 -1731 -2964 0
1000000 211 -2837 -420 0
1000000 569 -2837 -420 0
1000000 494 -2129 -2351 0
1000000 570 -2129 -2351 0
1000000 476 -2783 -2487 -1804 0
1000000 571 -2783 -2487 -1804 0
1000000 104 -1963 -2713 0
1000000 572 -1963 -2713 0
1000000 59 -2117 -2727 0
1000000 573 -2117 -2727 0
1000000 243 -2916 -2108 -2768 0
1000000 574 -2916 -2108 -2768 0
1000000 251 -1957 -2337 0
1000000 575 -1957 -2337 0
1000000 268 -1712 -2718 -1976 0
1000000 576 -1712 -2718 -1976 0
1000000 301 -2111 -2653 -1976 0
1000000 577 -2111 -2653 -1976 0
1000000 112 -3166 -2696 0
1000000 578 -3166 -2696 0
1000000 437 -1725 -2434 0
1000000 579 -1725 -2434 0
1000000 302 -2198 -2211 -421 0
1000000 580 -2198 -2211 -421 0
1000000 279 -3075 -2056 -338 0
1000000 581 -3075 -2056 -338 0
1000000 6 -1950 -1987 0
1000000 582 -1950 -1987 0
1000000 396 -2193 -2180 -463 0
1000000 583 -2193 -2180 -463 0
1000000 86 -2417 -320 0
1000000 584 -2417 -320 0
1000000 186 -2533 -1828 0
1000000 585 -2533 -1828 0
1000000 153 -2440 -2820 -2932 0
1000000 586 -2440 -2820 -2932 0
1000000 140 -3076 -173 0
1000000 587 -3076 -173 0
1000000 66 -2223 -1852 -2283 0
1000000 588 -2223 -1852 -2283 0
1000000 254 -2116 -2410 -2423 0
1000000 589 -2116 -2410 -2423 0
1000000 193 -2659 -3190 -2490 0
1000000 590 -2659 -3190 -2490 0
1000000 435 -3026 -3131 -2163 0
1000000 591 -3026 -3131 -2163 0
1000000 333 -2618 -480 0
1000000 592 -2618 -480 0
1000000 162 -2432 -488 0
1000000 593 -2432 -488 0
1000000 399 -3149 -3096 0
1000000 594 -3149 -3096 0
1000000 473 -2403 -1737 0
1000000 595 -2403 -1737 0
1000000 288 -2067 -1767 0
1000000 596 -2067 -1767 0
1000000 73 -1729 -2337 -463 0
1000000 597 -1729 -2337 -463 0
1000000 390 -3092 -1796 0
1000000 598 -3092 -1796 0
1000000 351 -2908 -3019 -1929 0
1000000 599 -2908 -3019 -1929 0
1000000 106 -2494 -2569 -2962 0
1000000 600 -2494 -2569 -2962 0
1000000 445 -2849 -1960 -2444 0
1000000 601 -2849 -1960 -2444 0
1000000 478 -2714 -3100 -2349 0
1000000 602 -2714 -3100 -2349 0
1000000 280 -2280 -2178 0
1000000 603 -2280 -2178 0
1000000 236 -2600 -2107 -3057 0
1000000 604 -2600 -2107 -3057 0
1000000 192 -2364 -2359 0
1000000 605 -2364 -2359 0
1000000 74 -2350 -120 0
1000000 606 -2350 -120 0
1000000 82 -1988 -2291 0
1000000 607 -1988 -2291 0
1000000 35 -2234 -1969 -3047 0
1000000 608 -2234 -1969 -3047 0
1000000 401 -1761 -2527 -3123 0
1000000 609 -1761 -2527 -3123 0
1000000 199 -1914 -2268 -2847 0
1000000 610 -1914 -2268 -2847 0
1000000 449 -2715 -2871 0
1000000 611 -2715 -2871 0
1000000 156 -2949 -2718 0
1000000 612 -2949 -2718 0
1000000 242 -2901 -3133 -2576 0
1000000 613 -2901 -3133 -2576 0
1000000 373 -2418 -458 0
1000000 614 -2418 -458 0
1000000 346 -2956 -1852 -1943 0
1000000 615 -2956 -1852 -1943 0
1000000 293 -2229 -2450 0
1000000 616 -2229 -2450 0
1000000 335 -1850 -2056 0
1000000 617 -1850 -2056 0
1000000 122 -2674 -166 0
1000000 618 -2674 -166 0
1000000 424 -3104 -2092 -487 0
1000000 619 -3104 -2092 -487 0
1000000 263 -2199 -2596 -2155 0
1000000 620 -2199 -2596 -2155 0
1000000 316 -2229 -2806 0
1000000 621 -2229 -2806 0
1000000 58 -1952 -2343 -2171 0
1000000 622 -1952 -2343 -2171 0
1000000 437 -3175 -2817 0
1000000 623 -3175 -2817 0
1000000 388 -2342 -2366 -2814 0
1000000 624 -2342 -2366 -2814 0
1000000 483 -2254 -3105 0
1000000 625 -2254 -3105 0
1000000 418 -3082 -451 0
1000000 626 -3082 -451 0
1000000 232 -3034 -2085 -2079 0
1000000 627 -3034 -2085 -2079 0
1000000 52 -2812 -3156 -3078 0
1000000 628 -2812 -3156 -3078 0
1000000 354 -2354 -3195 -2763 0
1000000 629 -2354 -3195 -2763 0
1000000 463 -2416 -2117 -2787 0
1000000 630 -2416 -2117 -2787 0
1000000 400 -2814 -1853 0
1000000 631 -2814 -1853 0
1000000 137 -2664 -2497 0
1000000 632 -2664 -2497 0
1000000 399 -2016 -2737 -2522 0
1000000 633 -2016 -2737 -2522 0
1000000 350 -2757 -2863 -1989 0
1000000 634 -2757 -2863 -1989 0
1000000 423 -2023 -2437 -2763 0
1000000 635 -2023 -2437 -2763 0
1000000 406 -1870 -1731 -1814 0
1000000 636 -1870 -1731 -1814 0
1000000 87 -1807 -1788 -378 0
1000000 637 -1807 -1788 -378 0
1000000 40 -1765 -2211 0
1000000 638 -1765 -2211 0
1000000 332 -2698 -2876 0
1000000 639 -2698 -2876 0
1000000 96 -2461 -2282 -243 0
1000000 640 -2461 -2282 -243 0
1000000 328 -1954 -2198 0
1000000 641 -1954 -2198 0
1000000 135 -2636 -2040 0
1000000 642 -2636 -2040 0
1000000 168 -1796 -2799 -2862 0
1000000 643 -1796 -2799 -2862 0
1000000 301 -2584 -2364 0
1000000 644 -2584 -2364 0
1000000 339 -2985 -1810 0
1000000 645 -2985 -1810 0
1000000 323 -1883 -3078 -2605 0
1000000 646 -1883 -3078 -2605 0
1000000 370 -1738 -2950 0
1000000 647 -1738 -2950 0
1000000 267 -1716 -2362 -397 0
1000000 648 -1716 -2362 -397 0
1000000 18 -1753 -3151 -2306 0
1000000 649 -1753 -3151 -2306 0
1000000 324 -2079 -2142 -405 0
1000000 650 -2079 -2142 -405 0
1000000 421 -2443 -2873 0
1000000 651 -2443 -2873 0
1000000 460 -2104 -2512 -1877 0
1000000 652 -2104 -2512 -1877 0
1000000 159 -2867 -173 0
1000000 653 -2867 -173 0
1000000 229 -1717 -2622 -2936 0
1000000 654 -1717 -2622 -2936 0
1000000 51 -2961 -2151 -2817 0
1000000 655 -2961 -2151 -2817 0
1000000 299 -2704 -3140 0
1000000 656 -2704 -3140 0
1000000 438 -2362 -2787 0
1000000 657 -2362 -2787 0
1000000 20 -1970 -2731 -216 0
1000000 658 -1970 -2731 -216 0
1000000 418 -2935 -2677 0
1000000 659 -2935 -2677 0
1000000 270 -3053 -2959 -1769 0
1000000 660 -3053 -2959 -1769 0
1000000 135 -2759 -2290 0
1000000 661 -2759 -2290 0
1000000 430 -1989 -1867 0
1000000 662 -1989 -1867 0
1000000 104 -1993 -2324 -1889 0
1000000 663 -1993 -2324 -1889 0
1000000 298 -1921 -344 0
1000000 664 -1921 -344 0
1000000 158 -2125 -1832 -439 0
1000000 665 -2125 -1832 -439 0
1000000 464 -1822 -2192 -2812 0
1000000 666 -1822 -2192 -2812 0
1000000 84 -1962 -2698 0
1000000 667 -1962 -2698 0
1000000 82 -1893 -443 0
1000000 668 -1893 -443 0
1000000 4 -1979 -1893 -2141 0
1000000 669 -1979 -1893 -2141 0
1000000 5 -3146 -2384 0
1000000 670 -3146 -2384 0
1000000 21 -2247 -2428 0
1000000 671 -2247 -2428 0
1000000 189 -3018 -3006 -1848 0
1000000 672 -3018 -3006 -1848 0
1000000 407 -2635 -2605 -454 0
1000000 673 -2635 -2605 -454 0
1000000 311 -3080 -2212 -2767 0
1000000 674 -3080 -2212 -2767 0
1000000 450 -2010 -2842 0
1000000 675 -2010 -2842 0
1000000 423 -2567 -2462 -2045 0
1000000 676 -2567 -2462 -2045 0
1000000 362 -2891 -3170 0
1000000 677 -2891 -3170 0
1000000 458 -2807 -1732 -2714 0
1000000 678 -2807 -1732 -2714 0
1000000 15 -1893 -2290 0
1000000 679 -1893 -2290 0
1000000 237 -2186 -2036 0
1000000 680 -2186 -2036 0
1000000 394 -2775 -2150 -1800 0
1000000 681 -2775 -2150 -1800 0
1000000 448 -3135 -1881 0
1000000 682 -3135 -1881 0
1000000 128 -3186 -2260 0
1000000 683 -3186 -2260 0
1000000 470 -2366 -2326 0
1000000 684 -2366 -2326 0
1000000 334 -2673 -484 0
1000000 685 -2673 -484 0
1000000 442 -1737 -2871 -1713 0
1000000 686 -1737 -2871 -1713 0
1000000 87 -2822 -1963 -2011 0
1000000 687 -2822 -1963 -2011 0
1000000 313 -1782 -2396 -1956 0
1000000 688 -1782 -2396 -1956 0
1000000 119 -1957 -2370 -1754 0
1000000 689 -1957 -2370 -1754 0
1000000 179 -2383 -3107 -453 0
1000000 690 -2383 -3107 -453 0
1000000 31 -2020 -298 0
1000000 691 -2020 -298 0
1000000 470 -3188 -2381 0
1000000 692 -3188 -2381 0
1000000 481 -2871 -487 0
1000000 693 -2871 -487 0
1000000 207 -2843 -2494 -2364 0
1000000 694 -2843 -2494 -2364 0
1000000 217 -2187 -338 0
1000000 695 -2187 -338 0
1000000 214 -2991 -1928 -3048 0
1000000 696 -2991 -1928 -3048 0
1000000 294 -2893 -2804 0
1000000 697 -2893 -2804 0
1000000 255 -3100 -2741 0
1000000 698 -3100 -2741 0
1000000 208 -2410 -326 0
1000000 699 -2410 -326 0
1000000 456 -2893 -2530 -496 0
1000000 700 -2893 -2530 -496 0
1000000 56 -1827 -2699 -2262 0
1000000 701 -1827 -2699 -2262 0
1000000 407 -2344 -2277 -412 0
1000000 702 -2344 -2277 -412 0
1000000 250 -2095 -2411 0
1000000 703 -2095 -2411 0
1000000 211 -2885 -2084 -2105 0
1000000 704 -2885 -2084 -2105 0
1000000 28 -2217 -1801 0
1000000 705 -2217 -1801 0
1000000 307 -2195 -2808 0
1000000 706 -2195 -2808 0
1000000 128 -2433 -2861 0
1000000 707 -2433 -2861 0
1000000 372 -1907 -2028 -2909 0
1000000 708 -1907 -2028 -2909 0
1000000 286 -3031 -2552 0
1000000 709 -3031 -2552 0
1000000 183 -2742 -2817 0
1000000 710 -2742 -2817 0
1000000 212 -2070 -2758 -2321 0
1000000 711 -2070 -2758 -2321 0
1000000 331 -2418 -2127 -1953 0
1000000 712 -2418 -2127 -1953 0
1000000 76 -2719 -2894 -2170 0
1000000 713 -2719 -2894 -2170 0
1000000 294 -2969 -1999 -2006 0
1000000 714 -2969 -1999 -2006 0
1000000 218 -1853 -240 0
1000000 715 -1853 -240 0
1000000 416 -1905 -490 0
1000000 716 -1905 -490 0
1000000 249 -1743 -2150 -493 0
1000000 717 -1743 -2150 -493 0
1000000 398 -1734 -458 0
1000000 718 -1734 -458 0
1000000 273 -2755 -346 0
1000000 719 -2755 -346 0
1000000 52 -1718 -2210 -1789 0
1000000 720 -1718 -2210 -1789 0
1000000 195 -1858 -2917 0
1000000 721 -1858 -2917 0
1000000 443 -1721 -1726 -489 0
1000000 722 -1721 -1726 -489 0
1000000 151 -2358 -2380 -2724 0
1000000 723 -2358 -2380 -2724 0
1000000 424 -2272 -1937 0
1000000 724 -2272 -1937 0
1000000 247 -2072 -3122 0
1000000 725 -2072 -3122 0
1000000 258 -2500 -2181 -2600 0
1000000 726 -2500 -2181 -2600 0
1000000 289 -3122 -344 0
1000000 727 -3122 -344 0
1000000 447 -2810 -1913 -2900 0
1000000 728 -2810 -1913 -2900 0
1000000 201 -2665 -206 0
1000000 729 -2665 -206 0
1000000 120 -2539 -2255 0
1000000 730 -2539 -2255 0
1000000 9 -1703 -2021 0
1000000 731 -1703 -2021 0
1000000 183 -2888 -1988 -2898 0
1000000 732 -2888 -1988 -2898 0
1000000 357 -2593 -2829 -390 0
1000000 733 -2593 -2829 -390 0
1000000 363 -1821 -2304 0
1000000 734 -1821 -2304 0
1000000 232 -2269 -475 0
1000000 735 -2269 -475 0
1000000 439 -2746 -2842 0
1000000 736 -2746 -2842 0
1000000 327 -2409 -2872 -2869 0
1000000 737 -2409 -2872 -2869 0
1000000 412 -2387 -422 0
1000000 738 -2387 -422 0
1000000 236 -2232 -2523 -290 0
1000000 739 -2232 -2523 -290 0
1000000 39 -2469 -2874 0
1000000 740 -2469 -2874 0
1000000 266 -3146 -3121 0
1000000 741 -3146 -3121 0
1000000 231 -2078 -2274 0
1000000 742 -2078 -2274 0
1000000 64 -1794 -2407 0
1000000 743 -1794 -2407 0
1000000 14 -1854 -2944 -3030 0
1000000 744 -1854 -2944 -3030 0
1000000 96 -1861 -2298 -472 0
1000000 745 -1861 -2298 -472 0
1000000 316 -2220 -3096 -451 0
1000000 746 -2220 -3096 -451 0
1000000 142 -2212 -2117 -1840 0
1000000 747 -2212 -2117 -1840 0
1000000 78 -2017 -2126 -398 0
1000000 748 -2017 -2126 -398 0
1000000 322 -1759 -2736 -3178 0
1000000 749 -1759 -2736 -3178 0
1000000 40 -3199 -1774 -1753 0
1000000 750 -3199 -1774 -1753 0
1000000 442 -2787 -466 0
1000000 751 -2787 -466 0
1000000 378 -2705 -3075 0
1000000 752 -2705 -3075 0
1000000 366 -2314 -2796 -1767 0
1000000 753 -2314 -2796 -1767 0
1000000 173 -1904 -2780 -2244 0
1000000 754 -1904 -2780 -2244 0
1000000 191 -1946 -2492 -1808 0
1000000 755 -1946 -2492 -1808 0
1000000 372 -2348 -2981 -2785 0
1000000 756 -2348 -2981 -2785 0
1000000 121 -1761 -2815 -2984 0
1000000 757 -1761 -2815 -2984 0
1000000 270 -1701 -2886 -2410 0
1000000 758 -1701 -2886 -2410 0
1000000 129 -2483 -1845 0
1000000 759 -2483 -1845 0
1000000 452 -3095 -453 0
1000000 760 -3095 -453 0
1000000 85 -2075 -1715 -2014 0
1000000 761 -2075 -1715 -2014 0
1000000 54 -2119 -2003 0
1000000 762 -2119 -2003 0
1000000 175 -2659 -2880 -2624 0
1000000 763 -2659 -2880 -2624 0
1000000 254 -2717 -1995 -344 0
1000000 764 -2717 -1995 -344 0
1000000 391 -1860 -405 0
1000000 765 -1860 -405 0
1000000 393 -3107 -3124 -2051 0
1000000 766 -3107 -3124 -2051 0
1000000 197 -2284 -2327 -1967 0
1000000 767 -2284 -2327 -1967 0
1000000 54 -2667 -3057 -1789 0
1000000 768 -2667 -3057 -1789 0
1000000 217 -2089 -2864 0
1000000 769 -2089 -2864 0
1000000 199 -2851 -398 0
1000000 770 -2851 -398 0
1000000 92 -3157 -2394 -2242 0
1000000 771 -3157 -2394 -2242 0
1000000 486 -1752 -2811 0
1000000 772 -1752 -2811 0
1000000 457 -2291 -3142 -3136 0
1000000 773 -2291 -3142 -3136 0
1000000 38 -2756 -420 0
1000000 774 -2756 -420 0
1000000 348 -2119 -2946 -1911 0
1000000 775 -2119 -2946 -1911 0
1000000 428 -2885 -2155 -2709 0
1000000 776 -2885 -2155 -2709 0
1000000 77 -1985 -1764 0
1000000 777 -1985 -1764 0
1000000 86 -1753 -3038 -1988 0
1000000 778 -1753 -3038 -1988 0
1000000 436 -2855 -2587 0
1000000 779 -2855 -2587 0
1000000 471 -2690 -2898 0
1000000 780 -2690 -2898 0
1000000 262 -2150 -2521 -2732 0
1000000 781 -2150 -2521 -2732 0
1000000 384 -3041 -3199 0
1000000 782 -3041 -3199 0
1000000 131 -2679 -2918 0
1000000 783 -2679 -2918 0
1000000 415 -2800 -2039 0
1000000 784 -2800 -2039 0
1000000 434 -3083 -2904 -2507 0
1000000 785 -3083 -2904 -2507 0
1000000 490 -2344 -2162 -2768 0
1000000 786 -2344 -2162 -2768 0
1000000 127 -1754 -2410 -332 0
1000000 787 -1754 -2410 -332 0
1000000 248 -1825 -421 0
1000000 788 -1825 -421 0
1000000 296 -2261 -2859 -320 0
1000000 789 -2261 -2859 -320 0
1000000 461 -2911 -2647 0
1000000 790 -2911 -2647 0
1000000 361 -2493 -2342 0
1000000 791 -2493 -2342 0
1000000 61 -3055 -275 0
1000000 792 -3055 -275 0
1000000 98 -3086 -2021 0
1000000 793 -3086 -2021 0
1000000 299 -1968 -2544 0
1000000 794 -1968 -2544 0
1000000 484 -2678 -2740 0
1000000 795 -2678 -2740 0
1000000 304 -3172 -2905 0
1000000 796 -3172 -2905 0
1000000 488 -1768 -2469 -2407 0
1000000 797 -1768 -2469 -2407 0
1000000 367 -2599 -1886 -3074 0
1000000 798 -2599 -1886 -3074 0
1000000 95 -2414 -1896 -2064 0
1000000 799 -2414 -1896 -2064 0
1000000 116 -2617 -3059 -177 0
1000000 800 -2617 -3059 -177 0
1000000 257 -2596 -2414 -2354 0
1000000 801 -2596 -2414 -2354 0
1000000 342 -2106 -2526 -398 0
1000000 802 -2106 -2526 -398 0
1000000 220 -1763 -3172 0
1000000 803 -1763 -3172 0
1000000 282 -2309 -2185 -365 0
1000000 804 -2309 -2185 -365 0
1000000 10 -1928 -2370 -3027 0
1000000 805 -1928 -2370 -3027 0
1000000 149 -2733 -2156 0
1000000 806 -2733 -2156 0
1000000 385 -1750 -489 0
1000000 807 -1750 -489 0
1000000 195 -1839 -1853 -1958 0
1000000 808 -1839 -1853 -1958 0
1000000 348 -2578 -2411 0
1000000 809 -2578 -2411 0
1000000 182 -1707 -2482 0
1000000 810 -1707 -2482 0
1000000 499 -1966 -1716 0
1000000 811 -1966 -1716 0
1000000 175 -1775 -3118 -2154 0
1000000 812 -1775 -3118 -2154 0
1000000 362 -2169 -1742 -378 0
1000000 813 -2169 -1742 -378 0
1000000 324 -1961 -2396 0
1000000 814 -1961 -2396 0
1000000 139 -2991 -2211 0
1000000 815 -2991 -2211 0
1000000 77 -1923 -2573 -133 0
1000000 816 -1923 -2573 -133 0
1000000 164 -2609 -2013 -488 0
1000000 817 -2609 -2013 -488 0
1000000 141 -2315 -1952 0
1000000 818 -2315 -1952 0
1000000 100 -1744 -2433 -2937 0
1000000 819 -1744 -2433 -2937 0
1000000 222 -2785 -304 0
1000000 820 -2785 -304 0
1000000 157 -3070 -2833 0
1000000 821 -3070 -2833 0
1000000 76 -1853 -2714 -2326 0
1000000 822 -1853 -2714 -2326 0
1000000 223 -3156 -245 0
1000000 823 -3156 -245 0
1000000 126 -1703 -2338 -2282 0
1000000 824 -1703 -2338 -2282 0
1000000 278 -3185 -1950 -1954 0
1000000 825 -3185 -1950 -1954 0
1000000 441 -2491 -2033 0
1000000 826 -2491 -2033 0
1000000 243 -2822 -2260 0
1000000 827 -2822 -2260 0
1000000 46 -2099 -169 0
1000000 828 -2099 -169 0
1000000 323 -2451 -2473 0
1000000 829 -2451 -2473 0
1000000 124 -2331 -2170 -3168 0
1000000 830 -2331 -2170 -3168 0
1000000 165 -1757 -2064 0
1000000 831 -1757 -2064 0
1000000 451 -3049 -3140 -3123 0
1000000 832 -3049 -3140 -3123 0
1000000 70 -2610 -2452 0
1000000 833 -2610 -2452 0
1000000 88 -2844 -358 0
1000000 834 -2844 -358 0
1000000 309 -1777 -2580 -383 0
1000000 835 -1777 -2580 -383 0
1000000 55 -2342 -493 0
1000000 836 -2342 -493 0
1000000 479 -1773 -2988 0
1000000 837 -1773 -2988 0
1000000 24 -1986 -2767 0
1000000 838 -1986 -2767 0
1000000 250 -2366 -2438 -2950 0
1000000 839 -2366 -2438 -2950 0
1000000 383 -2894 -1731 0
1000000 840 -2894 -1731 0
1000000 335 -2141 -1888 -346 0
1000000 841 -2141 -1888 -346 0
1000000 269 -1918 -320 0
1000000 842 -1918 -320 0
1000000 413 -1883 -2785 -454 0
1000000 843 -1883 -2785 -454 0
1000000 241 -1743 -2107 -2372 0
1000000 844 -1743 -2107 -2372 0
1000000 446 -2679 -1831 -478 0
1000000 845 -2679 -1831 -478 0
1000000 102 -3135 -2763 0
1000000 846 -3135 -2763 0
1000000 483 -2440 -489 0
1000000 847 -2440 -489 0
1000000 253 -2059 -357 0
1000000 848 -2059 -357 0
1000000 148 -2437 -2654 0
1000000 849 -2437 -2654 0
1000000 103 -2434 -2472 0
1000000 850 -2434 -2472 0
1000000 96 -2171 -349 0
1000000 851 -2171 -349 0
1000000 241 -2591 -3045 -3077 0
1000000 852 -2591 -3045 -3077 0
1000000 268 -1715 -1868 0
1000000 853 -1715 -1868 0
1000000 152 -2712 -2285 0
1000000 854 -2712 -2285 0
1000000 371 -2179 -2014 0
1000000 855 -2179 -2014 0
1000000 233 -2193 -2091 -2208 0
1000000 856 -2193 -2091 -2208 0
1000000 470 -2845 -492 0
1000000 857 -2845 -492 0
1000000 411 -2677 -2410 0
1000000 858 -2677 -2410 0
1000000 333 -2620 -2767 -3032 0
1000000 859 -2620 -2767 -3032 0
1000000 221 -1734 -2586 -2417 0
1000000 860 -1734 -2586 -2417 0
1000000 404 -2523 -2741 0
1000000 861 -2523 -2741 0
1000000 239 -2122 -2509 -3122 0
1000000 862 -2122 -2509 -3122 0
1000000 154 -3058 -262 0
1000000 863 -3058 -262 0
1000000 325 -2281 -2189 -2750 0
1000000 864 -2281 -2189 -2750 0
1000000 379 -2631 -2143 -2305 0
1000000 865 -2631 -2143 -2305 0
1000000 496 -2705 -2384 -1962 0
1000000 866 -2705 -2384 -1962 0
1000000 63 -1733 -3189 -3086 0
1000000 867 -1733 -3189 -3086 0
1000000 495 -2419 -3156 0
1000000 868 -2419 -3156 0
1000000 387 -2596 -2336 -2840 0
1000000 869 -2596 -2336 -2840 0
1000000 151 -2662 -2167 0
1000000 870 -2662 -2167 0
1000000 286 -2055 -2829 -2345 0
1000000 871 -2055 -2829 -2345 0
1000000 91 -2603 -105 0
1000000 872 -2603 -105 0
1000000 368 -1786 -3168 0
1000000 873 -1786 -3168 0
1000000 16 -1708 -1767 -2292 0
1000000 874 -1708 -1767 -2292 0
1000000 422 -1842 -2549 0
1000000 875 -1842 -2549 0
1000000 434 -1878 -2592 0
1000000 876 -1878 -2592 0
1000000 45 -3057 -2349 0
1000000 877 -3057 -2349 0
1000000 322 -1712 -1805 0
1000000 878 -1712 -1805 0
1000000 499 -2208 -500 0
1000000 879 -2208 -500 0
1000000 149 -2013 -2401 -3041 0
1000000 880 -2013 -2401 -3041 0
1000000 171 -2422 -1742 -279 0
1000000 881 -2422 -1742 -279 0
1000000 234 -2924 -2750 0
1000000 882 -2924 -2750 0
1000000 496 -1922 -2747 -3071 0
1000000 883 -1922 -2747 -3071 0
1000000 137 -2515 -2270 -3116 0
1000000 884 -2515 -2270 -3116 0
1000000 413 -2745 -2589 -1788 0
1000000 885 -2745 -2589 -1788 0
1000000 25 -2100 -120 0
1000000 886 -2100 -120 0
1000000 355 -2138 -2124 0
1000000 887 -2138 -2124 0
1000000 383 -2088 -2942 -2005 0
1000000 888 -2088 -2942 -2005 0
1000000 237 -2708 -1781 0
1000000 889 -2708 -1781 0
1000000 316 -2467 -2515 -2970 0
1000000 890 -2467 -2515 -2970 0
1000000 168 -1839 -3158 -3003 0
1000000 891 -1839 -3158 -3003 0
1000000 71 -2831 -1884 -261 0
1000000 892 -2831 -1884 -261 0
1000000 72 -3200 -2747 0
1000000 893 -3200 -2747 0
1000000 419 -3012 -478 0
1000000 894 -3012 -478 0
1000000 362 -2221 -2788 -2849 0
1000000 895 -2221 -2788 -2849 0
1000000 469 -2757 -473 0
1000000 896 -2757 -473 0
1000000 427 -2513 -2523 0
1000000 897 -2513 -2523 0
1000000 314 -2933 -2548 -3009 0
1000000 898 -2933 -2548 -3009 0
1000000 186 -1803 -2255 -189 0
1000000 899 -1803 -2255 -189 0
1000000 210 -2325 -1987 -2973 0
1000000 900 -2325 -1987 -2973 0
1000000 460 -1803 -2899 0
1000000 901 -1803 -2899 0
1000000 138 -1790 -185 0
1000000 902 -1790 -185 0
1000000 17 -2068 -428 0
1000000 903 -2068 -428 0
1000000 427 -1976 -1887 0
1000000 904 -1976 -1887 0
1000000 104 -2125 -1886 -1824 0
1000000 905 -2125 -1886 -1824 0
1000000 162 -2098 -2636 -2460 0
1000000 906 -2098 -2636 -2460 0
1000000 219 -2322 -1889 0
1000000 907 -2322 -1889 0
1000000 467 -2684 -1948 0
1000000 908 -2684 -1948 0
1000000 465 -2851 -2565 0
1000000 909 -2851 -2565 0
1000000 361 -1986 -422 0
1000000 910 -1986 -422 0
1000000 392 -2406 -2515 -1797 0
1000000 911 -2406 -2515 -1797 0
1000000 322 -2359 -3032 0
1000000 912 -2359 -3032 0
1000000 84 -2752 -2706 0
1000000 913 -2752 -2706 0
1000000 82 -2102 -2454 -2813 0
1000000 914 -2102 -2454 -2813 0
1000000 293 -2731 -2104 -420 0
1000000 915 -2731 -2104 -420 0
1000000 117 -3173 -2953 0
1000000 916 -3173 -2953 0
1000000 248 -3156 -304 0
1000000 917 -3156 -304 0
1000000 376 -2480 -2786 0
1000000 918 -2480 -2786 0
1000000 25 -2905 -2940 0
1000000 919 -2905 -2940 0
1000000 492 -1916 -1884 0
1000000 920 -1916 -1884 0
1000000 39 -2575 -3158 0
1000000 921 -2575 -3158 0
1000000 118 -2239 -3144 0
1000000 922 -2239 -3144 0
1000000 190 -1879 -2161 0
1000000 923 -1879 -2161 0
1000000 9 -2200 -2051 -2014 0
1000000 924 -2200 -2051 -2014 0
1000000 381 -2313 -1871 -458 0
1000000 925 -2313 -1871 -458 0
1000000 323 -1820 -2793 -2759 0
1000000 926 -1820 -2793 -2759 0
1000000 4 -2001 -2309 -2206 0
1000000 927 -2001 -2309 -2206 0
1000000 102 -3018 -2929 0
1000000 928 -3018 -2929 0
1000000 370 -2089 -2082 0
1000000 929 -2089 -2082 0
1000000 234 -3108 -2122 -2550 0
1000000 930 -3108 -2122 -2550 0
1000000 495 -2105 -500 0
1000000 931 -2105 -500 0
1000000 235 -2225 -2715 -2786 0
1000000 932 -2225 -2715 -2786 0
1000000 223 -1949 -1862 0
1000000 933 -1949 -1862 0
1000000 426 -2761 -2587 -492 0
1000000 934 -2761 -2587 -492 0
1000000 448 -1782 -2517 0
1000000 935 -1782 -2517 0
1000000 161 -1792 -3151 -305 0
1000000 936 -1792 -3151 -305 0
1000000 283 -3113 -2897 -1935 0
1000000 937 -3113 -2897 -1935 0
1000000 66 -2673 -377 0
1000000 938 -2673 -377 0
1000000 360 -1959 -2005 -2058 0
1000000 939 -1959 -2005 -2058 0
1000000 1 -1760 -1944 -3080 0
1000000 940 -1760 -1944 -3080 0
1000000 163 -1985 -2263 0
1000000 941 -1985 -2263 0
1000000 223 -2519 -3104 -320 0
1000000 942 -2519 -3104 -320 0
1000000 33 -1981 -239 0
1000000 943 -1981 -239 0
1000000 49 -2983 -330 0
1000000 944 -2983 -330 0
1000000 18 -3022 -2268 0
1000000 945 -3022 -2268 0
1000000 12 -1776 -3020 -2947 0
1000000 946 -1776 -3020 -2947 0
1000000 336 -3156 -1899 -428 0
1000000 947 -3156 -1899 -428 0
1000000 281 -1870 -2365 0
1000000 948 -1870 -2365 0
1000000 379 -2095 -2180 -1889 0
1000000 949 -2095 -2180 -1889 0
1000000 364 -2252 -2861 0
1000000 950 -2252 -2861 0
1000000 192 -2798 -2877 -478 0
1000000 951 -2798 -2877 -478 0
1000000 89 -2316 -1743 -1718 0
1000000 952 -2316 -1743 -1718 0
1000000 279 -2415 -1756 -370 0
1000000 953 -2415 -1756 -370 0
1000000 111 -2144 -1753 -2950 0
1000000 954 -2144 -1753 -2950 0
1000000 266 -2349 -2817 0
1000000 955 -2349 -2817 0
1000000 287 -2285 -2492 -349 0
1000000 956 -2285 -2492 -349 0
1000000 69 -2484 -2712 0
1000000 957 -2484 -2712 0
1000000 429 -2997 -2679 -451 0
1000000 958 -2997 -2679 -451 0
1000000 55 -1921 -1723 0
1000000 959 -1921 -1723 0
1000000 345 -2948 -2087 0
1000000 960 -2948 -2087 0
1000000 371 -2077 -2304 -489 0
1000000 961 -2077 -2304 -489 0
1000000 291 -3067 -1719 -2731 0
1000000 962 -3067 -1719 -2731 0
1000000 352 -1873 -1885 -463 0
1000000 963 -1873 -1885 -463 0
1000000 92 -2532 -173 0
1000000 964 -2532 -173 0
1000000 482 -2311 -2341 0
1000000 965 -2311 -2341 0
1000000 18 -2699 -2680 -3027 0
1000000 966 -2699 -2680 -3027 0
1000000 310 -1950 -2336 -2353 0
1000000 967 -1950 -2336 -2353 0
1000000 136 -2901 -2326 0
1000000 968 -2901 -2326 0
1000000 454 -1808 -2523 0
1000000 969 -1808 -2523 0
1000000 337 -2212 -2001 -1709 0
1000000 970 -2212 -2001 -1709 0
1000000 321 -1736 -367 0
1000000 971 -1736 -367 0
1000000 319 -2032 -2287 -2030 0
1000000 972 -2032 -2287 -2030 0
1000000 296 -2937 -2102 0
1000000 973 -2937 -2102 0
1000000 56 -1766 -254 0
1000000 974 -1766 -254 0
1000000 382 -2274 -2125 -1711 0
1000000 975 -2274 -2125 -1711 0
1000000 425 -2245 -2331 0
1000000 976 -2245 -2331 0
1000000 426 -2654 -2748 0
1000000 977 -2654 -2748 0
1000000 132 -2617 -3104 -2206 0
1000000 978 -2617 -3104 -2206 0
1000000 455 -2040 -2115 -2738 0
1000000 979 -2040 -2115 -2738 0
1000000 163 -1920 -2084 0
1000000 980 -1920 -2084 0
1000000 8 -2168 -3172 -2232 0
1000000 981 -2168 -3172 -2232 0
1000000 186 -2037 -2065 -231 0
1000000 982 -2037 -2065 -231 0
1000000 313 -1984 -2936 -2832 0
1000000 983 -1984 -2936 -2832 0
1000000 81 -1871 -2487 0
1000000 984 -1871 -2487 0
1000000 132 -2606 -1872 -2762 0
1000000 985 -2606 -1872 -2762 0
1000000 343 -2832 -1979 -1978 0
1000000 986 -2832 -1979 -1978 0
1000000 427 -2469 -2040 0
1000000 987 -2469 -2040 0
1000000 160 -1879 -397 0
1000000 988 -1879 -397 0
1000000 102 -2423 -1830 0
1000000 989 -2423 -1830 0
1000000 485 -2645 -2723 -1719 0
1000000 990 -2645 -2723 -1719 0
1000000 158 -2987 -2338 0
1000000 991 -2987 -2338 0
1000000 3 -3141 -6 0
1000000 992 -3141 -6 0
1000000 44 -3192 -1873 0
1000000 993 -3192 -1873 0
1000000 444 -2708 -2064 -1987 0
1000000 994 -2708 -2064 -1987 0
1000000 38 -1706 -3053 -2138 0
1000000 995 -1706 -3053 -2138 0
1000000 130 -2298 -2289 -177 0
1000000 996 -2298 -2289 -177 0
1000000 48 -2751 -2549 -398 0
1000000 997 -2751 -2549 -398 0
1000000 305 -2664 -390 0
1000000 998 -2664 -390 0
1000000 412 -1741 -2158 -1808 0
1000000 999 -1741 -2158 -1808 0
1000000 386 -2812 -1986 0
1000000 1000 -2812 -1986 0
1000000 181 -2625 -1711 -2343 0
1000000 1001 -2625 -1711 -2343 0
1000000 328 -2136 -351 0
1000000 1002 -2136 -351 0
1000000 170 -1742 -1980 0
1000000 1003 -1742 -1980 0
1000000 181 -1978 -2236 -481 0
1000000 1004 -1978 -2236 -481 0
1000000 425 -1979 -2021 -2003 0
1000000 1005 -1979 -2021 -2003 0
1000000 138 -2242 -2973 -2257 0
1000000 1006 -2242 -2973 -2257 0
1000000 399 -2521 -3024 -2376 0
1000000 1007 -2521 -3024 -2376 0
1000000 288 -2777 -2877 -422 0
1000000 1008 -2777 -2877 -422 0
1000000 494 -1923 -2422 -1791 0
1000000 1009 -1923 -2422 -1791 0
1000000 409 -2289 -451 0
1000000 1010 -2289 -451 0
1000000 365 -2907 -2743 -2019 0
1000000 1011 -2907 -2743 -2019 0
1000000 311 -2762 -1764 0
1000000 1012 -2762 -1764 0
1000000 310 -1889 -458 0
1000000 1013 -1889 -458 0
1000000 369 -2308 -2555 -422 0
1000000 1014 -2308 -2555 -422 0
1000000 300 -3182 -2361 -1774 0
1000000 1015 -3182 -2361 -1774 0
1000000 194 -2774 -2716 0
1000000 1016 -2774 -2716 0
1000000 462 -2487 -2731 -484 0
1000000 1017 -2487 -2731 -484 0
1000000 272 -2409 -2551 0
1000000 1018 -2409 -2551 0
1000000 341 -2627 -2219 -2568 0
1000000 1019 -2627 -2219 -2568 0
1000000 265 -3102 -308 0
1000000 1020 -3102 -308 0
1000000 203 -2339 -324 0
1000000 1021 -2339 -324 0
1000000 198 -1740 -2601 0
1000000 1022 -1740 -2601 0
1000000 110 -3164 -2452 -2318 0
1000000 1023 -3164 -2452 -2318 0
1000000 461 -2827 -2888 0
1000000 1024 -2827 -2888 0
1000000 154 -2789 -2534 0
1000000 1025 -2789 -2534 0
1000000 491 -2727 -2879 -2591 0
1000000 1026 -2727 -2879 -2591 0
1000000 354 -2960 -1869 0
1000000 1027 -2960 -1869 0
1000000 402 -2920 -2421 -2926 0
1000000 1028 -2920 -2421 -2926 0
1000000 393 -1947 -2726 -1741 0
1000000 1029 -1947 -2726 -1741 0
1000000 298 -3193 -3084 -2223 0
1000000 1030 -3193 -3084 -2223 0
1000000 158 -1967 -338 0
1000000 1031 -1967 -338 0
1000000 177 -2602 -2788 -303 0
1000000 1032 -2602 -2788 -303 0
1000000 228 -2090 -2801 -2988 0
1000000 1033 -2090 -2801 -2988 0
1000000 479 -2467 -481 0
1000000 1034 -2467 -481 0
1000000 118 -1818 -2694 -2813 0
1000000 1035 -1818 -2694 -2813 0
1000000 275 -2268 -2449 -500 0
1000000 1036 -2268 -2449 -500 0
1000000 217 -2368 -2646 0
1000000 1037 -2368 -2646 0
1000000 338 -2531 -471 0
1000000 1038 -2531 -471 0
1000000 431 -2148 -1794 0
1000000 1039 -2148 -1794 0
1000000 488 -2843 -2314 -2214 0
1000000 1040 -2843 -2314 -2214 0
1000000 431 -2046 -1856 -489 0
1000000 1041 -2046 -1856 -489 0
1000000 41 -2301 -3020 -77 0
1000000 1042 -2301 -3020 -77 0
1000000 411 -2089 -1855 0
1000000 1043 -2089 -1855 0
1000000 382 -2160 -1703 -1749 0
1000000 1044 -2160 -1703 -1749 0
1000000 203 -2076 -338 0
1000000 1045 -2076 -338 0
1000000 12 -2657 -1992 0
1000000 1046 -2657 -1992 0
1000000 267 -1971 -2803 -2851 0
1000000 1047 -1971 -2803 -2851 0
1000000 109 -2363 -1924 0
1000000 1048 -2363 -1924 0
1000000 409 -2275 -2884 0
1000000 1049 -2275 -2884 0
1000000 443 -1705 -3036 -466 0
1000000 1050 -1705 -3036 -466 0
1000000 137 -2276 -2469 0
1000000 1051 -2276 -2469 0
1000000 292 -2714 -2464 -3044 0
1000000 1052 -2714 -2464 -3044 0
1000000 389 -2944 -2919 -2573 0
1000000 1053 -2944 -2919 -2573 0
1000000 110 -2479 -2501 0
1000000 1054 -2479 -2501 0
1000000 64 -2997 -2387 -2561 0
1000000 1055 -2997 -2387 -2561 0
1000000 242 -2530 -2478 -293 0
1000000 1056 -2530 -2478 -293 0
1000000 311 -2722 -393 0
1000000 1057 -2722 -393 0
1000000 191 -2822 -2580 0
1000000 1058 -2822 -2580 0
1000000 101 -2809 -2834 -2833 0
1000000 1059 -2809 -2834 -2833 0
1000000 493 -2897 -2975 0
1000000 1060 -2897 -2975 0
1000000 156 -2046 -2935 -183 0
1000000 1061 -2046 -2935 -183 0
1000000 325 -3033 -2504 -2755 0
1000000 1062 -3033 -2504 -2755 0
1000000 396 -1954 -2169 0
1000000 1063 -1954 -2169 0
1000000 79 -2342 -1988 -3037 0
1000000 1064 -2342 -1988 -3037 0
1000000 36 -1832 -2052 0
1000000 1065 -1832 -2052 0
1000000 141 -2204 -490 0
1000000 1066 -2204 -490 0
1000000 44 -2317 -2001 -1882 0
1000000 1067 -2317 -2001 -1882 0
1000000 392 -1938 -2904 -492 0
1000000 1068 -1938 -2904 -492 0
1000000 355 -1960 -2958 -2111 0
1000000 1069 -1960 -2958 -2111 0
1000000 121 -2940 -2866 -245 0
1000000 1070 -2940 -2866 -245 0
1000000 500 -2364 -2047 -2588 0
1000000 1071 -2364 -2047 -2588 0
1000000 74 -2191 -2208 -444 0
1000000 1072 -2191 -2208 -444 0
1000000 483 -1989 -1958 0
1000000 1073 -1989 -1958 0
1000000 497 -3118 -3088 0
1000000 1074 -3118 -3088 0
1000000 307 -2986 -3082 -2818 0
1000000 1075 -2986 -3082 -2818 0
1000000 455 -2344 -2439 0
1000000 1076 -2344 -2439 0
1000000 144 -1845 -2492 0
1000000 1077 -1845 -2492 0
1000000 440 -2551 -3023 -458 0
1000000 1078 -2551 -3023 -458 0
1000000 61 -1996 -3040 -3163 0
1000000 1079 -1996 -3040 -3163 0
1000000 456 -2817 -493 0
1000000 1080 -2817 -493 0
1000000 348 -2260 -2328 0
1000000 1081 -2260 -2328 0
1000000 237 -2126 -1762 0
1000000 1082 -2126 -1762 0
1000000 34 -2892 -2410 -2260 0
1000000 1083 -2892 -2410 -2260 0
1000000 213 -2077 -3012 -2340 0
1000000 1084 -2077 -3012 -2340 0
1000000 286 -3014 -2482 -403 0
1000000 1085 -3014 -2482 -403 0
1000000 225 -3020 -2983 -2422 0
1000000 1086 -3020 -2983 -2422 0
1000000 83 -1863 -1844 0
1000000 1087 -1863 -1844 0
1000000 179 -2361 -3063 0
1000000 1088 -2361 -3063 0
1000000 84 -2414 -2235 0
1000000 1089 -2414 -2235 0
1000000 357 -2497 -2447 -2398 0
1000000 1090 -2497 -2447 -2398 0
1000000 100 -2483 -2064 -2233 0
1000000 1091 -2483 -2064 -2233 0
1000000 258 -2217 -1782 -3192 0
1000000 1092 -2217 -1782 -3192 0
1000000 371 -1791 -499 0
1000000 1093 -1791 -499 0
1000000 182 -2523 -1838 0
1000000 1094 -2523 -1838 0
1000000 244 -2442 -2215 0
1000000 1095 -2442 -2215 0
1000000 149 -2821 -3147 -2042 0
1000000 1096 -2821 -3147 -2042 0
1000000 342 -3142 -487 0
1000000 1097 -3142 -487 0
1000000 485 -1834 -3009 0
1000000 1098 -1834 -3009 0
1000000 437 -2741 -2819 0
1000000 1099 -2741 -2819 0
1000000 38 -1811 -2201 0
1000000 1100 -1811 -2201 0
1000000 333 -2695 -2524 0
1000000 1101 -2695 -2524 0
1000000 54 -1901 -433 0
1000000 1102 -1901 -433 0
1000000 165 -1806 -2245 -351 0
1000000 1103 -1806 -2245 -351 0
1000000 197 -2495 -330 0
1000000 1104 -2495 -330 0
1000000 94 -2222 -2657 -2360 0
1000000 1105 -2222 -2657 -2360 0
1000000 153 -2915 -295 0
1000000 1106 -2915 -295 0
1000000 249 -1848 -3160 0
1000000 1107 -1848 -3160 0
1000000 405 -2858 -2755 0
1000000 1108 -2858 -2755 0
1000000 382 -1902 -3050 -2540 0
1000000 1109 -1902 -3050 -2540 0
1000000 274 -2741 -2299 -2850 0
1000000 1110 -2741 -2299 -2850 0
1000000 380 -1837 -1756 0
1000000 1111 -1837 -1756 0
1000000 419 -2212 -2760 -472 0
1000000 1112 -2212 -2760 -472 0
1000000 326 -2127 -1724 0
1000000 1113 -2127 -1724 0
1000000 486 -2120 -1911 -3004 0
1000000 1114 -2120 -1911 -3004 0
1000000 256 -2432 -2973 0
1000000 1115 -2432 -2973 0
1000000 332 -1772 -1980 -451 0
1000000 1116 -1772 -1980 -451 0
1000000 472 -3176 -2341 -2825 0
1000000 1117 -3176 -2341 -2825 0
1000000 85 -2191 -3129 -2415 0
1000000 1118 -2191 -3129 -2415 0
1000000 255 -2407 -2661 0
1000000 1119 -2407 -2661 0
1000000 67 -2496 -1790 -79 0
1000000 1120 -2496 -1790 -79 0
1000000 266 -2217 -3101 -2175 0
1000000 1121 -2217 -3101 -2175 0
1000000 252 -3056 -397 0
1000000 1122 -3056 -397 0
1000000 358 -3010 -2583 -466 0
1000000 1123 -3010 -2583 -466 0
1000000 314 -2852 -1769 0
1000000 1124 -2852 -1769 0
1000000 467 -2157 -1701 -2135 0
1000000 1125 -2157 -1701 -2135 0
1000000 450 -1960 -2499 -493 0
1000000 1126 -1960 -2499 -493 0
1000000 325 -2367 -1777 0
1000000 1127 -2367 -1777 0
1000000 336 -1856 -2648 -2485 0
1000000 1128 -1856 -2648 -2485 0
1000000 402 -2468 -3117 -480 0
1000000 1129 -2468 -3117 -480 0
1000000 285 -2701 -383 0
1000000 1130 -2701 -383 0
1000000 341 -1915 -2880 -369 0
1000000 1131 -1915 -2880 -369 0
1000000 343 -2074 -1706 -2763 0
1000000 1132 -2074 -1706 -2763 0
1000000 42 -1835 -3041 -3160 0
1000000 1133 -1835 -3041 -3160 0
1000000 275 -2080 -1876 -3006 0
1000000 1134 -2080 -1876 -3006 0
1000000 359 -1828 -2029 -2336 0
1000000 1135 -1828 -2029 -2336 0
1000000 2 -1788 -2552 0
1000000 1136 -1788 -2552 0
1000000 259 -1712 -1790 -2697 0
1000000 1137 -1712 -1790 -2697 0
1000000 111 -2954 -3040 -489 0
1000000 1138 -2954 -3040 -489 0
1000000 482 -2097 -2432 -2071 0
1000000 1139 -2097 -2432 -2071 0
1000000 445 -3170 -2518 -2087 0
1000000 1140 -3170 -2518 -2087 0
1000000 375 -1919 -378 0
1000000 1141 -1919 -378 0
1000000 52 -2669 -178 0
1000000 1142 -2669 -178 0
1000000 374 -3091 -1825 -2778 0
1000000 1143 -3091 -1825 -2778 0
1000000 480 -2861 -2858 0
1000000 1144 -2861 -2858 0
1000000 32 -2011 -2995 -1980 0
1000000 1145 -2011 -2995 -1980 0
1000000 245 -1826 -289 0
1000000 1146 -1826 -289 0
1000000 493 -2046 -3004 -1790 0
1000000 1147 -2046 -3004 -1790 0
1000000 119 -2198 -2127 0
1000000 1148 -2198 -2127 0
1000000 360 -2301 -471 0
1000000 1149 -2301 -471 0
1000000 19 -2747 -2602 0
1000000 1150 -2747 -2602 0
1000000 164 -2622 -1904 -2944 0
1000000 1151 -2622 -1904 -2944 0
1000000 166 -2858 -2628 -3090 0
1000000 1152 -2858 -2628 -3090 0
1000000 301 -2713 -2730 0
1000000 1153 -2713 -2730 0
1000000 61 -2203 -2428 -2276 0
1000000 1154 -2203 -2428 -2276 0
1000000 107 -2391 -2658 -2237 0
1000000 1155 -2391 -2658 -2237 0
1000000 161 -2213 -2426 0
1000000 1156 -2213 -2426 0
1000000 33 -2757 -2145 -1978 0
1000000 1157 -2757 -2145 -1978 0
1000000 213 -2849 -2048 -1902 0
1000000 1158 -2849 -2048 -1902 0
1000000 114 -2307 -1817 -2046 0
1000000 1159 -2307 -1817 -2046 0
1000000 200 -3088 -2626 -2857 0
1000000 1160 -3088 -2626 -2857 0
1000000 267 -2684 -298 0
1000000 1161 -2684 -298 0
1000000 358 -2681 -1714 0
1000000 1162 -2681 -1714 0
1000000 113 -2090 -2166 -1940 0
1000000 1163 -2090 -2166 -1940 0
1000000 116 -2691 -2252 -2795 0
1000000 1164 -2691 -2252 -2795 0
1000000 257 -2166 -2038 0
1000000 1165 -2166 -2038 0
1000000 447 -3068 -3026 0
1000000 1166 -3068 -3026 0
1000000 319 -2015 -2252 -2840 0
1000000 1167 -2015 -2252 -2840 0
1000000 259 -1954 -2217 -1992 0
1000000 1168 -1954 -2217 -1992 0
1000000 169 -2261 -2154 0
1000000 1169 -2261 -2154 0
1000000 395 -2369 -2351 -2528 0
1000000 1170 -2369 -2351 -2528 0
1000000 27 -1840 -2535 0
1000000 1171 -1840 -2535 0
1000000 259 -2324 -3130 -2274 0
1000000 1172 -2324 -3130 -2274 0
1000000 53 -2435 -3020 0
1000000 1173 -2435 -3020 0
1000000 481 -2146 -2992 0
1000000 1174 -2146 -2992 0
1000000 159 -2193 -2397 0
1000000 1175 -2193 -2397 0
1000000 49 -2418 -1757 -317 0
1000000 1176 -2418 -1757 -317 0
1000000 245 -2330 -2929 -1980 0
1000000 1177 -2330 -2929 -1980 0
1000000 432 -2521 -2185 0
1000000 1178 -2521 -2185 0
1000000 205 -2006 -2899 0
1000000 1179 -2006 -2899 0
1000000 172 -2308 -2026 -261 0
1000000 1180 -2308 -2026 -261 0
1000000 212 -2898 -1946 -488 0
1000000 1181 -2898 -1946 -488 0
1000000 464 -1938 -2877 0
1000000 1182 -1938 -2877 0
1000000 310 -1847 -1753 0
1000000 1183 -1847 -1753 0
1000000 334 -2409 -2287 0
1000000 1184 -2409 -2287 0
1000000 198 -3007 -1875 -275 0
1000000 1185 -3007 -1875 -275 0
1000000 29 -2884 -2368 -3198 0
1000000 1186 -2884 -2368 -3198 0
1000000 381 -1929 -3178 -474 0
1000000 1187 -1929 -3178 -474 0
1000000 195 -2253 -2083 0
1000000 1188 -2253 -2083 0
1000000 297 -1817 -2149 -3200 0
1000000 1189 -1817 -2149 -3200 0
1000000 179 -2511 -370 0
1000000 1190 -2511 -370 0
1000000 473 -2697 -2720 -2209 0
1000000 1191 -2697 -2720 -2209 0
1000000 436 -3084 -2968 -2247 0
1000000 1192 -3084 -2968 -2247 0
1000000 260 -1917 -2096 0
1000000 1193 -1917 -2096 0
1000000 34 -1948 -2561 0
1000000 1194 -1948 -2561 0
1000000 201 -3148 -2910 0
1000000 1195 -3148 -2910 0
1000000 300 -2792 -2952 0
1000000 1196 -2792 -2952 0
1000000 177 -3082 -2387 -2839 0
1000000 1197 -3082 -2387 -2839 0
1000000 159 -2110 -2976 0
1000000 1198 -2110 -2976 0
1000000 464 -3168 -2006 0
1000000 1199 -3168 -2006 0
1000000 432 -2006 -2910 -2192 0
1000000 1200 -2006 -2910 -2192 0
1000000 346 -2429 -1725 0
1000000 1201 -2429 -1725 0
1000000 274 -2961 -2943 0
1000000 1202 -2961 -2943 0
1000000 27 -3124 -3066 -3087 0
1000000 1203 -3124 -3066 -3087 0
1000000 36 -3078 -2949 -2276 0
1000000 1204 -3078 -2949 -2276 0
1000000 321 -2978 -1979 0
1000000 1205 -2978 -1979 0
1000000 408 -2023 -3116 -2979 0
1000000 1206 -2023 -3116 -2979 0
1000000 317 -2559 -2611 -421 0
1000000 1207 -2559 -2611 -421 0
1000000 30 -2010 -2630 -3110 0
1000000 1208 -2010 -2630 -3110 0
1000000 353 -2133 -431 0
1000000 1209 -2133 -431 0
1000000 445 -2481 -1969 -2743 0
1000000 1210 -2481 -1969 -2743 0
1000000 439 -2860 -2685 -2811 0
1000000 1211 -2860 -2685 -2811 0
1000000 410 -2012 -499 0
1000000 1212 -2012 -499 0
1000000 487 -2371 -496 0
1000000 1213 -2371 -496 0
1000000 450 -2444 -2579 -480 0
1000000 1214 -2444 -2579 -480 0
1000000 385 -2256 -403 0
1000000 1215 -2256 -403 0
1000000 57 -2387 -2454 -2374 0
1000000 1216 -2387 -2454 -2374 0
1000000 131 -2553 -2654 -365 0
1000000 1217 -2553 -2654 -365 0
1000000 136 -2528 -2094 -2660 0
1000000 1218 -2528 -2094 -2660 0
1000000 318 -2267 -2631 -3021 0
1000000 1219 -2267 -2631 -3021 0
1000000 360 -2679 -1843 -490 0
1000000 1220 -2679 -1843 -490 0
1000000 280 -2000 -2152 -282 0
1000000 1221 -2000 -2152 -282 0
1000000 433 -2216 -469 0
1000000 1222 -2216 -469 0
1000000 441 -3005 -2827 0
1000000 1223 -3005 -2827 0
1000000 15 -2538 -2980 -279 0
1000000 1224 -2538 -2980 -279 0
1000000 368 -3061 -439 0
1000000 1225 -3061 -439 0
1000000 290 -3121 -2291 0
1000000 1226 -3121 -2291 0
1000000 99 -3137 -500 0
1000000 1227 -3137 -500 0
1000000 145 -2683 -2738 -2815 0
1000000 1228 -2683 -2738 -2815 0
1000000 131 -2211 -2784 0
1000000 1229 -2211 -2784 0
1000000 97 -2801 -2356 0
1000000 1230 -2801 -2356 0
1000000 395 -3171 -2311 -488 0
1000000 1231 -3171 -2311 -488 0
1000000 295 -2890 -2919 -2856 0
1000000 1232 -2890 -2919 -2856 0
1000000 246 -2425 -1930 0
1000000 1233 -2425 -1930 0
1000000 299 -2061 -1857 -2699 0
1000000 1234 -2061 -1857 -2699 0
1000000 258 -1750 -2761 0
1000000 1235 -1750 -2761 0
1000000 335 -1916 -2196 -396 0
1000000 1236 -1916 -2196 -396 0
1000000 19 -1948 -2734 0
1000000 1237 -1948 -2734 0
1000000 122 -1787 -1769 -2503 0
1000000 1238 -1787 -1769 -2503 0
1000000 123 -2371 -2969 -2287 0
1000000 1239 -2371 -2969 -2287 0
1000000 23 -2711 -3099 -3072 0
1000000 1240 -2711 -3099 -3072 0
1000000 59 -3063 -2235 0
1000000 1241 -3063 -2235 0
1000000 406 -3091 -1758 -2634 0
1000000 1242 -3091 -1758 -2634 0
1000000 155 -2290 -2278 -2268 0
1000000 1243 -2290 -2278 -2268 0
1000000 287 -2642 -1829 0
1000000 1244 -2642 -1829 0
1000000 81 -2956 -458 0
1000000 1245 -2956 -458 0
1000000 313 -3171 -2235 -347 0
1000000 1246 -3171 -2235 -347 0
1000000 163 -2169 -1951 0
1000000 1247 -2169 -1951 0
1000000 139 -2462 -3058 -2882 0
1000000 1248 -2462 -3058 -2882 0
1000000 410 -2696 -2036 0
1000000 1249 -2696 -2036 0
1000000 345 -2409 -2760 -2856 0
1000000 1250 -2409 -2760 -2856 0
1000000 363 -2540 -444 0
1000000 1251 -2540 -444 0
1000000 89 -2612 -2012 -3062 0
1000000 1252 -2612 -2012 -3062 0
1000000 440 -1799 -1796 0
1000000 1253 -1799 -1796 0
1000000 80 -2512 -1745 -279 0
1000000 1254 -2512 -1745 -279 0
1000000 124 -2774 -3132 -2824 0
1000000 1255 -2774 -3132 -2824 0
1000000 271 -1784 -2471 -3190 0
1000000 1256 -1784 -2471 -3190 0
1000000 446 -1756 -2142 -3097 0
1000000 1257 -1756 -2142 -3097 0
1000000 72 -2601 -2002 -3080 0
1000000 1258 -2601 -2002 -3080 0
1000000 320 -3029 -2330 0
1000000 1259 -3029 -2330 0
1000000 265 -2354 -2715 -317 0
1000000 1260 -2354 -2715 -317 0
1000000 49 -2328 -2641 0
1000000 1261 -2328 -2641 0
1000000 423 -2384 -2628 -3121 0
1000000 1262 -2384 -2628 -3121 0
1000000 400 -1802 -2860 0
1000000 1263 -1802 -2860 0
1000000 404 -1732 -3182 0
1000000 1264 -1732 -3182 0
1000000 189 -1820 -3051 -2769 0
1000000 1265 -1820 -3051 -2769 0
1000000 142 -3191 -3166 0
1000000 1266 -3191 -3166 0
1000000 174 -2721 -2220 0
1000000 1267 -2721 -2220 0
1000000 206 -2018 -2020 -472 0
1000000 1268 -2018 -2020 -472 0
1000000 261 -3166 -2848 -397 0
1000000 1269 -3166 -2848 -397 0
1000000 260 -3063 -2467 -1845 0
1000000 1270 -3063 -2467 -1845 0
1000000 185 -2893 -245 0
1000000 1271 -2893 -245 0
1000000 151 -2208 -2785 -2261 0
1000000 1272 -2208 -2785 -2261 0
1000000 435 -3018 -3084 -3023 0
1000000 1273 -3018 -3084 -3023 0
1000000 126 -2568 -2289 -1947 0
1000000 1274 -2568 -2289 -1947 0
1000000 480 -2136 -1843 0
1000000 1275 -2136 -1843 0
1000000 489 -2096 -2383 0
1000000 1276 -2096 -2383 0
1000000 147 -3112 -2760 0
1000000 1277 -3112 -2760 0
1000000 312 -2163 -2134 -3200 0
1000000 1278 -2163 -2134 -3200 0
1000000 247 -3104 -255 0
1000000 1279 -3104 -255 0
1000000 251 -3149 -2528 0
1000000 1280 -3149 -2528 0
1000000 162 -2810 -2228 -3171 0
1000000 1281 -2810 -2228 -3171 0
1000000 264 -1766 -1925 -489 0
1000000 1282 -1766 -1925 -489 0
1000000 246 -1787 -2023 0
1000000 1283 -1787 -2023 0
1000000 62 -1820 -2528 -2771 0
1000000 1284 -1820 -2528 -2771 0
1000000 309 -2290 -3074 0
1000000 1285 -2290 -3074 0
1000000 182 -3027 -1794 0
1000000 1286 -3027 -1794 0
1000000 264 -2939 -3042 -308 0
1000000 1287 -2939 -3042 -308 0
1000000 315 -2518 -2789 -3033 0
1000000 1288 -2518 -2789 -3033 0
1000000 407 -2871 -2026 0
1000000 1289 -2871 -2026 0
1000000 63 -2797 -2742 -2202 0
1000000 1290 -2797 -2742 -2202 0
1000000 302 -3192 -2506 -2412 0
1000000 1291 -3192 -2506 -2412 0
1000000 5 -2986 -3143 0
1000000 1292 -2986 -3143 0
1000000 178 -1778 -1764 0
1000000 1293 -1778 -1764 0
1000000 187 -2905 -2215 -2429 0
1000000 1294 -2905 -2215 -2429 0
1000000 152 -2138 -2921 0
1000000 1295 -2138 -2921 0
1000000 53 -3134 -234 0
1000000 1296 -3134 -234 0
1000000 449 -1853 -1801 0
1000000 1297 -1853 -1801 0
1000000 58 -3121 -2399 0
1000000 1298 -3121 -2399 0
1000000 60 -2738 -127 0
1000000 1299 -2738 -127 0
1000000 419 -2843 -2163 0
1000000 1300 -2843 -2163 0
1000000 341 -2280 -2826 0
1000000 1301 -2280 -2826 0
1000000 141 -2038 -2370 0
1000000 1302 -2038 -2370 0
1000000 180 -2198 -3067 0
1000000 1303 -2198 -3067 0
1000000 377 -2866 -3116 0
1000000 1304 -2866 -3116 0
1000000 238 -2523 -3038 0
1000000 1305 -2523 -3038 0
1000000 144 -3070 -220 0
1000000 1306 -3070 -220 0
1000000 402 -2056 -2024 -3028 0
1000000 1307 -2056 -2024 -3028 0
1000000 157 -2017 -2765 -2816 0
1000000 1308 -2017 -2765 -2816 0
1000000 115 -2568 -183 0
1000000 1309 -2568 -183 0
1000000 400 -2742 -2752 0
1000000 1310 -2742 -2752 0
1000000 85 -2231 -1994 -2217 0
1000000 1311 -2231 -1994 -2217 0
1000000 471 -2076 -1974 -500 0
1000000 1312 -2076 -1974 -500 0
1000000 40 -3199 -2215 0
1000000 1313 -3199 -2215 0
1000000 366 -1716 -2819 0
1000000 1314 -1716 -2819 0
1000000 241 -1781 -478 0
1000000 1315 -1781 -478 0
1000000 150 -2818 -452 0
1000000 1316 -2818 -452 0
1000000 434 -2958 -2018 -1909 0
1000000 1317 -2958 -2018 -1909 0
1000000 169 -2909 -2546 -1792 0
1000000 1318 -2909 -2546 -1792 0
1000000 386 -2850 -3051 -3119 0
1000000 1319 -2850 -3051 -3119 0
1000000 86 -2094 -3012 -185 0
1000000 1320 -2094 -3012 -185 0
1000000 16 -2936 -2089 0
1000000 1321 -2936 -2089 0
1000000 495 -2497 -2734 0
1000000 1322 -2497 -2734 0
1000000 294 -2284 -2293 0
1000000 1323 -2284 -2293 0
1000000 5 -2993 -2872 0
1000000 1324 -2993 -2872 0
1000000 413 -2868 -2943 -3164 0
1000000 1325 -2868 -2943 -3164 0
1000000 490 -2945 -2854 0
1000000 1326 -2945 -2854 0
1000000 93 -3170 -1762 -2516 0
1000000 1327 -3170 -1762 -2516 0
1000000 33 -2667 -2019 -3097 0
1000000 1328 -2667 -2019 -3097 0
1000000 425 -1725 -489 0
1000000 1329 -1725 -489 0
1000000 199 -2815 -2857 -3053 0
1000000 1330 -2815 -2857 -3053 0
1000000 387 -2081 -1997 0
1000000 1331 -2081 -1997 0
1000000 420 -2434 -2092 0
1000000 1332 -2434 -2092 0
1000000 283 -1989 -2743 0
1000000 1333 -1989 -2743 0
1000000 127 -2812 -500 0
1000000 1334 -2812 -500 0
1000000 93 -2465 -2850 -2677 0
1000000 1335 -2465 -2850 -2677 0
1000000 350 -2899 -433 0
1000000 1336 -2899 -433 0
1000000 363 -2356 -2223 -2345 0
1000000 1337 -2356 -2223 -2345 0
1000000 47 -2364 -3168 0
1000000 1338 -2364 -3168 0
1000000 376 -2943 -2242 -2758 0
1000000 1339 -2943 -2242 -2758 0
1000000 244 -3162 -2519 -2878 0
1000000 1340 -3162 -2519 -2878 0
1000000 415 -1716 -2274 -2263 0
1000000 1341 -1716 -2274 -2263 0
1000000 2 -1740 -1714 0
1000000 1342 -1740 -1714 0
1000000 392 -2508 -1755 0
1000000 1343 -2508 -1755 0
1000000 50 -1825 -2999 -2159 0
1000000 1344 -1825 -2999 -2159 0
1000000 88 -2369 -2736 0
1000000 1345 -2369 -2736 0
1000000 190 -2221 -2749 -2776 0
1000000 1346 -2221 -2749 -2776 0
1000000 320 -2185 -2165 0
1000000 1347 -2185 -2165 0
1000000 350 -2269 -2487 -2611 0
1000000 1348 -2269 -2487 -2611 0
1000000 411 -1865 -3192 0
1000000 1349 -1865 -3192 0
1000000 191 -2586 -2099 0
1000000 1350 -2586 -2099 0
1000000 292 -2103 -2500 -466 0
1000000 1351 -2103 -2500 -466 0
1000000 178 -1989 -2699 0
1000000 1352 -1989 -2699 0
1000000 90 -2993 -2395 -2126 0
1000000 1353 -2993 -2395 -2126 0
1000000 281 -1821 -3041 -1787 0
1000000 1354 -1821 -3041 -1787 0
1000000 244 -2013 -1833 0
1000000 1355 -2013 -1833 0
1000000 280 -2514 -2130 -396 0
1000000 1356 -2514 -2130 -396 0
1000000 238 -2494 -2346 -2552 0
1000000 1357 -2494 -2346 -2552 0
1000000 227 -1767 -3124 0
1000000 1358 -1767 -3124 0
1000000 101 -3084 -2467 0
1000000 1359 -3084 -2467 0
1000000 31 -1875 -2114 0
1000000 1360 -1875 -2114 0
1000000 196 -2965 -1829 0
1000000 1361 -2965 -1829 0
1000000 134 -1796 -2515 -490 0
1000000 1362 -1796 -2515 -490 0
1000000 265 -2563 -2988 0
1000000 1363 -2563 -2988 0
1000000 249 -2564 -2506 -2140 0
1000000 1364 -2564 -2506 -2140 0
1000000 276 -2470 -2108 0
1000000 1365 -2470 -2108 0
1000000 414 -2986 -2398 0
1000000 1366 -2986 -2398 0
1000000 68 -1730 -1761 -2934 0
1000000 1367 -1730 -1761 -2934 0
1000000 340 -1713 -2946 0
1000000 1368 -1713 -2946 0
1000000 62 -3130 -3047 0
1000000 1369 -3130 -3047 0
1000000 369 -2508 -2539 -1759 0
1000000 1370 -2508 -2539 -1759 0
1000000 465 -2397 -1931 0
1000000 1371 -2397 -1931 0
1000000 184 -2212 -2734 -2231 0
1000000 1372 -2212 -2734 -2231 0
1000000 36 -2529 -2571 -2183 0
1000000 1373 -2529 -2571 -2183 0
1000000 329 -2812 -440 0
1000000 1374 -2812 -440 0
1000000 69 -2683 -2782 0
1000000 1375 -2683 -2782 0
1000000 222 -1946 -2845 0
1000000 1376 -1946 -2845 0
1000000 424 -2770 -2517 -3078 0
1000000 1377 -2770 -2517 -3078 0
1000000 284 -2770 -2433 -393 0
1000000 1378 -2770 -2433 -393 0
1000000 273 -2649 -2210 0
1000000 1379 -2649 -2210 0
1000000 477 -2068 -2458 0
1000000 1380 -2068 -2458 0
1000000 467 -1933 -489 0
1000000 1381 -1933 -489 0
1000000 156 -3159 -2297 -1813 0
1000000 1382 -3159 -2297 -1813 0
1000000 373 -2217 -2112 -2966 0
1000000 1383 -2217 -2112 -2966 0
1000000 210 -2462 -1923 -225 0
1000000 1384 -2462 -1923 -225 0
1000000 289 -2084 -444 0
1000000 1385 -2084 -444 0
1000000 459 -1709 -2576 -3122 0
1000000 1386 -1709 -2576 -3122 0
1000000 355 -2708 -2564 0
1000000 1387 -2708 -2564 0
1000000 197 -2145 -2532 0
1000000 1388 -2145 -2532 0
1000000 385 -1878 -2856 0
1000000 1389 -1878 -2856 0
1000000 173 -2282 -3189 0
1000000 1390 -2282 -3189 0
1000000 380 -2669 -383 0
1000000 1391 -2669 -383 0
1000000 125 -2526 -2928 0
1000000 1392 -2526 -2928 0
1000000 468 -2338 -1972 0
1000000 1393 -2338 -1972 0
1000000 278 -2475 -1800 -417 0
1000000 1394 -2475 -1800 -417 0
1000000 429 -2225 -1929 0
1000000 1395 -2225 -1929 0
1000000 32 -2505 -2849 -440 0
1000000 1396 -2505 -2849 -440 0
1000000 120 -2519 -2497 -2738 0
1000000 1397 -2519 -2497 -2738 0
1000000 90 -2951 -2502 -2100 0
1000000 1398 -2951 -2502 -2100 0
1000000 235 -2422 -2242 -1859 0
1000000 1399 -2422 -2242 -1859 0
1000000 263 -2760 -3063 -390 0
1000000 1400 -2760 -3063 -390 0
1000000 76 -2894 -2916 -1830 0
1000000 1401 -2894 -2916 -1830 0
1000000 46 -2679 -2673 0
1000000 1402 -2679 -2673 0
1000000 98 -1712 -2736 0
1000000 1403 -1712 -2736 0
1000000 408 -2278 -2930 -3010 0
1000000 1404 -2278 -2930 -3010 0
1000000 377 -3130 -2190 -2000 0
1000000 1405 -3130 -2190 -2000 0
1000000 462 -3181 -2844 0
1000000 1406 -3181 -2844 0
1000000 268 -2198 -2779 -1914 0
1000000 1407 -2198 -2779 -1914 0
1000000 144 -2373 -2111 0
1000000 1408 -2373 -2111 0
1000000 486 -2680 -2925 -3020 0
1000000 1409 -2680 -2925 -3020 0
1000000 230 -3010 -1799 -1963 0
1000000 1410 -3010 -1799 -1963 0
1000000 119 -3173 -3161 0
1000000 1411 -3173 -3161 0
1000000 364 -2856 -2217 0
1000000 1412 -2856 -2217 0
1000000 253 -2827 -297 0
1000000 1413 -2827 -297 0
1000000 227 -1727 -1951 0
1000000 1414 -1727 -1951 0
1000000 441 -2049 -2830 -2200 0
1000000 1415 -2049 -2830 -2200 0
1000000 31 -2134 -2880 -2757 0
1000000 1416 -2134 -2880 -2757 0
1000000 128 -2458 -2465 -2469 0
1000000 1417 -2458 -2465 -2469 0
1000000 353 -2882 -2761 0
1000000 1418 -2882 -2761 0
1000000 246 -2945 -3188 -2723 0
1000000 1419 -2945 -3188 -2723 0
1000000 78 -1763 -3036 -2723 0
1000000 1420 -1763 -3036 -2723 0
1000000 28 -2545 -2194 -2947 0
1000000 1421 -2545 -2194 -2947 0
1000000 436 -2646 -1762 -489 0
1000000 1422 -2646 -1762 -489 0
1000000 476 -2540 -1894 -2872 0
1000000 1423 -2540 -1894 -2872 0
1000000 491 -1750 -2604 -496 0
1000000 1424 -1750 -2604 -496 0
1000000 352 -2308 -3020 0
1000000 1425 -2308 -3020 0
1000000 498 -2384 -3057 -499 0
1000000 1426 -2384 -3057 -499 0
1000000 145 -2539 -3164 -2758 0
1000000 1427 -2539 -3164 -2758 0
1000000 71 -2680 -120 0
1000000 1428 -2680 -120 0
1000000 339 -2119 -2279 -2352 0
1000000 1429 -2119 -2279 -2352 0
1000000 264 -1794 -2063 -2749 0
1000000 1430 -1794 -2063 -2749 0
1000000 215 -1908 -2429 0
1000000 1431 -1908 -2429 0
1000000 475 -2422 -2157 -480 0
1000000 1432 -2422 -2157 -480 0
1000000 26 -2390 -240 0
1000000 1433 -2390 -240 0
1000000 19 -2171 -2035 -2402 0
1000000 1434 -2171 -2035 -2402 0
1000000 438 -2161 -2184 0
1000000 1435 -2161 -2184 0
1000000 48 -2568 -2458 -1793 0
1000000 1436 -2568 -2458 -1793 0
1000000 17 -2759 -22 0
1000000 1437 -2759 -22 0
1000000 235 -3194 -2469 -2941 0
1000000 1438 -3194 -2469 -2941 0
1000000 468 -2163 -2815 0
1000000 1439 -2163 -2815 0
1000000 306 -2194 -490 0
1000000 1440 -2194 -490 0
1000000 477 -2469 -3167 -1818 0
1000000 1441 -2469 -3167 -1818 0
1000000 105 -2693 -3040 -2933 0
1000000 1442 -2693 -3040 -2933 0
1000000 296 -1833 -336 0
1000000 1443 -1833 -336 0
1000000 342 -2191 -2553 0
1000000 1444 -2191 -2553 0
1000000 167 -3049 -2349 0
1000000 1445 -3049 -2349 0
1000000 449 -2948 -2995 -471 0
1000000 1446 -2948 -2995 -471 0
1000000 45 -2063 -170 0
1000000 1447 -2063 -170 0
1000000 204 -2784 -321 0
1000000 1448 -2784 -321 0
1000000 261 -1860 -1975 -2236 0
1000000 1449 -1860 -1975 -2236 0
1000000 161 -2408 -203 0
1000000 1450 -2408 -203 0
1000000 7 -2240 -2598 -1727 0
1000000 1451 -2240 -2598 -1727 0
1000000 456 -1993 -1793 0
1000000 1452 -1993 -1793 0
1000000 276 -1921 -3074 -2514 0
1000000 1453 -1921 -3074 -2514 0
1000000 21 -2071 -3090 -3095 0
1000000 1454 -2071 -3090 -3095 0
1000000 386 -1869 -2425 0
1000000 1455 -1869 -2425 0
1000000 66 -2906 -2775 0
1000000 1456 -2906 -2775 0
1000000 252 -2911 -2087 -375 0
1000000 1457 -2911 -2087 -375 0
1000000 172 -2430 -1933 -2792 0
1000000 1458 -2430 -1933 -2792 0
1000000 65 -2411 -2531 0
1000000 1459 -2411 -2531 0
1000000 188 -3079 -321 0
1000000 1460 -3079 -321 0
1000000 315 -1915 -2076 0
1000000 1461 -1915 -2076 0
1000000 108 -2488 -2348 0
1000000 1462 -2488 -2348 0
1000000 260 -2102 -2982 -3147 0
1000000 1463 -2102 -2982 -3147 0
1000000 152 -2631 -431 0
1000000 1464 -2631 -431 0
1000000 229 -2073 -1894 -303 0
1000000 1465 -2073 -1894 -303 0
1000000 48 -2487 -1882 -3009 0
1000000 1466 -2487 -1882 -3009 0
1000000 194 -1730 -1775 -230 0
1000000 1467 -1730 -1775 -230 0
1000000 73 -2859 -320 0
1000000 1468 -2859 -320 0
1000000 468 -2896 -2205 -2862 0
1000000 1469 -2896 -2205 -2862 0
1000000 283 -2454 -2305 0
1000000 1470 -2454 -2305 0
1000000 146 -3053 -2521 -2170 0
1000000 1471 -3053 -2521 -2170 0
1000000 344 -2965 -2377 -2355 0
1000000 1472 -2965 -2377 -2355 0
1000000 67 -2980 -3031 -2666 0
1000000 1473 -2980 -3031 -2666 0
1000000 273 -1701 -2077 -2856 0
1000000 1474 -1701 -2077 -2856 0
1000000 292 -2954 -1772 -2825 0
1000000 1475 -2954 -1772 -2825 0
1000000 397 -2995 -1776 -451 0
1000000 1476 -2995 -1776 -451 0
1000000 282 -2387 -2437 0
1000000 1477 -2387 -2437 0
1000000 204 -2325 -1894 0
1000000 1478 -2325 -1894 0
1000000 376 -2944 -2926 -2420 0
1000000 1479 -2944 -2926 -2420 0
1000000 379 -2860 -2320 0
1000000 1480 -2860 -2320 0
1000000 475 -2747 -498 0
1000000 1481 -2747 -498 0
1000000 202 -1863 -2873 0
1000000 1482 -1863 -2873 0
1000000 57 -2595 -2054 0
1000000 1483 -2595 -2054 0
1000000 349 -2319 -2504 0
1000000 1484 -2319 -2504 0
1000000 175 -2330 -181 0
1000000 1485 -2330 -181 0
1000000 209 -1946 -3031 -2167 0
1000000 1486 -1946 -3031 -2167 0
1000000 62 -2990 -1883 -1732 0
1000000 1487 -2990 -1883 -1732 0
1000000 372 -2118 -2296 -1839 0
1000000 1488 -2118 -2296 -1839 0
1000000 226 -3098 -2816 -2805 0
1000000 1489 -3098 -2816 -2805 0
1000000 65 -2521 -3105 -336 0
1000000 1490 -2521 -3105 -336 0
1000000 236 -2260 -2489 0
1000000 1491 -2260 -2489 0
1000000 281 -2733 -2625 -2523 0
1000000 1492 -2733 -2625 -2523 0
1000000 489 -1936 -2917 -1835 0
1000000 1493 -1936 -2917 -1835 0
1000000 219 -3088 -2944 -1984 0
1000000 1494 -3088 -2944 -1984 0
1000000 421 -1926 -1982 -2866 0
1000000 1495 -1926 -1982 -2866 0
1000000 65 -2920 -2935 -3026 0
1000000 1496 -2920 -2935 -3026 0
1000000 78 -2836 -320 0
1000000 1497 -2836 -320 0
1000000 476 -3050 -2860 -1709 0
1000000 1498 -3050 -2860 -1709 0
1000000 83 -2454 -2058 0
1000000 1499 -2454 -2058 0
1000000 202 -2183 -1888 -3051 0
1000000 1500 -2183 -1888 -3051 0
1000000 88 -3148 -157 0
1000000 1501 -3148 -157 0
1000000 337 -2620 -3091 -2807 0
1000000 1502 -2620 -3091 -2807 0
1000000 75 -2763 -2416 0
1000000 1503 -2763 -2416 0
1000000 315 -2880 -326 0
1000000 1504 -2880 -326 0
1000000 446 -2501 -1914 -487 0
1000000 1505 -2501 -1914 -487 0
1000000 373 -2966 -2515 0
1000000 1506 -2966 -2515 0
1000000 205 -1977 -2021 -1709 0
1000000 1507 -1977 -2021 -1709 0
1000000 123 -1819 -1942 0
1000000 1508 -1819 -1942 0
1000000 44 -1914 -2653 -378 0
1000000 1509 -1914 -2653 -378 0
1000000 6 -3193 -2126 -1741 0
1000000 1510 -3193 -2126 -1741 0
1000000 465 -2230 -1920 0
1000000 1511 -2230 -1920 0
1000000 394 -2393 -2220 0
1000000 1512 -2393 -2220 0
1000000 328 -2342 -2026 -3158 0
1000000 1513 -2342 -2026 -3158 0
1000000 340 -2828 -2001 -1895 0
1000000 1514 -2828 -2001 -1895 0
1000000 21 -2808 -1979 0
1000000 1515 -2808 -1979 0
1000000 409 -2471 -1875 -3121 0
1000000 1516 -2471 -1875 -3121 0
1000000 172 -1781 -2411 0
1000000 1517 -1781 -2411 0
1000000 356 -3063 -2543 0
1000000 1518 -3063 -2543 0
1000000 97 -2177 -2755 -2413 0
1000000 1519 -2177 -2755 -2413 0
1000000 42 -2806 -2076 0
1000000 1520 -2806 -2076 0
1000000 190 -2259 -1847 -2258 0
1000000 1521 -2259 -1847 -2258 0
1000000 381 -1909 -383 0
1000000 1522 -1909 -383 0
1000000 472 -2747 -3015 0
1000000 1523 -2747 -3015 0
1000000 318 -2305 -2522 -336 0
1000000 1524 -2305 -2522 -336 0
1000000 114 -3097 -1860 0
1000000 1525 -3097 -1860 0
1000000 384 -2306 -473 0
1000000 1526 -2306 -473 0
1000000 153 -2348 -2015 -2555 0
1000000 1527 -2348 -2015 -2555 0
1000000 59 -2475 -2894 0
1000000 1528 -2475 -2894 0
1000000 205 -2425 -2160 -1818 0
1000000 1529 -2425 -2160 -1818 0
1000000 60 -3165 -2361 0
1000000 1530 -3165 -2361 0
1000000 406 -2702 -2431 -2889 0
1000000 1531 -2702 -2431 -2889 0
1000000 80 -3114 -1767 -2358 0
1000000 1532 -3114 -1767 -2358 0
1000000 12 -2986 -2494 0
1000000 1533 -2986 -2494 0
1000000 389 -2905 -452 0
1000000 1534 -2905 -452 0
1000000 262 -2011 -2594 0
1000000 1535 -2011 -2594 0
1000000 327 -2567 -1942 -2507 0
1000000 1536 -2567 -1942 -2507 0
1000000 218 -2129 -2480 -263 0
1000000 1537 -2129 -2480 -263 0
1000000 300 -3137 -3064 -304 0
1000000 1538 -3137 -3064 -304 0
1000000 426 -2024 -2509 0
1000000 1539 -2024 -2509 0
1000000 484 -2054 -2690 -496 0
1000000 1540 -2054 -2690 -496 0
1000000 91 -2959 -2164 -2166 0
1000000 1541 -2959 -2164 -2166 0
1000000 240 -1892 -3182 0
1000000 1542 -1892 -3182 0
1000000 14 -2349 -2988 0
1000000 1543 -2349 -2988 0
1000000 339 -2463 -2753 0
1000000 1544 -2463 -2753 0
1000000 51 -2190 -2002 -2783 0
1000000 1545 -2190 -2002 -2783 0
1000000 4 -2203 -2870 0
1000000 1546 -2203 -2870 0
1000000 270 -2119 -2509 -2040 0
1000000 1547 -2119 -2509 -2040 0
1000000 500 -2068 -2720 0
1000000 1548 -2068 -2720 0
1000000 74 -2118 -2523 -208 0
1000000 1549 -2118 -2523 -208 0
1000000 63 -3033 -2176 -1994 0
1000000 1550 -3033 -2176 -1994 0
1000000 240 -2229 -1913 -1906 0
1000000 1551 -2229 -1913 -1906 0
1000000 307 -2546 -2073 -2387 0
1000000 1552 -2546 -2073 -2387 0
1000000 474 -2142 -489 0
1000000 1553 -2142 -489 0
1000000 142 -2042 -2067 0
1000000 1554 -2042 -2067 0
1000000 29 -2985 -2118 0
1000000 1555 -2985 -2118 0
1000000 71 -2372 -1937 0
1000000 1556 -2372 -1937 0
1000000 497 -2164 -2024 -2775 0
1000000 1557 -2164 -2024 -2775 0
1000000 375 -2277 -1763 0
1000000 1558 -2277 -1763 0
1000000 37 -2375 -1917 0
1000000 1559 -2375 -1917 0
1000000 67 -2075 -1770 0
1000000 1560 -2075 -1770 0
1000000 414 -2341 -493 0
1000000 1561 -2341 -493 0
1000000 302 -3120 -3124 0
1000000 1562 -3120 -3124 0
1000000 136 -2385 -1819 -383 0
1000000 1563 -2385 -1819 -383 0
1000000 155 -2381 -2614 -2458 0
1000000 1564 -2381 -2614 -2458 0
1000000 224 -3051 -2258 -353 0
1000000 1565 -3051 -2258 -353 0
1000000 319 -2846 -1701 -2578 0
1000000 1566 -2846 -1701 -2578 0
1000000 380 -2553 -3127 -2518 0
1000000 1567 -2553 -3127 -2518 0
1000000 230 -1950 -3111 -454 0
1000000 1568 -1950 -3111 -454 0
1000000 11 -3167 -2903 0
1000000 1569 -3167 -2903 0
1000000 462 -1919 -3148 -2075 0
1000000 1570 -1919 -3148 -2075 0
1000000 97 -2282 -2014 0
1000000 1571 -2282 -2014 0
1000000 474 -2872 -496 0
1000000 1572 -2872 -496 0
1000000 361 -1918 -1935 -2708 0
1000000 1573 -1918 -1935 -2708 0
1000000 147 -2487 -2323 0
1000000 1574 -2487 -2323 0
1000000 226 -2910 -357 0
1000000 1575 -2910 -357 0
1000000 329 -1936 -1821 -2097 0
1000000 1576 -1936 -1821 -2097 0
1000000 306 -1938 -2389 0
1000000 1577 -1938 -2389 0
1000000 416 -2813 -2392 0
1000000 1578 -2813 -2392 0
1000000 100 -2144 -2665 -2376 0
1000000 1579 -2144 -2665 -2376 0
1000000 58 -2428 -1767 -2935 0
1000000 1580 -2428 -1767 -2935 0
1000000 146 -2235 -2864 0
1000000 1581 -2235 -2864 0
1000000 272 -2433 -3173 0
1000000 1582 -2433 -3173 0
1000000 116 -2821 -3030 -3186 0
1000000 1583 -2821 -3030 -3186 0
1000000 447 -1969 -1813 0
1000000 1584 -1969 -1813 0
1000000 133 -2217 -1914 0
1000000 1585 -2217 -1914 0
1000000 132 -2573 -2149 0
1000000 1586 -2573 -2149 0
1000000 327 -2703 -440 0
1000000 1587 -2703 -440 0
1000000 139 -3038 -1857 0
1000000 1588 -3038 -1857 0
1000000 202 -1795 -2069 0
1000000 1589 -1795 -2069 0
1000000 337 -1951 -2145 0
1000000 1590 -1951 -2145 0
1000000 331 -2495 -3018 0
1000000 1591 -2495 -3018 0
1000000 288 -1709 -2695 -474 0
1000000 1592 -1709 -2695 -474 0
1000000 213 -2634 -1969 0
1000000 1593 -2634 -1969 0
1000000 306 -2441 -2822 -493 0
1000000 1594 -2441 -2822 -493 0
1000000 22 -3191 -2766 0
1000000 1595 -3191 -2766 0
1000000 126 -2089 -1947 -2701 0
1000000 1596 -2089 -1947 -2701 0
1000000 460 -2455 -1959 -489 0
1000000 1597 -2455 -1959 -489 0
1000000 187 -3081 -3199 0
1000000 1598 -3081 -3199 0
1000000 345 -1964 -2812 -2575 0
1000000 1599 -1964 -2812 -2575 0
1000000 226 -3088 -2473 -3113 0
1000000 1600 -3088 -2473 -3113 0
1000000 290 -1934 -2373 -370 0
1000000 1601 -1934 -2373 -370 0
1000000 368 -2190 -2672 -1975 0
1000000 1602 -2190 -2672 -1975 0
1000000 398 -2026 -3156 0
1000000 1603 -2026 -3156 0
1000000 466 -2595 -2243 -2483 0
1000000 1604 -2595 -2243 -2483 0
1000000 352 -2990 -2287 0
1000000 1605 -2990 -2287 0
1000000 314 -2630 -2715 0
1000000 1606 -2630 -2715 0
1000000 87 -1923 -2070 0
1000000 1607 -1923 -2070 0
1000000 410 -1905 -2711 -1754 0
1000000 1608 -1905 -2711 -1754 0
1000000 198 -2475 -1856 -2010 0
1000000 1609 -2475 -1856 -2010 0
1000000 334 -1897 -2503 0
1000000 1610 -1897 -2503 0
1000000 318 -2621 -3118 -1770 0
1000000 1611 -2621 -3118 -1770 0
1000000 176 -2364 -2541 -245 0
1000000 1612 -2364 -2541 -245 0
1000000 41 -2869 -2772 -3169 0
1000000 1613 -2869 -2772 -3169 0
1000000 347 -2548 -1772 -2510 0
1000000 1614 -2548 -1772 -2510 0
1000000 220 -1897 -2381 0
1000000 1615 -1897 -2381 0
1000000 180 -2419 -2236 0
1000000 1616 -2419 -2236 0
1000000 354 -1822 -2731 0
1000000 1617 -1822 -2731 0
1000000 482 -1773 -2562 0
1000000 1618 -1773 -2562 0
1000000 429 -3005 -2202 -2085 0
1000000 1619 -3005 -2202 -2085 0
1000000 359 -2452 -458 0
1000000 1620 -2452 -458 0
1000000 99 -2324 -3125 0
1000000 1621 -2324 -3125 0
1000000 231 -2231 -2662 -3035 0
1000000 1622 -2231 -2662 -3035 0
1000000 343 -2126 -2613 -353 0
1000000 1623 -2126 -2613 -353 0
1000000 214 -2162 -2344 -293 0
1000000 1624 -2162 -2344 -293 0
1000000 435 -2611 -2432 0
1000000 1625 -2611 -2432 0
1000000 303 -2436 -3141 0
1000000 1626 -2436 -3141 0
1000000 34 -2011 -1881 -2095 0
1000000 1627 -2011 -1881 -2095 0
1000000 272 -1773 -3167 0
1000000 1628 -1773 -3167 0
1000000 216 -2226 -1865 0
1000000 1629 -2226 -1865 0
1000000 455 -2004 -2052 0
1000000 1630 -2004 -2052 0
1000000 351 -2050 -3063 -2355 0
1000000 1631 -2050 -3063 -2355 0
1000000 384 -2371 -2187 0
1000000 1632 -2371 -2187 0
1000000 210 -2355 -493 0
1000000 1633 -2355 -493 0
1000000 466 -1865 -493 0
1000000 1634 -1865 -493 0
1000000 79 -2608 -2277 0
1000000 1635 -2608 -2277 0
1000000 257 -2189 -2897 -499 0
1000000 1636 -2189 -2897 -499 0
1000000 238 -3093 -1891 0
1000000 1637 -3093 -1891 0
1000000 75 -2651 -2745 -275 0
1000000 1638 -2651 -2745 -275 0
1000000 330 -1907 -3018 -2639 0
1000000 1639 -1907 -3018 -2639 0
1000000 432 -2526 -2064 -2920 0
1000000 1640 -2526 -2064 -2920 0
1000000 117 -2322 -3127 -1882 0
1000000 1641 -2322 -3127 -1882 0
1000000 356 -1936 -3161 -2176 0
1000000 1642 -1936 -3161 -2176 0
1000000 374 -3044 -2395 -2643 0
1000000 1643 -3044 -2395 -2643 0
1000000 430 -2508 -2801 -2909 0
1000000 1644 -2508 -2801 -2909 0
1000000 129 -1998 -2797 -2044 0
1000000 1645 -1998 -2797 -2044 0
1000000 364 -2309 -3000 -2618 0
1000000 1646 -2309 -3000 -2618 0
1000000 114 -2328 -2523 0
1000000 1647 -2328 -2523 0
1000000 366 -3164 -2892 0
1000000 1648 -3164 -2892 0
1000000 356 -2567 -1810 -2212 0
1000000 1649 -2567 -1810 -2212 0
1000000 430 -1751 -2428 0
1000000 1650 -1751 -2428 0
1000000 416 -2719 -1907 -3028 0
1000000 1651 -2719 -1907 -3028 0
1000000 118 -2086 -2616 -2596 0
1000000 1652 -2086 -2616 -2596 0
1000000 388 -2998 -2196 0
1000000 1653 -2998 -2196 0
1000000 143 -2189 -1931 0
1000000 1654 -2189 -1931 0
1000000 75 -2636 -1785 -2104 0
1000000 1655 -2636 -1785 -2104 0
1000000 95 -2574 -2855 -1712 0
1000000 1656 -2574 -2855 -1712 0
1000000 479 -3051 -2420 -2106 0
1000000 1657 -3051 -2420 -2106 0
1000000 491 -1727 -2634 -2907 0
1000000 1658 -1727 -2634 -2907 0
1000000 185 -2504 -2582 0
1000000 1659 -2504 -2582 0
1000000 248 -1903 -2697 -396 0
1000000 1660 -1903 -2697 -396 0
1000000 277 -2513 -2500 -2948 0
1000000 1661 -2513 -2500 -2948 0
1000000 204 -3021 -3131 -256 0
1000000 1662 -3021 -3131 -256 0
1000000 112 -2751 -1987 -2414 0
1000000 1663 -2751 -1987 -2414 0
1000000 457 -2473 -1806 0
1000000 1664 -2473 -1806 0
1000000 43 -2739 -1777 -133 0
1000000 1665 -2739 -1777 -133 0
1000000 388 -3010 -2539 0
1000000 1666 -3010 -2539 0
1000000 454 -2553 -2107 -1732 0
1000000 1667 -2553 -2107 -1732 0
1000000 57 -2004 -1901 0
1000000 1668 -2004 -1901 0
1000000 224 -2789 -1791 0
1000000 1669 -2789 -1791 0
1000000 461 -2358 -498 0
1000000 1670 -2358 -498 0
1000000 208 -2825 -2151 -2376 0
1000000 1671 -2825 -2151 -2376 0
1000000 295 -2307 -1704 -2690 0
1000000 1672 -2307 -1704 -2690 0
1000000 389 -2085 -3114 -420 0
1000000 1673 -2085 -3114 -420 0
1000000 438 -3096 -2162 0
1000000 1674 -3096 -2162 0
1000000 221 -2939 -2364 0
1000000 1675 -2939 -2364 0
1000000 487 -2971 -2053 0
1000000 1676 -2971 -2053 0
1000000 111 -3025 -2290 0
1000000 1677 -3025 -2290 0
1000000 14 -2104 -2453 0
1000000 1678 -2104 -2453 0
1000000 93 -2087 -420 0
1000000 1679 -2087 -420 0
1000000 180 -2589 -2428 0
1000000 1680 -2589 -2428 0
1000000 415 -2090 -2942 -2531 0
1000000 1681 -2090 -2942 -2531 0
1000000 64 -2393 -2454 -1783 0
1000000 1682 -2393 -2454 -1783 0
1000000 403 -2833 -2562 -2198 0
1000000 1683 -2833 -2562 -2198 0
1000000 444 -2613 -1806 -459 0
1000000 1684 -2613 -1806 -459 0
1000000 394 -2594 -2530 0
1000000 1685 -2594 -2530 0
1000000 91 -2852 -2718 -3092 0
1000000 1686 -2852 -2718 -3092 0
1000000 26 -1978 -3187 -2390 0
1000000 1687 -1978 -3187 -2390 0
1000000 247 -1727 -375 0
1000000 1688 -1727 -375 0
1000000 463 -3106 -2251 0
1000000 1689 -3106 -2251 0
1000000 148 -2406 -2659 -2285 0
1000000 1690 -2406 -2659 -2285 0
1000000 29 -1822 -1804 0
1000000 1691 -1822 -1804 0
1000000 448 -3147 -1867 -2681 0
1000000 1692 -3147 -1867 -2681 0
1000000 166 -3174 -2472 -1969 0
1000000 1693 -3174 -2472 -1969 0
1000000 7 -3162 -2427 -2618 0
1000000 1694 -3162 -2427 -2618 0
1000000 51 -2264 -3077 -1828 0
1000000 1695 -2264 -3077 -1828 0
1000000 184 -2300 -3036 -1906 0
1000000 1696 -2300 -3036 -1906 0
1000000 68 -1987 -2073 -115 0
1000000 1697 -1987 -2073 -115 0
1000000 404 -2251 -2894 0
1000000 1698 -2251 -2894 0
1000000 218 -2673 -2075 0
1000000 1699 -2673 -2075 0
1000000 408 -2002 -1889 -1751 0
1000000 1700 -2002 -1889 -1751 0
1000000 1701 3866 0
1000000 1702 3229 0
1000000 1703 3784 0
1000000 1704 3545 0
1000000 1705 3446 0
1000000 1706 3436 0
1000000 1707 3243 0
1000000 1708 3915 0
1000000 1709 3313 0
1000000 1710 3907 0
1000000 1711 3296 0
1000000 1712 3914 0
1000000 1713 3879 0
1000000 1714 3845 0
1000000 1715 3836 0
1000000 1716 3788 0
1000000 1717 3532 0
1000000 1718 3219 0
1000000 1719 3482 0
1000000 1720 3483 0
1000000 1721 3245 0
1000000 1722 3423 0
1000000 1723 3944 0
1000000 1724 3370 0
1000000 1725 3448 0
1000000 1726 3904 0
1000000 1727 3407 0
1000000 1728 3591 0
1000000 1729 3277 0
1000000 1730 3904 0
1000000 1731 3573 0
1000000 1732 3269 0
1000000 1733 3324 0
1000000 1734 3930 0
1000000 1735 3527 0
1000000 1736 3851 0
1000000 1737 3528 0
1000000 1738 3502 0
1000000 1739 3234 0
1000000 1740 3623 0
1000000 1741 3642 0
1000000 1742 3612 0
1000000 1743 3222 0
1000000 1744 3912 0
1000000 1745 3871 0
1000000 1746 3919 0
1000000 1747 3723 0
1000000 1748 3248 0
1000000 1749 3514 0
1000000 1750 3258 0
1000000 1751 3464 0
1000000 1752 3312 0
1000000 1753 3539 0
1000000 1754 3649 0
1000000 1755 3230 0
1000000 1756 3403 0
1000000 1757 3554 0
1000000 1758 3840 0
1000000 1759 3838 0
1000000 1760 3290 0
1000000 1761 3427 0
1000000 1762 3838 0
1000000 1763 3320 0
1000000 1764 3647 0
1000000 1765 3628 0
1000000 1766 3638 0
1000000 1767 3272 0
1000000 1768 3365 0
1000000 1769 3273 0
1000000 1770 3737 0
1000000 1771 3473 0
1000000 1772 3715 0
1000000 1773 3359 0
1000000 1774 3221 0
1000000 1775 3281 0
1000000 1776 3875 0
1000000 1777 3321 0
1000000 1778 3472 0
1000000 1779 3458 0
1000000 1780 3611 0
1000000 1781 3708 0
1000000 1782 3214 0
1000000 1783 3921 0
1000000 1784 3541 0
1000000 1785 3899 0
1000000 1786 3599 0
1000000 1787 3584 0
1000000 1788 3530 0
1000000 1789 3241 0
1000000 1790 3380 0
1000000 1791 3265 0
1000000 1792 3808 0
1000000 1793 3387 0
1000000 1794 3814 0
1000000 1795 3297 0
1000000 1796 3279 0
1000000 1797 3395 0
1000000 1798 3928 0
1000000 1799 3366 0
1000000 1800 3623 0
1000000 1801 3946 0
1000000 1802 3767 0
1000000 1803 3581 0
1000000 1804 3555 0
1000000 1805 3208 0
1000000 1806 3386 0
1000000 1807 3612 0
1000000 1808 3896 0
1000000 1809 3926 0
1000000 1810 3708 0
1000000 1811 3465 0
1000000 1812 3336 0
1000000 1813 3276 0
1000000 1814 3948 0
1000000 1815 3610 0
1000000 1816 3682 0
1000000 1817 3252 0
1000000 1818 3758 0
1000000 1819 3227 0
1000000 1820 3281 0
1000000 1821 3294 0
1000000 1822 3833 0
1000000 1823 3517 0
1000000 1824 3804 0
1000000 1825 3287 0
1000000 1826 3748 0
1000000 1827 3605 0
1000000 1828 3709 0
1000000 1829 3772 0
1000000 1830 3238 0
1000000 1831 3607 0
1000000 1832 3253 0
1000000 1833 3270 0
1000000 1834 3722 0
1000000 1835 3304 0
1000000 1836 3686 0
1000000 1837 3561 0
1000000 1838 3675 0
1000000 1839 3948 0
1000000 1840 3669 0
1000000 1841 3643 0
1000000 1842 3662 0
1000000 1843 3909 0
1000000 1844 3419 0
1000000 1845 3918 0
1000000 1846 3904 0
1000000 1847 3945 0
1000000 1848 3698 0
1000000 1849 3455 0
1000000 1850 3427 0
1000000 1851 3555 0
1000000 1852 3300 0
1000000 1853 3327 0
1000000 1854 3367 0
1000000 1855 3358 0
1000000 1856 3509 0
1000000 1857 3561 0
1000000 1858 3921 0
1000000 1859 3381 0
1000000 1860 3691 0
1000000 1861 3392 0
1000000 1862 3835 0
1000000 1863 3370 0
1000000 1864 3488 0
1000000 1865 3681 0
1000000 1866 3928 0
1000000 1867 3928 0
1000000 1868 3800 0
1000000 1869 3855 0
1000000 1870 3786 0
1000000 1871 3613 0
1000000 1872 3458 0
1000000 1873 3697 0
1000000 1874 3237 0
1000000 1875 3816 0
1000000 1876 3886 0
1000000 1877 3807 0
1000000 1878 3364 0
1000000 1879 3606 0
1000000 1880 3828 0
1000000 1881 3673 0
1000000 1882 3730 0
1000000 1883 3472 0
1000000 1884 3736 0
1000000 1885 3614 0
1000000 1886 3887 0
1000000 1887 3238 0
1000000 1888 3636 0
1000000 1889 3266 0
1000000 1890 3433 0
1000000 1891 3503 0
1000000 1892 3318 0
1000000 1893 3255 0
1000000 1894 3554 0
1000000 1895 3329 0
1000000 1896 3744 0
1000000 1897 3457 0
1000000 1898 3651 0
1000000 1899 3330 0
1000000 1900 3839 0
1000000 1901 3243 0
1000000 1902 3889 0
1000000 1903 3293 0
1000000 1904 3793 0
1000000 1905 3497 0
1000000 1906 3334 0
1000000 1907 3673 0
1000000 1908 3363 0
1000000 1909 3476 0
1000000 1910 3852 0
1000000 1911 3499 0
1000000 1912 3578 0
1000000 1913 3260 0
1000000 1914 3655 0
1000000 1915 3481 0
1000000 1916 3440 0
1000000 1917 3926 0
1000000 1918 3654 0
1000000 1919 3245 0
1000000 1920 3759 0
1000000 1921 3262 0
1000000 1922 3391 0
1000000 1923 3781 0
1000000 1924 3927 0
1000000 1925 3455 0
1000000 1926 3214 0
1000000 1927 3855 0
1000000 1928 3488 0
1000000 1929 3910 0
1000000 1930 3876 0
1000000 1931 3468 0
1000000 1932 3380 0
1000000 1933 3345 0
1000000 1934 3287 0
1000000 1935 3747 0
1000000 1936 3834 0
1000000 1937 3220 0
1000000 1938 3584 0
1000000 1939 3800 0
1000000 1940 3773 0
1000000 1941 3722 0
1000000 1942 3665 0
1000000 1943 3670 0
1000000 1944 3819 0
1000000 1945 3435 0
1000000 1946 3647 0
1000000 1947 3601 0
1000000 1948 3347 0
1000000 1949 3251 0
1000000 1950 3703 0
1000000 1951 3383 0
1000000 1952 3215 0
1000000 1953 3233 0
1000000 1954 3412 0
1000000 1955 3780 0
1000000 1956 3769 0
1000000 1957 3927 0
1000000 1958 3253 0
1000000 1959 3653 0
1000000 1960 3761 0
1000000 1961 3467 0
1000000 1962 3617 0
1000000 1963 3357 0
1000000 1964 3716 0
1000000 1965 3873 0
1000000 1966 3437 0
1000000 1967 3236 0
1000000 1968 3241 0
1000000 1969 3901 0
1000000 1970 3361 0
1000000 1971 3634 0
1000000 1972 3317 0
1000000 1973 3612 0
1000000 1974 3226 0
1000000 1975 3449 0
1000000 1976 3766 0
1000000 1977 3931 0
1000000 1978 3419 0
1000000 1979 3289 0
1000000 1980 3207 0
1000000 1981 3723 0
1000000 1982 3593 0
1000000 1983 3741 0
1000000 1984 3565 0
1000000 1985 3634 0
1000000 1986 3672 0
1000000 1987 3467 0
1000000 1988 3388 0
1000000 1989 3894 0
1000000 1990 3621 0
1000000 1991 3495 0
1000000 1992 3544 0
1000000 1993 3635 0
1000000 1994 3567 0
1000000 1995 3288 0
1000000 1996 3872 0
1000000 1997 3268 0
1000000 1998 3213 0
1000000 1999 3305 0
1000000 2000 3543 0
1000000 2001 3667 0
1000000 2002 3591 0
1000000 2003 3822 0
1000000 2004 3336 0
1000000 2005 3470 0
1000000 2006 3641 0
1000000 2007 3806 0
1000000 2008 3424 0
1000000 2009 3286 0
1000000 2010 3831 0
1000000 2011 3388 0
1000000 2012 3333 0
1000000 2013 3613 0
1000000 2014 3721 0
1000000 2015 3831 0
1000000 2016 3296 0
1000000 2017 3257 0
1000000 2018 3535 0
1000000 2019 3711 0
1000000 2020 3908 0
1000000 2021 3570 0
1000000 2022 3447 0
1000000 2023 3308 0
1000000 2024 3916 0
1000000 2025 3261 0
1000000 2026 3681 0
1000000 2027 3906 0
1000000 2028 3619 0
1000000 2029 3443 0
1000000 2030 3513 0
1000000 2031 3516 0
1000000 2032 3401 0
1000000 2033 3434 0
1000000 2034 3328 0
1000000 2035 3551 0
1000000 2036 3443 0
1000000 2037 3554 0
1000000 2038 3837 0
1000000 2039 3390 0
1000000 2040 3791 0
1000000 2041 3349 0
1000000 2042 3308 0
1000000 2043 3611 0
1000000 2044 3201 0
1000000 2045 3331 0
1000000 2046 3282 0
1000000 2047 3457 0
1000000 2048 3512 0
1000000 2049 3590 0
1000000 2050 3376 0
1000000 2051 3255 0
1000000 2052 3917 0
1000000 2053 3686 0
1000000 2054 3254 0
1000000 2055 3905 0
1000000 2056 3581 0
1000000 2057 3862 0
1000000 2058 3272 0
1000000 2059 3853 0
1000000 2060 3460 0
1000000 2061 3779 0
1000000 2062 3498 0
1000000 2063 3923 0
1000000 2064 3800 0
1000000 2065 3714 0
1000000 2066 3426 0
1000000 2067 3216 0
1000000 2068 3417 0
1000000 2069 3748 0
1000000 2070 3914 0
1000000 2071 3382 0
1000000 2072 3203 0
1000000 2073 3431 0
1000000 2074 3810 0
1000000 2075 3744 0
1000000 2076 3308 0
1000000 2077 3848 0
1000000 2078 3815 0
1000000 2079 3542 0
1000000 2080 3606 0
1000000 2081 3906 0
1000000 2082 3639 0
1000000 2083 3595 0
1000000 2084 3492 0
1000000 2085 3397 0
1000000 2086 3609 0
1000000 2087 3837 0
1000000 2088 3208 0
1000000 2089 3787 0
1000000 2090 3400 0
1000000 2091 3368 0
1000000 2092 3225 0
1000000 2093 3759 0
1000000 2094 3947 0
1000000 2095 3618 0
1000000 2096 3641 0
1000000 2097 3776 0
1000000 2098 3406 0
1000000 2099 3350 0
1000000 2100 3845 0
1000000 2101 3636 0
1000000 2102 3355 0
1000000 2103 3595 0
1000000 2104 3688 0
1000000 2105 3654 0
1000000 2106 3881 0
1000000 2107 3797 0
1000000 2108 3785 0
1000000 2109 3790 0
1000000 2110 3237 0
1000000 2111 3626 0
1000000 2112 3236 0
1000000 2113 3813 0
1000000 2114 3534 0
1000000 2115 3912 0
1000000 2116 3659 0
1000000 2117 3889 0
1000000 2118 3538 0
1000000 2119 3607 0
1000000 2120 3234 0
1000000 2121 3486 0
1000000 2122 3879 0
1000000 2123 3518 0
1000000 2124 3590 0
1000000 2125 3298 0
1000000 2126 3681 0
1000000 2127 3478 0
1000000 2128 3273 0
1000000 2129 3652 0
1000000 2130 3383 0
1000000 2131 3509 0
1000000 2132 3419 0
1000000 2133 3610 0
1000000 2134 3273 0
1000000 2135 3211 0
1000000 2136 3235 0
1000000 2137 3613 0
1000000 2138 3869 0
1000000 2139 3451 0
1000000 2140 3441 0
1000000 2141 3477 0
1000000 2142 3274 0
1000000 2143 3842 0
1000000 2144 3416 0
1000000 2145 3247 0
1000000 2146 3701 0
1000000 2147 3467 0
1000000 2148 3323 0
1000000 2149 3827 0
1000000 2150 3471 0
1000000 2151 3585 0
1000000 2152 3479 0
1000000 2153 3781 0
1000000 2154 3577 0
1000000 2155 3676 0
1000000 2156 3803 0
1000000 2157 3212 0
1000000 2158 3947 0
1000000 2159 3683 0
1000000 2160 3858 0
1000000 2161 3322 0
1000000 2162 3853 0
1000000 2163 3861 0
1000000 2164 3590 0
1000000 2165 3369 0
1000000 2166 3811 0
1000000 2167 3796 0
1000000 2168 3896 0
1000000 2169 3473 0
1000000 2170 3935 0
1000000 2171 3343 0
1000000 2172 3557 0
1000000 2173 3209 0
1000000 2174 3941 0
1000000 2175 3666 0
1000000 2176 3838 0
1000000 2177 3799 0
1000000 2178 3896 0
1000000 2179 3526 0
1000000 2180 3846 0
1000000 2181 3487 0
1000000 2182 3583 0
1000000 2183 3720 0
1000000 2184 3802 0
1000000 2185 3242 0
1000000 2186 3861 0
1000000 2187 3734 0
1000000 2188 3256 0
1000000 2189 3264 0
1000000 2190 3511 0
1000000 2191 3911 0
1000000 2192 3213 0
1000000 2193 3639 0
1000000 2194 3755 0
1000000 2195 3322 0
1000000 2196 3546 0
1000000 2197 3705 0
1000000 2198 3551 0
1000000 2199 3812 0
1000000 2200 3761 0
1000000 2201 3559 0
1000000 2202 3932 0
1000000 2203 3657 0
1000000 2204 3792 0
1000000 2205 3500 0
1000000 2206 3859 0
1000000 2207 3210 0
1000000 2208 3433 0
1000000 2209 3706 0
1000000 2210 3939 0
1000000 2211 3948 0
1000000 2212 3482 0
1000000 2213 3519 0
1000000 2214 3384 0
1000000 2215 3839 0
1000000 2216 3540 0
1000000 2217 3852 0
1000000 2218 3850 0
1000000 2219 3268 0
1000000 2220 3912 0
1000000 2221 3436 0
1000000 2222 3565 0
1000000 2223 3463 0
1000000 2224 3429 0
1000000 2225 3597 0
1000000 2226 3739 0
1000000 2227 3280 0
1000000 2228 3461 0
1000000 2229 3924 0
1000000 2230 3413 0
1000000 2231 3303 0
1000000 2232 3351 0
1000000 2233 3732 0
1000000 2234 3284 0
1000000 2235 3714 0
1000000 2236 3506 0
1000000 2237 3352 0
1000000 2238 3862 0
1000000 2239 3627 0
1000000 2240 3447 0
1000000 2241 3722 0
1000000 2242 3358 0
1000000 2243 3390 0
1000000 2244 3946 0
1000000 2245 3746 0
1000000 2246 3819 0
1000000 2247 3362 0
1000000 2248 3438 0
1000000 2249 3348 0
1000000 2250 3616 0
1000000 2251 3917 0
1000000 2252 3596 0
1000000 2253 3365 0
1000000 2254 3715 0
1000000 2255 3637 0
1000000 2256 3754 0
1000000 2257 3811 0
1000000 2258 3381 0
1000000 2259 3640 0
1000000 2260 3866 0
1000000 2261 3608 0
1000000 2262 3931 0
1000000 2263 3529 0
1000000 2264 3385 0
1000000 2265 3330 0
1000000 2266 3516 0
1000000 2267 3340 0
1000000 2268 3920 0
1000000 2269 3218 0
1000000 2270 3230 0
1000000 2271 3645 0
1000000 2272 3507 0
1000000 2273 3524 0
1000000 2274 3482 0
1000000 2275 3540 0
1000000 2276 3942 0
1000000 2277 3346 0
1000000 2278 3837 0
1000000 2279 3314 0
1000000 2280 3365 0
1000000 2281 3935 0
1000000 2282 3201 0
1000000 2283 3675 0
1000000 2284 3408 0
1000000 2285 3431 0
1000000 2286 3380 0
1000000 2287 3226 0
1000000 2288 3771 0
1000000 2289 3618 0
1000000 2290 3531 0
1000000 2291 3438 0
1000000 2292 3291 0
1000000 2293 3632 0
1000000 2294 3911 0
1000000 2295 3417 0
1000000 2296 3312 0
1000000 2297 3529 0
1000000 2298 3339 0
1000000 2299 3533 0
1000000 2300 3600 0
1000000 2301 3628 0
1000000 2302 3492 0
1000000 2303 3534 0
1000000 2304 3430 0
1000000 2305 3448 0
1000000 2306 3805 0
1000000 2307 3212 0
1000000 2308 3464 0
1000000 2309 3604 0
1000000 2310 3675 0
1000000 2311 3469 0
1000000 2312 3809 0
1000000 2313 3628 0
1000000 2314 3205 0
1000000 2315 3863 0
1000000 2316 3556 0
1000000 2317 3753 0
1000000 2318 3830 0
1000000 2319 3739 0
1000000 2320 3594 0
1000000 2321 3486 0
1000000 2322 3490 0
1000000 2323 3356 0
1000000 2324 3827 0
1000000 2325 3411 0
1000000 2326 3317 0
1000000 2327 3614 0
1000000 2328 3787 0
1000000 2329 3342 0
1000000 2330 3735 0
1000000 2331 3457 0
1000000 2332 3782 0
1000000 2333 3878 0
1000000 2334 3796 0
1000000 2335 3511 0
1000000 2336 3718 0
1000000 2337 3913 0
1000000 2338 3275 0
1000000 2339 3290 0
1000000 2340 3798 0
1000000 2341 3818 0
1000000 2342 3698 0
1000000 2343 3663 0
1000000 2344 3711 0
1000000 2345 3635 0
1000000 2346 3262 0
1000000 2347 3874 0
1000000 2348 3218 0
1000000 2349 3245 0
1000000 2350 3372 0
1000000 2351 3686 0
1000000 2352 3231 0
1000000 2353 3789 0
1000000 2354 3396 0
1000000 2355 3647 0
1000000 2356 3508 0
1000000 2357 3770 0
1000000 2358 3740 0
1000000 2359 3392 0
1000000 2360 3283 0
1000000 2361 3263 0
1000000 2362 3513 0
1000000 2363 3720 0
1000000 2364 3336 0
1000000 2365 3337 0
1000000 2366 3387 0
1000000 2367 3579 0
1000000 2368 3315 0
1000000 2369 3460 0
1000000 2370 3660 0
1000000 2371 3741 0
1000000 2372 3622 0
1000000 2373 3773 0
1000000 2374 3277 0
1000000 2375 3644 0
1000000 2376 3793 0
1000000 2377 3685 0
1000000 2378 3848 0
1000000 2379 3736 0
1000000 2380 3216 0
1000000 2381 3752 0
1000000 2382 3661 0
1000000 2383 3521 0
1000000 2384 3742 0
1000000 2385 3270 0
1000000 2386 3450 0
1000000 2387 3525 0
1000000 2388 3707 0
1000000 2389 3528 0
1000000 2390 3624 0
1000000 2391 3463 0
1000000 2392 3446 0
1000000 2393 3823 0
1000000 2394 3629 0
1000000 2395 3760 0
1000000 2396 3251 0
1000000 2397 3350 0
1000000 2398 3250 0
1000000 2399 3450 0
1000000 2400 3770 0
1000000 2401 3578 0
1000000 2402 3782 0
1000000 2403 3677 0
1000000 2404 3545 0
1000000 2405 3935 0
1000000 2406 3768 0
1000000 2407 3254 0
1000000 2408 3783 0
1000000 2409 3705 0
1000000 2410 3520 0
1000000 2411 3911 0
1000000 2412 3873 0
1000000 2413 3729 0
1000000 2414 3239 0
1000000 2415 3870 0
1000000 2416 3730 0
1000000 2417 3235 0
1000000 2418 3900 0
1000000 2419 3231 0
1000000 2420 3422 0
1000000 2421 3751 0
1000000 2422 3563 0
1000000 2423 3890 0
1000000 2424 3860 0
1000000 2425 3423 0
1000000 2426 3364 0
1000000 2427 3942 0
1000000 2428 3378 0
1000000 2429 3732 0
1000000 2430 3217 0
1000000 2431 3804 0
1000000 2432 3346 0
1000000 2433 3724 0
1000000 2434 3536 0
1000000 2435 3247 0
1000000 2436 3270 0
1000000 2437 3643 0
1000000 2438 3745 0
1000000 2439 3874 0
1000000 2440 3278 0
1000000 2441 3826 0
1000000 2442 3552 0
1000000 2443 3515 0
1000000 2444 3873 0
1000000 2445 3940 0
1000000 2446 3597 0
1000000 2447 3646 0
1000000 2448 3865 0
1000000 2449 3810 0
1000000 2450 3774 0
1000000 2451 3916 0
1000000 2452 3517 0
1000000 2453 3372 0
1000000 2454 3480 0
1000000 2455 3546 0
1000000 2456 3401 0
1000000 2457 3684 0
1000000 2458 3431 0
1000000 2459 3893 0
1000000 2460 3225 0
1000000 2461 3470 0
1000000 2462 3830 0
1000000 2463 3846 0
1000000 2464 3631 0
1000000 2465 3677 0
1000000 2466 3224 0
1000000 2467 3274 0
1000000 2468 3440 0
1000000 2469 3895 0
1000000 2470 3343 0
1000000 2471 3582 0
1000000 2472 3286 0
1000000 2473 3870 0
1000000 2474 3240 0
1000000 2475 3564 0
1000000 2476 3375 0
1000000 2477 3572 0
1000000 2478 3536 0
1000000 2479 3385 0
1000000 2480 3603 0
1000000 2481 3849 0
1000000 2482 3496 0
1000000 2483 3418 0
1000000 2484 3924 0
1000000 2485 3839 0
1000000 2486 3444 0
1000000 2487 3332 0
1000000 2488 3893 0
1000000 2489 3925 0
1000000 2490 3742 0
1000000 2491 3589 0
1000000 2492 3857 0
1000000 2493 3349 0
1000000 2494 3574 0
1000000 2495 3726 0
1000000 2496 3403 0
1000000 2497 3489 0
1000000 2498 3318 0
1000000 2499 3650 0
1000000 2500 3511 0
1000000 2501 3562 0
1000000 2502 3434 0
1000000 2503 3934 0
1000000 2504 3787 0
1000000 2505 3353 0
1000000 2506 3678 0
1000000 2507 3454 0
1000000 2508 3311 0
1000000 2509 3444 0
1000000 2510 3347 0
1000000 2511 3889 0
1000000 2512 3374 0
1000000 2513 3632 0
1000000 2514 3360 0
1000000 2515 3769 0
1000000 2516 3548 0
1000000 2517 3347 0
1000000 2518 3543 0
1000000 2519 3202 0
1000000 2520 3642 0
1000000 2521 3682 0
1000000 2522 3219 0
1000000 2523 3702 0
1000000 2524 3751 0
1000000 2525 3799 0
1000000 2526 3661 0
1000000 2527 3275 0
1000000 2528 3872 0
1000000 2529 3499 0
1000000 2530 3847 0
1000000 2531 3280 0
1000000 2532 3378 0
1000000 2533 3214 0
1000000 2534 3342 0
1000000 2535 3564 0
1000000 2536 3459 0
1000000 2537 3860 0
1000000 2538 3907 0
1000000 2539 3561 0
1000000 2540 3594 0
1000000 2541 3484 0
1000000 2542 3835 0
1000000 2543 3514 0
1000000 2544 3608 0
1000000 2545 3566 0
1000000 2546 3258 0
1000000 2547 3731 0
1000000 2548 3738 0
1000000 2549 3694 0
1000000 2550 3435 0
1000000 2551 3817 0
1000000 2552 3261 0
1000000 2553 3437 0
1000000 2554 3402 0
1000000 2555 3265 0
1000000 2556 3733 0
1000000 2557 3949 0
1000000 2558 3220 0
1000000 2559 3544 0
1000000 2560 3537 0
1000000 2561 3558 0
1000000 2562 3619 0
1000000 2563 3250 0
1000000 2564 3864 0
1000000 2565 3379 0
1000000 2566 3325 0
1000000 2567 3725 0
1000000 2568 3630 0
1000000 2569 3306 0
1000000 2570 3468 0
1000000 2571 3247 0
1000000 2572 3452 0
1000000 2573 3346 0
1000000 2574 3842 0
1000000 2575 3566 0
1000000 2576 3528 0
1000000 2577 3533 0
1000000 2578 3580 0
1000000 2579 3809 0
1000000 2580 3514 0
1000000 2581 3601 0
1000000 2582 3785 0
1000000 2583 3844 0
1000000 2584 3696 0
1000000 2585 3216 0
1000000 2586 3680 0
1000000 2587 3239 0
1000000 2588 3301 0
1000000 2589 3685 0
1000000 2590 3519 0
1000000 2591 3427 0
1000000 2592 3267 0
1000000 2593 3933 0
1000000 2594 3217 0
1000000 2595 3432 0
1000000 2596 3761 0
1000000 2597 3279 0
1000000 2598 3261 0
1000000 2599 3394 0
1000000 2600 3576 0
1000000 2601 3824 0
1000000 2602 3255 0
1000000 2603 3656 0
1000000 2604 3773 0
1000000 2605 3526 0
1000000 2606 3902 0
1000000 2607 3672 0
1000000 2608 3669 0
1000000 2609 3389 0
1000000 2610 3436 0
1000000 2611 3898 0
1000000 2612 3558 0
1000000 2613 3299 0
1000000 2614 3858 0
1000000 2615 3539 0
1000000 2616 3522 0
1000000 2617 3455 0
1000000 2618 3584 0
1000000 2619 3898 0
1000000 2620 3388 0
1000000 2621 3529 0
1000000 2622 3887 0
1000000 2623 3638 0
1000000 2624 3475 0
1000000 2625 3697 0
1000000 2626 3641 0
1000000 2627 3548 0
1000000 2628 3464 0
1000000 2629 3384 0
1000000 2630 3414 0
1000000 2631 3460 0
1000000 2632 3785 0
1000000 2633 3544 0
1000000 2634 3253 0
1000000 2635 3605 0
1000000 2636 3657 0
1000000 2637 3491 0
1000000 2638 3669 0
1000000 2639 3867 0
1000000 2640 3571 0
1000000 2641 3804 0
1000000 2642 3411 0
1000000 2643 3359 0
1000000 2644 3396 0
1000000 2645 3389 0
1000000 2646 3668 0
1000000 2647 3843 0
1000000 2648 3530 0
1000000 2649 3897 0
1000000 2650 3713 0
1000000 2651 3888 0
1000000 2652 3420 0
1000000 2653 3941 0
1000000 2654 3637 0
1000000 2655 3727 0
1000000 2656 3630 0
1000000 2657 3688 0
1000000 2658 3694 0
1000000 2659 3586 0
1000000 2660 3204 0
1000000 2661 3620 0
1000000 2662 3860 0
1000000 2663 3530 0
1000000 2664 3650 0
1000000 2665 3763 0
1000000 2666 3829 0
1000000 2667 3888 0
1000000 2668 3786 0
1000000 2669 3485 0
1000000 2670 3856 0
1000000 2671 3516 0
1000000 2672 3582 0
1000000 2673 3354 0
1000000 2674 3501 0
1000000 2675 3237 0
1000000 2676 3679 0
1000000 2677 3351 0
1000000 2678 3899 0
1000000 2679 3543 0
1000000 2680 3729 0
1000000 2681 3545 0
1000000 2682 3848 0
1000000 2683 3549 0
1000000 2684 3341 0
1000000 2685 3829 0
1000000 2686 3936 0
1000000 2687 3366 0
1000000 2688 3307 0
1000000 2689 3816 0
1000000 2690 3542 0
1000000 2691 3894 0
1000000 2692 3239 0
1000000 2693 3849 0
1000000 2694 3275 0
1000000 2695 3700 0
1000000 2696 3661 0
1000000 2697 3796 0
1000000 2698 3648 0
1000000 2699 3505 0
1000000 2700 3678 0
1000000 2701 3280 0
1000000 2702 3938 0
1000000 2703 3476 0
1000000 2704 3630 0
1000000 2705 3814 0
1000000 2706 3238 0
1000000 2707 3494 0
1000000 2708 3257 0
1000000 2709 3206 0
1000000 2710 3521 0
1000000 2711 3757 0
1000000 2712 3395 0
1000000 2713 3717 0
1000000 2714 3704 0
1000000 2715 3652 0
1000000 2716 3756 0
1000000 2717 3580 0
1000000 2718 3278 0
1000000 2719 3202 0
1000000 2720 3466 0
1000000 2721 3392 0
1000000 2722 3212 0
1000000 2723 3852 0
1000000 2724 3355 0
1000000 2725 3517 0
1000000 2726 3847 0
1000000 2727 3341 0
1000000 2728 3805 0
1000000 2729 3588 0
1000000 2730 3538 0
1000000 2731 3413 0
1000000 2732 3246 0
1000000 2733 3825 0
1000000 2734 3240 0
1000000 2735 3649 0
1000000 2736 3394 0
1000000 2737 3882 0
1000000 2738 3891 0
1000000 2739 3298 0
1000000 2740 3497 0
1000000 2741 3210 0
1000000 2742 3835 0
1000000 2743 3916 0
1000000 2744 3316 0
1000000 2745 3390 0
1000000 2746 3225 0
1000000 2747 3428 0
1000000 2748 3359 0
1000000 2749 3699 0
1000000 2750 3312 0
1000000 2751 3743 0
1000000 2752 3563 0
1000000 2753 3679 0
1000000 2754 3319 0
1000000 2755 3771 0
1000000 2756 3549 0
1000000 2757 3748 0
1000000 2758 3646 0
1000000 2759 3636 0
1000000 2760 3246 0
1000000 2761 3572 0
1000000 2762 3825 0
1000000 2763 3622 0
1000000 2764 3609 0
1000000 2765 3219 0
1000000 2766 3923 0
1000000 2767 3309 0
1000000 2768 3626 0
1000000 2769 3719 0
1000000 2770 3342 0
1000000 2771 3428 0
1000000 2772 3940 0
1000000 2773 3607 0
1000000 2774 3854 0
1000000 2775 3327 0
1000000 2776 3350 0
1000000 2777 3592 0
1000000 2778 3266 0
1000000 2779 3775 0
1000000 2780 3373 0
1000000 2781 3906 0
1000000 2782 3734 0
1000000 2783 3504 0
1000000 2784 3515 0
1000000 2785 3203 0
1000000 2786 3674 0
1000000 2787 3645 0
1000000 2788 3335 0
1000000 2789 3556 0
1000000 2790 3420 0
1000000 2791 3512 0
1000000 2792 3484 0
1000000 2793 3257 0
1000000 2794 3651 0
1000000 2795 3626 0
1000000 2796 3203 0
1000000 2797 3248 0
1000000 2798 3285 0
1000000 2799 3520 0
1000000 2800 3271 0
1000000 2801 3211 0
1000000 2802 3777 0
1000000 2803 3728 0
1000000 2804 3399 0
1000000 2805 3730 0
1000000 2806 3594 0
1000000 2807 3456 0
1000000 2808 3615 0
1000000 2809 3865 0
1000000 2810 3668 0
1000000 2811 3582 0
1000000 2812 3820 0
1000000 2813 3377 0
1000000 2814 3279 0
1000000 2815 3315 0
1000000 2816 3371 0
1000000 2817 3265 0
1000000 2818 3453 0
1000000 2819 3286 0
1000000 2820 3224 0
1000000 2821 3777 0
1000000 2822 3430 0
1000000 2823 3387 0
1000000 2824 3580 0
1000000 2825 3858 0
1000000 2826 3364 0
1000000 2827 3573 0
1000000 2828 3602 0
1000000 2829 3674 0
1000000 2830 3932 0
1000000 2831 3903 0
1000000 2832 3302 0
1000000 2833 3644 0
1000000 2834 3927 0
1000000 2835 3922 0
1000000 2836 3708 0
1000000 2837 3578 0
1000000 2838 3222 0
1000000 2839 3256 0
1000000 2840 3680 0
1000000 2841 3947 0
1000000 2842 3445 0
1000000 2843 3776 0
1000000 2844 3718 0
1000000 2845 3660 0
1000000 2846 3625 0
1000000 2847 3337 0
1000000 2848 3587 0
1000000 2849 3338 0
1000000 2850 3881 0
1000000 2851 3587 0
1000000 2852 3740 0
1000000 2853 3206 0
1000000 2854 3243 0
1000000 2855 3498 0
1000000 2856 3259 0
1000000 2857 3724 0
1000000 2858 3910 0
1000000 2859 3725 0
1000000 2860 3386 0
1000000 2861 3653 0
1000000 2862 3920 0
1000000 2863 3404 0
1000000 2864 3553 0
1000000 2865 3892 0
1000000 2866 3409 0
1000000 2867 3442 0
1000000 2868 3422 0
1000000 2869 3233 0
1000000 2870 3885 0
1000000 2871 3418 0
1000000 2872 3849 0
1000000 2873 3395 0
1000000 2874 3536 0
1000000 2875 3437 0
1000000 2876 3913 0
1000000 2877 3567 0
1000000 2878 3234 0
1000000 2879 3518 0
1000000 2880 3360 0
1000000 2881 3506 0
1000000 2882 3474 0
1000000 2883 3819 0
1000000 2884 3883 0
1000000 2885 3606 0
1000000 2886 3689 0
1000000 2887 3393 0
1000000 2888 3319 0
1000000 2889 3575 0
1000000 2890 3374 0
1000000 2891 3795 0
1000000 2892 3297 0
1000000 2893 3909 0
1000000 2894 3627 0
1000000 2895 3905 0
1000000 2896 3349 0
1000000 2897 3322 0
1000000 2898 3555 0
1000000 2899 3710 0
1000000 2900 3303 0
1000000 2901 3714 0
1000000 2902 3690 0
1000000 2903 3260 0
1000000 2904 3907 0
1000000 2905 3407 0
1000000 2906 3357 0
1000000 2907 3850 0
1000000 2908 3473 0
1000000 2909 3367 0
1000000 2910 3345 0
1000000 2911 3821 0
1000000 2912 3420 0
1000000 2913 3501 0
1000000 2914 3285 0
1000000 2915 3344 0
1000000 2916 3756 0
1000000 2917 3400 0
1000000 2918 3572 0
1000000 2919 3285 0
1000000 2920 3266 0
1000000 2921 3694 0
1000000 2922 3489 0
1000000 2923 3602 0
1000000 2924 3941 0
1000000 2925 3764 0
1000000 2926 3510 0
1000000 2927 3801 0
1000000 2928 3306 0
1000000 2929 3496 0
1000000 2930 3822 0
1000000 2931 3774 0
1000000 2932 3854 0
1000000 2933 3832 0
1000000 2934 3376 0
1000000 2935 3670 0
1000000 2936 3557 0
1000000 2937 3884 0
1000000 2938 3508 0
1000000 2939 3360 0
1000000 2940 3693 0
1000000 2941 3371 0
1000000 2942 3767 0
1000000 2943 3910 0
1000000 2944 3648 0
1000000 2945 3888 0
1000000 2946 3950 0
1000000 2947 3775 0
1000000 2948 3893 0
1000000 2949 3386 0
1000000 2950 3213 0
1000000 2951 3292 0
1000000 2952 3504 0
1000000 2953 3600 0
1000000 2954 3278 0
1000000 2955 3866 0
1000000 2956 3863 0
1000000 2957 3556 0
1000000 2958 3328 0
1000000 2959 3793 0
1000000 2960 3375 0
1000000 2961 3502 0
1000000 2962 3779 0
1000000 2963 3209 0
1000000 2964 3264 0
1000000 2965 3791 0
1000000 2966 3679 0
1000000 2967 3817 0
1000000 2968 3425 0
1000000 2969 3724 0
1000000 2970 3764 0
1000000 2971 3574 0
1000000 2972 3824 0
1000000 2973 3861 0
1000000 2974 3635 0
1000000 2975 3693 0
1000000 2976 3521 0
1000000 2977 3892 0
1000000 2978 3809 0
1000000 2979 3862 0
1000000 2980 3917 0
1000000 2981 3937 0
1000000 2982 3634 0
1000000 2983 3810 0
1000000 2984 3207 0
1000000 2985 3539 0
1000000 2986 3621 0
1000000 2987 3447 0
1000000 2988 3358 0
1000000 2989 3223 0
1000000 2990 3519 0
1000000 2991 3882 0
1000000 2992 3569 0
1000000 2993 3577 0
1000000 2994 3789 0
1000000 2995 3759 0
1000000 2996 3767 0
1000000 2997 3433 0
1000000 2998 3403 0
1000000 2999 3249 0
1000000 3000 3486 0
1000000 3001 3945 0
1000000 3002 3488 0
1000000 3003 3333 0
1000000 3004 3441 0
1000000 3005 3749 0
1000000 3006 3943 0
1000000 3007 3798 0
1000000 3008 3534 0
1000000 3009 3688 0
1000000 3010 3410 0
1000000 3011 3493 0
1000000 3012 3618 0
1000000 3013 3537 0
1000000 3014 3246 0
1000000 3015 3331 0
1000000 3016 3258 0
1000000 3017 3209 0
1000000 3018 3850 0
1000000 3019 3653 0
1000000 3020 3712 0
1000000 3021 3503 0
1000000 3022 3318 0
1000000 3023 3619 0
1000000 3024 3307 0
1000000 3025 3537 0
1000000 3026 3908 0
1000000 3027 3269 0
1000000 3028 3599 0
1000000 3029 3924 0
1000000 3030 3512 0
1000000 3031 3723 0
1000000 3032 3402 0
1000000 3033 3742 0
1000000 3034 3859 0
1000000 3035 3614 0
1000000 3036 3323 0
1000000 3037 3254 0
1000000 3038 3327 0
1000000 3039 3633 0
1000000 3040 3408 0
1000000 3041 3415 0
1000000 3042 3501 0
1000000 3043 3496 0
1000000 3044 3371 0
1000000 3045 3553 0
1000000 3046 3743 0
1000000 3047 3310 0
1000000 3048 3713 0
1000000 3049 3242 0
1000000 3050 3668 0
1000000 3051 3643 0
1000000 3052 3282 0
1000000 3053 3692 0
1000000 3054 3548 0
1000000 3055 3244 0
1000000 3056 3351 0
1000000 3057 3617 0
1000000 3058 3260 0
1000000 3059 3731 0
1000000 3060 3880 0
1000000 3061 3717 0
1000000 3062 3207 0
1000000 3063 3470 0
1000000 3064 3324 0
1000000 3065 3826 0
1000000 3066 3289 0
1000000 3067 3462 0
1000000 3068 3591 0
1000000 3069 3439 0
1000000 3070 3666 0
1000000 3071 3830 0
1000000 3072 3597 0
1000000 3073 3622 0
1000000 3074 3217 0
1000000 3075 3292 0
1000000 3076 3452 0
1000000 3077 3772 0
1000000 3078 3937 0
1000000 3079 3574 0
1000000 3080 3778 0
1000000 3081 3472 0
1000000 3082 3919 0
1000000 3083 3401 0
1000000 3084 3398 0
1000000 3085 3374 0
1000000 3086 3746 0
1000000 3087 3321 0
1000000 3088 3950 0
1000000 3089 3343 0
1000000 3090 3289 0
1000000 3091 3815 0
1000000 3092 3664 0
1000000 3093 3494 0
1000000 3094 3645 0
1000000 3095 3475 0
1000000 3096 3440 0
1000000 3097 3560 0
1000000 3098 3527 0
1000000 3099 3799 0
1000000 3100 3762 0
1000000 3101 3749 0
1000000 3102 3792 0
1000000 3103 3825 0
1000000 3104 3750 0
1000000 3105 3551 0
1000000 3106 3503 0
1000000 3107 3756 0
1000000 3108 3509 0
1000000 3109 3227 0
1000000 3110 3398 0
1000000 3111 3326 0
1000000 3112 3815 0
1000000 3113 3700 0
1000000 3114 3299 0
1000000 3115 3232 0
1000000 3116 3867 0
1000000 3117 3901 0
1000000 3118 3596 0
1000000 3119 3671 0
1000000 3120 3211 0
1000000 3121 3803 0
1000000 3122 3296 0
1000000 3123 3831 0
1000000 3124 3476 0
1000000 3125 3405 0
1000000 3126 3764 0
1000000 3127 3620 0
1000000 3128 3695 0
1000000 3129 3569 0
1000000 3130 3869 0
1000000 3131 3877 0
1000000 3132 3421 0
1000000 3133 3926 0
1000000 3134 3832 0
1000000 3135 3659 0
1000000 3136 3598 0
1000000 3137 3801 0
1000000 3138 3379 0
1000000 3139 3696 0
1000000 3140 3765 0
1000000 3141 3631 0
1000000 3142 3782 0
1000000 3143 3752 0
1000000 3144 3547 0
1000000 3145 3729 0
1000000 3146 3774 0
1000000 3147 3792 0
1000000 3148 3367 0
1000000 3149 3754 0
1000000 3150 3256 0
1000000 3151 3295 0
1000000 3152 3575 0
1000000 3153 3703 0
1000000 3154 3208 0
1000000 3155 3872 0
1000000 3156 3442 0
1000000 3157 3228 0
1000000 3158 3721 0
1000000 3159 3379 0
1000000 3160 3901 0
1000000 3161 3479 0
1000000 3162 3841 0
1000000 3163 3585 0
1000000 3164 3550 0
1000000 3165 3703 0
1000000 3166 3354 0
1000000 3167 3523 0
1000000 3168 3657 0
1000000 3169 3603 0
1000000 3170 3405 0
1000000 3171 3930 0
1000000 3172 3293 0
1000000 3173 3781 0
1000000 3174 3396 0
1000000 3175 3847 0
1000000 3176 3658 0
1000000 3177 3762 0
1000000 3178 3719 0
1000000 3179 3786 0
1000000 3180 3601 0
1000000 3181 3854 0
1000000 3182 3575 0
1000000 3183 3381 0
1000000 3184 3731 0
1000000 3185 3373 0
1000000 3186 3908 0
1000000 3187 3899 0
1000000 3188 3568 0
1000000 3189 3205 0
1000000 3190 3749 0
1000000 3191 3687 0
1000000 3192 3868 0
1000000 3193 3663 0
1000000 3194 3656 0
1000000 3195 3728 0
1000000 3196 3929 0
1000000 3197 3794 0
1000000 3198 3640 0
1000000 3199 3700 0
1000000 3200 3650 0
1000000 -1701 -3866 0
1000000 -1702 -3229 0
1000000 -1703 -3784 0
1000000 -1704 -3545 0
1000000 -1705 -3446 0
1000000 -1706 -3436 0
1000000 -1707 -3243 0
1000000 -1708 -3915 0
1000000 -1709 -3313 0
1000000 -1710 -3907 0
1000000 -1711 -3296 0
1000000 -1712 -3914 0
1000000 -1713 -3879 0
1000000 -1714 -3845 0
1000000 -1715 -3836 0
1000000 -1716 -3788 0
1000000 -1717 -3532 0
1000000 -1718 -3219 0
1000000 -1719 -3482 0
1000000 -1720 -3483 0
1000000 -1721 -3245 0
1000000 -1722 -3423 0
1000000 -1723 -3944 0
1000000 -1724 -3370 0
1000000 -1725 -3448 0
1000000 -1726 -3904 0
1000000 -1727 -3407 0
1000000 -1728 -3591 0
1000000 -1729 -3277 0
1000000 -1730 -3904 0
1000000 -1731 -3573 0
1000000 -1732 -3269 0
1000000 -1733 -3324 0
1000000 -1734 -3930 0
1000000 -1735 -3527 0
1000000 -1736 -3851 0
1000000 -1737 -3528 0
1000000 -1738 -3502 0
1000000 -1739 -3234 0
1000000 -1740 -3623 0
1000000 -1741 -3642 0
1000000 -1742 -3612 0
1000000 -1743 -3222 0
1000000 -1744 -3912 0
1000000 -1745 -3871 0
1000000 -1746 -3919 0
1000000 -1747 -3723 0
1000000 -1748 -3248 0
1000000 -1749 -3514 0
1000000 -1750 -3258 0
1000000 -1751 -3464 0
1000000 -1752 -3312 0
1000000 -1753 -3539 0
1000000 -1754 -3649 0
1000000 -1755 -3230 0
1000000 -1756 -3403 0
1000000 -1757 -3554 0
1000000 -1758 -3840 0
1000000 -1759 -3838 0
1000000 -1760 -3290 0
1000000 -1761 -3427 0
1000000 -1762 -3838 0
1000000 -1763 -3320 0
1000000 -1764 -3647 0
1000000 -1765 -3628 0
1000000 -1766 -3638 0
1000000 -1767 -3272 0
1000000 -1768 -3365 0
1000000 -1769 -3273 0
1000000 -1770 -3737 0
1000000 -1771 -3473 0
1000000 -1772 -3715 0
1000000 -1773 -3359 0
1000000 -1774 -3221 0
1000000 -1775 -3281 0
1000000 -1776 -3875 0
1000000 -1777 -3321 0
1000000 -1778 -3472 0
1000000 -1779 -3458 0
1000000 -1780 -3611 0
1000000 -1781 -3708 0
1000000 -1782 -3214 0
1000000 -1783 -3921 0
1000000 -1784 -3541 0
1000000 -1785 -3899 0
1000000 -1786 -3599 0
1000000 -1787 -3584 0
1000000 -1788 -3530 0
1000000 -1789 -3241 0
1000000 -1790 -3380 0
1000000 -1791 -3265 0
1000000 -1792 -3808 0
1000000 -1793 -3387 0
1000000 -1794 -3814 0
1000000 -1795 -3297 0
1000000 -1796 -3279 0
1000000 -1797 -3395 0
1000000 -1798 -3928 0
1000000 -1799 -3366 0
1000000 -1800 -3623 0
1000000 -1801 -3946 0
1000000 -1802 -3767 0
1000000 -1803 -3581 0
1000000 -1804 -3555 0
1000000 -1805 -3208 0
1000000 -1806 -3386 0
1000000 -1807 -3612 0
1000000 -1808 -3896 0
1000000 -1809 -3926 0
1000000 -1810 -3708 0
1000000 -1811 -3465 0
1000000 -1812 -3336 0
1000000 -1813 -3276 0
1000000 -1814 -3948 0
1000000 -1815 -3610 0
1000000 -1816 -3682 0
1000000 -1817 -3252 0
1000000 -1818 -3758 0
1000000 -1819 -3227 0
1000000 -1820 -3281 0
1000000 -1821 -3294 0
1000000 -1822 -3833 0
1000000 -1823 -3517 0
1000000 -1824 -3804 0
1000000 -1825 -3287 0
1000000 -1826 -3748 0
1000000 -1827 -3605 0
1000000 -1828 -3709 0
1000000 -1829 -3772 0
1000000 -1830 -3238 0
1000000 -1831 -3607 0
1000000 -1832 -3253 0
1000000 -1833 -3270 0
1000000 -1834 -3722 0
1000000 -1835 -3304 0
1000000 -1836 -3686 0
1000000 -1837 -3561 0
1000000 -1838 -3675 0
1000000 -1839 -3948 0
1000000 -1840 -3669 0
1000000 -1841 -3643 0
1000000 -1842 -3662 0
1000000 -1843 -3909 0
1000000 -1844 -3419 0
1000000 -1845 -3918 0
1000000 -1846 -3904 0
1000000 -1847 -3945 0
1000000 -1848 -3698 0
1000000 -1849 -3455 0
1000000 -1850 -3427 0
1000000 -1851 -3555 0
1000000 -1852 -3300 0
1000000 -1853 -3327 0
1000000 -1854 -3367 0
1000000 -1855 -3358 0
1000000 -1856 -3509 0
1000000 -1857 -3561 0
1000000 -1858 -3921 0
1000000 -1859 -3381 0
1000000 -1860 -3691 0
1000000 -1861 -3392 0
1000000 -1862 -3835 0
1000000 -1863 -3370 0
1000000 -1864 -3488 0
1000000 -1865 -3681 0
1000000 -1866 -3928 0
1000000 -1867 -3928 0
1000000 -1868 -3800 0
1000000 -1869 -3855 0
1000000 -1870 -3786 0
1000000 -1871 -3613 0
1000000 -1872 -3458 0
1000000 -1873 -3697 0
1000000 -1874 -3237 0
1000000 -1875 -3816 0
1000000 -1876 -3886 0
1000000 -1877 -3807 0
1000000 -1878 -3364 0
1000000 -1879 -3606 0
1000000 -1880 -3828 0
1000000 -1881 -3673 0
1000000 -1882 -3730 0
1000000 -1883 -3472 0
1000000 -1884 -3736 0
1000000 -1885 -3614 0
1000000 -1886 -3887 0
1000000 -1887 -3238 0
1000000 -1888 -3636 0
1000000 -1889 -3266 0
1000000 -1890 -3433 0
1000000 -1891 -3503 0
1000000 -1892 -3318 0
1000000 -1893 -3255 0
1000000 -1894 -3554 0
1000000 -1895 -3329 0
1000000 -1896 -3744 0
1000000 -1897 -3457 0
1000000 -1898 -3651 0
1000000 -1899 -3330 0
1000000 -1900 -3839 0
1000000 -1901 -3243 0
1000000 -1902 -3889 0
1000000 -1903 -3293 0
1000000 -1904 -3793 0
1000000 -1905 -3497 0
1000000 -1906 -3334 0
1000000 -1907 -3673 0
1000000 -1908 -3363 0
1000000 -1909 -3476 0
1000000 -1910 -3852 0
1000000 -1911 -3499 0
1000000 -1912 -3578 0
1000000 -1913 -3260 0
1000000 -1914 -3655 0
1000000 -1915 -3481 0
1000000 -1916 -3440 0
1000000 -1917 -3926 0
1000000 -1918 -3654 0
1000000 -1919 -3245 0
1000000 -1920 -3759 0
1000000 -1921 -3262 0
1000000 -1922 -3391 0
1000000 -1923 -3781 0
1000000 -1924 -3927 0
1000000 -1925 -3455 0
1000000 -1926 -3214 0
1000000 -1927 -3855 0
1000000 -1928 -3488 0
1000000 -1929 -3910 0
1000000 -1930 -3876 0
1000000 -1931 -3468 0
1000000 -1932 -3380 0
1000000 -1933 -3345 0
1000000 -1934 -3287 0
1000000 -1935 -3747 0
1000000 -1936 -3834 0
1000000 -1937 -3220 0
1000000 -1938 -3584 0
1000000 -1939 -3800 0
1000000 -1940 -3773 0
1000000 -1941 -3722 0
1000000 -1942 -3665 0
1000000 -1943 -3670 0
1000000 -1944 -3819 0
1000000 -1945 -3435 0
1000000 -1946 -3647 0
1000000 -1947 -3601 0
1000000 -1948 -3347 0
1000000 -1949 -3251 0
1000000 -1950 -3703 0
1000000 -1951 -3383 0
1000000 -1952 -3215 0
1000000 -1953 -3233 0
1000000 -1954 -3412 0
1000000 -1955 -3780 0
1000000 -1956 -3769 0
1000000 -1957 -3927 0
1000000 -1958 -3253 0
1000000 -1959 -3653 0
1000000 -1960 -3761 0
1000000 -1961 -3467 0
1000000 -1962 -3617 0
1000000 -1963 -3357 0
1000000 -1964 -3716 0
1000000 -1965 -3873 0
1000000 -1966 -3437 0
1000000 -1967 -3236 0
1000000 -1968 -3241 0
1000000 -1969 -3901 0
1000000 -1970 -3361 0
1000000 -1971 -3634 0
1000000 -1972 -3317 0
1000000 -1973 -3612 0
1000000 -1974 -3226 0
1000000 -1975 -3449 0
1000000 -1976 -3766 0
1000000 -1977 -3931 0
1000000 -1978 -3419 0
1000000 -1979 -3289 0
1000000 -1980 -3207 0
1000000 -1981 -3723 0
1000000 -1982 -3593 0
1000000 -1983 -3741 0
1000000 -1984 -3565 0
1000000 -1985 -3634 0
1000000 -1986 -3672 0
1000000 -1987 -3467 0
1000000 -1988 -3388 0
1000000 -1989 -3894 0
1000000 -1990 -3621 0
1000000 -1991 -3495 0
1000000 -1992 -3544 0
1000000 -1993 -3635 0
1000000 -1994 -3567 0
1000000 -1995 -3288 0
1000000 -1996 -3872 0
1000000 -1997 -3268 0
1000000 -1998 -3213 0
1000000 -1999 -3305 0
1000000 -2000 -3543 0
1000000 -2001 -3667 0
1000000 -2002 -3591 0
1000000 -2003 -3822 0
1000000 -2004 -3336 0
1000000 -2005 -3470 0
1000000 -2006 -3641 0
1000000 -2007 -3806 0
1000000 -2008 -3424 0
1000000 -2009 -3286 0
1000000 -2010 -3831 0
1000000 -2011 -3388 0
1000000 -2012 -3333 0
1000000 -2013 -3613 0
1000000 -2014 -3721 0
1000000 -2015 -3831 0
1000000 -2016 -3296 0
1000000 -2017 -3257 0
1000000 -2018 -3535 0
1000000 -2019 -3711 0
1000000 -2020 -3908 0
1000000 -2021 -3570 0
1000000 -2022 -3447 0
1000000 -2023 -3308 0
1000000 -2024 -3916 0
1000000 -2025 -3261 0
1000000 -2026 -3681 0
1000000 -2027 -3906 0
1000000 -2028 -3619 0
1000000 -2029 -3443 0
1000000 -2030 -3513 0
1000000 -2031 -3516 0
1000000 -2032 -3401 0
1000000 -2033 -3434 0
1000000 -2034 -3328 0
1000000 -2035 -3551 0
1000000 -2036 -3443 0
1000000 -2037 -3554 0
1000000 -2038 -3837 0
1000000 -2039 -3390 0
1000000 -2040 -3791 0
1000000 -2041 -3349 0
1000000 -2042 -3308 0
1000000 -2043 -3611 0
1000000 -2044 -3201 0
1000000 -2045 -3331 0
1000000 -2046 -3282 0
1000000 -2047 -3457 0
1000000 -2048 -3512 0
1000000 -2049 -3590 0
1000000 -2050 -3376 0
1000000 -2051 -3255 0
1000000 -2052 -3917 0
1000000 -2053 -3686 0
1000000 -2054 -3254 0
1000000 -2055 -3905 0
1000000 -2056 -3581 0
1000000 -2057 -3862 0
1000000 -2058 -3272 0
1000000 -2059 -3853 0
1000000 -2060 -3460 0
1000000 -2061 -3779 0
1000000 -2062 -3498 0
1000000 -2063 -3923 0
1000000 -2064 -3800 0
1000000 -2065 -3714 0
1000000 -2066 -3426 0
1000000 -2067 -3216 0
1000000 -2068 -3417 0
1000000 -2069 -3748 0
1000000 -2070 -3914 0
1000000 -2071 -3382 0
1000000 -2072 -3203 0
1000000 -2073 -3431 0
1000000 -2074 -3810 0
1000000 -2075 -3744 0
1000000 -2076 -3308 0
1000000 -2077 -3848 0
1000000 -2078 -3815 0
1000000 -2079 -3542 0
1000000 -2080 -3606 0
1000000 -2081 -3906 0
1000000 -2082 -3639 0
1000000 -2083 -3595 0
1000000 -2084 -3492 0
1000000 -2085 -3397 0
1000000 -2086 -3609 0
1000000 -2087 -3837 0
1000000 -2088 -3208 0
1000000 -2089 -3787 0
1000000 -2090 -3400 0
1000000 -2091 -3368 0
1000000 -2092 -3225 0
1000000 -2093 -3759 0
1000000 -2094 -3947 0
1000000 -2095 -3618 0
1000000 -2096 -3641 0
1000000 -2097 -3776 0
1000000 -2098 -3406 0
1000000 -2099 -3350 0
1000000 -2100 -3845 0
1000000 -2101 -3636 0
1000000 -2102 -3355 0
1000000 -2103 -3595 0
1000000 -2104 -3688 0
1000000 -2105 -3654 0
1000000 -2106 -3881 0
1000000 -2107 -3797 0
1000000 -2108 -3785 0
1000000 -2109 -3790 0
1000000 -2110 -3237 0
1000000 -2111 -3626 0
1000000 -2112 -3236 0
1000000 -2113 -3813 0
1000000 -2114 -3534 0
1000000 -2115 -3912 0
1000000 -2116 -3659 0
1000000 -2117 -3889 0
1000000 -2118 -3538 0
1000000 -2119 -3607 0
1000000 -2120 -3234 0
1000000 -2121 -3486 0
1000000 -2122 -3879 0
1000000 -2123 -3518 0
1000000 -2124 -3590 0
1000000 -2125 -3298 0
1000000 -2126 -3681 0
1000000 -2127 -3478 0
1000000 -2128 -3273 0
1000000 -2129 -3652 0
1000000 -2130 -3383 0
1000000 -2131 -3509 0
1000000 -2132 -3419 0
1000000 -2133 -3610 0
1000000 -2134 -3273 0
1000000 -2135 -3211 0
1000000 -2136 -3235 0
1000000 -2137 -3613 0
1000000 -2138 -3869 0
1000000 -2139 -3451 0
1000000 -2140 -3441 0
1000000 -2141 -3477 0
1000000 -2142 -3274 0
1000000 -2143 -3842 0
1000000 -2144 -3416 0
1000000 -2145 -3247 0
1000000 -2146 -3701 0
1000000 -2147 -3467 0
1000000 -2148 -3323 0
1000000 -2149 -3827 0
1000000 -2150 -3471 0
1000000 -2151 -3585 0
1000000 -2152 -3479 0
1000000 -2153 -3781 0
1000000 -2154 -3577 0
1000000 -2155 -3676 0
1000000 -2156 -3803 0
1000000 -2157 -3212 0
1000000 -2158 -3947 0
1000000 -2159 -3683 0
1000000 -2160 -3858 0
1000000 -2161 -3322 0
1000000 -2162 -3853 0
1000000 -2163 -3861 0
1000000 -2164 -3590 0
1000000 -2165 -3369 0
1000000 -2166 -3811 0
1000000 -2167 -3796 0
1000000 -2168 -3896 0
1000000 -2169 -3473 0
1000000 -2170 -3935 0
1000000 -2171 -3343 0
1000000 -2172 -3557 0
1000000 -2173 -3209 0
1000000 -2174 -3941 0
1000000 -2175 -3666 0
1000000 -2176 -3838 0
1000000 -2177 -3799 0
1000000 -2178 -3896 0
1000000 -2179 -3526 0
1000000 -2180 -3846 0
1000000 -2181 -3487 0
1000000 -2182 -3583 0
1000000 -2183 -3720 0
1000000 -2184 -3802 0
1000000 -2185 -3242 0
1000000 -2186 -3861 0
1000000 -2187 -3734 0
1000000 -2188 -3256 0
1000000 -2189 -3264 0
1000000 -2190 -3511 0
1000000 -2191 -3911 0
1000000 -2192 -3213 0
1000000 -2193 -3639 0
1000000 -2194 -3755 0
1000000 -2195 -3322 0
1000000 -2196 -3546 0
1000000 -2197 -3705 0
1000000 -2198 -3551 0
1000000 -2199 -3812 0
1000000 -2200 -3761 0
1000000 -2201 -3559 0
1000000 -2202 -3932 0
1000000 -2203 -3657 0
1000000 -2204 -3792 0
1000000 -2205 -3500 0
1000000 -2206 -3859 0
1000000 -2207 -3210 0
1000000 -2208 -3433 0
1000000 -2209 -3706 0
1000000 -2210 -3939 0
1000000 -2211 -3948 0
1000000 -2212 -3482 0
1000000 -2213 -3519 0
1000000 -2214 -3384 0
1000000 -2215 -3839 0
1000000 -2216 -3540 0
1000000 -2217 -3852 0
1000000 -2218 -3850 0
1000000 -2219 -3268 0
1000000 -2220 -3912 0
1000000 -2221 -3436 0
1000000 -2222 -3565 0
1000000 -2223 -3463 0
1000000 -2224 -3429 0
1000000 -2225 -3597 0
1000000 -2226 -3739 0
1000000 -2227 -3280 0
1000000 -2228 -3461 0
1000000 -2229 -3924 0
1000000 -2230 -3413 0
1000000 -2231 -3303 0
1000000 -2232 -3351 0
1000000 -2233 -3732 0
1000000 -2234 -3284 0
1000000 -2235 -3714 0
1000000 -2236 -3506 0
1000000 -2237 -3352 0
1000000 -2238 -3862 0
1000000 -2239 -3627 0
1000000 -2240 -3447 0
1000000 -2241 -3722 0
1000000 -2242 -3358 0
1000000 -2243 -3390 0
1000000 -2244 -3946 0
1000000 -2245 -3746 0
1000000 -2246 -3819 0
1000000 -2247 -3362 0
1000000 -2248 -3438 0
1000000 -2249 -3348 0
1000000 -2250 -3616 0
1000000 -2251 -3917 0
1000000 -2252 -3596 0
1000000 -2253 -3365 0
1000000 -2254 -3715 0
1000000 -2255 -3637 0
1000000 -2256 -3754 0
1000000 -2257 -3811 0
1000000 -2258 -3381 0
1000000 -2259 -3640 0
1000000 -2260 -3866 0
1000000 -2261 -3608 0
1000000 -2262 -3931 0
1000000 -2263 -3529 0
1000000 -2264 -3385 0
1000000 -2265 -3330 0
1000000 -2266 -3516 0
1000000 -2267 -3340 0
1000000 -2268 -3920 0
1000000 -2269 -3218 0
1000000 -2270 -3230 0
1000000 -2271 -3645 0
1000000 -2272 -3507 0
1000000 -2273 -3524 0
1000000 -2274 -3482 0
1000000 -2275 -3540 0
1000000 -2276 -3942 0
1000000 -2277 -3346 0
1000000 -2278 -3837 0
1000000 -2279 -3314 0
1000000 -2280 -3365 0
1000000 -2281 -3935 0
1000000 -2282 -3201 0
1000000 -2283 -3675 0
1000000 -2284 -3408 0
1000000 -2285 -3431 0
1000000 -2286 -3380 0
1000000 -2287 -3226 0
1000000 -2288 -3771 0
1000000 -2289 -3618 0
1000000 -2290 -3531 0
1000000 -2291 -3438 0
1000000 -2292 -3291 0
1000000 -2293 -3632 0
1000000 -2294 -3911 0
1000000 -2295 -3417 0
1000000 -2296 -3312 0
1000000 -2297 -3529 0
1000000 -2298 -3339 0
1000000 -2299 -3533 0
1000000 -2300 -3600 0
1000000 -2301 -3628 0
1000000 -2302 -3492 0
1000000 -2303 -3534 0
1000000 -2304 -3430 0
1000000 -2305 -3448 0
1000000 -2306 -3805 0
1000000 -2307 -3212 0
1000000 -2308 -3464 0
1000000 -2309 -3604 0
1000000 -2310 -3675 0
1000000 -2311 -3469 0
1000000 -2312 -3809 0
1000000 -2313 -3628 0
1000000 -2314 -3205 0
1000000 -2315 -3863 0
1000000 -2316 -3556 0
1000000 -2317 -3753 0
1000000 -2318 -3830 0
1000000 -2319 -3739 0
1000000 -2320 -3594 0
1000000 -2321 -3486 0
1000000 -2322 -3490 0
1000000 -2323 -3356 0
1000000 -2324 -3827 0
1000000 -2325 -3411 0
1000000 -2326 -3317 0
1000000 -2327 -3614 0
1000000 -2328 -3787 0
1000000 -2329 -3342 0
1000000 -2330 -3735 0
1000000 -2331 -3457 0
1000000 -2332 -3782 0
1000000 -2333 -3878 0
1000000 -2334 -3796 0
1000000 -2335 -3511 0
1000000 -2336 -3718 0
1000000 -2337 -3913 0
1000000 -2338 -3275 0
1000000 -2339 -3290 0
1000000 -2340 -3798 0
1000000 -2341 -3818 0
1000000 -2342 -3698 0
1000000 -2343 -3663 0
1000000 -2344 -3711 0
1000000 -2345 -3635 0
1000000 -2346 -3262 0
1000000 -2347 -3874 0
1000000 -2348 -3218 0
1000000 -2349 -3245 0
1000000 -2350 -3372 0
1000000 -2351 -3686 0
1000000 -2352 -3231 0
1000000 -2353 -3789 0
1000000 -2354 -3396 0
1000000 -2355 -3647 0
1000000 -2356 -3508 0
1000000 -2357 -3770 0
1000000 -2358 -3740 0
1000000 -2359 -3392 0
1000000 -2360 -3283 0
1000000 -2361 -3263 0
1000000 -2362 -3513 0
1000000 -2363 -3720 0
1000000 -2364 -3336 0
1000000 -2365 -3337 0
1000000 -2366 -3387 0
1000000 -2367 -3579 0
1000000 -2368 -3315 0
1000000 -2369 -3460 0
1000000 -2370 -3660 0
1000000 -2371 -3741 0
1000000 -2372 -3622 0
1000000 -2373 -3773 0
1000000 -2374 -3277 0
1000000 -2375 -3644 0
1000000 -2376 -3793 0
1000000 -2377 -3685 0
1000000 -2378 -3848 0
1000000 -2379 -3736 0
1000000 -2380 -3216 0
1000000 -2381 -3752 0
1000000 -2382 -3661 0
1000000 -2383 -3521 0
1000000 -2384 -3742 0
1000000 -2385 -3270 0
1000000 -2386 -3450 0
1000000 -2387 -3525 0
1000000 -2388 -3707 0
1000000 -2389 -3528 0
1000000 -2390 -3624 0
1000000 -2391 -3463 0
1000000 -2392 -3446 0
1000000 -2393 -3823 0
1000000 -2394 -3629 0
1000000 -2395 -3760 0
1000000 -2396 -3251 0
1000000 -2397 -3350 0
1000000 -2398 -3250 0
1000000 -2399 -3450 0
1000000 -2400 -3770 0
1000000 -2401 -3578 0
1000000 -2402 -3782 0
1000000 -2403 -3677 0
1000000 -2404 -3545 0
1000000 -2405 -3935 0
1000000 -2406 -3768 0
1000000 -2407 -3254 0
1000000 -2408 -3783 0
1000000 -2409 -3705 0
1000000 -2410 -3520 0
1000000 -2411 -3911 0
1000000 -2412 -3873 0
1000000 -2413 -3729 0
1000000 -2414 -3239 0
1000000 -2415 -3870 0
1000000 -2416 -3730 0
1000000 -2417 -3235 0
1000000 -2418 -3900 0
1000000 -2419 -3231 0
1000000 -2420 -3422 0
1000000 -2421 -3751 0
1000000 -2422 -3563 0
1000000 -2423 -3890 0
1000000 -2424 -3860 0
1000000 -2425 -3423 0
1000000 -2426 -3364 0
1000000 -2427 -3942 0
1000000 -2428 -3378 0
1000000 -2429 -3732 0
1000000 -2430 -3217 0
1000000 -2431 -3804 0
1000000 -2432 -3346 0
1000000 -2433 -3724 0
1000000 -2434 -3536 0
1000000 -2435 -3247 0
1000000 -2436 -3270 0
1000000 -2437 -3643 0
1000000 -2438 -3745 0
1000000 -2439 -3874 0
1000000 -2440 -3278 0
1000000 -2441 -3826 0
1000000 -2442 -3552 0
1000000 -2443 -3515 0
1000000 -2444 -3873 0
1000000 -2445 -3940 0
1000000 -2446 -3597 0
1000000 -2447 -3646 0
1000000 -2448 -3865 0
1000000 -2449 -3810 0
1000000 -2450 -3774 0
1000000 -2451 -3916 0
1000000 -2452 -3517 0
1000000 -2453 -3372 0
1000000 -2454 -3480 0
1000000 -2455 -3546 0
1000000 -2456 -3401 0
1000000 -2457 -3684 0
1000000 -2458 -3431 0
1000000 -2459 -3893 0
1000000 -2460 -3225 0
1000000 -2461 -3470 0
1000000 -2462 -3830 0
1000000 -2463 -3846 0
1000000 -2464 -3631 0
1000000 -2465 -3677 0
1000000 -2466 -3224 0
1000000 -2467 -3274 0
1000000 -2468 -3440 0
1000000 -2469 -3895 0
1000000 -2470 -3343 0
1000000 -2471 -3582 0
1000000 -2472 -3286 0
1000000 -2473 -3870 0
1000000 -2474 -3240 0
1000000 -2475 -3564 0
1000000 -2476 -3375 0
1000000 -2477 -3572 0
1000000 -2478 -3536 0
1000000 -2479 -3385 0
1000000 -2480 -3603 0
1000000 -2481 -3849 0
1000000 -2482 -3496 0
1000000 -2483 -3418 0
1000000 -2484 -3924 0
1000000 -2485 -3839 0
1000000 -2486 -3444 0
1000000 -2487 -3332 0
1000000 -2488 -3893 0
1000000 -2489 -3925 0
1000000 -2490 -3742 0
1000000 -2491 -3589 0
1000000 -2492 -3857 0
1000000 -2493 -3349 0
1000000 -2494 -3574 0
1000000 -2495 -3726 0
1000000 -2496 -3403 0
1000000 -2497 -3489 0
1000000 -2498 -3318 0
1000000 -2499 -3650 0
1000000 -2500 -3511 0
1000000 -2501 -3562 0
1000000 -2502 -3434 0
1000000 -2503 -3934 0
1000000 -2504 -3787 0
1000000 -2505 -3353 0
1000000 -2506 -3678 0
1000000 -2507 -3454 0
1000000 -2508 -3311 0
1000000 -2509 -3444 0
1000000 -2510 -3347 0
1000000 -2511 -3889 0
1000000 -2512 -3374 0
1000000 -2513 -3632 0
1000000 -2514 -3360 0
1000000 -2515 -3769 0
1000000 -2516 -3548 0
1000000 -2517 -3347 0
1000000 -2518 -3543 0
1000000 -2519 -3202 0
1000000 -2520 -3642 0
1000000 -2521 -3682 0
1000000 -2522 -3219 0
1000000 -2523 -3702 0
1000000 -2524 -3751 0
1000000 -2525 -3799 0
1000000 -2526 -3661 0
1000000 -2527 -3275 0
1000000 -2528 -3872 0
1000000 -2529 -3499 0
1000000 -2530 -3847 0
1000000 -2531 -3280 0
1000000 -2532 -3378 0
1000000 -2533 -3214 0
1000000 -2534 -3342 0
1000000 -2535 -3564 0
1000000 -2536 -3459 0
1000000 -2537 -3860 0
1000000 -2538 -3907 0
1000000 -2539 -3561 0
1000000 -2540 -3594 0
1000000 -2541 -3484 0
1000000 -2542 -3835 0
1000000 -2543 -3514 0
1000000 -2544 -3608 0
1000000 -2545 -3566 0
1000000 -2546 -3258 0
1000000 -2547 -3731 0
1000000 -2548 -3738 0
1000000 -2549 -3694 0
1000000 -2550 -3435 0
1000000 -2551 -3817 0
1000000 -2552 -3261 0
1000000 -2553 -3437 0
1000000 -2554 -3402 0
1000000 -2555 -3265 0
1000000 -2556 -3733 0
1000000 -2557 -3949 0
1000000 -2558 -3220 0
1000000 -2559 -3544 0
1000000 -2560 -3537 0
1000000 -2561 -3558 0
1000000 -2562 -3619 0
1000000 -2563 -3250 0
1000000 -2564 -3864 0
1000000 -2565 -3379 0
1000000 -2566 -3325 0
1000000 -2567 -3725 0
1000000 -2568 -3630 0
1000000 -2569 -3306 0
1000000 -2570 -3468 0
1000000 -2571 -3247 0
1000000 -2572 -3452 0
1000000 -2573 -3346 0
1000000 -2574 -3842 0
1000000 -2575 -3566 0
1000000 -2576 -3528 0
1000000 -2577 -3533 0
1000000 -2578 -3580 0
1000000 -2579 -3809 0
1000000 -2580 -3514 0
1000000 -2581 -3601 0
1000000 -2582 -3785 0
1000000 -2583 -3844 0
1000000 -2584 -3696 0
1000000 -2585 -3216 0
1000000 -2586 -3680 0
1000000 -2587 -3239 0
1000000 -2588 -3301 0
1000000 -2589 -3685 0
1000000 -2590 -3519 0
1000000 -2591 -3427 0
1000000 -2592 -3267 0
1000000 -2593 -3933 0
1000000 -2594 -3217 0
1000000 -2595 -3432 0
1000000 -2596 -3761 0
1000000 -2597 -3279 0
1000000 -2598 -3261 0
1000000 -2599 -3394 0
1000000 -2600 -3576 0
1000000 -2601 -3824 0
1000000 -2602 -3255 0
1000000 -2603 -3656 0
1000000 -2604 -3773 0
1000000 -2605 -3526 0
1000000 -2606 -3902 0
1000000 -2607 -3672 0
1000000 -2608 -3669 0
1000000 -2609 -3389 0
1000000 -2610 -3436 0
1000000 -2611 -3898 0
1000000 -2612 -3558 0
1000000 -2613 -3299 0
1000000 -2614 -3858 0
1000000 -2615 -3539 0
1000000 -2616 -3522 0
1000000 -2617 -3455 0
1000000 -2618 -3584 0
1000000 -2619 -3898 0
1000000 -2620 -3388 0
1000000 -2621 -3529 0
1000000 -2622 -3887 0
1000000 -2623 -3638 0
1000000 -2624 -3475 0
1000000 -2625 -3697 0
1000000 -2626 -3641 0
1000000 -2627 -3548 0
1000000 -2628 -3464 0
1000000 -2629 -3384 0
1000000 -2630 -3414 0
1000000 -2631 -3460 0
1000000 -2632 -3785 0
1000000 -2633 -3544 0
1000000 -2634 -3253 0
1000000 -2635 -3605 0
1000000 -2636 -3657 0
1000000 -2637 -3491 0
1000000 -2638 -3669 0
1000000 -2639 -3867 0
1000000 -2640 -3571 0
1000000 -2641 -3804 0
1000000 -2642 -3411 0
1000000 -2643 -3359 0
1000000 -2644 -3396 0
1000000 -2645 -3389 0
1000000 -2646 -3668 0
1000000 -2647 -3843 0
1000000 -2648 -3530 0
1000000 -2649 -3897 0
1000000 -2650 -3713 0
1000000 -2651 -3888 0
1000000 -2652 -3420 0
1000000 -2653 -3941 0
1000000 -2654 -3637 0
1000000 -2655 -3727 0
1000000 -2656 -3630 0
1000000 -2657 -3688 0
1000000 -2658 -3694 0
1000000 -2659 -3586 0
1000000 -2660 -3204 0
1000000 -2661 -3620 0
1000000 -2662 -3860 0
1000000 -2663 -3530 0
1000000 -2664 -3650 0
1000000 -2665 -3763 0
1000000 -2666 -3829 0
1000000 -2667 -3888 0
1000000 -2668 -3786 0
1000000 -2669 -3485 0
1000000 -2670 -3856 0
1000000 -2671 -3516 0
1000000 -2672 -3582 0
1000000 -2673 -3354 0
1000000 -2674 -3501 0
1000000 -2675 -3237 0
1000000 -2676 -3679 0
1000000 -2677 -3351 0
1000000 -2678 -3899 0
1000000 -2679 -3543 0
1000000 -2680 -3729 0
1000000 -2681 -3545 0
1000000 -2682 -3848 0
1000000 -2683 -3549 0
1000000 -2684 -3341 0
1000000 -2685 -3829 0
1000000 -2686 -3936 0
1000000 -2687 -3366 0
1000000 -2688 -3307 0
1000000 -2689 -3816 0
1000000 -2690 -3542 0
1000000 -2691 -3894 0
1000000 -2692 -3239 0
1000000 -2693 -3849 0
1000000 -2694 -3275 0
1000000 -2695 -3700 0
1000000 -2696 -3661 0
1000000 -2697 -3796 0
1000000 -2698 -3648 0
1000000 -2699 -3505 0
1000000 -2700 -3678 0
1000000 -2701 -3280 0
1000000 -2702 -3938 0
1000000 -2703 -3476 0
1000000 -2704 -3630 0
1000000 -2705 -3814 0
1000000 -2706 -3238 0
1000000 -2707 -3494 0
1000000 -2708 -3257 0
1000000 -2709 -3206 0
1000000 -2710 -3521 0
1000000 -2711 -3757 0
1000000 -2712 -3395 0
1000000 -2713 -3717 0
1000000 -2714 -3704 0
1000000 -2715 -3652 0
1000000 -2716 -3756 0
1000000 -2717 -3580 0
1000000 -2718 -3278 0
1000000 -2719 -3202 0
1000000 -2720 -3466 0
1000000 -2721 -3392 0
1000000 -2722 -3212 0
1000000 -2723 -3852 0
1000000 -2724 -3355 0
1000000 -2725 -3517 0
1000000 -2726 -3847 0
1000000 -2727 -3341 0
1000000 -2728 -3805 0
1000000 -2729 -3588 0
1000000 -2730 -3538 0
1000000 -2731 -3413 0
1000000 -2732 -3246 0
1000000 -2733 -3825 0
1000000 -2734 -3240 0
1000000 -2735 -3649 0
1000000 -2736 -3394 0
1000000 -2737 -3882 0
1000000 -2738 -3891 0
1000000 -2739 -3298 0
1000000 -2740 -3497 0
1000000 -2741 -3210 0
1000000 -2742 -3835 0
1000000 -2743 -3916 0
1000000 -2744 -3316 0
1000000 -2745 -3390 0
1000000 -2746 -3225 0
1000000 -2747 -3428 0
1000000 -2748 -3359 0
1000000 -2749 -3699 0
1000000 -2750 -3312 0
1000000 -2751 -3743 0
1000000 -2752 -3563 0
1000000 -2753 -3679 0
1000000 -2754 -3319 0
1000000 -2755 -3771 0
1000000 -2756 -3549 0
1000000 -2757 -3748 0
1000000 -2758 -3646 0
1000000 -2759 -3636 0
1000000 -2760 -3246 0
1000000 -2761 -3572 0
1000000 -2762 -3825 0
1000000 -2763 -3622 0
1000000 -2764 -3609 0
1000000 -2765 -3219 0
1000000 -2766 -3923 0
1000000 -2767 -3309 0
1000000 -2768 -3626 0
1000000 -2769 -3719 0
1000000 -2770 -3342 0
1000000 -2771 -3428 0
1000000 -2772 -3940 0
1000000 -2773 -3607 0
1000000 -2774 -3854 0
1000000 -2775 -3327 0
1000000 -2776 -3350 0
1000000 -2777 -3592 0
1000000 -2778 -3266 0
1000000 -2779 -3775 0
1000000 -2780 -3373 0
1000000 -2781 -3906 0
1000000 -2782 -3734 0
1000000 -2783 -3504 0
1000000 -2784 -3515 0
1000000 -2785 -3203 0
1000000 -2786 -3674 0
1000000 -2787 -3645 0
1000000 -2788 -3335 0
1000000 -2789 -3556 0
1000000 -2790 -3420 0
1000000 -2791 -3512 0
1000000 -2792 -3484 0
1000000 -2793 -3257 0
1000000 -2794 -3651 0
1000000 -2795 -3626 0
1000000 -2796 -3203 0
1000000 -2797 -3248 0
1000000 -2798 -3285 0
1000000 -2799 -3520 0
1000000 -2800 -3271 0
1000000 -2801 -3211 0
1000000 -2802 -3777 0
1000000 -2803 -3728 0
1000000 -2804 -3399 0
1000000 -2805 -3730 0
1000000 -2806 -3594 0
1000000 -2807 -3456 0
1000000 -2808 -3615 0
1000000 -2809 -3865 0
1000000 -2810 -3668 0
1000000 -2811 -3582 0
1000000 -2812 -3820 0
1000000 -2813 -3377 0
1000000 -2814 -3279 0
1000000 -2815 -3315 0
1000000 -2816 -3371 0
1000000 -2817 -3265 0
1000000 -2818 -3453 0
1000000 -2819 -3286 0
1000000 -2820 -3224 0
1000000 -2821 -3777 0
1000000 -2822 -3430 0
1000000 -2823 -3387 0
1000000 -2824 -3580 0
1000000 -2825 -3858 0
1000000 -2826 -3364 0
1000000 -2827 -3573 0
1000000 -2828 -3602 0
1000000 -2829 -3674 0
1000000 -2830 -3932 0
1000000 -2831 -3903 0
1000000 -2832 -3302 0
1000000 -2833 -3644 0
1000000 -2834 -3927 0
1000000 -2835 -3922 0
1000000 -2836 -3708 0
1000000 -2837 -3578 0
1000000 -2838 -3222 0
1000000 -2839 -3256 0
1000000 -2840 -3680 0
1000000 -2841 -3947 0
1000000 -2842 -3445 0
1000000 -2843 -3776 0
1000000 -2844 -3718 0
1000000 -2845 -3660 0
1000000 -2846 -3625 0
1000000 -2847 -3337 0
1000000 -2848 -3587 0
1000000 -2849 -3338 0
1000000 -2850 -3881 0
1000000 -2851 -3587 0
1000000 -2852 -3740 0
1000000 -2853 -3206 0
1000000 -2854 -3243 0
1000000 -2855 -3498 0
1000000 -2856 -3259 0
1000000 -2857 -3724 0
1000000 -2858 -3910 0
1000000 -2859 -3725 0
1000000 -2860 -3386 0
1000000 -2861 -3653 0
1000000 -2862 -3920 0
1000000 -2863 -3404 0
1000000 -2864 -3553 0
1000000 -2865 -3892 0
1000000 -2866 -3409 0
1000000 -2867 -3442 0
1000000 -2868 -3422 0
1000000 -2869 -3233 0
1000000 -2870 -3885 0
1000000 -2871 -3418 0
1000000 -2872 -3849 0
1000000 -2873 -3395 0
1000000 -2874 -3536 0
1000000 -2875 -3437 0
1000000 -2876 -3913 0
1000000 -2877 -3567 0
1000000 -2878 -3234 0
1000000 -2879 -3518 0
1000000 -2880 -3360 0
1000000 -2881 -3506 0
1000000 -2882 -3474 0
1000000 -2883 -3819 0
1000000 -2884 -3883 0
1000000 -2885 -3606 0
1000000 -2886 -3689 0
1000000 -2887 -3393 0
1000000 -2888 -3319 0
1000000 -2889 -3575 0
1000000 -2890 -3374 0
1000000 -2891 -3795 0
1000000 -2892 -3297 0
1000000 -2893 -3909 0
1000000 -2894 -3627 0
1000000 -2895 -3905 0
1000000 -2896 -3349 0
1000000 -2897 -3322 0
1000000 -2898 -3555 0
1000000 -2899 -3710 0
1000000 -2900 -3303 0
1000000 -2901 -3714 0
1000000 -2902 -3690 0
1000000 -2903 -3260 0
1000000 -2904 -3907 0
1000000 -2905 -3407 0
1000000 -2906 -3357 0
1000000 -2907 -3850 0
1000000 -2908 -3473 0
1000000 -2909 -3367 0
1000000 -2910 -3345 0
1000000 -2911 -3821 0
1000000 -2912 -3420 0
1000000 -2913 -3501 0
1000000 -2914 -3285 0
1000000 -2915 -3344 0
1000000 -2916 -3756 0
1000000 -2917 -3400 0
1000000 -2918 -3572 0
1000000 -2919 -3285 0
1000000 -2920 -3266 0
1000000 -2921 -3694 0
1000000 -2922 -3489 0
1000000 -2923 -3602 0
1000000 -2924 -3941 0
1000000 -2925 -3764 0
1000000 -2926 -3510 0
1000000 -2927 -3801 0
1000000 -2928 -3306 0
1000000 -2929 -3496 0
1000000 -2930 -3822 0
1000000 -2931 -3774 0
1000000 -2932 -3854 0
1000000 -2933 -3832 0
1000000 -2934 -3376 0
1000000 -2935 -3670 0
1000000 -2936 -3557 0
1000000 -2937 -3884 0
1000000 -2938 -3508 0
1000000 -2939 -3360 0
1000000 -2940 -3693 0
1000000 -2941 -3371 0
1000000 -2942 -3767 0
1000000 -2943 -3910 0
1000000 -2944 -3648 0
1000000 -2945 -3888 0
1000000 -2946 -3950 0
1000000 -2947 -3775 0
1000000 -2948 -3893 0
1000000 -2949 -3386 0
1000000 -2950 -3213 0
1000000 -2951 -3292 0
1000000 -2952 -3504 0
1000000 -2953 -3600 0
1000000 -2954 -3278 0
1000000 -2955 -3866 0
1000000 -2956 -3863 0
1000000 -2957 -3556 0
1000000 -2958 -3328 0
1000000 -2959 -3793 0
1000000 -2960 -3375 0
1000000 -2961 -3502 0
1000000 -2962 -3779 0
1000000 -2963 -3209 0
1000000 -2964 -3264 0
1000000 -2965 -3791 0
1000000 -2966 -3679 0
1000000 -2967 -3817 0
1000000 -2968 -3425 0
1000000 -2969 -3724 0
1000000 -2970 -3764 0
1000000 -2971 -3574 0
1000000 -2972 -3824 0
1000000 -2973 -3861 0
1000000 -2974 -3635 0
1000000 -2975 -3693 0
1000000 -2976 -3521 0
1000000 -2977 -3892 0
1000000 -2978 -3809 0
1000000 -2979 -3862 0
1000000 -2980 -3917 0
1000000 -2981 -3937 0
1000000 -2982 -3634 0
1000000 -2983 -3810 0
1000000 -2984 -3207 0
1000000 -2985 -3539 0
1000000 -2986 -3621 0
1000000 -2987 -3447 0
1000000 -2988 -3358 0
1000000 -2989 -3223 0
1000000 -2990 -3519 0
1000000 -2991 -3882 0
1000000 -2992 -3569 0
1000000 -2993 -3577 0
1000000 -2994 -3789 0
1000000 -2995 -3759 0
1000000 -2996 -3767 0
1000000 -2997 -3433 0
1000000 -2998 -3403 0
1000000 -2999 -3249 0
1000000 -3000 -3486 0
1000000 -3001 -3945 0
1000000 -3002 -3488 0
1000000 -3003 -3333 0
1000000 -3004 -3441 0
1000000 -3005 -3749 0
1000000 -3006 -3943 0
1000000 -3007 -3798 0
1000000 -3008 -3534 0
1000000 -3009 -3688 0
1000000 -3010 -3410 0
1000000 -3011 -3493 0
1000000 -3012 -3618 0
1000000 -3013 -3537 0
1000000 -3014 -3246 0
1000000 -3015 -3331 0
1000000 -3016 -3258 0
1000000 -3017 -3209 0
1000000 -3018 -3850 0
1000000 -3019 -3653 0
1000000 -3020 -3712 0
1000000 -3021 -3503 0
1000000 -3022 -3318 0
1000000 -3023 -3619 0
1000000 -3024 -3307 0
1000000 -3025 -3537 0
1000000 -3026 -3908 0
1000000 -3027 -3269 0
1000000 -3028 -3599 0
1000000 -3029 -3924 0
1000000 -3030 -3512 0
1000000 -3031 -3723 0
1000000 -3032 -3402 0
1000000 -3033 -3742 0
1000000 -3034 -3859 0
1000000 -3035 -3614 0
1000000 -3036 -3323 0
1000000 -3037 -3254 0
1000000 -3038 -3327 0
1000000 -3039 -3633 0
1000000 -3040 -3408 0
1000000 -3041 -3415 0
1000000 -3042 -3501 0
1000000 -3043 -3496 0
1000000 -3044 -3371 0
1000000 -3045 -3553 0
1000000 -3046 -3743 0
1000000 -3047 -3310 0
1000000 -3048 -3713 0
1000000 -3049 -3242 0
1000000 -3050 -3668 0
1000000 -3051 -3643 0
1000000 -3052 -3282 0
1000000 -3053 -3692 0
1000000 -3054 -3548 0
1000000 -3055 -3244 0
1000000 -3056 -3351 0
1000000 -3057 -3617 0
1000000 -3058 -3260 0
1000000 -3059 -3731 0
1000000 -3060 -3880 0
1000000 -3061 -3717 0
1000000 -3062 -3207 0
1000000 -3063 -3470 0
1000000 -3064 -3324 0
1000000 -3065 -3826 0
1000000 -3066 -3289 0
1000000 -3067 -3462 0
1000000 -3068 -3591 0
1000000 -3069 -3439 0
1000000 -3070 -3666 0
1000000 -3071 -3830 0
1000000 -3072 -3597 0
1000000 -3073 -3622 0
1000000 -3074 -3217 0
1000000 -3075 -3292 0
1000000 -3076 -3452 0
1000000 -3077 -3772 0
1000000 -3078 -3937 0
1000000 -3079 -3574 0
1000000 -3080 -3778 0
1000000 -3081 -3472 0
1000000 -3082 -3919 0
1000000 -3083 -3401 0
1000000 -3084 -3398 0
1000000 -3085 -3374 0
1000000 -3086 -3746 0
1000000 -3087 -3321 0
1000000 -3088 -3950 0
1000000 -3089 -3343 0
1000000 -3090 -3289 0
1000000 -3091 -3815 0
1000000 -3092 -3664 0
1000000 -3093 -3494 0
1000000 -3094 -3645 0
1000000 -3095 -3475 0
1000000 -3096 -3440 0
1000000 -3097 -3560 0
1000000 -3098 -3527 0
1000000 -3099 -3799 0
1000000 -3100 -3762 0
1000000 -3101 -3749 0
1000000 -3102 -3792 0
1000000 -3103 -3825 0
1000000 -3104 -3750 0
1000000 -3105 -3551 0
1000000 -3106 -3503 0
1000000 -3107 -3756 0
1000000 -3108 -3509 0
1000000 -3109 -3227 0
1000000 -3110 -3398 0
1000000 -3111 -3326 0
1000000 -3112 -3815 0
1000000 -3113 -3700 0
1000000 -3114 -3299 0
1000000 -3115 -3232 0
1000000 -3116 -3867 0
1000000 -3117 -3901 0
1000000 -3118 -3596 0
1000000 -3119 -3671 0
1000000 -3120 -3211 0
1000000 -3121 -3803 0
1000000 -3122 -3296 0
1000000 -3123 -3831 0
1000000 -3124 -3476 0
1000000 -3125 -3405 0
1000000 -3126 -3764 0
1000000 -3127 -3620 0
1000000 -3128 -3695 0
1000000 -3129 -3569 0
1000000 -3130 -3869 0
1000000 -3131 -3877 0
1000000 -3132 -3421 0
1000000 -3133 -3926 0
1000000 -3134 -3832 0
1000000 -3135 -3659 0
1000000 -3136 -3598 0
1000000 -3137 -3801 0
1000000 -3138 -3379 0
1000000 -3139 -3696 0
1000000 -3140 -3765 0
1000000 -3141 -3631 0
1000000 -3142 -3782 0
1000000 -3143 -3752 0
1000000 -3144 -3547 0
1000000 -3145 -3729 0
1000000 -3146 -3774 0
1000000 -3147 -3792 0
1000000 -3148 -3367 0
1000000 -3149 -3754 0
1000000 -3150 -3256 0
1000000 -3151 -3295 0
1000000 -3152 -3575 0
1000000 -3153 -3703 0
1000000 -3154 -3208 0
1000000 -3155 -3872 0
1000000 -3156 -3442 0
1000000 -3157 -3228 0
1000000 -3158 -3721 0
1000000 -3159 -3379 0
1000000 -3160 -3901 0
1000000 -3161 -3479 0
1000000 -3162 -3841 0
1000000 -3163 -3585 0
1000000 -3164 -3550 0
1000000 -3165 -3703 0
1000000 -3166 -3354 0
1000000 -3167 -3523 0
1000000 -3168 -3657 0
1000000 -3169 -3603 0
1000000 -3170 -3405 0
1000000 -3171 -3930 0
1000000 -3172 -3293 0
1000000 -3173 -3781 0
1000000 -3174 -3396 0
1000000 -3175 -3847 0
1000000 -3176 -3658 0
1000000 -3177 -3762 0
1000000 -3178 -3719 0
1000000 -3179 -3786 0
1000000 -3180 -3601 0
1000000 -3181 -3854 0
1000000 -3182 -3575 0
1000000 -3183 -3381 0
1000000 -3184 -3731 0
1000000 -3185 -3373 0
1000000 -3186 -3908 0
1000000 -3187 -3899 0
1000000 -3188 -3568 0
1000000 -3189 -3205 0
1000000 -3190 -3749 0
1000000 -3191 -3687 0
1000000 -3192 -3868 0
1000000 -3193 -3663 0
1000000 -3194 -3656 0
1000000 -3195 -3728 0
1000000 -3196 -3929 0
1000000 -3197 -3794 0
1000000 -3198 -3640 0
1000000 -3199 -3700 0
1000000 -3200 -3650 0
5100 -3201 0
5100 -3202 0
8700 -3203 0
5100 -3204 0
8700 -3205 0
5200 -3206 0
5100 -3207 0
7700 -3208 0
8700 -3209 0
5200 -3210 0
5500 -3211 0
5500 -3212 0
5500 -3213 0
8700 -3214 0
5100 -3215 0
8700 -3216 0
5500 -3217 0
5100 -3218 0
5200 -3219 0
5500 -3220 0
7700 -3221 0
5100 -3222 0
8700 -3223 0
8700 -3224 0
7700 -3225 0
8700 -3226 0
7700 -3227 0
5500 -3228 0
5500 -3229 0
8700 -3230 0
5100 -3231 0
8700 -3232 0
5500 -3233 0
5100 -3234 0
7700 -3235 0
5500 -3236 0
7700 -3237 0
5200 -3238 0
5100 -3239 0
5500 -3240 0
7700 -3241 0
7700 -3242 0
7700 -3243 0
8700 -3244 0
8700 -3245 0
5200 -3246 0
5200 -3247 0
7700 -3248 0
8700 -3249 0
5100 -3250 0
5100 -3251 0
7700 -3252 0
8700 -3253 0
5100 -3254 0
8700 -3255 0
5200 -3256 0
7700 -3257 0
7700 -3258 0
8700 -3259 0
8700 -3260 0
5500 -3261 0
5100 -3262 0
5200 -3263 0
5100 -3264 0
5500 -3265 0
8700 -3266 0
5100 -3267 0
7700 -3268 0
5100 -3269 0
8700 -3270 0
5100 -3271 0
5500 -3272 0
5200 -3273 0
8700 -3274 0
7700 -3275 0
5500 -3276 0
8700 -3277 0
7700 -3278 0
7700 -3279 0
8700 -3280 0
5500 -3281 0
7700 -3282 0
5200 -3283 0
5500 -3284 0
7700 -3285 0
8700 -3286 0
8700 -3287 0
5500 -3288 0
7700 -3289 0
7700 -3290 0
5500 -3291 0
5500 -3292 0
5500 -3293 0
5200 -3294 0
5200 -3295 0
5200 -3296 0
8700 -3297 0
5200 -3298 0
5200 -3299 0
5200 -3300 0
7700 -3301 0
5100 -3302 0
5200 -3303 0
5500 -3304 0
5200 -3305 0
5100 -3306 0
8700 -3307 0
8700 -3308 0
5200 -3309 0
5500 -3310 0
5500 -3311 0
7700 -3312 0
5500 -3313 0
7700 -3314 0
7700 -3315 0
5500 -3316 0
5500 -3317 0
7700 -3318 0
8700 -3319 0
5200 -3320 0
8700 -3321 0
5500 -3322 0
5100 -3323 0
5500 -3324 0
7700 -3325 0
5100 -3326 0
5100 -3327 0
5200 -3328 0
5500 -3329 0
5200 -3330 0
8700 -3331 0
5100 -3332 0
5200 -3333 0
8700 -3334 0
5500 -3335 0
5500 -3336 0
7700 -3337 0
8700 -3338 0
8700 -3339 0
5200 -3340 0
5100 -3341 0
5100 -3342 0
7700 -3343 0
7700 -3344 0
7700 -3345 0
8700 -3346 0
5500 -3347 0
5500 -3348 0
5200 -3349 0
5100 -3350 0
5100 -3351 0
5200 -3352 0
8700 -3353 0
5500 -3354 0
7700 -3355 0
5500 -3356 0
5200 -3357 0
5500 -3358 0
7700 -3359 0
5100 -3360 0
5200 -3361 0
8700 -3362 0
5500 -3363 0
5500 -3364 0
8700 -3365 0
8700 -3366 0
7700 -3367 0
5500 -3368 0
5200 -3369 0
5500 -3370 0
7700 -3371 0
5200 -3372 0
5200 -3373 0
5200 -3374 0
7700 -3375 0
5500 -3376 0
5100 -3377 0
5200 -3378 0
8700 -3379 0
7700 -3380 0
5200 -3381 0
7700 -3382 0
8700 -3383 0
5200 -3384 0
5500 -3385 0
7700 -3386 0
5200 -3387 0
5200 -3388 0
7700 -3389 0
8700 -3390 0
7700 -3391 0
5100 -3392 0
5500 -3393 0
8700 -3394 0
5500 -3395 0
5500 -3396 0
7700 -3397 0
5100 -3398 0
5200 -3399 0
5100 -3400 0
8700 -3401 0
5100 -3402 0
5500 -3403 0
5200 -3404 0
5100 -3405 0
5200 -3406 0
5100 -3407 0
5200 -3408 0
5100 -3409 0
8700 -3410 0
5200 -3411 0
7700 -3412 0
5500 -3413 0
5200 -3414 0
5500 -3415 0
5100 -3416 0
5100 -3417 0
5100 -3418 0
5100 -3419 0
5100 -3420 0
8700 -3421 0
5500 -3422 0
5200 -3423 0
8700 -3424 0
8700 -3425 0
8700 -3426 0
8700 -3427 0
8700 -3428 0
5500 -3429 0
5200 -3430 0
5500 -3431 0
5200 -3432 0
8700 -3433 0
8700 -3434 0
5100 -3435 0
7700 -3436 0
7700 -3437 0
5500 -3438 0
5500 -3439 0
5200 -3440 0
5100 -3441 0
5200 -3442 0
5100 -3443 0
7700 -3444 0
7700 -3445 0
5100 -3446 0
5200 -3447 0
5500 -3448 0
5100 -3449 0
5100 -3450 0
5100 -3451 0
5200 -3452 0
5500 -3453 0
5200 -3454 0
8700 -3455 0
8700 -3456 0
5100 -3457 0
5100 -3458 0
5100 -3459 0
5500 -3460 0
5500 -3461 0
5100 -3462 0
5500 -3463 0
7700 -3464 0
5100 -3465 0
7700 -3466 0
5200 -3467 0
7700 -3468 0
5200 -3469 0
5200 -3470 0
5100 -3471 0
5100 -3472 0
5200 -3473 0
5500 -3474 0
8700 -3475 0
7700 -3476 0
5200 -3477 0
8700 -3478 0
5100 -3479 0
5100 -3480 0
5200 -3481 0
5500 -3482 0
5200 -3483 0
7700 -3484 0
8700 -3485 0
5500 -3486 0
5200 -3487 0
7700 -3488 0
7700 -3489 0
5500 -3490 0
7700 -3491 0
7700 -3492 0
7700 -3493 0
7700 -3494 0
5200 -3495 0
5500 -3496 0
8700 -3497 0
8700 -3498 0
7700 -3499 0
5200 -3500 0
7700 -3501 0
7700 -3502 0
5200 -3503 0
5100 -3504 0
5500 -3505 0
8700 -3506 0
5200 -3507 0
8700 -3508 0
5200 -3509 0
5200 -3510 0
5100 -3511 0
7700 -3512 0
5500 -3513 0
5100 -3514 0
8700 -3515 0
5500 -3516 0
7700 -3517 0
5100 -3518 0
5200 -3519 0
8700 -3520 0
5100 -3521 0
5100 -3522 0
5500 -3523 0
8700 -3524 0
8700 -3525 0
8700 -3526 0
5500 -3527 0
8700 -3528 0
5500 -3529 0
5200 -3530 0
5500 -3531 0
7700 -3532 0
8700 -3533 0
7700 -3534 0
7700 -3535 0
5200 -3536 0
5100 -3537 0
5200 -3538 0
5500 -3539 0
5500 -3540 0
8700 -3541 0
7700 -3542 0
5200 -3543 0
5100 -3544 0
5200 -3545 0
8700 -3546 0
5200 -3547 0
5100 -3548 0
5100 -3549 0
7700 -3550 0
7700 -3551 0
8700 -3552 0
7700 -3553 0
5500 -3554 0
7700 -3555 0
5500 -3556 0
5200 -3557 0
5500 -3558 0
8700 -3559 0
5100 -3560 0
8700 -3561 0
8700 -3562 0
8700 -3563 0
8700 -3564 0
7700 -3565 0
5200 -3566 0
5100 -3567 0
5500 -3568 0
5500 -3569 0
5200 -3570 0
8700 -3571 0
8700 -3572 0
5100 -3573 0
5500 -3574 0
8700 -3575 0
7700 -3576 0
5100 -3577 0
7700 -3578 0
7700 -3579 0
5200 -3580 0
5200 -3581 0
7700 -3582 0
5200 -3583 0
7700 -3584 0
8700 -3585 0
5200 -3586 0
7700 -3587 0
5100 -3588 0
5100 -3589 0
5200 -3590 0
5100 -3591 0
5500 -3592 0
5500 -3593 0
5100 -3594 0
7700 -3595 0
5100 -3596 0
5100 -3597 0
5100 -3598 0
7700 -3599 0
7700 -3600 0
5500 -3601 0
5200 -3602 0
5500 -3603 0
7700 -3604 0
7700 -3605 0
7700 -3606 0
7700 -3607 0
7700 -3608 0
7700 -3609 0
8700 -3610 0
8700 -3611 0
5100 -3612 0
8700 -3613 0
5500 -3614 0
5100 -3615 0
5200 -3616 0
7700 -3617 0
8700 -3618 0
5500 -3619 0
5200 -3620 0
7700 -3621 0
7700 -3622 0
5200 -3623 0
5200 -3624 0
5200 -3625 0
5500 -3626 0
5100 -3627 0
5100 -3628 0
8700 -3629 0
7700 -3630 0
8700 -3631 0
5100 -3632 0
5200 -3633 0
7700 -3634 0
5100 -3635 0
7700 -3636 0
8700 -3637 0
5100 -3638 0
8700 -3639 0
7700 -3640 0
5500 -3641 0
5200 -3642 0
8700 -3643 0
7700 -3644 0
5100 -3645 0
8700 -3646 0
7700 -3647 0
5500 -3648 0
8700 -3649 0
7700 -3650 0
8700 -3651 0
7700 -3652 0
5200 -3653 0
7700 -3654 0
7700 -3655 0
7700 -3656 0
5100 -3657 0
7700 -3658 0
5200 -3659 0
5500 -3660 0
5200 -3661 0
5500 -3662 0
5100 -3663 0
5100 -3664 0
5100 -3665 0
5500 -3666 0
5200 -3667 0
8700 -3668 0
5100 -3669 0
5500 -3670 0
5200 -3671 0
5100 -3672 0
7700 -3673 0
5200 -3674 0
5500 -3675 0
8700 -3676 0
8700 -3677 0
8700 -3678 0
7700 -3679 0
5200 -3680 0
5100 -3681 0
5200 -3682 0
8700 -3683 0
7700 -3684 0
8700 -3685 0
5500 -3686 0
5200 -3687 0
7700 -3688 0
8700 -3689 0
7700 -3690 0
5500 -3691 0
5500 -3692 0
5200 -3693 0
7700 -3694 0
8700 -3695 0
8700 -3696 0
5100 -3697 0
8700 -3698 0
5200 -3699 0
5500 -3700 0
8700 -3701 0
5100 -3702 0
5200 -3703 0
5200 -3704 0
5200 -3705 0
5200 -3706 0
5200 -3707 0
5200 -3708 0
5500 -3709 0
5500 -3710 0
5100 -3711 0
8700 -3712 0
7700 -3713 0
5500 -3714 0
7700 -3715 0
5100 -3716 0
8700 -3717 0
5500 -3718 0
5500 -3719 0
8700 -3720 0
8700 -3721 0
7700 -3722 0
7700 -3723 0
8700 -3724 0
5500 -3725 0
5200 -3726 0
5100 -3727 0
5100 -3728 0
7700 -3729 0
8700 -3730 0
5500 -3731 0
5500 -3732 0
7700 -3733 0
7700 -3734 0
5200 -3735 0
5100 -3736 0
5100 -3737 0
5100 -3738 0
7700 -3739 0
5200 -3740 0
8700 -3741 0
7700 -3742 0
5200 -3743 0
7700 -3744 0
8700 -3745 0
8700 -3746 0
5200 -3747 0
5500 -3748 0
8700 -3749 0
8700 -3750 0
8700 -3751 0
8700 -3752 0
5500 -3753 0
5100 -3754 0
5100 -3755 0
8700 -3756 0
5500 -3757 0
7700 -3758 0
5500 -3759 0
5200 -3760 0
7700 -3761 0
5100 -3762 0
5100 -3763 0
5500 -3764 0
5100 -3765 0
5500 -3766 0
5500 -3767 0
5500 -3768 0
5500 -3769 0
5500 -3770 0
5200 -3771 0
5200 -3772 0
5200 -3773 0
5500 -3774 0
5100 -3775 0
7700 -3776 0
5200 -3777 0
8700 -3778 0
8700 -3779 0
5500 -3780 0
7700 -3781 0
5200 -3782 0
5500 -3783 0
5100 -3784 0
7700 -3785 0
5100 -3786 0
5100 -3787 0
8700 -3788 0
5200 -3789 0
5500 -3790 0
5100 -3791 0
5100 -3792 0
5500 -3793 0
7700 -3794 0
5500 -3795 0
5500 -3796 0
5200 -3797 0
8700 -3798 0
5100 -3799 0
8700 -3800 0
7700 -3801 0
5100 -3802 0
8700 -3803 0
7700 -3804 0
5200 -3805 0
7700 -3806 0
8700 -3807 0
5500 -3808 0
5100 -3809 0
5200 -3810 0
8700 -3811 0
5200 -3812 0
7700 -3813 0
8700 -3814 0
5500 -3815 0
5500 -3816 0
5500 -3817 0
5500 -3818 0
5100 -3819 0
5200 -3820 0
8700 -3821 0
5500 -3822 0
5100 -3823 0
5500 -3824 0
5500 -3825 0
7700 -3826 0
8700 -3827 0
5200 -3828 0
7700 -3829 0
7700 -3830 0
5200 -3831 0
5500 -3832 0
5500 -3833 0
8700 -3834 0
5500 -3835 0
7700 -3836 0
7700 -3837 0
7700 -3838 0
5200 -3839 0
5500 -3840 0
5500 -3841 0
5500 -3842 0
5500 -3843 0
8700 -3844 0
8700 -3845 0
7700 -3846 0
7700 -3847 0
5200 -3848 0
5100 -3849 0
7700 -3850 0
5500 -3851 0
7700 -3852 0
7700 -3853 0
8700 -3854 0
5500 -3855 0
5200 -3856 0
5200 -3857 0
5200 -3858 0
7700 -3859 0
5200 -3860 0
5200 -3861 0
5200 -3862 0
8700 -3863 0
5500 -3864 0
8700 -3865 0
5500 -3866 0
8700 -3867 0
5500 -3868 0
5200 -3869 0
5100 -3870 0
5200 -3871 0
5100 -3872 0
5200 -3873 0
8700 -3874 0
5100 -3875 0
5200 -3876 0
7700 -3877 0
5100 -3878 0
5500 -3879 0
8700 -3880 0
5200 -3881 0
5200 -3882 0
5500 -3883 0
5200 -3884 0
5200 -3885 0
5500 -3886 0
5500 -3887 0
7700 -3888 0
7700 -3889 0
5500 -3890 0
5100 -3891 0
5100 -3892 0
5100 -3893 0
8700 -3894 0
7700 -3895 0
5100 -3896 0
5100 -3897 0
5100 -3898 0
5500 -3899 0
5200 -3900 0
8700 -3901 0
5200 -3902 0
7700 -3903 0
5200 -3904 0
8700 -3905 0
5100 -3906 0
5100 -3907 0
5500 -3908 0
5500 -3909 0
8700 -3910 0
5100 -3911 0
5200 -3912 0
5200 -3913 0
8700 -3914 0
5500 -3915 0
5200 -3916 0
7700 -3917 0
8700 -3918 0
7700 -3919 0
7700 -3920 0
5500 -3921 0
5100 -3922 0
8700 -3923 0
5100 -3924 0
5200 -3925 0
5200 -3926 0
8700 -3927 0
5500 -3928 0
5200 -3929 0
5200 -3930 0
5100 -3931 0
5200 -3932 0
5500 -3933 0
5200 -3934 0
5200 -3935 0
7700 -3936 0
5500 -3937 0
5200 -3938 0
5500 -3939 0
5500 -3940 0
5200 -3941 0
5200 -3942 0
5500 -3943 0
5100 -3944 0
5100 -3945 0
5500 -3946 0
5500 -3947 0
5100 -3948 0
5100 -3949 0
7700 -3950 0
1800 1701 0
1600 1702 0
4400 1703 0
1600 1704 0
2400 1705 0
4400 1706 0
4400 1707 0
2400 1708 0
1800 1709 0
4400 1710 0
1800 1711 0
2400 1712 0
1600 1713 0
4400 1714 0
1800 1715 0
4400 1716 0
1800 1717 0
4400 1718 0
4400 1719 0
4400 1720 0
1600 1721 0
4400 1722 0
1800 1723 0
1600 1724 0
2500 1725 0
1800 1726 0
1800 1727 0
2500 1728 0
1600 1729 0
4400 1730 0
1800 1731 0
2500 1732 0
4400 1733 0
1600 1734 0
1800 1735 0
4400 1736 0
4400 1737 0
2400 1738 0
2500 1739 0
4400 1740 0
1600 1741 0
2400 1742 0
4400 1743 0
4400 1744 0
1600 1745 0
2400 1746 0
2400 1747 0
2500 1748 0
4400 1749 0
2500 1750 0
2400 1751 0
2500 1752 0
1600 1753 0
1800 1754 0
1600 1755 0
2400 1756 0
1600 1757 0
2400 1758 0
1600 1759 0
4400 1760 0
4400 1761 0
1600 1762 0
2500 1763 0
2400 1764 0
4400 1765 0
2400 1766 0
4400 1767 0
1800 1768 0
1600 1769 0
4400 1770 0
1600 1771 0
1800 1772 0
2400 1773 0
1600 1774 0
4400 1775 0
1800 1776 0
4400 1777 0
1800 1778 0
1800 1779 0
4400 1780 0
1600 1781 0
2400 1782 0
2400 1783 0
1800 1784 0
4400 1785 0
1800 1786 0
2400 1787 0
1800 1788 0
1800 1789 0
2400 1790 0
1600 1791 0
1800 1792 0
1600 1793 0
1800 1794 0
4400 1795 0
1800 1796 0
1800 1797 0
2500 1798 0
4400 1799 0
4400 1800 0
1600 1801 0
1600 1802 0
1800 1803 0
2400 1804 0
1800 1805 0
2500 1806 0
1800 1807 0
2500 1808 0
1800 1809 0
1600 1810 0
1800 1811 0
1600 1812 0
2400 1813 0
2400 1814 0
4400 1815 0
1800 1816 0
4400 1817 0
1800 1818 0
2400 1819 0
2500 1820 0
4400 1821 0
4400 1822 0
2400 1823 0
2400 1824 0
2500 1825 0
4400 1826 0
2400 1827 0
2400 1828 0
2500 1829 0
2500 1830 0
1600 1831 0
1800 1832 0
1600 1833 0
2500 1834 0
2400 1835 0
2500 1836 0
4400 1837 0
2400 1838 0
1600 1839 0
1600 1840 0
1600 1841 0
2400 1842 0
1800 1843 0
1800 1844 0
1800 1845 0
2500 1846 0
2500 1847 0
4400 1848 0
2400 1849 0
4400 1850 0
2500 1851 0
2400 1852 0
1600 1853 0
2400 1854 0
2500 1855 0
1600 1856 0
1600 1857 0
2400 1858 0
1800 1859 0
2500 1860 0
2500 1861 0
1800 1862 0
4400 1863 0
4400 1864 0
2500 1865 0
1800 1866 0
1800 1867 0
1600 1868 0
4400 1869 0
4400 1870 0
1600 1871 0
2400 1872 0
4400 1873 0
1600 1874 0
1800 1875 0
2400 1876 0
2500 1877 0
1800 1878 0
2400 1879 0
1600 1880 0
1800 1881 0
2400 1882 0
2500 1883 0
1800 1884 0
1800 1885 0
4400 1886 0
2400 1887 0
2400 1888 0
4400 1889 0
1600 1890 0
1600 1891 0
4400 1892 0
1800 1893 0
2500 1894 0
1600 1895 0
2500 1896 0
2400 1897 0
2400 1898 0
1600 1899 0
1800 1900 0
2400 1901 0
2500 1902 0
1800 1903 0
1600 1904 0
2400 1905 0
1600 1906 0
1800 1907 0
1800 1908 0
1800 1909 0
4400 1910 0
4400 1911 0
2500 1912 0
1800 1913 0
1800 1914 0
2400 1915 0
2500 1916 0
2500 1917 0
1600 1918 0
1800 1919 0
2400 1920 0
1600 1921 0
4400 1922 0
1800 1923 0
2500 1924 0
1800 1925 0
1800 1926 0
4400 1927 0
2400 1928 0
2400 1929 0
2400 1930 0
1600 1931 0
2400 1932 0
1600 1933 0
4400 1934 0
1800 1935 0
1600 1936 0
4400 1937 0
1600 1938 0
4400 1939 0
2400 1940 0
2400 1941 0
4400 1942 0
2500 1943 0
4400 1944 0
1600 1945 0
4400 1946 0
1800 1947 0
2500 1948 0
4400 1949 0
2500 1950 0
2500 1951 0
4400 1952 0
4400 1953 0
2400 1954 0
4400 1955 0
4400 1956 0
2400 1957 0
2400 1958 0
1800 1959 0
4400 1960 0
1600 1961 0
2500 1962 0
2400 1963 0
4400 1964 0
1600 1965 0
2500 1966 0
4400 1967 0
1600 1968 0
2500 1969 0
1600 1970 0
2400 1971 0
4400 1972 0
1600 1973 0
1600 1974 0
4400 1975 0
2500 1976 0
4400 1977 0
1600 1978 0
1800 1979 0
2500 1980 0
1600 1981 0
1800 1982 0
2500 1983 0
2400 1984 0
4400 1985 0
2500 1986 0
2500 1987 0
1600 1988 0
1800 1989 0
2500 1990 0
4400 1991 0
2500 1992 0
2500 1993 0
1600 1994 0
2500 1995 0
1800 1996 0
1600 1997 0
2400 1998 0
2400 1999 0
1600 2000 0
1800 2001 0
1600 2002 0
1600 2003 0
1600 2004 0
1600 2005 0
2500 2006 0
4400 2007 0
2400 2008 0
1800 2009 0
2500 2010 0
2400 2011 0
4400 2012 0
1600 2013 0
4400 2014 0
2400 2015 0
2400 2016 0
2500 2017 0
2500 2018 0
1800 2019 0
1600 2020 0
4400 2021 0
1600 2022 0
4400 2023 0
1600 2024 0
2400 2025 0
2400 2026 0
1600 2027 0
1800 2028 0
2400 2029 0
1800 2030 0
2400 2031 0
2500 2032 0
2500 2033 0
1600 2034 0
4400 2035 0
2500 2036 0
2400 2037 0
2400 2038 0
2500 2039 0
2500 2040 0
4400 2041 0
2500 2042 0
1600 2043 0
4400 2044 0
2500 2045 0
2400 2046 0
2500 2047 0
1600 2048 0
1600 2049 0
2400 2050 0
4400 2051 0
2400 2052 0
2500 2053 0
2400 2054 0
4400 2055 0
1800 2056 0
2400 2057 0
4400 2058 0
1800 2059 0
4400 2060 0
4400 2061 0
1800 2062 0
2400 2063 0
1800 2064 0
2400 2065 0
4400 2066 0
2400 2067 0
1600 2068 0
1800 2069 0
1800 2070 0
2500 2071 0
4400 2072 0
4400 2073 0
2400 2074 0
1600 2075 0
4400 2076 0
1600 2077 0
2500 2078 0
1800 2079 0
1600 2080 0
4400 2081 0
1800 2082 0
1600 2083 0
1600 2084 0
2400 2085 0
1800 2086 0
1600 2087 0
2400 2088 0
4400 2089 0
1600 2090 0
2400 2091 0
2400 2092 0
1800 2093 0
2400 2094 0
1600 2095 0
2500 2096 0
4400 2097 0
1600 2098 0
1600 2099 0
4400 2100 0
4400 2101 0
2400 2102 0
1600 2103 0
2400 2104 0
1800 2105 0
2400 2106 0
1800 2107 0
2500 2108 0
1600 2109 0
1800 2110 0
2500 2111 0
4400 2112 0
2400 2113 0
2500 2114 0
1800 2115 0
1600 2116 0
4400 2117 0
4400 2118 0
2500 2119 0
2500 2120 0
2400 2121 0
4400 2122 0
4400 2123 0
2400 2124 0
1600 2125 0
2400 2126 0
1800 2127 0
1800 2128 0
2500 2129 0
2400 2130 0
2400 2131 0
2500 2132 0
1600 2133 0
2400 2134 0
4400 2135 0
2400 2136 0
1600 2137 0
2400 2138 0
4400 2139 0
1800 2140 0
1800 2141 0
1600 2142 0
1600 2143 0
4400 2144 0
1800 2145 0
1800 2146 0
1800 2147 0
1800 2148 0
4400 2149 0
1600 2150 0
1600 2151 0
2500 2152 0
1600 2153 0
1800 2154 0
2400 2155 0
1800 2156 0
1800 2157 0
1600 2158 0
2500 2159 0
4400 2160 0
2400 2161 0
2400 2162 0
2500 2163 0
1800 2164 0
4400 2165 0
4400 2166 0
4400 2167 0
1600 2168 0
1800 2169 0
2400 2170 0
2400 2171 0
1800 2172 0
2400 2173 0
1600 2174 0
4400 2175 0
2400 2176 0
1600 2177 0
4400 2178 0
1800 2179 0
1800 2180 0
1600 2181 0
1600 2182 0
1600 2183 0
2400 2184 0
1800 2185 0
2400 2186 0
2400 2187 0
4400 2188 0
1600 2189 0
2400 2190 0
4400 2191 0
2500 2192 0
4400 2193 0
2500 2194 0
2500 2195 0
2500 2196 0
2500 2197 0
1600 2198 0
2400 2199 0
2400 2200 0
2500 2201 0
2400 2202 0
2500 2203 0
2400 2204 0
4400 2205 0
1600 2206 0
1800 2207 0
2500 2208 0
4400 2209 0
4400 2210 0
1600 2211 0
1600 2212 0
2500 2213 0
2500 2214 0
4400 2215 0
4400 2216 0
1600 2217 0
2500 2218 0
2500 2219 0
4400 2220 0
1800 2221 0
4400 2222 0
1800 2223 0
2500 2224 0
4400 2225 0
1600 2226 0
2400 2227 0
2500 2228 0
2500 2229 0
4400 2230 0
2400 2231 0
2400 2232 0
2400 2233 0
4400 2234 0
4400 2235 0
1800 2236 0
1800 2237 0
1800 2238 0
1600 2239 0
2500 2240 0
1800 2241 0
1600 2242 0
1600 2243 0
4400 2244 0
2400 2245 0
2400 2246 0
1800 2247 0
2500 2248 0
2500 2249 0
2500 2250 0
1600 2251 0
1600 2252 0
1600 2253 0
4400 2254 0
1600 2255 0
2500 2256 0
2500 2257 0
2400 2258 0
2500 2259 0
1600 2260 0
1600 2261 0
1800 2262 0
4400 2263 0
2500 2264 0
4400 2265 0
2500 2266 0
2400 2267 0
2400 2268 0
4400 2269 0
1600 2270 0
1800 2271 0
2500 2272 0
2500 2273 0
1800 2274 0
4400 2275 0
4400 2276 0
2500 2277 0
2400 2278 0
1800 2279 0
2500 2280 0
2400 2281 0
4400 2282 0
2400 2283 0
1600 2284 0
2500 2285 0
1800 2286 0
2400 2287 0
4400 2288 0
2400 2289 0
4400 2290 0
1600 2291 0
4400 2292 0
1800 2293 0
1600 2294 0
2400 2295 0
2500 2296 0
4400 2297 0
1800 2298 0
2500 2299 0
2500 2300 0
1600 2301 0
2400 2302 0
2500 2303 0
1800 2304 0
4400 2305 0
4400 2306 0
4400 2307 0
1600 2308 0
1800 2309 0
2500 2310 0
1800 2311 0
1600 2312 0
1600 2313 0
2400 2314 0
1800 2315 0
4400 2316 0
1600 2317 0
1600 2318 0
2400 2319 0
4400 2320 0
1600 2321 0
2500 2322 0
4400 2323 0
1800 2324 0
2400 2325 0
2500 2326 0
2500 2327 0
1800 2328 0
2400 2329 0
1600 2330 0
2400 2331 0
1600 2332 0
1800 2333 0
1800 2334 0
2500 2335 0
2500 2336 0
2500 2337 0
1800 2338 0
1600 2339 0
1800 2340 0
1800 2341 0
2500 2342 0
2400 2343 0
2500 2344 0
2400 2345 0
1600 2346 0
1600 2347 0
4400 2348 0
4400 2349 0
4400 2350 0
1600 2351 0
2500 2352 0
2500 2353 0
2500 2354 0
1800 2355 0
4400 2356 0
2500 2357 0
4400 2358 0
4400 2359 0
1800 2360 0
1600 2361 0
2500 2362 0
1800 2363 0
1600 2364 0
1600 2365 0
2500 2366 0
4400 2367 0
2400 2368 0
4400 2369 0
4400 2370 0
2400 2371 0
1600 2372 0
2400 2373 0
2400 2374 0
1800 2375 0
1800 2376 0
1800 2377 0
1600 2378 0
2400 2379 0
2500 2380 0
2400 2381 0
1600 2382 0
1800 2383 0
1600 2384 0
1800 2385 0
1600 2386 0
2500 2387 0
1800 2388 0
1800 2389 0
2400 2390 0
1600 2391 0
4400 2392 0
4400 2393 0
2400 2394 0
1600 2395 0
2500 2396 0
2400 2397 0
1800 2398 0
2500 2399 0
1600 2400 0
1800 2401 0
4400 2402 0
1600 2403 0
1800 2404 0
1600 2405 0
1800 2406 0
1600 2407 0
4400 2408 0
2400 2409 0
1800 2410 0
1800 2411 0
4400 2412 0
2400 2413 0
1600 2414 0
1800 2415 0
2400 2416 0
1600 2417 0
1800 2418 0
1800 2419 0
1600 2420 0
4400 2421 0
2400 2422 0
1800 2423 0
1600 2424 0
1800 2425 0
1600 2426 0
1800 2427 0
2500 2428 0
4400 2429 0
2400 2430 0
4400 2431 0
4400 2432 0
2400 2433 0
4400 2434 0
2500 2435 0
1600 2436 0
2400 2437 0
1600 2438 0
1800 2439 0
2500 2440 0
1600 2441 0
1600 2442 0
2400 2443 0
1800 2444 0
2400 2445 0
1800 2446 0
2400 2447 0
1600 2448 0
1600 2449 0
2500 2450 0
1600 2451 0
4400 2452 0
1600 2453 0
4400 2454 0
1600 2455 0
4400 2456 0
4400 2457 0
1600 2458 0
4400 2459 0
2500 2460 0
1800 2461 0
4400 2462 0
4400 2463 0
2500 2464 0
2500 2465 0
2400 2466 0
1800 2467 0
2400 2468 0
4400 2469 0
2500 2470 0
4400 2471 0
1600 2472 0
1800 2473 0
1600 2474 0
2500 2475 0
2500 2476 0
2500 2477 0
1800 2478 0
2400 2479 0
4400 2480 0
4400 2481 0
4400 2482 0
4400 2483 0
4400 2484 0
2400 2485 0
1600 2486 0
1800 2487 0
1600 2488 0
1600 2489 0
4400 2490 0
4400 2491 0
2400 2492 0
1800 2493 0
2500 2494 0
1600 2495 0
2500 2496 0
1800 2497 0
1600 2498 0
2500 2499 0
2500 2500 0
2400 2501 0
1800 2502 0
1800 2503 0
1800 2504 0
1600 2505 0
2400 2506 0
4400 2507 0
1600 2508 0
1800 2509 0
1600 2510 0
2500 2511 0
1600 2512 0
1600 2513 0
1800 2514 0
2500 2515 0
1800 2516 0
2500 2517 0
2500 2518 0
2500 2519 0
1800 2520 0
2500 2521 0
2400 2522 0
2400 2523 0
4400 2524 0
2400 2525 0
4400 2526 0
2400 2527 0
1800 2528 0
4400 2529 0
1600 2530 0
1600 2531 0
2400 2532 0
1600 2533 0
2400 2534 0
2400 2535 0
1600 2536 0
1600 2537 0
2500 2538 0
4400 2539 0
2400 2540 0
1600 2541 0
4400 2542 0
1600 2543 0
1600 2544 0
2500 2545 0
2400 2546 0
2400 2547 0
1800 2548 0
2500 2549 0
4400 2550 0
2500 2551 0
4400 2552 0
2400 2553 0
1800 2554 0
1800 2555 0
2400 2556 0
1600 2557 0
2500 2558 0
1800 2559 0
1600 2560 0
4400 2561 0
1800 2562 0
4400 2563 0
1600 2564 0
4400 2565 0
1600 2566 0
4400 2567 0
2500 2568 0
1800 2569 0
1800 2570 0
1600 2571 0
4400 2572 0
2400 2573 0
1800 2574 0
4400 2575 0
4400 2576 0
2500 2577 0
2400 2578 0
1800 2579 0
2500 2580 0
2400 2581 0
1800 2582 0
2500 2583 0
2400 2584 0
1800 2585 0
2400 2586 0
4400 2587 0
1600 2588 0
1600 2589 0
4400 2590 0
2400 2591 0
4400 2592 0
1600 2593 0
1600 2594 0
2400 2595 0
1600 2596 0
4400 2597 0
2400 2598 0
4400 2599 0
2400 2600 0
1600 2601 0
1800 2602 0
2400 2603 0
2400 2604 0
1800 2605 0
1600 2606 0
4400 2607 0
2500 2608 0
1800 2609 0
2500 2610 0
1600 2611 0
2400 2612 0
2400 2613 0
1600 2614 0
4400 2615 0
4400 2616 0
1600 2617 0
1600 2618 0
1600 2619 0
1600 2620 0
1600 2621 0
1600 2622 0
2400 2623 0
2500 2624 0
4400 2625 0
2500 2626 0
2400 2627 0
1800 2628 0
2500 2629 0
1800 2630 0
2400 2631 0
4400 2632 0
1800 2633 0
2400 2634 0
1600 2635 0
4400 2636 0
1600 2637 0
4400 2638 0
4400 2639 0
2500 2640 0
4400 2641 0
2500 2642 0
1800 2643 0
4400 2644 0
1800 2645 0
4400 2646 0
2500 2647 0
1600 2648 0
4400 2649 0
2400 2650 0
1600 2651 0
2500 2652 0
2400 2653 0
1800 2654 0
2500 2655 0
1600 2656 0
1800 2657 0
1800 2658 0
2500 2659 0
1600 2660 0
2500 2661 0
2400 2662 0
2400 2663 0
4400 2664 0
1800 2665 0
4400 2666 0
1600 2667 0
2400 2668 0
4400 2669 0
2400 2670 0
2400 2671 0
2400 2672 0
2500 2673 0
4400 2674 0
1800 2675 0
4400 2676 0
1800 2677 0
4400 2678 0
4400 2679 0
2400 2680 0
1800 2681 0
1800 2682 0
1800 2683 0
4400 2684 0
1800 2685 0
4400 2686 0
2500 2687 0
2400 2688 0
1600 2689 0
2500 2690 0
1800 2691 0
2400 2692 0
2400 2693 0
2400 2694 0
2400 2695 0
1800 2696 0
2400 2697 0
1600 2698 0
1600 2699 0
2400 2700 0
4400 2701 0
1800 2702 0
1600 2703 0
1600 2704 0
1600 2705 0
2500 2706 0
2500 2707 0
1600 2708 0
4400 2709 0
1800 2710 0
1800 2711 0
1600 2712 0
1600 2713 0
1800 2714 0
4400 2715 0
2500 2716 0
2500 2717 0
1600 2718 0
1800 2719 0
2500 2720 0
4400 2721 0
1600 2722 0
2400 2723 0
1600 2724 0
2400 2725 0
1600 2726 0
1800 2727 0
1800 2728 0
1800 2729 0
1800 2730 0
4400 2731 0
4400 2732 0
2400 2733 0
4400 2734 0
1600 2735 0
1800 2736 0
2500 2737 0
2500 2738 0
2500 2739 0
1600 2740 0
2500 2741 0
2500 2742 0
2400 2743 0
1600 2744 0
1600 2745 0
2500 2746 0
1600 2747 0
2400 2748 0
2400 2749 0
1800 2750 0
2400 2751 0
1800 2752 0
2500 2753 0
1800 2754 0
1800 2755 0
2500 2756 0
1800 2757 0
2400 2758 0
2500 2759 0
1600 2760 0
1800 2761 0
2400 2762 0
1600 2763 0
2500 2764 0
2500 2765 0
2500 2766 0
2400 2767 0
1600 2768 0
2500 2769 0
2400 2770 0
4400 2771 0
2400 2772 0
4400 2773 0
1600 2774 0
2500 2775 0
2500 2776 0
1800 2777 0
2500 2778 0
1600 2779 0
2400 2780 0
1600 2781 0
2500 2782 0
2400 2783 0
1600 2784 0
2500 2785 0
2500 2786 0
2500 2787 0
1800 2788 0
1800 2789 0
1800 2790 0
2400 2791 0
1600 2792 0
2400 2793 0
2400 2794 0
2500 2795 0
4400 2796 0
4400 2797 0
2500 2798 0
4400 2799 0
2400 2800 0
1600 2801 0
1800 2802 0
2400 2803 0
2400 2804 0
1600 2805 0
4400 2806 0
1600 2807 0
2400 2808 0
2500 2809 0
2500 2810 0
2400 2811 0
2500 2812 0
4400 2813 0
1600 2814 0
1800 2815 0
1600 2816 0
1800 2817 0
2400 2818 0
2400 2819 0
1800 2820 0
2500 2821 0
2400 2822 0
4400 2823 0
4400 2824 0
4400 2825 0
4400 2826 0
1800 2827 0
2500 2828 0
1800 2829 0
2400 2830 0
4400 2831 0
4400 2832 0
4400 2833 0
2400 2834 0
1600 2835 0
1800 2836 0
2500 2837 0
2400 2838 0
1600 2839 0
1600 2840 0
2500 2841 0
2400 2842 0
1600 2843 0
4400 2844 0
2500 2845 0
4400 2846 0
2500 2847 0
1800 2848 0
1800 2849 0
2400 2850 0
1600 2851 0
4400 2852 0
1600 2853 0
1800 2854 0
4400 2855 0
2400 2856 0
1600 2857 0
2500 2858 0
2500 2859 0
4400 2860 0
2500 2861 0
2500 2862 0
1800 2863 0
2400 2864 0
2500 2865 0
2500 2866 0
1600 2867 0
4400 2868 0
1800 2869 0
4400 2870 0
1600 2871 0
1600 2872 0
1600 2873 0
2500 2874 0
4400 2875 0
4400 2876 0
4400 2877 0
2400 2878 0
1800 2879 0
2500 2880 0
1800 2881 0
2500 2882 0
4400 2883 0
2400 2884 0
2400 2885 0
4400 2886 0
1800 2887 0
1600 2888 0
4400 2889 0
2500 2890 0
1800 2891 0
1600 2892 0
2400 2893 0
2500 2894 0
2400 2895 0
2500 2896 0
1600 2897 0
2500 2898 0
1600 2899 0
4400 2900 0
4400 2901 0
2500 2902 0
1800 2903 0
2400 2904 0
2500 2905 0
2500 2906 0
2400 2907 0
2500 2908 0
2400 2909 0
1600 2910 0
1800 2911 0
4400 2912 0
4400 2913 0
1800 2914 0
2400 2915 0
1800 2916 0
2400 2917 0
1800 2918 0
2500 2919 0
2500 2920 0
1800 2921 0
1600 2922 0
1800 2923 0
4400 2924 0
2500 2925 0
1800 2926 0
4400 2927 0
2500 2928 0
1600 2929 0
1600 2930 0
4400 2931 0
1800 2932 0
2500 2933 0
1600 2934 0
4400 2935 0
2400 2936 0
1800 2937 0
2400 2938 0
1800 2939 0
2500 2940 0
4400 2941 0
2500 2942 0
2400 2943 0
4400 2944 0
2500 2945 0
2500 2946 0
2500 2947 0
2400 2948 0
2500 2949 0
1600 2950 0
1800 2951 0
1600 2952 0
2400 2953 0
2400 2954 0
2500 2955 0
4400 2956 0
1600 2957 0
2400 2958 0
1800 2959 0
2400 2960 0
1600 2961 0
1800 2962 0
1800 2963 0
2500 2964 0
4400 2965 0
1800 2966 0
2500 2967 0
4400 2968 0
2500 2969 0
2400 2970 0
2400 2971 0
4400 2972 0
2500 2973 0
1600 2974 0
2500 2975 0
1600 2976 0
1800 2977 0
1800 2978 0
1800 2979 0
2500 2980 0
4400 2981 0
1600 2982 0
2500 2983 0
1800 2984 0
2400 2985 0
1800 2986 0
4400 2987 0
1800 2988 0
4400 2989 0
2400 2990 0
1600 2991 0
1800 2992 0
4400 2993 0
1600 2994 0
2400 2995 0
4400 2996 0
2400 2997 0
2400 2998 0
2500 2999 0
1600 3000 0
2500 3001 0
2400 3002 0
4400 3003 0
1800 3004 0
2500 3005 0
1800 3006 0
2500 3007 0
1600 3008 0
1800 3009 0
2500 3010 0
2400 3011 0
4400 3012 0
2400 3013 0
1600 3014 0
1600 3015 0
2500 3016 0
2400 3017 0
1800 3018 0
2500 3019 0
2500 3020 0
2400 3021 0
4400 3022 0
1600 3023 0
1800 3024 0
1600 3025 0
2500 3026 0
4400 3027 0
2500 3028 0
4400 3029 0
2400 3030 0
1600 3031 0
2500 3032 0
4400 3033 0
4400 3034 0
2500 3035 0
1600 3036 0
2400 3037 0
2400 3038 0
1800 3039 0
1800 3040 0
1800 3041 0
1600 3042 0
1800 3043 0
1800 3044 0
1600 3045 0
1800 3046 0
2400 3047 0
2500 3048 0
2400 3049 0
2400 3050 0
4400 3051 0
2500 3052 0
2400 3053 0
2500 3054 0
2400 3055 0
1600 3056 0
1600 3057 0
1800 3058 0
1600 3059 0
2500 3060 0
4400 3061 0
1800 3062 0
2400 3063 0
1600 3064 0
1800 3065 0
1600 3066 0
1800 3067 0
2500 3068 0
2500 3069 0
2400 3070 0
1800 3071 0
4400 3072 0
2500 3073 0
2400 3074 0
1800 3075 0
2400 3076 0
2500 3077 0
2400 3078 0
1800 3079 0
1600 3080 0
4400 3081 0
2500 3082 0
1800 3083 0
1800 3084 0
2400 3085 0
2500 3086 0
1600 3087 0
1600 3088 0
4400 3089 0
4400 3090 0
2400 3091 0
2500 3092 0
1600 3093 0
2500 3094 0
2400 3095 0
2500 3096 0
2500 3097 0
2500 3098 0
2400 3099 0
2400 3100 0
2400 3101 0
1600 3102 0
1800 3103 0
2500 3104 0
4400 3105 0
4400 3106 0
1800 3107 0
2500 3108 0
2500 3109 0
2500 3110 0
2400 3111 0
1600 3112 0
2400 3113 0
2500 3114 0
1800 3115 0
2500 3116 0
2500 3117 0
1600 3118 0
2500 3119 0
2400 3120 0
4400 3121 0
1600 3122 0
1600 3123 0
1600 3124 0
2500 3125 0
1600 3126 0
1600 3127 0
2400 3128 0
1800 3129 0
2400 3130 0
2400 3131 0
1800 3132 0
1800 3133 0
1600 3134 0
2400 3135 0
2500 3136 0
4400 3137 0
4400 3138 0
4400 3139 0
2400 3140 0
1800 3141 0
1600 3142 0
1600 3143 0
4400 3144 0
1600 3145 0
2500 3146 0
2500 3147 0
1800 3148 0
1600 3149 0
2400 3150 0
1600 3151 0
2400 3152 0
4400 3153 0
2400 3154 0
4400 3155 0
2500 3156 0
1600 3157 0
1800 3158 0
1600 3159 0
4400 3160 0
1600 3161 0
1800 3162 0
4400 3163 0
4400 3164 0
1800 3165 0
1600 3166 0
1800 3167 0
2400 3168 0
2500 3169 0
1800 3170 0
4400 3171 0
2400 3172 0
2500 3173 0
1800 3174 0
2500 3175 0
1600 3176 0
4400 3177 0
1800 3178 0
4400 3179 0
2400 3180 0
2400 3181 0
2500 3182 0
2400 3183 0
2400 3184 0
1800 3185 0
4400 3186 0
2500 3187 0
2400 3188 0
4400 3189 0
1600 3190 0
1800 3191 0
2400 3192 0
2400 3193 0
2400 3194 0
4400 3195 0
1800 3196 0
1800 3197 0
4400 3198 0
2500 3199 0
1800 3200 0
754 -940 0
5700 1136 -1342 0
14250 -1136 1342 0
15675 -1136 -1342 0
16150 -992 0
11400 669 927 -1546 0
9500 669 -927 1546 0
15200 669 -927 -1546 0
14250 -669 927 1546 0
17100 -669 927 -1546 0
16625 -669 -927 1546 0
18050 -669 -927 -1546 0
2145 670 1292 -1324 0
858 670 -1292 1324 0
2960 670 -1292 -1324 0
858 -670 1292 1324 0
2960 -670 1292 -1324 0
1699 -670 -1292 1324 0
3759 -670 -1292 -1324 0
32045 582 -1510 0
9425 -582 1510 0
33459 -582 -1510 0
4280 1451 -1694 0
1284 -1451 1694 0
5050 -1451 -1694 0
4650 -981 0
3210 924 543 -731 0
4066 924 -543 731 0
6056 924 -543 -731 0
535 -924 543 731 0
3585 -924 543 -731 0
4398 -924 -543 731 0
6288 -924 -543 -731 0
930 -805 0
19305 537 -1569 0
40755 -537 1569 0
41720 -537 -1569 0
2356 1046 1533 -946 0
1984 1046 -1533 946 0
3586 1046 -1533 -946 0
620 -1046 1533 946 0
2740 -1046 1533 -946 0
2406 -1046 -1533 946 0
3847 -1046 -1533 -946 0
11310 -567 0
14250 1543 1678 -744 0
5700 1543 -1678 744 0
15675 1543 -1678 -744 0
14250 -1543 1678 744 0
17812 -1543 1678 -744 0
15675 -1543 -1678 744 0
18169 -1543 -1678 -744 0
858 1224 -679 0
6435 -1224 679 0
7164 -1224 -679 0
3720 874 1321 -544 0
310 874 -1321 544 0
3844 874 -1321 -544 0
3410 -874 1321 544 0
5084 -874 1321 -544 0
3549 -874 -1321 544 0
5140 -874 -1321 -544 0
5700 1437 -903 0
11400 -1437 903 0
13680 -1437 -903 0
5270 966 945 -649 0
5580 966 -945 649 0
6107 966 -945 -649 0
744 -966 945 649 0
5382 -966 945 -649 0
5654 -966 -945 649 0
6118 -966 -945 -649 0
14326 1237 1434 -1150 0
35815 1237 -1434 1150 0
36531 1237 -1434 -1150 0
28275 -1237 1434 1150 0
31856 -1237 1434 -1150 0
37229 -1237 -1434 1150 0
37408 -1237 -1434 -1150 0
1605 -658 0
30160 671 1454 -1515 0
18850 671 -1454 1515 0
33930 671 -1454 -1515 0
11310 -671 1454 1515 0
32422 -671 1454 -1515 0
24505 -671 -1454 1515 0
35061 -671 -1454 -1515 0
9425 1595 -512 0
28275 -1595 512 0
30631 -1595 -512 0
5148 -1240 0
930 -838 0
5270 886 -919 0
5270 -886 919 0
6061 -886 -919 0
124 1687 -1433 0
2170 -1687 1433 0
2251 -1687 -1433 0
15080 1203 -1171 0
1885 -1203 1171 0
16211 -1203 -1171 0
5350 705 -1421 0
2675 -705 1421 0
6688 -705 -1421 0
10165 1691 1186 -1555 0
9630 1691 -1186 1555 0
10647 1691 -1186 -1555 0
2140 -1691 1186 1555 0
10272 -1691 1186 -1555 0
9844 -1691 -1186 1555 0
10657 -1691 -1186 -1555 0
17160 568 556 -1208 0
6435 568 -556 1208 0
21021 568 -556 -1208 0
27885 -568 556 1208 0
33891 -568 556 -1208 0
30137 -568 -556 1208 0
35242 -568 -556 -1208 0
2850 1360 691 -1416 0
18050 1360 -691 1416 0
18193 1360 -691 -1416 0
8550 -1360 691 1416 0
10117 -1360 691 -1416 0
18477 -1360 -691 1416 0
18556 -1360 -691 -1416 0
1116 1396 533 -1145 0
930 1396 -533 1145 0
1879 1396 -533 -1145 0
3720 -1396 533 1145 0
4166 -1396 533 -1145 0
4092 -1396 -533 1145 0
4471 -1396 -533 -1145 0
35815 943 1328 -1157 0
12064 943 -1328 1157 0
36418 943 -1328 -1157 0
28275 -943 1328 1157 0
37229 -943 1328 -1157 0
31291 -943 -1328 1157 0
37380 -943 -1328 -1157 0
13195 1083 1194 -1627 0
22620 1083 -1194 1627 0
27898 1083 -1194 -1627 0
13195 -1083 1194 1627 0
21772 -1083 1194 -1627 0
27898 -1083 -1194 1627 0
31329 -1083 -1194 -1627 0
6435 541 -608 0
6435 -541 608 0
11905 -541 -608 0
3424 1065 1204 -1373 0
4280 1065 -1204 1373 0
6334 1065 -1204 -1373 0
9095 -1065 1204 1373 0
9609 -1065 1204 -1373 0
9737 -1065 -1204 1373 0
10045 -1065 -1204 -1373 0
950 -1559 0
4960 1100 774 -995 0
620 1100 -774 995 0
5084 1100 -774 -995 0
2480 -1100 774 995 0
5456 -1100 774 -995 0
2852 -1100 -774 995 0
5530 -1100 -774 -995 0
4290 740 -921 0
25740 -740 921 0
27456 -740 -921 0
38610 638 750 -1313 0
34320 638 -750 1313 0
42042 638 -750 -1313 0
16302 -638 750 1313 0
40240 -638 750 -1313 0
37580 -638 -750 1313 0
42368 -638 -750 -1313 0
5350 1613 -1042 0
5350 -1613 1042 0
8025 -1613 -1042 0
11400 1133 -1520 0
950 -1133 1520 0
11780 -1133 -1520 0
7600 524 -1665 0
15200 -524 1665 0
16720 -524 -1665 0
950 1509 993 -1067 0
13300 1509 -993 1067 0
13585 1509 -993 -1067 0
9500 -1509 993 1067 0
9975 -1509 993 -1067 0
16150 -1509 -993 1067 0
16292 -1509 -993 -1067 0
1070 877 1447 -555 0
3424 877 -1447 555 0
4152 877 -1447 -555 0
4815 -877 1447 555 0
5403 -877 1447 -555 0
6698 -877 -1447 555 0
7098 -877 -1447 -555 0
8025 828 -1402 0
3210 -828 1402 0
8827 -828 -1402 0
14326 -1338 0
13195 1466 1436 -997 0
20735 1466 -1436 997 0
26673 1466 -1436 -997 0
24505 -1466 1436 997 0
29123 -1466 1436 -997 0
31762 -1466 -1436 997 0
33840 -1466 -1436 -997 0
2140 1261 944 -1176 0
5350 1261 -944 1176 0
6420 1261 -944 -1176 0
9630 -1261 944 1176 0
9844 -1261 944 -1176 0
10165 -1261 -944 1176 0
10272 -1261 -944 -1176 0
16302 -1344 0
4290 1695 655 -1545 0
2145 1695 -655 1545 0
6221 1695 -655 -1545 0
25740 -1695 655 1545 0
27456 -1695 655 -1545 0
26598 -1695 -655 1545 0
28228 -1695 -655 -1545 0
7722 628 720 -1142 0
5148 628 -720 1142 0
11943 628 -720 -1142 0
2145 -628 720 1142 0
9481 -628 720 -1142 0
7036 -628 -720 1142 0
13491 -628 -720 -1142 0
11400 529 1296 -1173 0
4750 529 -1296 1173 0
13300 529 -1296 -1173 0
950 -529 1296 1173 0
11780 -529 1296 -1173 0
5463 -529 -1296 1173 0
13585 -529 -1296 -1173 0
11310 762 1102 -768 0
13195 762 -1102 768 0
20547 762 -1102 -768 0
35815 -762 1102 768 0
36381 -762 1102 -768 0
36475 -762 -1102 768 0
36842 -762 -1102 -768 0
754 959 -836 0
13195 -959 836 0
13685 -959 -836 0
13300 974 -701 0
2850 -974 701 0
14155 -974 -701 0
4960 1668 1483 -1216 0
124 1668 -1483 1216 0
4985 1668 -1483 -1216 0
4030 -1668 1483 1216 0
5766 -1668 1483 -1216 0
4073 -1668 -1483 1216 0
5775 -1668 -1483 -1216 0
34320 1580 1298 -622 0
36465 1580 -1298 622 0
41613 1580 -1298 -622 0
10725 -1580 1298 622 0
36465 -1580 1298 -622 0
38074 -1580 -1298 622 0
41935 -1580 -1298 -622 0
13195 1241 573 -1528 0
35815 1241 -573 1528 0
36475 1241 -573 -1528 0
12064 -1241 573 1528 0
21037 -1241 573 -1528 0
36418 -1241 -573 1528 0
36867 -1241 -573 -1528 0
4960 1530 506 -1299 0
5890 1530 -506 1299 0
6138 1530 -506 -1299 0
1550 -1530 506 1299 0
5270 -1530 506 -1299 0
5967 -1530 -506 1299 0
6154 -1530 -506 -1299 0
5350 1079 792 -1154 0
4066 1079 -792 1154 0
7383 1079 -792 -1154 0
10165 -1079 792 1154 0
10433 -1079 792 -1154 0
10368 -1079 -792 1154 0
10534 -1079 -792 -1154 0
3770 1487 1284 -1369 0
15080 1487 -1284 1369 0
17342 1487 -1284 -1369 0
14326 -1487 1284 1369 0
16663 -1487 1284 -1369 0
23676 -1487 -1284 1369 0
25078 -1487 -1284 -1369 0
310 1550 1290 -867 0
1860 1550 -1290 867 0
2077 1550 -1290 -867 0
4340 -1550 1290 867 0
4433 -1550 1290 -867 0
4898 -1550 -1290 867 0
4963 -1550 -1290 -867 0
11400 743 1682 -1055 0
2280 743 -1682 1055 0
12312 743 -1682 -1055 0
11400 -743 1682 1055 0
15960 -743 1682 -1055 0
12312 -743 -1682 1055 0
16325 -743 -1682 -1055 0
9630 1459 1490 -1496 0
1605 1459 -1490 1496 0
9791 1459 -1490 -1496 0
9095 -1459 1490 1496 0
10539 -1459 1490 -1496 0
9336 -1459 -1490 1496 0
10564 -1459 -1490 -1496 0
9630 938 588 -1456 0
8025 938 -588 1456 0
10433 938 -588 -1456 0
1284 -938 588 1456 0
9758 -938 588 -1456 0
8346 -938 -588 1456 0
10465 -938 -588 -1456 0
15200 1560 1120 -1473 0
6650 1560 -1120 1473 0
16530 1560 -1120 -1473 0
380 -1560 1120 1473 0
15276 -1560 1120 -1473 0
6897 -1560 -1120 1473 0
16579 -1560 -1120 -1473 0
6650 1697 557 -1367 0
4750 1697 -557 1367 0
9737 1697 -557 -1367 0
950 -1697 557 1367 0
7268 -1697 557 -1367 0
5463 -1697 -557 1367 0
10201 -1697 -557 -1367 0
28275 513 957 -1375 0
12064 513 -957 1375 0
31291 513 -957 -1375 0
30160 -513 957 1375 0
35815 -513 957 -1375 0
32573 -513 -957 1375 0
36418 -513 -957 -1375 0
1984 -833 0
2170 892 1556 -1428 0
4650 892 -1556 1428 0
5193 892 -1556 -1428 0
1984 -892 1556 1428 0
3460 -892 1556 -1428 0
5146 -892 -1556 1428 0
5515 -892 -1556 -1428 0
535 1258 -893 0
6420 -1258 893 0
6634 -1258 -893 0
28275 1468 597 -505 0
16965 1468 -597 505 0
32516 1468 -597 -505 0
12064 -1468 597 505 0
31291 -1468 597 -505 0
23600 -1468 -597 505 0
34175 -1468 -597 -505 0
10725 1549 1072 -606 0
15015 1549 -1072 606 0
21986 1549 -1072 -606 0
30030 -1549 1072 606 0
33247 -1549 1072 -606 0
34534 -1549 -1072 606 0
36626 -1549 -1072 -606 0
7600 1503 1655 -1638 0
380 1503 -1655 1638 0
7828 1503 -1655 -1638 0
1900 -1503 1655 1638 0
8740 -1503 1655 -1638 0
2242 -1503 -1655 1638 0
8945 -1503 -1655 -1638 0
8560 1401 822 -713 0
8560 1401 -822 713 0
10272 1401 -822 -713 0
1605 -1401 822 713 0
8881 -1401 822 -713 0
8881 -1401 -822 713 0
10336 -1401 -822 -713 0
8550 816 -777 0
4750 -816 777 0
11162 -816 -777 0
2280 1497 1420 -748 0
7220 1497 -1420 748 0
8634 1497 -1420 -748 0
18050 -1497 1420 748 0
18164 -1497 1420 -748 0
18411 -1497 -1420 748 0
18482 -1497 -1420 -748 0
23595 1064 -1635 0
15015 -1064 1635 0
30352 -1064 -1635 0
11400 1254 -1532 0
14250 -1254 1532 0
17100 -1254 -1532 0
535 984 -1245 0
1070 -984 1245 0
1552 -984 -1245 0
27885 668 607 -914 0
27885 668 -607 914 0
37645 668 -607 -914 0
6435 -668 607 914 0
30137 -668 607 -914 0
30137 -668 -607 914 0
38433 -668 -607 -914 0
3720 1087 -1499 0
930 -1087 1499 0
4092 -1087 -1499 0
7600 1089 667 -913 0
6650 1089 -667 913 0
11590 1089 -667 -913 0
6080 -1089 667 913 0
11248 -1089 667 -913 0
10602 -1089 -667 913 0
13961 -1089 -667 -913 0
1926 761 1311 -1118 0
9095 761 -1311 1118 0
9384 761 -1311 -1118 0
4815 -761 1311 1118 0
5874 -761 1311 -1118 0
9817 -761 -1311 1118 0
9976 -761 -1311 -1118 0
744 584 1320 -778 0
3100 584 -1320 778 0
3472 584 -1320 -778 0
124 -584 1320 778 0
853 -584 1320 -778 0
3162 -584 -1320 778 0
3527 -584 -1320 -778 0
3420 637 1607 -687 0
2280 637 -1607 687 0
5290 637 -1607 -687 0
16150 -637 1607 687 0
16663 -637 1607 -687 0
16492 -637 -1607 687 0
16943 -637 -1607 -687 0
4815 834 1501 -1345 0
4815 834 -1501 1345 0
7463 834 -1501 -1345 0
3745 -834 1501 1345 0
6875 -834 1501 -1345 0
6875 -834 -1501 1345 0
8596 -834 -1501 -1345 0
26390 1252 -952 0
4524 -1252 952 0
27747 -1252 -952 0
33930 1398 -1353 0
32045 -1398 1353 0
37134 -1398 -1353 0
32045 1541 1686 -872 0
14326 1541 -1686 872 0
34194 1541 -1686 -872 0
30160 -1541 1686 872 0
36569 -1541 1686 -872 0
33025 -1541 -1686 872 0
36999 -1541 -1686 -872 0
3720 771 -964 0
5270 -771 964 0
5828 -771 -964 0
8560 1327 1679 -1335 0
8025 1327 -1679 1335 0
10165 1327 -1679 -1335 0
3745 -1327 1679 1335 0
9309 -1327 1679 -1335 0
8961 -1327 -1679 1335 0
10352 -1327 -1679 -1335 0
17100 -1105 0
3424 1656 -799 0
1284 -1656 799 0
4297 -1656 -799 0
17160 640 745 -851 0
19305 640 -745 851 0
28743 640 -745 -851 0
34320 -640 745 851 0
37752 -640 745 -851 0
38181 -640 -745 851 0
40069 -640 -745 -851 0
30160 1230 1519 -1571 0
16965 1230 -1519 1571 0
33553 1230 -1519 -1571 0
3770 -1230 1519 1571 0
30914 -1230 1519 -1571 0
19038 -1230 -1519 1571 0
33968 -1230 -1519 -1571 0
5270 793 -1403 0
5270 -793 1403 0
6061 -793 -1403 0
19305 564 1227 -1621 0
21450 564 -1227 1621 0
31102 564 -1227 -1621 0
4290 -564 1227 1621 0
21664 -564 1227 -1621 0
23595 -564 -1227 1621 0
32282 -564 -1227 -1621 0
20735 1091 819 -1579 0
28275 1091 -819 1579 0
33459 1091 -819 -1579 0
33930 -1091 819 1579 0
36004 -1091 819 -1579 0
36757 -1091 -819 1579 0
37276 -1091 -819 -1579 0
35815 1059 -1359 0
14326 -1059 1359 0
36531 -1059 -1359 0
124 989 928 -846 0
620 989 -928 846 0
732 989 -928 -846 0
4340 -989 928 846 0
4377 -989 928 -846 0
4526 -989 -928 846 0
4559 -989 -928 -846 0
7540 -850 0
2140 572 905 -663 0
3745 572 -905 663 0
5136 572 -905 -663 0
9095 -572 905 663 0
9416 -572 905 -663 0
9657 -572 -905 663 0
9865 -572 -905 -663 0
3210 -1442 0
1240 535 600 -514 0
310 535 -600 514 0
1488 535 -600 -514 0
1984 -535 600 514 0
2827 -535 600 -514 0
2195 -535 -600 514 0
2996 -535 -600 -514 0
28275 -1155 0
7220 -1462 0
15200 -1048 0
18850 1023 -1054 0
28275 -1023 1054 0
32988 -1023 -1054 0
8025 1677 954 -1138 0
6420 1677 -954 1138 0
9630 1677 -954 -1138 0
6955 -1677 954 1138 0
9764 -1677 954 -1138 0
9202 -1677 -954 1138 0
10325 -1677 -954 -1138 0
16302 578 -1663 0
34320 -578 1663 0
37580 -578 -1663 0
23595 -1163 0
2675 1525 1647 -1159 0
3424 1525 -1647 1159 0
5243 1525 -1647 -1159 0
3424 -1525 1647 1159 0
5243 -1525 1647 -1159 0
5752 -1525 -1647 1159 0
6989 -1525 -1647 -1159 0
34320 -1309 0
16302 1583 1164 -800 0
8580 1583 -1164 800 0
21622 1583 -1164 -800 0
13728 -1583 1164 800 0
24813 -1583 1164 -800 0
19562 -1583 -1164 800 0
28431 -1583 -1164 -800 0
18050 1641 916 -518 0
4750 1641 -916 518 0
18287 1641 -916 -518 0
4750 -1641 916 518 0
18287 -1641 916 -518 0
8312 -1641 -916 518 0
18466 -1641 -916 -518 0
8580 922 1652 -1035 0
23595 922 -1652 1035 0
27456 922 -1652 -1035 0
17160 -922 1652 1035 0
22308 -922 1652 -1035 0
31317 -922 -1652 1035 0
33634 -922 -1652 -1035 0
310 1411 689 -1148 0
310 1411 -689 1148 0
605 1411 -689 -1148 0
2356 -1411 689 1148 0
2548 -1411 689 -1148 0
2548 -1411 -689 1148 0
2731 -1411 -689 -1148 0
5655 1397 -730 0
35815 -1397 730 0
36098 -1397 -730 0
6650 757 -1070 0
8550 -757 1070 0
12207 -757 -1070 0
5890 1238 -618 0
3720 -1238 618 0
6076 -1238 -618 0
7600 1508 1239 -561 0
8550 1508 -1239 561 0
12730 1508 -1239 -561 0
9500 -1508 1239 561 0
13300 -1508 1239 -561 0
13775 -1508 -1239 561 0
15865 -1508 -1239 -561 0
3420 1255 550 -830 0
6080 1255 -550 830 0
8406 1255 -550 -830 0
12350 -1255 550 830 0
13547 -1255 550 -830 0
14478 -1255 -550 830 0
15292 -1255 -550 -830 0
16150 -1392 0
1605 1274 824 -1596 0
214 1274 -824 1596 0
1787 1274 -824 -1596 0
1070 -1274 824 1596 0
2514 -1274 824 -1596 0
1263 -1274 -824 1596 0
2678 -1274 -824 -1596 0
1885 787 -1334 0
24505 -787 1334 0
25165 -787 -1334 0
2675 707 1417 -683 0
9095 707 -1417 683 0
9496 707 -1417 -683 0
535 -707 1417 683 0
3076 -707 1417 -683 0
9175 -707 -1417 683 0
9556 -707 -1417 -683 0
9500 1645 -759 0
950 -1645 759 0
9975 -1645 -759 0
14250 -996 0
13195 1229 783 -1217 0
24505 1229 -783 1217 0
29123 1229 -783 -1217 0
754 -1229 783 1217 0
13685 -1229 783 -1217 0
24769 -1229 -783 1217 0
29295 -1229 -783 -1217 0
3420 978 1586 -985 0
17100 978 -1586 985 0
17442 978 -1586 -985 0
5700 -978 1586 985 0
8094 -978 1586 -985 0
17670 -978 -1586 985 0
17909 -978 -1586 -985 0
620 -1585 0
3210 1362 -546 0
4815 -1362 546 0
6580 -1362 -546 0
310 661 642 -526 0
310 661 -642 526 0
605 661 -642 -526 0
620 -661 642 526 0
899 -661 642 -526 0
899 -661 -642 526 0
1164 -661 -642 -526 0
34320 1218 968 -1563 0
25740 1218 -968 1563 0
39468 1218 -968 -1563 0
6435 -1218 968 1563 0
35607 -1218 968 -1563 0
28314 -1218 -968 1563 0
39983 -1218 -968 -1563 0
744 1051 632 -884 0
3100 1051 -632 884 0
3472 1051 -632 -884 0
1550 -1051 632 884 0
2108 -1051 632 -884 0
3875 -1051 -632 884 0
4154 -1051 -632 -884 0
12064 902 -1006 0
5655 -902 1006 0
15909 -902 -1006 0
13300 1248 1588 -815 0
3420 1248 -1588 815 0
14326 1248 -1588 -815 0
15200 -1248 1588 815 0
17860 -1248 1588 -815 0
15884 -1248 -1588 815 0
18065 -1248 -1588 -815 0
32045 587 -558 0
13195 -587 558 0
34024 -587 -558 0
6955 1302 1066 -818 0
8025 1302 -1066 818 0
9764 1302 -1066 -818 0
10165 -1302 1066 818 0
10513 -1302 1066 -818 0
10566 -1302 -1066 818 0
10653 -1302 -1066 -818 0
8025 1266 747 -1554 0
9630 1266 -747 1554 0
10433 1266 -747 -1554 0
8025 -1266 747 1554 0
10031 -1266 747 -1554 0
10433 -1266 -747 1554 0
10633 -1266 -747 -1554 0
24505 -1654 0
1550 1077 1306 -1408 0
2356 1077 -1306 1408 0
3317 1077 -1306 -1408 0
1984 -1077 1306 1408 0
3038 -1077 1306 -1408 0
3586 -1077 -1306 1408 0
4240 -1077 -1306 -1408 0
32175 1427 -1228 0
17160 -1427 1228 0
36465 -1427 -1228 0
5580 1581 -1471 0
5270 -1581 1471 0
6107 -1581 -1471 0
1900 1574 -1277 0
15200 -1574 1277 0
15580 -1574 -1277 0
11400 1690 559 -849 0
18050 1690 -559 849 0
18620 1690 -559 -849 0
2850 -1690 559 849 0
12540 -1690 559 -849 0
18193 -1690 -559 849 0
18677 -1690 -559 -849 0
32045 880 1096 -806 0
33930 880 -1096 806 0
37134 880 -1096 -806 0
22620 -880 1096 806 0
35438 -880 1096 -806 0
36192 -880 -1096 806 0
37474 -880 -1096 -806 0
1926 -1316 0
11310 723 1272 -870 0
32045 723 -1272 870 0
33742 723 -1272 -870 0
18850 -723 1272 870 0
24505 -723 1272 -870 0
34873 -723 -1272 870 0
35721 -723 -1272 -870 0
4066 1464 854 -1295 0
3745 1464 -854 1295 0
6388 1464 -854 -1295 0
1070 -1464 854 1295 0
4729 -1464 854 -1295 0
4440 -1464 -854 1295 0
6819 -1464 -854 -1295 0
18050 586 1527 -1106 0
3420 586 -1527 1106 0
18221 586 -1527 -1106 0
12350 -586 1527 1106 0
18667 -586 1527 -1106 0
13547 -586 -1527 1106 0
18727 -586 -1527 -1106 0
3720 863 -1025 0
310 -863 1025 0
3844 -863 -1025 0
1984 1564 -1243 0
4340 -1564 1243 0
4935 -1564 -1243 0
5270 1382 1061 -612 0
1984 1382 -1061 612 0
5568 1382 -1061 -612 0
3100 -1382 1061 612 0
5735 -1382 1061 -612 0
4092 -1382 -1061 612 0
5884 -1382 -1061 -612 0
13195 821 -1308 0
32045 -821 1308 0
34024 -821 -1308 0
21450 665 1031 -991 0
2145 665 -1031 991 0
22523 665 -1031 -991 0
8580 -665 1031 991 0
25740 -665 1031 -991 0
10296 -665 -1031 991 0
26598 -665 -1031 -991 0
6786 1198 653 -1175 0
28275 1198 -653 1175 0
29971 1198 -653 -1175 0
9425 -1198 653 1175 0
14515 -1198 653 -1175 0
30631 -1198 -653 1175 0
31904 -1198 -653 -1175 0
5350 -988 0
1984 1450 936 -1156 0
2790 1450 -936 1156 0
3881 1450 -936 -1156 0
1240 -1450 936 1156 0
2827 -1450 936 -1156 0
3472 -1450 -936 1156 0
4345 -1450 -936 -1156 0
25740 906 593 -1281 0
21450 906 -593 1281 0
34320 906 -593 -1281 0
5148 -906 593 1281 0
27799 -906 593 -1281 0
24024 -906 -593 1281 0
35350 -906 -593 -1281 0
19305 941 980 -1247 0
7722 941 -980 1247 0
23552 941 -980 -1247 0
15015 -941 980 1247 0
27563 -941 980 -1247 0
20034 -941 -980 1247 0
30324 -941 -980 -1247 0
16965 549 1151 -817 0
32045 549 -1151 817 0
34590 549 -1151 -817 0
20735 -549 1151 817 0
28369 -549 1151 -817 0
35155 -549 -1151 817 0
36300 -549 -1151 -817 0
3210 1103 -831 0
1605 -1103 831 0
4334 -1103 -831 0
3720 1152 -1693 0
5890 -1152 1693 0
6076 -1152 -1693 0
2140 -1445 0
15080 891 -643 0
32045 -891 643 0
34307 -891 -643 0
18850 1318 -1169 0
3770 -1318 1169 0
20735 -1318 -1169 0
5885 -1003 0
4524 -881 0
950 1458 1517 -1180 0
3420 1458 -1517 1180 0
4199 1458 -1517 -1180 0
1900 -1458 1517 1180 0
2755 -1458 1517 -1180 0
4978 -1458 -1517 1180 0
5679 -1458 -1517 -1180 0
19305 1390 -754 0
2145 -1390 754 0
20485 -1390 -754 0
4066 -1267 0
4066 763 1485 -812 0
6955 763 -1485 812 0
8378 763 -1485 -812 0
1284 -763 1485 812 0
4862 -763 1485 -812 0
7404 -763 -1485 812 0
8657 -763 -1485 -812 0
1284 1612 -523 0
3210 -1612 523 0
4109 -1612 -523 0
18850 1197 -1032 0
3770 -1197 1032 0
20735 -1197 -1032 0
2356 1352 -1293 0
3410 -1352 1293 0
4470 -1352 -1293 0
6435 1088 1190 -690 0
4290 1088 -1190 690 0
10081 1088 -1190 -690 0
16302 -1088 1190 690 0
20292 -1088 1190 -690 0
18962 -1088 -1190 690 0
22553 -1088 -1190 -690 0
3745 1680 1616 -1303 0
1284 1680 -1616 1303 0
4580 1680 -1616 -1303 0
9095 -1680 1616 1303 0
9657 -1680 1616 -1303 0
9288 -1680 -1616 1303 0
9782 -1680 -1616 -1303 0
18850 1004 -1001 0
18850 -1004 1001 0
28275 -1004 -1001 0
1885 810 1094 -1286 0
5655 810 -1094 1286 0
7257 810 -1094 -1286 0
14326 -810 1094 1286 0
15495 -810 1094 -1286 0
17832 -810 -1094 1286 0
18825 -810 -1094 -1286 0
6420 732 -710 0
8025 -732 710 0
9630 -732 -710 0
2145 1372 -1696 0
13728 -1372 1696 0
15187 -1372 -1696 0
3210 1271 -1659 0
1926 -1271 1659 0
4558 -1271 -1659 0
2140 982 585 -899 0
8025 982 -585 899 0
8560 982 -585 -899 0
1605 -982 585 899 0
3424 -982 585 -899 0
8426 -982 -585 899 0
8881 -982 -585 -899 0
620 1598 -1294 0
5580 -1598 1294 0
5642 -1598 -1294 0
2170 540 -1460 0
1240 -540 1460 0
2976 -540 -1460 0
2850 1265 -672 0
380 -1265 672 0
3173 -1265 -672 0
18050 1346 1521 -923 0
950 1346 -1521 923 0
18097 1346 -1521 -923 0
7600 -1346 1521 923 0
18430 -1346 1521 -923 0
8170 -1346 -1521 923 0
18459 -1346 -1521 -923 0
13195 1058 755 -1350 0
18850 1058 -755 1350 0
25448 1058 -755 -1350 0
6786 -1058 755 1350 0
17606 -1058 755 -1350 0
22243 -1058 -755 1350 0
27653 -1058 -755 -1350 0
2790 605 -951 0
744 -605 951 0
3199 -605 -951 0
4960 -590 0
6080 1016 548 -1467 0
5700 1016 -548 1467 0
9956 1016 -548 -1467 0
950 -1016 548 1467 0
6726 -1016 548 -1467 0
6365 -1016 -548 1467 0
10408 -1016 -548 -1467 0
3410 808 1188 -721 0
744 808 -1188 721 0
3745 808 -1188 -721 0
1550 -808 1188 721 0
4108 -808 1188 -721 0
2108 -808 -1188 721 0
4359 -808 -1188 -721 0
1900 -1361 0
16150 1388 767 -1104 0
16150 1388 -767 1104 0
18572 1388 -767 -1104 0
5700 -1388 767 1104 0
17005 -1388 767 -1104 0
17005 -1388 -767 1104 0
18701 -1388 -767 -1104 0
9425 1185 1022 -1609 0
3770 1185 -1022 1609 0
12252 1185 -1022 -1609 0
4524 -1185 1022 1609 0
12818 -1185 1022 -1609 0
7842 -1185 -1022 1609 0
15306 -1185 -1022 -1609 0
18850 770 1330 -610 0
15080 770 -1330 610 0
26390 770 -1330 -610 0
5655 -770 1330 610 0
21677 -770 1330 -610 0
18473 -770 -1330 610 0
28087 -770 -1330 -610 0
3420 1160 -547 0
12350 -1160 547 0
13547 -1160 -547 0
1070 1195 -729 0
1605 -1195 729 0
2514 -1195 -729 0
18850 1482 1500 -1589 0
16965 1482 -1500 1589 0
27332 1482 -1500 -1589 0
20735 -1482 1500 1589 0
29218 -1482 1500 -1589 0
28369 -1482 -1500 1589 0
33035 -1482 -1500 -1589 0
5580 1021 -1045 0
4960 -1021 1045 0
6076 -1021 -1045 0
33930 1478 1662 -1448 0
15080 1478 -1662 1448 0
35438 1478 -1662 -1448 0
4524 -1478 1662 1448 0
34382 -1478 1662 -1448 0
17794 -1478 -1662 1448 0
35709 -1478 -1662 -1448 0
1860 1507 1529 -1179 0
5580 1507 -1529 1179 0
5766 1507 -1529 -1179 0
620 -1507 1529 1179 0
2294 -1507 1529 -1179 0
5642 -1507 -1529 1179 0
5809 -1507 -1529 -1179 0
10725 -1268 0
744 -694 0
4066 1671 -699 0
6955 -1671 699 0
8378 -1671 -699 0
30030 563 -1486 0
16302 -563 1486 0
34921 -563 -1486 0
3424 1633 1384 -900 0
10165 1633 -1384 900 0
10336 1633 -1384 -900 0
5885 -1633 1384 900 0
7426 -1633 1384 -900 0
10459 -1633 -1384 900 0
10536 -1633 -1384 -900 0
3720 502 569 -704 0
744 502 -569 704 0
4018 502 -569 -704 0
5270 -502 569 704 0
5828 -502 569 -704 0
5382 -502 -569 704 0
5873 -502 -569 -704 0
12064 1181 -711 0
30160 -1181 711 0
32573 -1181 -711 0
2140 1158 1084 -1593 0
1070 1158 -1084 1593 0
2996 1158 -1084 -1593 0
5350 -1158 1084 1593 0
6420 -1158 1084 -1593 0
5885 -1158 -1084 1593 0
6848 -1158 -1084 -1593 0
6650 696 -1624 0
1900 -696 1624 0
7885 -696 -1624 0
1550 -1431 0
7722 -1629 0
14250 695 769 -1037 0
7220 695 -769 1037 0
16055 695 -769 -1037 0
18050 -695 769 1037 0
18762 -695 769 -1037 0
18411 -695 -769 1037 0
18853 -695 -769 -1037 0
1605 1537 715 -1699 0
535 1537 -715 1699 0
2060 1537 -715 -1699 0
8560 -1537 715 1699 0
8881 -1537 715 -1699 0
8667 -1537 -715 1699 0
8972 -1537 -715 -1699 0
124 1494 -907 0
1984 -1494 907 0
2068 -1494 -907 0
2850 803 -1615 0
11400 -803 1615 0
12540 -803 -1615 0
6420 860 -1675 0
7490 -860 1675 0
9416 -860 -1675 0
8025 1376 -820 0
9630 -1376 820 0
10433 -1376 -820 0
1926 823 933 -942 0
4280 823 -933 942 0
5436 823 -933 -942 0
6955 -823 933 942 0
7629 -823 933 -942 0
8453 -823 -933 942 0
8857 -823 -933 -942 0
8025 1565 1669 -515 0
2140 1565 -1669 515 0
8560 1565 -1669 -515 0
3210 -1565 1669 515 0
8827 -1565 1669 -515 0
4708 -1565 -1669 515 0
9202 -1565 -1669 -515 0
16150 -1086 0
24505 1600 1575 -1489 0
24505 1600 -1575 1489 0
33082 1600 -1575 -1489 0
35815 -1600 1575 1489 0
37040 -1600 1575 -1489 0
37040 -1600 -1575 1489 0
37469 -1600 -1575 -1489 0
18050 1414 1358 -503 0
1900 1414 -1358 503 0
18145 1414 -1358 -503 0
950 -1414 1358 503 0
18097 -1414 1358 -503 0
2755 -1414 -1358 503 0
18188 -1414 -1358 -503 0
40755 1033 511 -532 0
16302 1033 -511 532 0
41570 1033 -511 -532 0
30030 -1033 511 532 0
42256 -1033 511 -532 0
34921 -1033 -511 532 0
42501 -1033 -511 -532 0
6955 654 -1465 0
214 -654 1465 0
7030 -654 -1465 0
26390 1410 -1568 0
14326 -1410 1568 0
30688 -1410 -1568 0
9425 742 -1622 0
18850 -742 1622 0
23562 -742 -1622 0
6955 627 -735 0
3210 -627 735 0
8078 -627 -735 0
7220 -856 0
13300 882 -930 0
7220 -882 930 0
15466 -882 -930 0
6786 932 1438 -1399 0
15080 932 -1438 1399 0
19152 932 -1438 -1399 0
26390 -932 1438 1399 0
28426 -932 1438 -1399 0
30914 -932 -1438 1399 0
32135 -932 -1438 -1399 0
5148 739 1491 -604 0
32175 739 -1491 604 0
33462 739 -1491 -604 0
32175 -739 1491 604 0
33462 -739 1491 -604 0
40219 -739 -1491 604 0
40540 -739 -1491 -604 0
10450 680 1082 -889 0
2850 680 -1082 889 0
11733 680 -1082 -889 0
2850 -680 1082 889 0
11733 -680 1082 -889 0
5273 -680 -1082 889 0
12823 -680 -1082 -889 0
2145 1637 1357 -1305 0
12870 1637 -1357 1305 0
14372 1637 -1357 -1305 0
4290 -1637 1357 1305 0
6221 -1637 1357 -1305 0
15873 -1637 -1357 1305 0
17224 -1637 -1357 -1305 0
1900 -862 0
2850 1542 -1551 0
6080 -1542 1551 0
8018 -1542 -1551 0
8560 844 852 -1315 0
4815 844 -852 1315 0
9523 844 -852 -1315 0
10165 -844 852 1315 0
10593 -844 852 -1315 0
10406 -844 -852 1315 0
10641 -844 -852 -1315 0
40755 1056 -613 0
25740 -1056 613 0
42042 -1056 -613 0
9630 574 -827 0
9095 -574 827 0
10539 -574 -827 0
2356 1340 1095 -1355 0
4650 1340 -1095 1355 0
5239 1340 -1095 -1355 0
4960 -1340 1095 1355 0
5431 -1340 1095 -1355 0
5890 -1340 -1095 1355 0
6008 -1340 -1095 -1355 0
18050 1177 -1146 0
14250 -1177 1146 0
18762 -1177 -1146 0
2140 1419 1283 -1233 0
214 1419 -1283 1233 0
2311 1419 -1283 -1233 0
4066 -1419 1283 1233 0
5393 -1419 1283 -1233 0
4199 -1419 -1283 1233 0
5499 -1419 -1283 -1233 0
24505 1688 725 -1279 0
3770 1688 -725 1279 0
25825 1688 -725 -1279 0
24505 -1688 725 1279 0
33082 -1688 725 -1279 0
25825 -1688 -725 1279 0
33544 -1688 -725 -1279 0
3745 1660 917 -788 0
6420 1660 -917 788 0
7918 1660 -917 -788 0
10165 -1660 917 788 0
10352 -1660 917 -788 0
10486 -1660 -917 788 0
10561 -1660 -917 -788 0
5270 1364 717 -1107 0
2480 1364 -717 1107 0
5642 1364 -717 -1107 0
1116 -1364 717 1107 0
5437 -1364 717 -1107 0
3150 -1364 -717 1107 0
5742 -1364 -717 -1107 0
18850 839 -703 0
26390 -839 703 0
32045 -839 -703 0
3210 1280 -575 0
6420 -1280 575 0
7704 -1280 -575 0
5350 1122 -1457 0
2140 -1122 1457 0
6420 -1122 -1457 0
26390 519 848 -1413 0
35815 519 -848 1413 0
37134 519 -848 -1413 0
32045 -519 848 1413 0
36003 -519 848 -1413 0
37417 -519 -848 1413 0
37615 -519 -848 -1413 0
1550 764 -589 0
2170 -764 589 0
3177 -764 -589 0
8580 698 -1119 0
21450 -698 1119 0
25740 -698 -1119 0
858 -1115 0
7220 1636 801 -1165 0
2280 1636 -801 1165 0
8634 1636 -801 -1165 0
380 -1636 801 1165 0
7456 -1636 801 -1165 0
2614 -1636 -801 1165 0
8841 -1636 -801 -1165 0
13195 1092 1235 -726 0
24505 1092 -1235 726 0
29123 1092 -1235 -726 0
32045 -1092 1235 726 0
34024 -1092 1235 -726 0
35721 -1092 -1235 726 0
36413 -1092 -1235 -726 0
9500 1137 1172 -1168 0
11400 1137 -1172 1168 0
15200 1137 -1172 -1168 0
2850 -1137 1172 1168 0
10925 -1137 1172 -1168 0
12540 -1137 -1172 1168 0
15770 -1137 -1172 -1168 0
16965 1463 1193 -1270 0
18850 1463 -1193 1270 0
27332 1463 -1193 -1270 0
33930 -1463 1193 1270 0
35627 -1463 1193 -1270 0
35815 -1463 -1193 1270 0
36663 -1463 -1193 -1270 0
4340 1449 -1269 0
3410 -1449 1269 0
5363 -1449 -1269 0
16302 1535 -781 0
12870 -1535 781 0
24281 -1535 -781 0
2850 1400 -620 0
380 -1400 620 0
3173 -1400 -620 0
6955 1287 1430 -1282 0
3210 1287 -1430 1282 0
8078 1287 -1430 -1282 0
8560 -1287 1430 1282 0
9951 -1287 1430 -1282 0
9202 -1287 -1430 1282 0
10176 -1287 -1430 -1282 0
4650 1260 1020 -1363 0
620 1260 -1020 1363 0
4805 1260 -1020 -1363 0
1550 -1260 1020 1363 0
5038 -1260 1020 -1363 0
2015 -1260 -1020 1363 0
5154 -1260 -1020 -1363 0
3770 1121 741 -955 0
12064 1121 -741 955 0
14628 1121 -741 -955 0
20735 -1121 741 955 0
22431 -1121 741 -955 0
26164 -1121 -741 955 0
27317 -1121 -741 -955 0
25740 1161 648 -1047 0
4290 1161 -648 1047 0
27456 1161 -648 -1047 0
10725 -1161 648 1047 0
30030 -1161 648 -1047 0
13942 -1161 -648 1047 0
31317 -1161 -648 -1047 0
4290 576 853 -1407 0
21450 576 -853 1407 0
23595 576 -853 -1407 0
30030 -576 853 1407 0
31317 -576 853 -1407 0
36465 -576 -853 1407 0
37108 -576 -853 -1407 0
16150 842 -517 0
1900 -842 517 0
16435 -842 -517 0
34320 660 758 -1547 0
15015 660 -758 1547 0
37323 660 -758 -1547 0
8580 -660 758 1547 0
36036 -660 758 -1547 0
20592 -660 -758 1547 0
38438 -660 -758 -1547 0
754 -1256 0
8580 1582 1018 -1628 0
16302 1582 -1018 1628 0
21622 1582 -1018 -1628 0
17160 -1582 1018 1628 0
22308 -1582 1018 -1628 0
26941 -1582 -1018 1628 0
30133 -1582 -1018 -1628 0
38610 1474 719 -1379 0
36465 1474 -719 1379 0
42256 1474 -719 -1379 0
7722 -1474 719 1379 0
39382 -1474 719 -1379 0
37623 -1474 -719 1379 0
42372 -1474 -719 -1379 0
3410 1202 1110 -507 0
4960 1202 -1110 507 0
5642 1202 -1110 -507 0
2790 -1202 1110 507 0
4665 -1202 1110 -507 0
5518 -1202 -1110 507 0
5893 -1202 -1110 -507 0
9095 1036 -1134 0
3745 -1036 1134 0
9657 -1036 -1134 0
620 1365 -1453 0
4030 -1365 1453 0
4247 -1365 -1453 0
16302 -1661 0
17160 825 -1394 0
32175 -825 1394 0
36465 -825 -1394 0
32045 953 -581 0
15080 -953 581 0
34307 -953 -581 0
6080 1356 603 -1221 0
10450 1356 -603 1221 0
13186 1356 -603 -1221 0
11400 -1356 603 1221 0
13832 -1356 603 -1221 0
15580 -1356 -603 1221 0
16674 -1356 -603 -1221 0
2790 1354 1492 -948 0
620 1354 -1492 948 0
3131 1354 -1492 -948 0
3410 -1354 1492 948 0
4665 -1354 1492 -948 0
3689 -1354 -1492 948 0
4819 -1354 -1492 -948 0
7540 1477 -804 0
9425 -1477 804 0
15080 -1477 -804 0
33930 1333 937 -1470 0
12064 1333 -937 1470 0
35136 1333 -937 -1470 0
11310 -1333 937 1470 0
35061 -1333 937 -1470 0
19755 -1333 -937 1470 0
35905 -1333 -937 -1470 0
1926 510 551 -1378 0
10165 510 -551 1378 0
10261 510 -551 -1378 0
8025 -510 551 1378 0
8506 -510 551 -1378 0
10566 -510 -551 1378 0
10590 -510 -551 -1378 0
14326 1130 -531 0
24505 -1130 531 0
29519 -1130 -531 0
7490 709 871 -1085 0
5350 709 -871 1085 0
9095 709 -871 -1085 0
9095 -709 871 1085 0
10219 -709 871 -1085 0
9898 -709 -871 1085 0
10459 -709 -871 -1085 0
4524 956 -1244 0
15080 -956 1244 0
17794 -956 -1244 0
8560 1008 1592 -596 0
5350 1008 -1592 596 0
9630 1008 -1592 -596 0
7490 -1008 1592 596 0
10058 -1008 1592 -596 0
9095 -1008 -1592 596 0
10379 -1008 -1592 -596 0
4650 1385 -727 0
2356 -1385 727 0
5239 -1385 -727 0
4066 1226 -1601 0
5885 -1226 1601 0
7715 -1226 -1601 0
6786 -962 0
9630 1351 1475 -1052 0
4066 1351 -1475 1052 0
10037 1351 -1475 -1052 0
1926 -1351 1475 1052 0
9823 -1351 1475 -1052 0
5260 -1351 -1475 1052 0
10156 -1351 -1475 -1052 0
33930 616 -915 0
16965 -616 915 0
35627 -616 -915 0
124 697 1323 -714 0
1240 697 -1323 714 0
1339 697 -1323 -714 0
3410 -697 1323 714 0
3466 -697 1323 -714 0
3968 -697 -1323 714 0
4013 -697 -1323 -714 0
13728 1232 -1672 0
12870 -1232 1672 0
22480 -1232 -1672 0
9630 973 789 -1443 0
9095 973 -789 1443 0
10539 973 -789 -1443 0
8560 -973 789 1443 0
10486 -973 789 -1443 0
10379 -973 -789 1443 0
10668 -973 -789 -1443 0
3424 504 -1189 0
535 -504 1189 0
3788 -504 -1189 0
4340 1030 -664 0
5890 -1030 664 0
6107 -1030 -664 0
2850 656 794 -1234 0
8550 656 -794 1234 0
10117 656 -794 -1234 0
6650 -656 794 1234 0
8503 -656 794 -1234 0
12207 -656 -794 1234 0
13226 -656 -794 -1234 0
8550 1015 1538 -1196 0
12350 1015 -1538 1196 0
15343 1015 -1538 -1196 0
9500 -1015 1538 1196 0
13775 -1015 1538 -1196 0
15675 -1015 -1538 1196 0
17171 -1015 -1538 -1196 0
1860 577 1153 -644 0
1550 577 -1153 644 0
2945 577 -1153 -644 0
2480 -577 1153 644 0
3596 -577 1153 -644 0
3410 -577 -1153 644 0
4247 -577 -1153 -644 0
310 580 1291 -1562 0
5890 580 -1291 1562 0
5905 580 -1291 -1562 0
744 -580 1291 1562 0
1017 -580 1291 -1562 0
5927 -580 -1291 1562 0
5941 -580 -1291 -1562 0
5890 -1626 0
2145 -796 0
16965 998 -538 0
30160 -998 538 0
33553 -998 -538 0
744 1594 1577 -1440 0
4960 1594 -1577 1440 0
5109 1594 -1577 -1440 0
2170 -1594 1577 1440 0
2654 -1594 1577 -1440 0
5394 -1594 -1577 1440 0
5491 -1594 -1577 -1440 0
7722 706 1075 -1552 0
36465 706 -1075 1552 0
37623 706 -1075 -1552 0
32175 -706 1075 1552 0
34105 -706 1075 -1552 0
41291 -706 -1075 1552 0
41581 -706 -1075 -1552 0
4290 -534 0
6650 1285 835 -552 0
7220 1285 -835 552 0
11343 1285 -835 -552 0
10450 -1285 835 552 0
13443 -1285 835 -552 0
13699 -1285 -835 552 0
15554 -1285 -835 -552 0
2356 1013 967 -1183 0
3720 1013 -967 1183 0
4662 1013 -967 -1183 0
1984 -1013 967 1183 0
3586 -1013 967 -1183 0
4514 -1013 -967 1183 0
5154 -1013 -967 -1183 0
1900 1057 674 -1012 0
12350 1057 -674 1012 0
13015 1057 -674 -1012 0
14250 -1057 674 1012 0
14725 -1057 674 -1012 0
17338 -1057 -674 1012 0
17504 -1057 -674 -1012 0
13728 1278 516 -527 0
12870 1278 -516 527 0
22480 1278 -516 -527 0
25740 -1278 516 527 0
31231 -1278 516 -527 0
30888 -1278 -516 527 0
34732 -1278 -516 -527 0
4750 688 983 -1246 0
15200 688 -983 1246 0
16150 688 -983 -1246 0
5700 -688 983 1246 0
9025 -688 983 -1246 0
16340 -688 -983 1246 0
17005 -688 -983 -1246 0
6955 1124 898 -1606 0
214 1124 -898 1606 0
7030 1124 -898 -1606 0
1605 -1124 898 1606 0
7517 -1124 898 -1606 0
1787 -1124 -898 1606 0
7580 -1124 -898 -1606 0
15080 1461 1504 -1288 0
5655 1461 -1504 1288 0
18473 1461 -1504 -1288 0
32045 -1461 1504 1288 0
34307 -1461 1504 -1288 0
32893 -1461 -1504 1288 0
34816 -1461 -1504 -1288 0
25740 621 746 -890 0
5148 621 -746 890 0
27799 621 -746 -890 0
19305 -621 746 890 0
33462 -621 746 -890 0
22136 -621 -746 890 0
34595 -621 -746 -890 0
10725 -1207 0
6435 1219 1611 -1524 0
5148 1219 -1611 1524 0
10811 1219 -1611 -1524 0
6435 -1219 1611 1524 0
11905 -1219 1611 -1524 0
10811 -1219 -1611 1524 0
15624 -1219 -1611 -1524 0
40755 1167 1566 -972 0
34320 1167 -1566 972 0
42471 1167 -1566 -972 0
30030 -1167 1566 972 0
42256 -1167 1566 -972 0
40326 -1167 -1566 972 0
42771 -1167 -1566 -972 0
10165 1259 -1347 0
7490 -1259 1347 0
10539 -1259 -1347 0
3720 971 -1205 0
2356 -971 1205 0
4662 -971 -1205 0
4960 878 912 -749 0
930 878 -912 749 0
5146 878 -912 -749 0
1860 -878 912 749 0
5332 -878 912 -749 0
2511 -878 -912 749 0
5462 -878 -912 -749 0
380 646 829 -926 0
380 646 -829 926 0
752 646 -829 -926 0
2280 -646 829 926 0
2614 -646 829 -926 0
2614 -646 -829 926 0
2942 -646 -829 -926 0
1240 814 -650 0
1860 -814 650 0
2728 -814 -650 0
2850 1127 1062 -864 0
7600 1127 -1062 864 0
9310 1127 -1062 -864 0
6080 -1127 1062 864 0
8018 -1127 1062 -864 0
11248 -1127 -1062 864 0
12411 -1127 -1062 -864 0
22620 -1113 0
8580 1587 737 -1536 0
15015 1587 -737 1536 0
20592 1587 -737 -1536 0
2145 -1587 737 1536 0
10296 -1587 737 -1536 0
16409 -1587 -737 1536 0
21707 -1587 -737 -1536 0
1605 1002 641 -1513 0
4066 1002 -641 1513 0
5061 1002 -641 -1513 0
1070 -1002 641 1513 0
2514 -1002 641 -1513 0
4729 -1002 -641 1513 0
5625 -1002 -641 -1513 0
13728 1374 554 -1576 0
21450 1374 -554 1576 0
28314 1374 -554 -1576 0
21450 -1374 554 1576 0
28314 -1374 554 -1576 0
32175 -1374 -554 1576 0
35607 -1374 -554 -1576 0
22620 -1639 0
3424 1591 712 -508 0
5350 1591 -712 508 0
7062 1591 -712 -508 0
5885 -1591 712 508 0
7426 -1591 712 -508 0
8292 -1591 -712 508 0
9063 -1591 -712 -508 0
4066 639 -1116 0
6955 -639 1116 0
8378 -639 -1116 0
6650 1101 592 -859 0
15200 1101 -592 859 0
16530 1101 -592 -859 0
15200 -1101 592 859 0
16530 -1101 592 -859 0
18240 -1101 -592 859 0
18506 -1101 -592 -859 0
12350 685 1610 -1184 0
9500 685 -1610 1184 0
15675 685 -1610 -1184 0
6650 -685 1610 1184 0
14678 -685 1610 -1184 0
12825 -685 -1610 1184 0
16839 -685 -1610 -1184 0
17160 1236 617 -841 0
30030 1236 -617 841 0
35178 1236 -617 -841 0
40755 -1236 617 841 0
41613 -1236 617 -841 0
42256 -1236 -617 841 0
42514 -1236 -617 -841 0
2280 947 -1128 0
1900 -947 1128 0
3952 -947 -1128 0
19305 970 1502 -1590 0
30030 970 -1502 1590 0
35821 970 -1502 -1590 0
16302 -970 1502 1590 0
28271 -970 1502 -1590 0
34921 -970 -1502 1590 0
38511 -970 -1502 -1590 0
3410 -1038 0
2140 1544 1429 -645 0
8560 1544 -1429 645 0
8988 1544 -1429 -645 0
6955 -1544 1429 645 0
7704 -1544 1429 -645 0
9951 -1544 -1429 645 0
10101 -1544 -1429 -645 0
12350 1368 528 -1514 0
9500 1368 -528 1514 0
15675 1368 -528 -1514 0
2280 -1368 528 1514 0
13148 -1368 528 -1514 0
10640 -1368 -528 1514 0
16074 -1368 -528 -1514 0
7490 1019 1131 -1301 0
10165 1019 -1131 1301 0
10539 1019 -1131 -1301 0
3424 -1019 1131 1301 0
8517 -1019 1131 -1301 0
10336 -1019 -1131 1301 0
10591 -1019 -1131 -1301 0
21450 802 1097 -1444 0
4290 802 -1097 1444 0
23595 802 -1097 -1444 0
30030 -802 1097 1444 0
36465 -802 1097 -1444 0
31317 -802 -1097 1444 0
37108 -802 -1097 -1444 0
3420 986 1132 -1623 0
11400 986 -1132 1623 0
12768 986 -1132 -1623 0
15200 -986 1132 1623 0
15884 -986 1132 -1623 0
17480 -986 -1132 1623 0
17754 -986 -1132 -1623 0
17100 -1472 0
9425 1599 1250 -960 0
18850 1599 -1250 960 0
23562 1599 -1250 -960 0
13195 -1599 1250 960 0
19321 -1599 1250 -960 0
25448 -1599 -1250 960 0
28511 -1599 -1250 -960 0
4030 1201 -615 0
124 -1201 615 0
4073 -1201 -615 0
2675 -1614 0
14250 775 809 -1081 0
2280 775 -809 1081 0
14820 775 -809 -1081 0
1900 -775 809 1081 0
14725 -775 809 -1081 0
3952 -775 -809 1081 0
15238 -775 -809 -1081 0
14326 -1484 0
9500 1336 634 -1348 0
4750 1336 -634 1348 0
11875 1336 -634 -1348 0
3800 -1336 634 1348 0
11400 -1336 634 -1348 0
7600 -1336 -634 1348 0
13300 -1336 -634 -1348 0
6420 599 -1631 0
1605 -599 1631 0
7062 -599 -1631 0
4290 1425 1605 -963 0
25740 1425 -1605 963 0
27456 1425 -1605 -963 0
25740 -1425 1605 963 0
27456 -1425 1605 -963 0
36036 -1425 -1605 963 0
36722 -1425 -1605 -963 0
3770 1418 -1209 0
18850 -1418 1209 0
20735 -1418 -1209 0
21450 1617 629 -1027 0
38610 1617 -629 1027 0
40755 1617 -629 -1027 0
2145 -1617 629 1027 0
22523 -1617 629 -1027 0
38825 -1617 -629 1027 0
40862 -1617 -629 -1027 0
2790 887 1069 -1387 0
4960 887 -1069 1387 0
5518 887 -1069 -1387 0
5270 -887 1069 1387 0
5688 -887 1069 -1387 0
6014 -887 -1069 1387 0
6098 -887 -1069 -1387 0
5655 1642 1649 -1518 0
28275 1642 -1649 1518 0
29689 1642 -1649 -1518 0
7540 -1642 1649 1518 0
12064 -1642 1649 -1518 0
30160 -1642 -1649 1518 0
31291 -1642 -1649 -1518 0
34320 1090 -733 0
34320 -1090 733 0
41184 -1090 -733 0
12064 1123 -1162 0
9425 -1123 1162 0
18473 -1123 -1162 0
28275 1135 -1620 0
13195 -1135 1620 0
31574 -1135 -1620 0
16965 1220 939 -1149 0
15080 1220 -939 1149 0
25259 1220 -939 -1149 0
1885 -1220 939 1149 0
18002 -1220 939 -1149 0
16211 -1220 -939 1149 0
25881 -1220 -939 -1149 0
8550 1573 910 -791 0
8550 1573 -910 791 0
13253 1573 -910 -791 0
10450 -1573 910 791 0
14297 -1573 910 -791 0
14297 -1573 -910 791 0
16414 -1573 -910 -791 0
15080 677 813 -895 0
4524 677 -813 895 0
17794 677 -813 -895 0
4524 -677 813 895 0
17794 -677 813 -895 0
8505 -677 -813 895 0
20183 -677 -813 -895 0
12064 734 1251 -1337 0
3770 734 -1251 1337 0
14628 734 -1251 -1337 0
26390 -734 1251 1337 0
30009 -734 1251 -1337 0
27521 -734 -1251 1337 0
30778 -734 -1251 -1337 0
2145 950 1412 -1646 0
17160 950 -1412 1646 0
18447 950 -1412 -1646 0
10725 -950 1412 1646 0
12334 -950 1412 -1646 0
23595 -950 -1412 1646 0
24560 -950 -1412 -1646 0
11400 -1011 0
3800 1314 1648 -753 0
10450 1314 -1648 753 0
12160 1314 -1648 -753 0
10450 -1314 1648 753 0
12160 -1314 1648 -753 0
15153 -1314 -1648 753 0
15922 -1314 -1648 -753 0
32175 -798 0
17100 1602 873 -1225 0
8550 1602 -873 1225 0
17955 1602 -873 -1225 0
7600 -1602 873 1225 0
17860 -1602 873 -1225 0
12730 -1602 -873 1225 0
18373 -1602 -873 -1225 0
3100 1370 -1014 0
2170 -1370 1014 0
4185 -1370 -1014 0
18850 929 -647 0
13195 -929 647 0
25448 -929 -647 0
15080 961 855 -1093 0
6786 961 -855 1093 0
19152 961 -855 -1093 0
13195 -961 855 1093 0
22997 -961 855 -1093 0
17606 -961 -855 1093 0
25644 -961 -855 -1093 0
2675 1488 708 -756 0
10165 1488 -708 756 0
10299 1488 -708 -756 0
5350 -1488 708 756 0
6688 -1488 708 -756 0
10433 -1488 -708 756 0
10499 -1488 -708 -756 0
4960 1383 614 -1506 0
5580 1383 -614 1506 0
6076 1383 -614 -1506 0
310 -1383 614 1506 0
5022 -1383 614 -1506 0
5611 -1383 -614 1506 0
6082 -1383 -614 -1506 0
7490 1143 525 -1643 0
8560 1143 -525 1643 0
10058 1143 -525 -1643 0
9630 -1143 525 1643 0
10379 -1143 525 -1643 0
10486 -1143 -525 1643 0
10636 -1143 -525 -1643 0
3420 1558 -1141 0
13300 -1558 1141 0
14326 -1558 -1141 0
24505 1479 1339 -918 0
1885 1479 -1339 918 0
25165 1479 -1339 -918 0
7540 -1479 1339 918 0
27144 -1479 1339 -918 0
9048 -1479 -1339 918 0
27672 -1479 -1339 -918 0
2850 1405 -1304 0
950 -1405 1304 0
3658 -1405 -1304 0
35815 -752 0
744 865 1480 -949 0
930 865 -1480 949 0
1562 865 -1480 -949 0
1116 -865 1480 949 0
1726 -865 1480 -949 0
1879 -865 -1480 949 0
2397 -865 -1480 -949 0
36465 1391 1567 -1111 0
8580 1391 -1567 1111 0
37752 1391 -1567 -1111 0
4290 -1391 1567 1111 0
37108 -1391 1567 -1111 0
12012 -1391 -1567 1111 0
38267 -1391 -1567 -1111 0
1284 925 1187 -1522 0
6420 925 -1187 1522 0
6934 925 -1187 -1522 0
4815 -925 1187 1522 0
5521 -925 1187 -1522 0
8346 -925 -1187 1522 0
8628 -925 -1187 -1522 0
1900 975 1044 -1109 0
6650 975 -1044 1109 0
7885 975 -1044 -1109 0
4750 -975 1044 1109 0
6175 -975 1044 -1109 0
9737 -975 -1044 1109 0
10664 -975 -1044 -1109 0
9095 888 -840 0
7490 -888 840 0
10219 -888 -840 0
3420 1632 782 -1526 0
2850 1632 -782 1526 0
5757 1632 -782 -1526 0
9500 -1632 782 1526 0
11210 -1632 782 -1526 0
10925 -1632 -782 1526 0
12378 -1632 -782 -1526 0
8560 1215 807 -1389 0
5885 1215 -807 1389 0
9737 1215 -807 -1389 0
9630 -1215 807 1389 0
10486 -1215 807 -1389 0
10219 -1215 -807 1389 0
10604 -1215 -807 -1389 0
1926 1000 1319 -1455 0
9630 1000 -1319 1455 0
9823 1000 -1319 -1455 0
1605 -1000 1319 1455 0
3242 -1000 1319 -1455 0
9791 -1000 -1319 1455 0
9954 -1000 -1319 -1455 0
1070 560 1331 -869 0
6955 560 -1331 869 0
7330 560 -1331 -869 0
9095 -560 1331 869 0
9255 -560 1331 -869 0
10138 -560 -1331 869 0
10194 -560 -1331 -869 0
950 624 1653 -1666 0
6080 624 -1653 1666 0
6726 624 -1653 -1666 0
10450 -624 1653 1666 0
10878 -624 1653 -1666 0
13186 -624 -1653 1666 0
13477 -624 -1653 -1666 0
9500 1673 1534 -1053 0
1900 1673 -1534 1053 0
10450 1673 -1534 -1053 0
1900 -1673 1534 1053 0
10450 -1673 1534 -1053 0
3610 -1673 -1534 1053 0
11305 -1673 -1534 -1053 0
5148 -598 0
2790 -765 0
4960 911 1343 -1068 0
744 911 -1343 1068 0
5109 911 -1343 -1068 0
1116 -911 1343 1068 0
5183 -911 1343 -1068 0
1726 -911 -1343 1068 0
5305 -911 -1343 -1068 0
15015 1029 -766 0
27885 -1029 766 0
33140 -1029 -766 0
380 1512 1685 -681 0
7600 1512 -1685 681 0
7828 1512 -1685 -681 0
7220 -1512 1685 681 0
7456 -1512 1685 -681 0
11932 -1512 -1685 681 0
12073 -1512 -1685 -681 0
858 1170 553 -1231 0
5148 1170 -553 1231 0
5903 1170 -553 -1231 0
13728 -1170 553 1231 0
14311 -1170 553 -1231 0
17229 -1170 -553 1231 0
17742 -1170 -553 -1231 0
10450 1063 -583 0
8550 -1063 583 0
14297 -1063 -583 0
22620 -1476 0
8550 1603 -718 0
2850 -1603 718 0
10117 -1603 -718 0
18850 594 1007 -633 0
11310 594 -1007 633 0
24505 594 -1007 -633 0
33930 -594 1007 633 0
35815 -594 1007 -633 0
35061 -594 -1007 633 0
36381 -594 -1007 -633 0
1984 1310 631 -1263 0
1240 1310 -631 1263 0
2827 1310 -631 -1263 0
1116 -1310 631 1263 0
2743 -1310 631 -1263 0
2133 -1310 -631 1263 0
3434 -1310 -631 -1263 0
4280 -609 0
27885 1028 1129 -1307 0
25740 1028 -1129 1307 0
36894 1028 -1129 -1307 0
30030 -1028 1129 1307 0
38395 -1028 1129 -1307 0
37752 -1028 -1129 1307 0
41098 -1028 -1129 -1307 0
1605 530 -1683 0
7490 -530 1683 0
7972 -530 -1683 0
32175 1264 1698 -861 0
2145 1264 -1698 861 0
32711 1264 -1698 -861 0
19305 -1264 1698 861 0
37001 -1264 1698 -861 0
20485 -1264 -1698 861 0
37296 -1264 -1698 -861 0
25740 562 -1108 0
27885 -562 1108 0
36894 -562 -1108 0
16302 1242 636 -1531 0
5148 1242 -636 1531 0
19494 1242 -636 -1531 0
10725 -1242 636 1531 0
22952 -1242 636 -1531 0
14586 -1242 -636 1531 0
25345 -1242 -636 -1531 0
930 1289 702 -673 0
744 1289 -702 673 0
1562 1289 -702 -673 0
2356 -1289 702 673 0
2933 -1289 702 -673 0
2817 -1289 -702 673 0
3325 -1289 -702 -673 0
18850 1206 1700 -1404 0
33930 1206 -1700 1404 0
35815 1206 -1700 -1404 0
14326 -1206 1700 1404 0
26013 -1206 1700 -1404 0
35363 -1206 -1700 1404 0
36531 -1206 -1700 -1404 0
4340 1010 1049 -1516 0
1116 1010 -1049 1516 0
4675 1010 -1049 -1516 0
2356 -1010 1049 1516 0
5047 -1010 1049 -1516 0
3048 -1010 -1049 1516 0
5254 -1010 -1049 -1516 0
32175 1212 1608 -1249 0
15015 1212 -1608 1249 0
35929 1212 -1608 -1249 0
858 -1212 1608 1249 0
32389 -1212 1608 -1249 0
15573 -1212 -1608 1249 0
36068 -1212 -1608 -1249 0
17160 1043 858 -1349 0
40755 1043 -858 1349 0
41613 1043 -858 -1349 0
5148 -1043 858 1349 0
20249 -1043 858 -1349 0
41012 -1043 -858 1349 0
41767 -1043 -858 -1349 0
7600 999 -738 0
6650 -999 738 0
11590 -999 -738 0
12064 1325 843 -885 0
5655 1325 -843 885 0
15909 1325 -843 -885 0
7540 -1325 843 885 0
17191 -1325 843 -885 0
12064 -1325 -843 885 0
20268 -1325 -843 -885 0
1984 1561 -1366 0
620 -1561 1366 0
2406 -1561 -1366 0
2145 1341 1681 -784 0
32175 1341 -1681 784 0
32711 1341 -1681 -784 0
15015 -1341 1681 784 0
16409 -1341 1681 -784 0
35929 -1341 -1681 784 0
36277 -1341 -1681 -784 0
32045 1578 716 -1651 0
20735 1578 -716 1651 0
35155 1578 -716 -1651 0
12064 -1578 716 1651 0
33855 -1578 716 -1651 0
26164 -1578 -716 1651 0
35970 -1578 -716 -1651 0
11400 -545 0
16965 521 659 -626 0
26390 521 -659 626 0
31479 521 -659 -626 0
5655 -521 659 626 0
20075 -521 659 -626 0
28087 -521 -659 626 0
32413 -521 -659 -626 0
744 894 1112 -1300 0
2790 894 -1112 1300 0
3199 894 -1112 -1300 0
1550 -894 1112 1300 0
2108 -894 1112 -1300 0
3642 -894 -1112 1300 0
3949 -894 -1112 -1300 0
23595 -1332 0
15080 651 -1495 0
30160 -651 1495 0
33176 -651 -1495 0
14250 -875 0
930 676 635 -1262 0
2356 676 -635 1262 0
2933 676 -635 -1262 0
1116 -676 635 1262 0
1879 -676 635 -1262 0
3048 -676 -635 1262 0
3521 -676 -635 -1262 0
40755 724 1377 -619 0
19305 724 -1377 619 0
41720 724 -1377 -619 0
4290 -724 1377 619 0
40969 -724 1377 -619 0
21664 -724 -1377 619 0
41838 -724 -1377 -619 0
11400 1005 976 -1329 0
2280 1005 -976 1329 0
12312 1005 -976 -1329 0
15200 -1005 976 1329 0
17480 -1005 976 -1329 0
15656 -1005 -976 1329 0
17662 -1005 -976 -1329 0
1605 1539 934 -977 0
9630 1539 -934 977 0
9791 1539 -934 -977 0
3210 -1539 934 977 0
4334 -1539 934 -977 0
9951 -1539 -934 977 0
10063 -1539 -934 -977 0
12064 987 897 -904 0
1885 987 -897 904 0
13346 987 -897 -904 0
20735 -987 897 904 0
26164 -987 897 -904 0
21583 -987 -897 904 0
26741 -987 -897 -904 0
3770 -776 0
15080 1395 958 -1619 0
35815 1395 -958 1619 0
36569 1395 -958 -1619 0
14326 -1395 958 1619 0
23676 -1395 958 -1619 0
36531 -1395 -958 1619 0
36999 -1395 -958 -1619 0
24505 1644 1650 -662 0
30160 1644 -1650 662 0
35061 1644 -1650 -662 0
14326 -1644 1650 662 0
29519 -1644 1650 -662 0
33025 -1644 -1650 662 0
36064 -1644 -1650 -662 0
535 1039 -1041 0
6420 -1039 1041 0
6634 -1039 -1041 0
2356 1178 1640 -1200 0
3100 1178 -1640 1200 0
4278 1178 -1640 -1200 0
930 -1178 1640 1200 0
2933 -1178 1640 -1200 0
3565 -1178 -1640 1200 0
4566 -1178 -1640 -1200 0
3410 -1222 0
30030 1317 876 -785 0
21450 1317 -876 785 0
36465 1317 -876 -785 0
6435 -1317 876 785 0
31961 -1317 876 -785 0
24667 -1317 -876 785 0
37430 -1317 -876 -785 0
9095 591 1625 -1273 0
7490 591 -1625 1273 0
10219 591 -1625 -1273 0
1070 -591 1625 1273 0
9255 -591 1625 -1273 0
7811 -591 -1625 1273 0
10267 -591 -1625 -1273 0
3210 779 1422 -1192 0
1070 779 -1422 1192 0
3959 779 -1422 -1192 0
10165 -779 1422 1192 0
10325 -779 1422 -1192 0
10219 -779 -1422 1192 0
10363 -779 -1422 -1192 0
2280 579 1099 -623 0
12350 579 -1099 623 0
13148 579 -1099 -623 0
7220 -579 1099 623 0
8634 -579 1099 -623 0
14877 -579 -1099 623 0
15372 -579 -1099 -623 0
1926 657 1674 -1435 0
4280 657 -1674 1435 0
5436 657 -1674 -1435 0
2675 -657 1674 1435 0
4120 -657 1674 -1435 0
5885 -657 -1674 1435 0
6752 -657 -1674 -1435 0
5580 1211 -736 0
1550 -1211 736 0
5735 -1211 -736 0
23595 1078 -1253 0
12870 -1078 1253 0
29387 -1078 -1253 0
16150 1415 1223 -826 0
17100 1415 -1223 826 0
18715 1415 -1223 -826 0
14250 -1415 1223 826 0
18288 -1415 1223 -826 0
18525 -1415 -1223 826 0
18929 -1415 -1223 -826 0
24505 509 686 -751 0
754 509 -686 751 0
24769 509 -686 -751 0
9425 -509 686 751 0
27804 -509 686 -751 0
9991 -509 -686 751 0
28002 -509 -686 -751 0
310 722 -1050 0
5580 -722 1050 0
5611 -722 -1050 0
15200 1684 -994 0
2280 -1684 994 0
15656 -1684 -994 0
16302 601 1140 -1210 0
6435 601 -1140 1210 0
20292 601 -1140 -1210 0
2145 -601 1140 1210 0
17632 -601 1140 -1210 0
8258 -601 -1140 1210 0
21422 -601 -1140 -1210 0
34320 1257 1505 -845 0
15015 1257 -1505 845 0
37323 1257 -1505 -845 0
34320 -1257 1505 845 0
41184 -1257 1505 -845 0
37323 -1257 -1505 845 0
41785 -1257 -1505 -845 0
5270 728 1584 -1166 0
3100 728 -1584 1166 0
5735 728 -1584 -1166 0
930 -728 1584 1166 0
5410 -728 1584 -1166 0
3565 -728 -1584 1166 0
5805 -728 -1584 -1166 0
15200 1692 682 -935 0
7220 1692 -682 935 0
16644 1692 -682 -935 0
14250 -1692 682 935 0
18050 -1692 682 -935 0
16055 -1692 -682 935 0
18411 -1692 -682 -935 0
4650 611 1297 -1446 0
5890 611 -1297 1446 0
6123 611 -1297 -1446 0
2356 -611 1297 1446 0
5239 -611 1297 -1446 0
6008 -611 -1297 1446 0
6152 -611 -1297 -1446 0
1284 675 1126 -1214 0
1070 675 -1126 1214 0
2226 675 -1126 -1214 0
3210 -675 1126 1214 0
4109 -675 1126 -1214 0
3959 -675 -1126 1214 0
4768 -675 -1126 -1214 0
9630 -832 0
17160 -760 0
15015 -536 0
8580 1667 -969 0
30030 -1667 969 0
32604 -1667 -969 0
4280 1630 979 -1076 0
2140 1630 -979 1076 0
5564 1630 -979 -1076 0
5885 -1630 979 1076 0
7811 -1630 979 -1076 0
6848 -1630 -979 1076 0
8389 -1630 -979 -1076 0
22620 1080 1452 -700 0
5655 1080 -1452 700 0
24882 1080 -1452 -700 0
32045 -1080 1452 700 0
35438 -1080 1452 -700 0
32893 -1080 -1452 700 0
35777 -1080 -1452 -700 0
1900 565 1664 -773 0
950 565 -1664 773 0
2755 565 -1664 -773 0
7600 -565 1664 773 0
8740 -565 1664 -773 0
8170 -565 -1664 773 0
9253 -565 -1664 -773 0
32045 -678 0
34320 1386 -522 0
32175 -1386 522 0
40755 -1386 -522 0
15015 652 901 -1597 0
8580 652 -901 1597 0
20592 652 -901 -1597 0
34320 -652 901 1597 0
37323 -652 901 -1597 0
36036 -652 -901 1597 0
38438 -652 -901 -1597 0
8025 790 1670 -1024 0
4066 790 -1670 1024 0
9041 790 -1670 -1024 0
1284 -790 1670 1024 0
8346 -790 1670 -1024 0
4862 -790 -1670 1024 0
9241 -790 -1670 -1024 0
535 1406 1570 -1017 0
8025 1406 -1570 1017 0
8159 1406 -1570 -1017 0
1605 -1406 1570 1017 0
2060 -1406 1570 -1017 0
8426 -1406 -1570 1017 0
8540 -1406 -1570 -1017 0
2356 1689 -630 0
2356 -1689 630 0
3817 -1689 -630 0
23595 1199 666 -1182 0
10725 1199 -666 1182 0
28421 1199 -666 -1182 0
21450 -1199 666 1182 0
33248 -1199 666 -1182 0
26812 -1199 -666 1182 0
35661 -1199 -666 -1182 0
5270 909 1511 -1371 0
3720 909 -1511 1371 0
5828 909 -1511 -1371 0
5890 -909 1511 1371 0
6153 -909 1511 -1371 0
6076 -909 -1511 1371 0
6181 -909 -1511 -1371 0
6080 1604 -1634 0
7220 -1604 1634 0
10990 -1604 -1634 0
930 908 1381 -1125 0
2356 908 -1381 1125 0
2933 908 -1381 -1125 0
3410 -908 1381 1125 0
3829 -908 1381 -1125 0
4470 -908 -1381 1125 0
4730 -908 -1381 -1125 0
7722 1393 1439 -1469 0
27885 1393 -1439 1469 0
30588 1393 -1439 -1469 0
34320 -1393 1439 1469 0
35864 -1393 1439 -1469 0
39897 -1393 -1439 1469 0
40438 -1393 -1439 -1469 0
28275 -896 0
4815 857 684 -692 0
7490 857 -684 692 0
8934 857 -684 -692 0
3424 -857 684 692 0
6698 -857 684 -692 0
8517 -857 -684 692 0
9499 -857 -684 -692 0
3100 780 -1312 0
5890 -780 1312 0
6045 -780 -1312 0
22620 1117 -1523 0
12064 -1117 1523 0
27446 -1117 -1523 0
12064 1191 -595 0
6786 -1191 595 0
16678 -1191 -595 0
754 1553 -1572 0
32045 -1553 1572 0
32158 -1553 -1572 0
744 1481 -1432 0
1550 -1481 1432 0
2108 -1481 -1432 0
26390 571 1498 -1423 0
20735 571 -1498 1423 0
32611 571 -1498 -1423 0
14326 -571 1498 1423 0
30688 -571 1498 -1423 0
27182 -571 -1498 1423 0
34545 -571 -1498 -1423 0
11310 539 1380 -1441 0
18850 539 -1380 1441 0
24505 539 -1380 -1441 0
6786 -539 1380 1441 0
16060 -539 1380 -1441 0
22243 -539 -1380 1441 0
26880 -539 -1380 -1441 0
1984 -602 0
4815 837 1034 -1657 0
8560 837 -1034 1657 0
9523 837 -1034 -1657 0
1926 -837 1034 1657 0
5874 -837 1034 -1657 0
8945 -837 -1034 1657 0
9735 -837 -1034 -1657 0
14250 1275 -1144 0
11400 -1275 1144 0
17100 -1275 -1144 0
6420 1174 -693 0
4815 -1174 693 0
8346 -1174 -693 0
15080 965 1618 -1139 0
12064 965 -1618 1139 0
22318 965 -1618 -1139 0
30160 -965 1618 1139 0
33176 -965 1618 -1139 0
32573 -965 -1618 1139 0
34624 -965 -1618 -1139 0
32175 847 1073 -625 0
5148 847 -1073 625 0
33462 847 -1073 -625 0
4290 -847 1073 625 0
33248 -847 1073 -625 0
8923 -847 -1073 625 0
34406 -847 -1073 -625 0
1605 795 -1540 0
10165 -795 1540 0
10245 -795 -1540 0
6080 990 542 -1098 0
12350 990 -542 1098 0
14478 990 -542 -1098 0
13300 -990 542 1098 0
15124 -990 542 -1098 0
17005 -990 -542 1098 0
17643 -990 -542 -1098 0
16302 1409 772 -1114 0
23595 1409 -772 1114 0
30931 1409 -772 -1114 0
34320 -1409 772 1114 0
37580 -1409 772 -1114 0
39039 -1409 -772 1114 0
40506 -1409 -772 -1114 0
15015 1676 -1213 0
21450 -1676 1213 0
28958 -1676 -1213 0
12064 1040 -797 0
5655 -1040 797 0
15909 -1040 -797 0
4290 1276 -1493 0
16302 -1276 1493 0
18962 -1276 -1493 0
12350 1326 -786 0
950 -1326 786 0
12683 -1326 -786 0
6435 1026 1658 -1424 0
6435 1026 -1658 1424 0
11905 1026 -1658 -1424 0
17160 -1026 1658 1424 0
21021 -1026 1658 -1424 0
21021 -1026 -1658 1424 0
24303 -1026 -1658 -1424 0
380 920 -566 0
7220 -920 566 0
7456 -920 -566 0
21450 1060 -1147 0
16302 -1060 1147 0
29601 -1060 -1147 0
36465 1009 570 -520 0
21450 1009 -570 520 0
39683 1009 -570 -520 0
2145 -1009 570 520 0
36787 -1009 570 -520 0
22523 -1009 -570 520 0
39843 -1009 -570 -520 0
3424 931 868 -1322 0
9095 931 -868 1322 0
9609 931 -868 -1322 0
4815 -931 868 1322 0
6698 -931 868 -1322 0
9817 -931 -868 1322 0
10100 -931 -868 -1322 0
32175 883 -866 0
19305 -883 866 0
37001 -883 -866 0
15015 501 1074 -1557 0
27885 501 -1074 1557 0
33140 501 -1074 -1557 0
30030 -501 1074 1557 0
34534 -501 1074 -1557 0
38395 -501 -1074 1557 0
39972 -501 -1074 -1557 0
7220 -1426 0
1240 811 -879 0
4030 -811 879 0
4464 -811 -879 0
4290 1548 -1071 0
7722 -1548 1071 0
11240 -1548 -1071 0
