p wcnf 1580 4246 1000000
1000000 77 -1169 -987 0
1000000 201 -1169 -987 0
1000000 14 -828 -178 0
1000000 202 -828 -178 0
1000000 56 -734 -885 -1116 0
1000000 203 -734 -885 -1116 0
1000000 173 -1055 -828 0
1000000 204 -1055 -828 0
1000000 63 -1112 -884 0
1000000 205 -1112 -884 0
1000000 113 -953 -712 0
1000000 206 -953 -712 0
1000000 77 -1220 -955 0
1000000 207 -1220 -955 0
1000000 23 -1039 -1125 0
1000000 208 -1039 -1125 0
1000000 83 -1110 -1071 -1084 0
1000000 209 -1110 -1071 -1084 0
1000000 47 -686 -66 0
1000000 210 -686 -66 0
1000000 184 -786 -1224 -958 0
1000000 211 -786 -1224 -958 0
1000000 76 -1079 -1037 0
1000000 212 -1079 -1037 0
1000000 195 -1199 -197 0
1000000 213 -1199 -197 0
1000000 106 -1036 -955 -1134 0
1000000 214 -1036 -955 -1134 0
1000000 164 -709 -721 -740 0
1000000 215 -709 -721 -740 0
1000000 181 -719 -1053 0
1000000 216 -719 -1053 0
1000000 56 -1163 -948 0
1000000 217 -1163 -948 0
1000000 33 -683 -1111 0
1000000 218 -683 -1111 0
1000000 174 -1278 -178 0
1000000 219 -1278 -178 0
1000000 195 -757 -931 -1024 0
1000000 220 -757 -931 -1024 0
1000000 150 -803 -836 0
1000000 221 -803 -836 0
1000000 25 -1252 -762 -1272 0
1000000 222 -1252 -762 -1272 0
1000000 58 -1173 -974 -1027 0
1000000 223 -1173 -974 -1027 0
1000000 177 -895 -183 0
1000000 224 -895 -183 0
1000000 72 -1237 -709 -1219 0
1000000 225 -1237 -709 -1219 0
1000000 46 -1195 -1012 -147 0
1000000 226 -1195 -1012 -147 0
1000000 84 -727 -683 -794 0
1000000 227 -727 -683 -794 0
1000000 174 -1232 -864 -191 0
1000000 228 -1232 -864 -191 0
1000000 171 -1195 -1220 0
1000000 229 -1195 -1220 0
1000000 124 -1231 -193 0
1000000 230 -1231 -193 0
1000000 144 -843 -147 0
1000000 231 -843 -147 0
1000000 110 -1205 -1020 0
1000000 232 -1205 -1020 0
1000000 125 -885 -1096 -1074 0
1000000 233 -885 -1096 -1074 0
1000000 22 -1248 -1181 0
1000000 234 -1248 -1181 0
1000000 87 -1162 -695 0
1000000 235 -1162 -695 0
1000000 39 -731 -1066 0
1000000 236 -731 -1066 0
1000000 149 -757 -1157 -970 0
1000000 237 -757 -1157 -970 0
1000000 53 -804 -791 -1236 0
1000000 238 -804 -791 -1236 0
1000000 103 -1267 -194 0
1000000 239 -1267 -194 0
1000000 168 -953 -183 0
1000000 240 -953 -183 0
1000000 19 -1118 -1094 -834 0
1000000 241 -1118 -1094 -834 0
1000000 36 -925 -1219 -119 0
1000000 242 -925 -1219 -119 0
1000000 185 -842 -1156 -1120 0
1000000 243 -842 -1156 -1120 0
1000000 90 -1053 -712 0
1000000 244 -1053 -712 0
1000000 35 -824 -973 0
1000000 245 -824 -973 0
1000000 30 -956 -711 -1145 0
1000000 246 -956 -711 -1145 0
1000000 35 -847 -1204 0
1000000 247 -847 -1204 0
1000000 107 -1080 -1024 0
1000000 248 -1080 -1024 0
1000000 100 -1124 -837 0
1000000 249 -1124 -837 0
1000000 158 -1008 -1223 0
1000000 250 -1008 -1223 0
1000000 37 -750 -702 0
1000000 251 -750 -702 0
1000000 161 -784 -937 0
1000000 252 -784 -937 0
1000000 36 -719 -1112 0
1000000 253 -719 -1112 0
1000000 55 -913 -760 -845 0
1000000 254 -913 -760 -845 0
1000000 87 -1116 -858 -99 0
1000000 255 -1116 -858 -99 0
1000000 165 -1030 -736 -1175 0
1000000 256 -1030 -736 -1175 0
1000000 165 -1010 -942 -178 0
1000000 257 -1010 -942 -178 0
1000000 101 -816 -874 0
1000000 258 -816 -874 0
1000000 54 -1016 -907 -961 0
1000000 259 -1016 -907 -961 0
1000000 4 -1263 -1057 0
1000000 260 -1263 -1057 0
1000000 114 -1261 -1267 -172 0
1000000 261 -1261 -1267 -172 0
1000000 110 -926 -186 0
1000000 262 -926 -186 0
1000000 185 -732 -1243 -1100 0
1000000 263 -732 -1243 -1100 0
1000000 152 -798 -168 0
1000000 264 -798 -168 0
1000000 120 -780 -1128 -795 0
1000000 265 -780 -1128 -795 0
1000000 57 -801 -1210 0
1000000 266 -801 -1210 0
1000000 137 -849 -191 0
1000000 267 -849 -191 0
1000000 174 -1003 -1106 0
1000000 268 -1003 -1106 0
1000000 117 -1114 -1210 0
1000000 269 -1114 -1210 0
1000000 105 -985 -1024 -710 0
1000000 270 -985 -1024 -710 0
1000000 141 -1273 -1179 0
1000000 271 -1273 -1179 0
1000000 25 -803 -884 -995 0
1000000 272 -803 -884 -995 0
1000000 120 -1179 -877 -731 0
1000000 273 -1179 -877 -731 0
1000000 139 -1149 -1203 0
1000000 274 -1149 -1203 0
1000000 66 -924 -899 0
1000000 275 -924 -899 0
1000000 166 -1061 -1113 -1247 0
1000000 276 -1061 -1113 -1247 0
1000000 130 -733 -1187 -747 0
1000000 277 -733 -1187 -747 0
1000000 85 -1064 -898 -98 0
1000000 278 -1064 -898 -98 0
1000000 15 -881 -1120 0
1000000 279 -881 -1120 0
1000000 5 -958 -41 0
1000000 280 -958 -41 0
1000000 137 -998 -1006 -735 0
1000000 281 -998 -1006 -735 0
1000000 39 -780 -1072 -817 0
1000000 282 -780 -1072 -817 0
1000000 178 -715 -1149 -193 0
1000000 283 -715 -1149 -193 0
1000000 155 -1078 -815 -902 0
1000000 284 -1078 -815 -902 0
1000000 83 -1211 -749 0
1000000 285 -1211 -749 0
1000000 98 -880 -113 0
1000000 286 -880 -113 0
1000000 85 -1253 -948 0
1000000 287 -1253 -948 0
1000000 144 -1237 -1272 -1255 0
1000000 288 -1237 -1272 -1255 0
1000000 27 -1240 -36 0
1000000 289 -1240 -36 0
1000000 43 -1169 -1088 -1238 0
1000000 290 -1169 -1088 -1238 0
1000000 81 -1165 -1176 -113 0
1000000 291 -1165 -1176 -113 0
1000000 54 -1128 -857 0
1000000 292 -1128 -857 0
1000000 6 -1208 -1192 0
1000000 293 -1208 -1192 0
1000000 90 -963 -1235 -712 0
1000000 294 -963 -1235 -712 0
1000000 14 -884 -1212 -708 0
1000000 295 -884 -1212 -708 0
1000000 17 -917 -1034 0
1000000 296 -917 -1034 0
1000000 126 -1226 -1126 -1208 0
1000000 297 -1226 -1126 -1208 0
1000000 177 -834 -196 0
1000000 298 -834 -196 0
1000000 151 -1157 -1169 -1179 0
1000000 299 -1157 -1169 -1179 0
1000000 175 -1117 -1240 -913 0
1000000 300 -1117 -1240 -913 0
1000000 82 -1003 -830 -1084 0
1000000 301 -1003 -830 -1084 0
1000000 49 -1259 -699 -805 0
1000000 302 -1259 -699 -805 0
1000000 151 -717 -169 0
1000000 303 -717 -169 0
1000000 30 -1216 -1121 0
1000000 304 -1216 -1121 0
1000000 150 -723 -1149 -1206 0
1000000 305 -723 -1149 -1206 0
1000000 89 -1061 -722 0
1000000 306 -1061 -722 0
1000000 68 -1221 -993 -1177 0
1000000 307 -1221 -993 -1177 0
1000000 121 -1150 -994 -1091 0
1000000 308 -1150 -994 -1091 0
1000000 140 -978 -191 0
1000000 309 -978 -191 0
1000000 18 -863 -1072 -114 0
1000000 310 -863 -1072 -114 0
1000000 97 -855 -1028 -122 0
1000000 311 -855 -1028 -122 0
1000000 45 -780 -1024 -1205 0
1000000 312 -780 -1024 -1205 0
1000000 48 -875 -1015 -194 0
1000000 313 -875 -1015 -194 0
1000000 194 -939 -1033 -810 0
1000000 314 -939 -1033 -810 0
1000000 156 -926 -781 0
1000000 315 -926 -781 0
1000000 34 -1059 -116 0
1000000 316 -1059 -116 0
1000000 154 -793 -1115 -689 0
1000000 317 -793 -1115 -689 0
1000000 101 -769 -1193 -683 0
1000000 318 -769 -1193 -683 0
1000000 197 -782 -1235 0
1000000 319 -782 -1235 0
1000000 123 -977 -980 0
1000000 320 -977 -980 0
1000000 32 -855 -851 0
1000000 321 -855 -851 0
1000000 115 -883 -829 0
1000000 322 -883 -829 0
1000000 188 -1120 -1071 0
1000000 323 -1120 -1071 0
1000000 124 -1244 -878 0
1000000 324 -1244 -878 0
1000000 175 -1082 -909 -191 0
1000000 325 -1082 -909 -191 0
1000000 7 -1274 -746 -1017 0
1000000 326 -1274 -746 -1017 0
1000000 136 -1177 -1252 0
1000000 327 -1177 -1252 0
1000000 69 -914 -1068 0
1000000 328 -914 -1068 0
1000000 117 -1148 -871 -168 0
1000000 329 -1148 -871 -168 0
1000000 41 -943 -1244 -1160 0
1000000 330 -943 -1244 -1160 0
1000000 151 -1080 -807 0
1000000 331 -1080 -807 0
1000000 18 -1174 -777 -843 0
1000000 332 -1174 -777 -843 0
1000000 100 -773 -1242 -709 0
1000000 333 -773 -1242 -709 0
1000000 139 -1162 -745 0
1000000 334 -1162 -745 0
1000000 155 -1021 -977 0
1000000 335 -1021 -977 0
1000000 159 -788 -183 0
1000000 336 -788 -183 0
1000000 170 -700 -897 -690 0
1000000 337 -700 -897 -690 0
1000000 91 -700 -1179 -1222 0
1000000 338 -700 -1179 -1222 0
1000000 65 -1056 -856 -1055 0
1000000 339 -1056 -856 -1055 0
1000000 86 -1104 -999 -956 0
1000000 340 -1104 -999 -956 0
1000000 80 -931 -1206 -93 0
1000000 341 -931 -1206 -93 0
1000000 35 -941 -696 -705 0
1000000 342 -941 -696 -705 0
1000000 9 -1161 -949 0
1000000 343 -1161 -949 0
1000000 21 -1048 -1191 0
1000000 344 -1048 -1191 0
1000000 64 -859 -1149 -93 0
1000000 345 -859 -1149 -93 0
1000000 62 -803 -69 0
1000000 346 -803 -69 0
1000000 137 -757 -1108 0
1000000 347 -757 -1108 0
1000000 1 -856 -740 0
1000000 348 -856 -740 0
1000000 145 -687 -896 -164 0
1000000 349 -687 -896 -164 0
1000000 157 -1132 -1114 -1002 0
1000000 350 -1132 -1114 -1002 0
1000000 182 -1037 -749 -196 0
1000000 351 -1037 -749 -196 0
1000000 91 -985 -820 0
1000000 352 -985 -820 0
1000000 192 -946 -1219 0
1000000 353 -946 -1219 0
1000000 33 -1084 -733 0
1000000 354 -1084 -733 0
1000000 58 -830 -160 0
1000000 355 -830 -160 0
1000000 99 -845 -1059 0
1000000 356 -845 -1059 0
1000000 141 -1014 -872 -718 0
1000000 357 -1014 -872 -718 0
1000000 58 -726 -168 0
1000000 358 -726 -168 0
1000000 152 -1200 -1183 0
1000000 359 -1200 -1183 0
1000000 163 -903 -807 -168 0
1000000 360 -903 -807 -168 0
1000000 42 -740 -103 0
1000000 361 -740 -103 0
1000000 84 -958 -1085 0
1000000 362 -958 -1085 0
1000000 109 -1132 -1210 -1177 0
1000000 363 -1132 -1210 -1177 0
1000000 159 -1238 -860 0
1000000 364 -1238 -860 0
1000000 48 -825 -1081 -1128 0
1000000 365 -825 -1081 -1128 0
1000000 23 -869 -906 -742 0
1000000 366 -869 -906 -742 0
1000000 23 -839 -1175 0
1000000 367 -839 -1175 0
1000000 68 -971 -123 0
1000000 368 -971 -123 0
1000000 157 -1050 -1132 0
1000000 369 -1050 -1132 0
1000000 10 -1256 -885 0
1000000 370 -1256 -885 0
1000000 45 -1196 -1109 0
1000000 371 -1196 -1109 0
1000000 52 -1174 -855 0
1000000 372 -1174 -855 0
1000000 181 -698 -970 0
1000000 373 -698 -970 0
1000000 78 -703 -922 -961 0
1000000 374 -703 -922 -961 0
1000000 108 -954 -1067 -197 0
1000000 375 -954 -1067 -197 0
1000000 72 -925 -797 -977 0
1000000 376 -925 -797 -977 0
1000000 74 -1227 -718 -123 0
1000000 377 -1227 -718 -123 0
1000000 71 -1130 -823 -1210 0
1000000 378 -1130 -823 -1210 0
1000000 161 -1252 -1088 0
1000000 379 -1252 -1088 0
1000000 96 -798 -887 -1044 0
1000000 380 -798 -887 -1044 0
1000000 75 -1063 -844 -961 0
1000000 381 -1063 -844 -961 0
1000000 104 -1195 -697 0
1000000 382 -1195 -697 0
1000000 169 -1224 -863 -779 0
1000000 383 -1224 -863 -779 0
1000000 49 -872 -716 -196 0
1000000 384 -872 -716 -196 0
1000000 178 -1015 -1079 -695 0
1000000 385 -1015 -1079 -695 0
1000000 29 -893 -1247 -1227 0
1000000 386 -893 -1247 -1227 0
1000000 199 -920 -950 0
1000000 387 -920 -950 0
1000000 20 -794 -1260 0
1000000 388 -794 -1260 0
1000000 162 -839 -172 0
1000000 389 -839 -172 0
1000000 142 -953 -1279 -1125 0
1000000 390 -953 -1279 -1125 0
1000000 158 -1009 -801 -1161 0
1000000 391 -1009 -801 -1161 0
1000000 172 -1272 -694 -1045 0
1000000 392 -1272 -694 -1045 0
1000000 107 -906 -1056 -1046 0
1000000 393 -906 -1056 -1046 0
1000000 98 -844 -684 -816 0
1000000 394 -844 -684 -816 0
1000000 177 -1132 -773 0
1000000 395 -1132 -773 0
1000000 3 -1023 -839 0
1000000 396 -1023 -839 0
1000000 127 -735 -1163 -164 0
1000000 397 -735 -1163 -164 0
1000000 31 -1121 -1133 -713 0
1000000 398 -1121 -1133 -713 0
1000000 15 -829 -1276 0
1000000 399 -829 -1276 0
1000000 171 -719 -1139 -854 0
1000000 400 -719 -1139 -854 0
1000000 12 -1075 -31 0
1000000 401 -1075 -31 0
1000000 80 -791 -789 -1037 0
1000000 402 -791 -789 -1037 0
1000000 82 -870 -982 -1185 0
1000000 403 -870 -982 -1185 0
1000000 167 -1255 -195 0
1000000 404 -1255 -195 0
1000000 183 -717 -1220 -196 0
1000000 405 -717 -1220 -196 0
1000000 69 -1150 -795 -128 0
1000000 406 -1150 -795 -128 0
1000000 50 -1083 -1000 0
1000000 407 -1083 -1000 0
1000000 26 -1262 -1079 -169 0
1000000 408 -1262 -1079 -169 0
1000000 57 -836 -827 0
1000000 409 -836 -827 0
1000000 54 -825 -751 0
1000000 410 -825 -751 0
1000000 145 -1006 -1111 -1051 0
1000000 411 -1006 -1111 -1051 0
1000000 179 -715 -779 -799 0
1000000 412 -715 -779 -799 0
1000000 192 -1254 -197 0
1000000 413 -1254 -197 0
1000000 34 -908 -1166 -1090 0
1000000 414 -908 -1166 -1090 0
1000000 37 -1207 -813 -1192 0
1000000 415 -1207 -813 -1192 0
1000000 7 -836 -1028 0
1000000 416 -836 -1028 0
1000000 200 -1247 -953 0
1000000 417 -1247 -953 0
1000000 8 -1266 -762 0
1000000 418 -1266 -762 0
1000000 125 -691 -1107 0
1000000 419 -691 -1107 0
1000000 135 -1029 -982 -777 0
1000000 420 -1029 -982 -777 0
1000000 163 -1036 -1200 0
1000000 421 -1036 -1200 0
1000000 104 -1231 -1261 0
1000000 422 -1231 -1261 0
1000000 176 -1217 -190 0
1000000 423 -1217 -190 0
1000000 31 -1174 -1265 -1045 0
1000000 424 -1174 -1265 -1045 0
1000000 180 -1097 -746 -191 0
1000000 425 -1097 -746 -191 0
1000000 141 -1173 -1246 -953 0
1000000 426 -1173 -1246 -953 0
1000000 165 -1102 -178 0
1000000 427 -1102 -178 0
1000000 184 -1258 -851 0
1000000 428 -1258 -851 0
1000000 116 -1192 -1152 0
1000000 429 -1192 -1152 0
1000000 6 -963 -995 -1169 0
1000000 430 -963 -995 -1169 0
1000000 74 -1169 -853 0
1000000 431 -1169 -853 0
1000000 176 -1102 -704 0
1000000 432 -1102 -704 0
1000000 179 -1085 -880 -822 0
1000000 433 -1085 -880 -822 0
1000000 147 -758 -1169 0
1000000 434 -758 -1169 0
1000000 76 -727 -1136 -753 0
1000000 435 -727 -1136 -753 0
1000000 37 -1220 -1103 -875 0
1000000 436 -1220 -1103 -875 0
1000000 140 -748 -923 -871 0
1000000 437 -748 -923 -871 0
1000000 131 -1194 -1149 -168 0
1000000 438 -1194 -1149 -168 0
1000000 189 -891 -1199 0
1000000 439 -891 -1199 0
1000000 41 -912 -1187 -966 0
1000000 440 -912 -1187 -966 0
1000000 183 -1255 -1073 -1241 0
1000000 441 -1255 -1073 -1241 0
1000000 52 -738 -815 -115 0
1000000 442 -738 -815 -115 0
1000000 198 -1063 -741 -1113 0
1000000 443 -1063 -741 -1113 0
1000000 78 -994 -829 0
1000000 444 -994 -829 0
1000000 11 -781 -920 0
1000000 445 -781 -920 0
1000000 2 -684 -872 0
1000000 446 -684 -872 0
1000000 95 -827 -774 -147 0
1000000 447 -827 -774 -147 0
1000000 200 -694 -805 -1241 0
1000000 448 -694 -805 -1241 0
1000000 180 -789 -940 0
1000000 449 -789 -940 0
1000000 79 -870 -1238 0
1000000 450 -870 -1238 0
1000000 185 -761 -997 0
1000000 451 -761 -997 0
1000000 122 -1108 -1174 -715 0
1000000 452 -1108 -1174 -715 0
1000000 138 -991 -948 0
1000000 453 -991 -948 0
1000000 29 -1260 -1084 0
1000000 454 -1260 -1084 0
1000000 118 -952 -150 0
1000000 455 -952 -150 0
1000000 162 -1063 -1144 -812 0
1000000 456 -1063 -1144 -812 0
1000000 40 -1176 -1007 -790 0
1000000 457 -1176 -1007 -790 0
1000000 70 -685 -1028 0
1000000 458 -685 -1028 0
1000000 26 -755 -1059 -693 0
1000000 459 -755 -1059 -693 0
1000000 61 -1157 -799 0
1000000 460 -1157 -799 0
1000000 38 -1185 -99 0
1000000 461 -1185 -99 0
1000000 78 -1043 -116 0
1000000 462 -1043 -116 0
1000000 50 -1128 -889 -742 0
1000000 463 -1128 -889 -742 0
1000000 19 -1089 -1049 -717 0
1000000 464 -1089 -1049 -717 0
1000000 100 -928 -971 0
1000000 465 -928 -971 0
1000000 173 -1213 -766 0
1000000 466 -1213 -766 0
1000000 134 -989 -705 0
1000000 467 -989 -705 0
1000000 5 -822 -63 0
1000000 468 -822 -63 0
1000000 28 -868 -1139 -946 0
1000000 469 -868 -1139 -946 0
1000000 138 -1101 -992 0
1000000 470 -1101 -992 0
1000000 70 -829 -792 -169 0
1000000 471 -829 -792 -169 0
1000000 144 -809 -1127 0
1000000 472 -809 -1127 0
1000000 158 -1252 -692 -951 0
1000000 473 -1252 -692 -951 0
1000000 159 -1208 -1087 0
1000000 474 -1208 -1087 0
1000000 57 -830 -1274 0
1000000 475 -830 -1274 0
1000000 129 -731 -1205 -1049 0
1000000 476 -731 -1205 -1049 0
1000000 187 -728 -190 0
1000000 477 -728 -190 0
1000000 186 -1155 -992 0
1000000 478 -1155 -992 0
1000000 46 -1120 -1171 0
1000000 479 -1120 -1171 0
1000000 154 -802 -1264 0
1000000 480 -802 -1264 0
1000000 187 -787 -1008 -197 0
1000000 481 -787 -1008 -197 0
1000000 198 -835 -690 0
1000000 482 -835 -690 0
1000000 61 -1239 -811 0
1000000 483 -1239 -811 0
1000000 146 -1141 -941 0
1000000 484 -1141 -941 0
1000000 153 -832 -178 0
1000000 485 -832 -178 0
1000000 73 -1208 -803 -727 0
1000000 486 -1208 -803 -727 0
1000000 24 -1052 -751 0
1000000 487 -1052 -751 0
1000000 28 -830 -790 0
1000000 488 -830 -790 0
1000000 119 -847 -817 0
1000000 489 -847 -817 0
1000000 179 -875 -967 -1209 0
1000000 490 -875 -967 -1209 0
1000000 85 -1151 -1027 -122 0
1000000 491 -1151 -1027 -122 0
1000000 124 -1133 -147 0
1000000 492 -1133 -147 0
1000000 148 -1247 -160 0
1000000 493 -1247 -160 0
1000000 149 -1222 -955 0
1000000 494 -1222 -955 0
1000000 176 -890 -969 -917 0
1000000 495 -890 -969 -917 0
1000000 11 -1192 -1017 -86 0
1000000 496 -1192 -1017 -86 0
1000000 87 -1072 -1263 -702 0
1000000 497 -1072 -1263 -702 0
1000000 40 -837 -1162 0
1000000 498 -837 -1162 0
1000000 96 -839 -774 -1067 0
1000000 499 -839 -774 -1067 0
1000000 191 -1132 -1098 -1186 0
1000000 500 -1132 -1098 -1186 0
1000000 132 -1079 -1132 -1097 0
1000000 501 -1079 -1132 -1097 0
1000000 171 -1007 -183 0
1000000 502 -1007 -183 0
1000000 91 -965 -834 -1112 0
1000000 503 -965 -834 -1112 0
1000000 192 -963 -1046 -1079 0
1000000 504 -963 -1046 -1079 0
1000000 64 -926 -1269 -695 0
1000000 505 -926 -1269 -695 0
1000000 62 -990 -197 0
1000000 506 -990 -197 0
1000000 188 -927 -193 0
1000000 507 -927 -193 0
1000000 128 -1190 -797 -985 0
1000000 508 -1190 -797 -985 0
1000000 162 -1018 -1165 0
1000000 509 -1018 -1165 0
1000000 189 -1015 -193 0
1000000 510 -1015 -193 0
1000000 160 -875 -853 -842 0
1000000 511 -875 -853 -842 0
1000000 64 -894 -1100 -1277 0
1000000 512 -894 -1100 -1277 0
1000000 114 -1163 -776 0
1000000 513 -1163 -776 0
1000000 133 -1173 -746 0
1000000 514 -1173 -746 0
1000000 12 -881 -882 -1016 0
1000000 515 -881 -882 -1016 0
1000000 61 -1004 -690 0
1000000 516 -1004 -690 0
1000000 166 -930 -863 0
1000000 517 -930 -863 0
1000000 189 -924 -1017 -719 0
1000000 518 -924 -1017 -719 0
1000000 73 -921 -707 0
1000000 519 -921 -707 0
1000000 83 -819 -684 0
1000000 520 -819 -684 0
1000000 155 -790 -848 0
1000000 521 -790 -848 0
1000000 45 -1183 -1126 -66 0
1000000 522 -1183 -1126 -66 0
1000000 181 -1102 -758 -1167 0
1000000 523 -1102 -758 -1167 0
1000000 81 -849 -110 0
1000000 524 -849 -110 0
1000000 143 -814 -1022 -1249 0
1000000 525 -814 -1022 -1249 0
1000000 75 -883 -1261 -700 0
1000000 526 -883 -1261 -700 0
1000000 145 -1260 -1186 0
1000000 527 -1260 -1186 0
1000000 104 -860 -164 0
1000000 528 -860 -164 0
1000000 109 -1203 -1221 -1136 0
1000000 529 -1203 -1221 -1136 0
1000000 73 -1190 -1098 0
1000000 530 -1190 -1098 0
1000000 147 -715 -685 -891 0
1000000 531 -715 -685 -891 0
1000000 132 -1279 -915 0
1000000 532 -1279 -915 0
1000000 130 -837 -1247 -190 0
1000000 533 -837 -1247 -190 0
1000000 30 -726 -857 0
1000000 534 -726 -857 0
1000000 199 -834 -798 0
1000000 535 -834 -798 0
1000000 152 -725 -1251 -1113 0
1000000 536 -725 -1251 -1113 0
1000000 133 -708 -1124 0
1000000 537 -708 -1124 0
1000000 97 -1260 -732 0
1000000 538 -1260 -732 0
1000000 55 -1030 -1003 0
1000000 539 -1030 -1003 0
1000000 142 -1195 -1163 -974 0
1000000 540 -1195 -1163 -974 0
1000000 46 -1251 -943 -1061 0
1000000 541 -1251 -943 -1061 0
1000000 198 -1167 -1128 0
1000000 542 -1167 -1128 0
1000000 67 -1117 -1130 0
1000000 543 -1117 -1130 0
1000000 3 -811 -858 -987 0
1000000 544 -811 -858 -987 0
1000000 8 -894 -1254 -977 0
1000000 545 -894 -1254 -977 0
1000000 154 -1109 -169 0
1000000 546 -1109 -169 0
1000000 26 -1263 -1249 -936 0
1000000 547 -1263 -1249 -936 0
1000000 51 -1098 -868 0
1000000 548 -1098 -868 0
1000000 96 -747 -1172 0
1000000 549 -747 -1172 0
1000000 7 -792 -912 0
1000000 550 -792 -912 0
1000000 40 -1065 -1126 0
1000000 551 -1065 -1126 0
1000000 93 -983 -829 0
1000000 552 -983 -829 0
1000000 125 -744 -1186 0
1000000 553 -744 -1186 0
1000000 135 -1063 -169 0
1000000 554 -1063 -169 0
1000000 108 -1259 -1175 -1224 0
1000000 555 -1259 -1175 -1224 0
1000000 67 -1082 -1199 0
1000000 556 -1082 -1199 0
1000000 81 -1100 -914 -111 0
1000000 557 -1100 -914 -111 0
1000000 66 -685 -1200 0
1000000 558 -685 -1200 0
1000000 59 -864 -194 0
1000000 559 -864 -194 0
1000000 5 -705 -1234 -105 0
1000000 560 -705 -1234 -105 0
1000000 10 -834 -1186 -168 0
1000000 561 -834 -1186 -168 0
1000000 90 -1208 -729 -195 0
1000000 562 -1208 -729 -195 0
1000000 196 -1242 -704 0
1000000 563 -1242 -704 0
1000000 70 -827 -954 -1168 0
1000000 564 -827 -954 -1168 0
1000000 113 -1044 -744 0
1000000 565 -1044 -744 0
1000000 106 -1265 -722 0
1000000 566 -1265 -722 0
1000000 32 -873 -1042 -53 0
1000000 567 -873 -1042 -53 0
1000000 190 -1197 -774 -1026 0
1000000 568 -1197 -774 -1026 0
1000000 172 -1083 -193 0
1000000 569 -1083 -193 0
1000000 160 -796 -899 0
1000000 570 -796 -899 0
1000000 182 -1137 -903 -1080 0
1000000 571 -1137 -903 -1080 0
1000000 38 -1230 -1201 0
1000000 572 -1230 -1201 0
1000000 196 -971 -1155 0
1000000 573 -971 -1155 0
1000000 89 -1084 -821 -1144 0
1000000 574 -1084 -821 -1144 0
1000000 88 -811 -1231 0
1000000 575 -811 -1231 0
1000000 146 -842 -738 -912 0
1000000 576 -842 -738 -912 0
1000000 101 -791 -1210 -115 0
1000000 577 -791 -1210 -115 0
1000000 76 -793 -1119 0
1000000 578 -793 -1119 0
1000000 193 -1022 -1021 0
1000000 579 -1022 -1021 0
1000000 157 -762 -780 0
1000000 580 -762 -780 0
1000000 47 -688 -160 0
1000000 581 -688 -160 0
1000000 8 -752 -1137 0
1000000 582 -752 -1137 0
1000000 49 -880 -1155 -714 0
1000000 583 -880 -1155 -714 0
1000000 175 -785 -194 0
1000000 584 -785 -194 0
1000000 94 -1195 -1111 -1188 0
1000000 585 -1195 -1111 -1188 0
1000000 1 -702 -903 0
1000000 586 -702 -903 0
1000000 200 -1004 -1268 -715 0
1000000 587 -1004 -1268 -715 0
1000000 186 -1204 -197 0
1000000 588 -1204 -197 0
1000000 15 -955 -760 0
1000000 589 -955 -760 0
1000000 140 -1164 -720 -183 0
1000000 590 -1164 -720 -183 0
1000000 16 -1167 -1042 0
1000000 591 -1167 -1042 0
1000000 22 -975 -867 -111 0
1000000 592 -975 -867 -111 0
1000000 135 -811 -1015 -147 0
1000000 593 -811 -1015 -147 0
1000000 153 -840 -839 0
1000000 594 -840 -839 0
1000000 18 -1120 -1157 0
1000000 595 -1120 -1157 0
1000000 117 -1064 -825 0
1000000 596 -1064 -825 0
1000000 170 -1018 -1062 -973 0
1000000 597 -1018 -1062 -973 0
1000000 19 -1275 -1198 0
1000000 598 -1275 -1198 0
1000000 39 -971 -810 -1182 0
1000000 599 -971 -810 -1182 0
1000000 112 -922 -1034 0
1000000 600 -922 -1034 0
1000000 130 -1180 -709 0
1000000 601 -1180 -709 0
1000000 163 -1167 -937 -817 0
1000000 602 -1167 -937 -817 0
1000000 68 -1075 -887 -93 0
1000000 603 -1075 -887 -93 0
1000000 173 -1125 -853 -1140 0
1000000 604 -1125 -853 -1140 0
1000000 86 -695 -167 0
1000000 605 -695 -167 0
1000000 187 -1254 -988 0
1000000 606 -1254 -988 0
1000000 166 -1193 -826 -929 0
1000000 607 -1193 -826 -929 0
1000000 188 -749 -1271 -785 0
1000000 608 -749 -1271 -785 0
1000000 65 -1181 -809 -150 0
1000000 609 -1181 -809 -150 0
1000000 180 -835 -1105 -1074 0
1000000 610 -835 -1105 -1074 0
1000000 170 -791 -1011 -1148 0
1000000 611 -791 -1011 -1148 0
1000000 138 -982 -716 -190 0
1000000 612 -982 -716 -190 0
1000000 134 -911 -1106 -967 0
1000000 613 -911 -1106 -967 0
1000000 62 -1008 -977 -94 0
1000000 614 -1008 -977 -94 0
1000000 136 -1195 -850 -744 0
1000000 615 -1195 -850 -744 0
1000000 11 -724 -861 -34 0
1000000 616 -724 -861 -34 0
1000000 92 -1170 -105 0
1000000 617 -1170 -105 0
1000000 103 -887 -766 0
1000000 618 -887 -766 0
1000000 167 -1069 -1073 -191 0
1000000 619 -1069 -1073 -191 0
1000000 132 -1272 -886 -802 0
1000000 620 -1272 -886 -802 0
1000000 184 -829 -1112 0
1000000 621 -829 -1112 0
1000000 44 -878 -688 0
1000000 622 -878 -688 0
1000000 21 -947 -916 0
1000000 623 -947 -916 0
1000000 146 -1212 -1217 -892 0
1000000 624 -1212 -1217 -892 0
1000000 67 -1141 -69 0
1000000 625 -1141 -69 0
1000000 9 -1136 -197 0
1000000 626 -1136 -197 0
1000000 13 -1150 -986 0
1000000 627 -1150 -986 0
1000000 131 -1259 -738 0
1000000 628 -1259 -738 0
1000000 97 -986 -853 -168 0
1000000 629 -986 -853 -168 0
1000000 149 -1117 -937 -196 0
1000000 630 -1117 -937 -196 0
1000000 136 -813 -835 0
1000000 631 -813 -835 0
1000000 10 -1114 -701 0
1000000 632 -1114 -701 0
1000000 82 -1146 -1263 -1081 0
1000000 633 -1146 -1263 -1081 0
1000000 112 -1151 -834 -1016 0
1000000 634 -1151 -834 -1016 0
1000000 121 -934 -1265 -168 0
1000000 635 -934 -1265 -168 0
1000000 75 -1064 -909 0
1000000 636 -1064 -909 0
1000000 120 -1238 -993 0
1000000 637 -1238 -993 0
1000000 50 -817 -1069 0
1000000 638 -817 -1069 0
1000000 133 -770 -148 0
1000000 639 -770 -148 0
1000000 153 -715 -164 0
1000000 640 -715 -164 0
1000000 139 -989 -996 0
1000000 641 -989 -996 0
1000000 102 -1244 -851 -822 0
1000000 642 -1244 -851 -822 0
1000000 107 -1255 -761 -1219 0
1000000 643 -1255 -761 -1219 0
1000000 111 -1028 -164 0
1000000 644 -1028 -164 0
1000000 161 -1100 -1148 0
1000000 645 -1100 -1148 0
1000000 142 -696 -1188 -150 0
1000000 646 -696 -1188 -150 0
1000000 51 -1061 -914 0
1000000 647 -1061 -914 0
1000000 44 -900 -991 0
1000000 648 -900 -991 0
1000000 16 -1111 -981 -946 0
1000000 649 -1111 -981 -946 0
1000000 115 -985 -978 0
1000000 650 -985 -978 0
1000000 129 -1108 -704 -1258 0
1000000 651 -1108 -704 -1258 0
1000000 106 -1127 -808 -194 0
1000000 652 -1127 -808 -194 0
1000000 1 -732 -1021 -1193 0
1000000 653 -732 -1021 -1193 0
1000000 25 -936 -873 -779 0
1000000 654 -936 -873 -779 0
1000000 168 -1137 -833 -920 0
1000000 655 -1137 -833 -920 0
1000000 28 -1007 -1019 -160 0
1000000 656 -1007 -1019 -160 0
1000000 156 -1061 -1156 -689 0
1000000 657 -1061 -1156 -689 0
1000000 129 -1123 -1249 -1255 0
1000000 658 -1123 -1249 -1255 0
1000000 182 -1006 -774 -1086 0
1000000 659 -1006 -774 -1086 0
1000000 60 -876 -1221 0
1000000 660 -876 -1221 0
1000000 84 -838 -867 0
1000000 661 -838 -867 0
1000000 79 -756 -1140 0
1000000 662 -756 -1140 0
1000000 105 -859 -1229 -1256 0
1000000 663 -859 -1229 -1256 0
1000000 12 -1014 -1059 -1264 0
1000000 664 -1014 -1059 -1264 0
1000000 3 -1057 -1101 -717 0
1000000 665 -1057 -1101 -717 0
1000000 112 -989 -1174 0
1000000 666 -989 -1174 0
1000000 199 -1104 -1043 -1176 0
1000000 667 -1104 -1043 -1176 0
1000000 123 -689 -1248 -1035 0
1000000 668 -689 -1248 -1035 0
1000000 94 -1266 -856 -989 0
1000000 669 -1266 -856 -989 0
1000000 156 -1124 -727 0
1000000 670 -1124 -727 0
1000000 43 -938 -1129 0
1000000 671 -938 -1129 0
1000000 89 -1061 -728 -720 0
1000000 672 -1061 -728 -720 0
1000000 44 -1076 -1241 0
1000000 673 -1076 -1241 0
1000000 72 -1215 -1176 -88 0
1000000 674 -1215 -1176 -88 0
1000000 109 -882 -169 0
1000000 675 -882 -169 0
1000000 193 -907 -872 0
1000000 676 -907 -872 0
1000000 194 -819 -768 -929 0
1000000 677 -819 -768 -929 0
1000000 191 -1132 -931 -1064 0
1000000 678 -1132 -931 -1064 0
1000000 131 -1191 -851 -1016 0
1000000 679 -1191 -851 -1016 0
1000000 47 -848 -1233 -1050 0
1000000 680 -848 -1233 -1050 0
1000000 681 1425 0
1000000 682 1498 0
1000000 683 1364 0
1000000 684 1303 0
1000000 685 1437 0
1000000 686 1454 0
1000000 687 1314 0
1000000 688 1341 0
1000000 689 1557 0
1000000 690 1335 0
1000000 691 1508 0
1000000 692 1485 0
1000000 693 1306 0
1000000 694 1298 0
1000000 695 1449 0
1000000 696 1517 0
1000000 697 1341 0
1000000 698 1355 0
1000000 699 1476 0
1000000 700 1455 0
1000000 701 1396 0
1000000 702 1412 0
1000000 703 1366 0
1000000 704 1322 0
1000000 705 1520 0
1000000 706 1424 0
1000000 707 1496 0
1000000 708 1487 0
1000000 709 1431 0
1000000 710 1312 0
1000000 711 1365 0
1000000 712 1463 0
1000000 713 1500 0
1000000 714 1408 0
1000000 715 1332 0
1000000 716 1426 0
1000000 717 1549 0
1000000 718 1299 0
1000000 719 1437 0
1000000 720 1547 0
1000000 721 1290 0
1000000 722 1311 0
1000000 723 1537 0
1000000 724 1397 0
1000000 725 1373 0
1000000 726 1325 0
1000000 727 1501 0
1000000 728 1526 0
1000000 729 1423 0
1000000 730 1569 0
1000000 731 1473 0
1000000 732 1516 0
1000000 733 1422 0
1000000 734 1346 0
1000000 735 1346 0
1000000 736 1443 0
1000000 737 1561 0
1000000 738 1313 0
1000000 739 1511 0
1000000 740 1342 0
1000000 741 1559 0
1000000 742 1493 0
1000000 743 1512 0
1000000 744 1353 0
1000000 745 1381 0
1000000 746 1449 0
1000000 747 1541 0
1000000 748 1346 0
1000000 749 1571 0
1000000 750 1435 0
1000000 751 1564 0
1000000 752 1335 0
1000000 753 1552 0
1000000 754 1578 0
1000000 755 1317 0
1000000 756 1311 0
1000000 757 1370 0
1000000 758 1484 0
1000000 759 1470 0
1000000 760 1359 0
1000000 761 1306 0
1000000 762 1562 0
1000000 763 1459 0
1000000 764 1282 0
1000000 765 1434 0
1000000 766 1430 0
1000000 767 1283 0
1000000 768 1483 0
1000000 769 1380 0
1000000 770 1533 0
1000000 771 1548 0
1000000 772 1420 0
1000000 773 1414 0
1000000 774 1305 0
1000000 775 1440 0
1000000 776 1459 0
1000000 777 1442 0
1000000 778 1510 0
1000000 779 1503 0
1000000 780 1414 0
1000000 781 1301 0
1000000 782 1531 0
1000000 783 1403 0
1000000 784 1442 0
1000000 785 1347 0
1000000 786 1437 0
1000000 787 1382 0
1000000 788 1338 0
1000000 789 1444 0
1000000 790 1440 0
1000000 791 1381 0
1000000 792 1496 0
1000000 793 1484 0
1000000 794 1506 0
1000000 795 1291 0
1000000 796 1578 0
1000000 797 1315 0
1000000 798 1356 0
1000000 799 1483 0
1000000 800 1544 0
1000000 801 1426 0
1000000 802 1384 0
1000000 803 1416 0
1000000 804 1383 0
1000000 805 1532 0
1000000 806 1555 0
1000000 807 1370 0
1000000 808 1282 0
1000000 809 1561 0
1000000 810 1296 0
1000000 811 1512 0
1000000 812 1551 0
1000000 813 1410 0
1000000 814 1462 0
1000000 815 1476 0
1000000 816 1428 0
1000000 817 1545 0
1000000 818 1451 0
1000000 819 1478 0
1000000 820 1525 0
1000000 821 1421 0
1000000 822 1365 0
1000000 823 1507 0
1000000 824 1439 0
1000000 825 1482 0
1000000 826 1490 0
1000000 827 1382 0
1000000 828 1534 0
1000000 829 1318 0
1000000 830 1408 0
1000000 831 1318 0
1000000 832 1307 0
1000000 833 1497 0
1000000 834 1341 0
1000000 835 1474 0
1000000 836 1360 0
1000000 837 1505 0
1000000 838 1523 0
1000000 839 1463 0
1000000 840 1479 0
1000000 841 1447 0
1000000 842 1401 0
1000000 843 1545 0
1000000 844 1295 0
1000000 845 1468 0
1000000 846 1351 0
1000000 847 1364 0
1000000 848 1546 0
1000000 849 1435 0
1000000 850 1417 0
1000000 851 1565 0
1000000 852 1563 0
1000000 853 1543 0
1000000 854 1307 0
1000000 855 1295 0
1000000 856 1333 0
1000000 857 1489 0
1000000 858 1337 0
1000000 859 1479 0
1000000 860 1555 0
1000000 861 1475 0
1000000 862 1432 0
1000000 863 1355 0
1000000 864 1507 0
1000000 865 1389 0
1000000 866 1477 0
1000000 867 1554 0
1000000 868 1301 0
1000000 869 1350 0
1000000 870 1386 0
1000000 871 1462 0
1000000 872 1456 0
1000000 873 1375 0
1000000 874 1510 0
1000000 875 1349 0
1000000 876 1570 0
1000000 877 1458 0
1000000 878 1404 0
1000000 879 1424 0
1000000 880 1472 0
1000000 881 1538 0
1000000 882 1481 0
1000000 883 1330 0
1000000 884 1492 0
1000000 885 1475 0
1000000 886 1554 0
1000000 887 1343 0
1000000 888 1527 0
1000000 889 1344 0
1000000 890 1448 0
1000000 891 1522 0
1000000 892 1373 0
1000000 893 1450 0
1000000 894 1339 0
1000000 895 1465 0
1000000 896 1344 0
1000000 897 1422 0
1000000 898 1396 0
1000000 899 1524 0
1000000 900 1318 0
1000000 901 1556 0
1000000 902 1541 0
1000000 903 1304 0
1000000 904 1380 0
1000000 905 1331 0
1000000 906 1487 0
1000000 907 1508 0
1000000 908 1291 0
1000000 909 1521 0
1000000 910 1566 0
1000000 911 1436 0
1000000 912 1443 0
1000000 913 1310 0
1000000 914 1488 0
1000000 915 1562 0
1000000 916 1466 0
1000000 917 1392 0
1000000 918 1453 0
1000000 919 1463 0
1000000 920 1519 0
1000000 921 1502 0
1000000 922 1294 0
1000000 923 1495 0
1000000 924 1309 0
1000000 925 1362 0
1000000 926 1351 0
1000000 927 1477 0
1000000 928 1291 0
1000000 929 1345 0
1000000 930 1390 0
1000000 931 1439 0
1000000 932 1461 0
1000000 933 1335 0
1000000 934 1460 0
1000000 935 1550 0
1000000 936 1515 0
1000000 937 1379 0
1000000 938 1328 0
1000000 939 1367 0
1000000 940 1439 0
1000000 941 1557 0
1000000 942 1470 0
1000000 943 1367 0
1000000 944 1401 0
1000000 945 1575 0
1000000 946 1495 0
1000000 947 1471 0
1000000 948 1397 0
1000000 949 1320 0
1000000 950 1534 0
1000000 951 1413 0
1000000 952 1491 0
1000000 953 1580 0
1000000 954 1452 0
1000000 955 1384 0
1000000 956 1288 0
1000000 957 1547 0
1000000 958 1501 0
1000000 959 1305 0
1000000 960 1553 0
1000000 961 1296 0
1000000 962 1374 0
1000000 963 1363 0
1000000 964 1403 0
1000000 965 1579 0
1000000 966 1576 0
1000000 967 1425 0
1000000 968 1290 0
1000000 969 1406 0
1000000 970 1354 0
1000000 971 1338 0
1000000 972 1480 0
1000000 973 1304 0
1000000 974 1534 0
1000000 975 1551 0
1000000 976 1489 0
1000000 977 1331 0
1000000 978 1482 0
1000000 979 1486 0
1000000 980 1445 0
1000000 981 1421 0
1000000 982 1570 0
1000000 983 1427 0
1000000 984 1287 0
1000000 985 1304 0
1000000 986 1489 0
1000000 987 1502 0
1000000 988 1491 0
1000000 989 1503 0
1000000 990 1441 0
1000000 991 1288 0
1000000 992 1527 0
1000000 993 1393 0
1000000 994 1378 0
1000000 995 1398 0
1000000 996 1290 0
1000000 997 1348 0
1000000 998 1429 0
1000000 999 1312 0
1000000 1000 1487 0
1000000 1001 1457 0
1000000 1002 1328 0
1000000 1003 1324 0
1000000 1004 1377 0
1000000 1005 1515 0
1000000 1006 1321 0
1000000 1007 1361 0
1000000 1008 1281 0
1000000 1009 1356 0
1000000 1010 1373 0
1000000 1011 1309 0
1000000 1012 1546 0
1000000 1013 1325 0
1000000 1014 1557 0
1000000 1015 1546 0
1000000 1016 1542 0
1000000 1017 1345 0
1000000 1018 1375 0
1000000 1019 1333 0
1000000 1020 1315 0
1000000 1021 1529 0
1000000 1022 1416 0
1000000 1023 1336 0
1000000 1024 1334 0
1000000 1025 1419 0
1000000 1026 1548 0
1000000 1027 1521 0
1000000 1028 1499 0
1000000 1029 1568 0
1000000 1030 1395 0
1000000 1031 1555 0
1000000 1032 1532 0
1000000 1033 1535 0
1000000 1034 1340 0
1000000 1035 1490 0
1000000 1036 1573 0
1000000 1037 1357 0
1000000 1038 1409 0
1000000 1039 1453 0
1000000 1040 1574 0
1000000 1041 1360 0
1000000 1042 1460 0
1000000 1043 1430 0
1000000 1044 1362 0
1000000 1045 1470 0
1000000 1046 1421 0
1000000 1047 1536 0
1000000 1048 1469 0
1000000 1049 1292 0
1000000 1050 1567 0
1000000 1051 1282 0
1000000 1052 1448 0
1000000 1053 1500 0
1000000 1054 1518 0
1000000 1055 1426 0
1000000 1056 1472 0
1000000 1057 1535 0
1000000 1058 1504 0
1000000 1059 1329 0
1000000 1060 1396 0
1000000 1061 1367 0
1000000 1062 1286 0
1000000 1063 1568 0
1000000 1064 1453 0
1000000 1065 1496 0
1000000 1066 1537 0
1000000 1067 1358 0
1000000 1068 1467 0
1000000 1069 1514 0
1000000 1070 1329 0
1000000 1071 1302 0
1000000 1072 1548 0
1000000 1073 1418 0
1000000 1074 1504 0
1000000 1075 1457 0
1000000 1076 1323 0
1000000 1077 1420 0
1000000 1078 1410 0
1000000 1079 1438 0
1000000 1080 1299 0
1000000 1081 1446 0
1000000 1082 1505 0
1000000 1083 1348 0
1000000 1084 1378 0
1000000 1085 1405 0
1000000 1086 1573 0
1000000 1087 1400 0
1000000 1088 1350 0
1000000 1089 1478 0
1000000 1090 1370 0
1000000 1091 1434 0
1000000 1092 1300 0
1000000 1093 1474 0
1000000 1094 1531 0
1000000 1095 1297 0
1000000 1096 1542 0
1000000 1097 1297 0
1000000 1098 1560 0
1000000 1099 1284 0
1000000 1100 1527 0
1000000 1101 1472 0
1000000 1102 1447 0
1000000 1103 1490 0
1000000 1104 1438 0
1000000 1105 1398 0
1000000 1106 1336 0
1000000 1107 1552 0
1000000 1108 1493 0
1000000 1109 1287 0
1000000 1110 1471 0
1000000 1111 1475 0
1000000 1112 1512 0
1000000 1113 1529 0
1000000 1114 1503 0
1000000 1115 1572 0
1000000 1116 1459 0
1000000 1117 1328 0
1000000 1118 1471 0
1000000 1119 1539 0
1000000 1120 1494 0
1000000 1121 1448 0
1000000 1122 1354 0
1000000 1123 1330 0
1000000 1124 1364 0
1000000 1125 1302 0
1000000 1126 1569 0
1000000 1127 1377 0
1000000 1128 1283 0
1000000 1129 1388 0
1000000 1130 1331 0
1000000 1131 1361 0
1000000 1132 1386 0
1000000 1133 1325 0
1000000 1134 1288 0
1000000 1135 1440 0
1000000 1136 1289 0
1000000 1137 1402 0
1000000 1138 1344 0
1000000 1139 1554 0
1000000 1140 1340 0
1000000 1141 1492 0
1000000 1142 1316 0
1000000 1143 1468 0
1000000 1144 1577 0
1000000 1145 1333 0
1000000 1146 1530 0
1000000 1147 1456 0
1000000 1148 1327 0
1000000 1149 1499 0
1000000 1150 1537 0
1000000 1151 1551 0
1000000 1152 1563 0
1000000 1153 1371 0
1000000 1154 1389 0
1000000 1155 1566 0
1000000 1156 1361 0
1000000 1157 1327 0
1000000 1158 1492 0
1000000 1159 1434 0
1000000 1160 1357 0
1000000 1161 1369 0
1000000 1162 1424 0
1000000 1163 1294 0
1000000 1164 1399 0
1000000 1165 1345 0
1000000 1166 1486 0
1000000 1167 1580 0
1000000 1168 1431 0
1000000 1169 1533 0
1000000 1170 1413 0
1000000 1171 1450 0
1000000 1172 1283 0
1000000 1173 1491 0
1000000 1174 1521 0
1000000 1175 1385 0
1000000 1176 1405 0
1000000 1177 1553 0
1000000 1178 1500 0
1000000 1179 1449 0
1000000 1180 1387 0
1000000 1181 1573 0
1000000 1182 1436 0
1000000 1183 1352 0
1000000 1184 1550 0
1000000 1185 1378 0
1000000 1186 1298 0
1000000 1187 1301 0
1000000 1188 1501 0
1000000 1189 1563 0
1000000 1190 1436 0
1000000 1191 1296 0
1000000 1192 1411 0
1000000 1193 1319 0
1000000 1194 1314 0
1000000 1195 1420 0
1000000 1196 1383 0
1000000 1197 1454 0
1000000 1198 1464 0
1000000 1199 1326 0
1000000 1200 1394 0
1000000 1201 1329 0
1000000 1202 1369 0
1000000 1203 1483 0
1000000 1204 1415 0
1000000 1205 1402 0
1000000 1206 1308 0
1000000 1207 1371 0
1000000 1208 1322 0
1000000 1209 1297 0
1000000 1210 1285 0
1000000 1211 1502 0
1000000 1212 1407 0
1000000 1213 1524 0
1000000 1214 1326 0
1000000 1215 1524 0
1000000 1216 1504 0
1000000 1217 1565 0
1000000 1218 1380 0
1000000 1219 1460 0
1000000 1220 1405 0
1000000 1221 1295 0
1000000 1222 1577 0
1000000 1223 1445 0
1000000 1224 1417 0
1000000 1225 1399 0
1000000 1226 1540 0
1000000 1227 1389 0
1000000 1228 1561 0
1000000 1229 1518 0
1000000 1230 1510 0
1000000 1231 1571 0
1000000 1232 1444 0
1000000 1233 1574 0
1000000 1234 1384 0
1000000 1235 1499 0
1000000 1236 1493 0
1000000 1237 1579 0
1000000 1238 1313 0
1000000 1239 1302 0
1000000 1240 1308 0
1000000 1241 1374 0
1000000 1242 1568 0
1000000 1243 1528 0
1000000 1244 1293 0
1000000 1245 1368 0
1000000 1246 1509 0
1000000 1247 1468 0
1000000 1248 1418 0
1000000 1249 1423 0
1000000 1250 1558 0
1000000 1251 1372 0
1000000 1252 1484 0
1000000 1253 1477 0
1000000 1254 1480 0
1000000 1255 1454 0
1000000 1256 1322 0
1000000 1257 1381 0
1000000 1258 1399 0
1000000 1259 1511 0
1000000 1260 1541 0
1000000 1261 1425 0
1000000 1262 1358 0
1000000 1263 1431 0
1000000 1264 1488 0
1000000 1265 1433 0
1000000 1266 1445 0
1000000 1267 1336 0
1000000 1268 1339 0
1000000 1269 1444 0
1000000 1270 1411 0
1000000 1271 1447 0
1000000 1272 1400 0
1000000 1273 1372 0
1000000 1274 1432 0
1000000 1275 1481 0
1000000 1276 1513 0
1000000 1277 1376 0
1000000 1278 1542 0
1000000 1279 1520 0
1000000 1280 1391 0
1000000 -681 -1425 0
1000000 -682 -1498 0
1000000 -683 -1364 0
1000000 -684 -1303 0
1000000 -685 -1437 0
1000000 -686 -1454 0
1000000 -687 -1314 0
1000000 -688 -1341 0
1000000 -689 -1557 0
1000000 -690 -1335 0
1000000 -691 -1508 0
1000000 -692 -1485 0
1000000 -693 -1306 0
1000000 -694 -1298 0
1000000 -695 -1449 0
1000000 -696 -1517 0
1000000 -697 -1341 0
1000000 -698 -1355 0
1000000 -699 -1476 0
1000000 -700 -1455 0
1000000 -701 -1396 0
1000000 -702 -1412 0
1000000 -703 -1366 0
1000000 -704 -1322 0
1000000 -705 -1520 0
1000000 -706 -1424 0
1000000 -707 -1496 0
1000000 -708 -1487 0
1000000 -709 -1431 0
1000000 -710 -1312 0
1000000 -711 -1365 0
1000000 -712 -1463 0
1000000 -713 -1500 0
1000000 -714 -1408 0
1000000 -715 -1332 0
1000000 -716 -1426 0
1000000 -717 -1549 0
1000000 -718 -1299 0
1000000 -719 -1437 0
1000000 -720 -1547 0
1000000 -721 -1290 0
1000000 -722 -1311 0
1000000 -723 -1537 0
1000000 -724 -1397 0
1000000 -725 -1373 0
1000000 -726 -1325 0
1000000 -727 -1501 0
1000000 -728 -1526 0
1000000 -729 -1423 0
1000000 -730 -1569 0
1000000 -731 -1473 0
1000000 -732 -1516 0
1000000 -733 -1422 0
1000000 -734 -1346 0
1000000 -735 -1346 0
1000000 -736 -1443 0
1000000 -737 -1561 0
1000000 -738 -1313 0
1000000 -739 -1511 0
1000000 -740 -1342 0
1000000 -741 -1559 0
1000000 -742 -1493 0
1000000 -743 -1512 0
1000000 -744 -1353 0
1000000 -745 -1381 0
1000000 -746 -1449 0
1000000 -747 -1541 0
1000000 -748 -1346 0
1000000 -749 -1571 0
1000000 -750 -1435 0
1000000 -751 -1564 0
1000000 -752 -1335 0
1000000 -753 -1552 0
1000000 -754 -1578 0
1000000 -755 -1317 0
1000000 -756 -1311 0
1000000 -757 -1370 0
1000000 -758 -1484 0
1000000 -759 -1470 0
1000000 -760 -1359 0
1000000 -761 -1306 0
1000000 -762 -1562 0
1000000 -763 -1459 0
1000000 -764 -1282 0
1000000 -765 -1434 0
1000000 -766 -1430 0
1000000 -767 -1283 0
1000000 -768 -1483 0
1000000 -769 -1380 0
1000000 -770 -1533 0
1000000 -771 -1548 0
1000000 -772 -1420 0
1000000 -773 -1414 0
1000000 -774 -1305 0
1000000 -775 -1440 0
1000000 -776 -1459 0
1000000 -777 -1442 0
1000000 -778 -1510 0
1000000 -779 -1503 0
1000000 -780 -1414 0
1000000 -781 -1301 0
1000000 -782 -1531 0
1000000 -783 -1403 0
1000000 -784 -1442 0
1000000 -785 -1347 0
1000000 -786 -1437 0
1000000 -787 -1382 0
1000000 -788 -1338 0
1000000 -789 -1444 0
1000000 -790 -1440 0
1000000 -791 -1381 0
1000000 -792 -1496 0
1000000 -793 -1484 0
1000000 -794 -1506 0
1000000 -795 -1291 0
1000000 -796 -1578 0
1000000 -797 -1315 0
1000000 -798 -1356 0
1000000 -799 -1483 0
1000000 -800 -1544 0
1000000 -801 -1426 0
1000000 -802 -1384 0
1000000 -803 -1416 0
1000000 -804 -1383 0
1000000 -805 -1532 0
1000000 -806 -1555 0
1000000 -807 -1370 0
1000000 -808 -1282 0
1000000 -809 -1561 0
1000000 -810 -1296 0
1000000 -811 -1512 0
1000000 -812 -1551 0
1000000 -813 -1410 0
1000000 -814 -1462 0
1000000 -815 -1476 0
1000000 -816 -1428 0
1000000 -817 -1545 0
1000000 -818 -1451 0
1000000 -819 -1478 0
1000000 -820 -1525 0
1000000 -821 -1421 0
1000000 -822 -1365 0
1000000 -823 -1507 0
1000000 -824 -1439 0
1000000 -825 -1482 0
1000000 -826 -1490 0
1000000 -827 -1382 0
1000000 -828 -1534 0
1000000 -829 -1318 0
1000000 -830 -1408 0
1000000 -831 -1318 0
1000000 -832 -1307 0
1000000 -833 -1497 0
1000000 -834 -1341 0
1000000 -835 -1474 0
1000000 -836 -1360 0
1000000 -837 -1505 0
1000000 -838 -1523 0
1000000 -839 -1463 0
1000000 -840 -1479 0
1000000 -841 -1447 0
1000000 -842 -1401 0
1000000 -843 -1545 0
1000000 -844 -1295 0
1000000 -845 -1468 0
1000000 -846 -1351 0
1000000 -847 -1364 0
1000000 -848 -1546 0
1000000 -849 -1435 0
1000000 -850 -1417 0
1000000 -851 -1565 0
1000000 -852 -1563 0
1000000 -853 -1543 0
1000000 -854 -1307 0
1000000 -855 -1295 0
1000000 -856 -1333 0
1000000 -857 -1489 0
1000000 -858 -1337 0
1000000 -859 -1479 0
1000000 -860 -1555 0
1000000 -861 -1475 0
1000000 -862 -1432 0
1000000 -863 -1355 0
1000000 -864 -1507 0
1000000 -865 -1389 0
1000000 -866 -1477 0
1000000 -867 -1554 0
1000000 -868 -1301 0
1000000 -869 -1350 0
1000000 -870 -1386 0
1000000 -871 -1462 0
1000000 -872 -1456 0
1000000 -873 -1375 0
1000000 -874 -1510 0
1000000 -875 -1349 0
1000000 -876 -1570 0
1000000 -877 -1458 0
1000000 -878 -1404 0
1000000 -879 -1424 0
1000000 -880 -1472 0
1000000 -881 -1538 0
1000000 -882 -1481 0
1000000 -883 -1330 0
1000000 -884 -1492 0
1000000 -885 -1475 0
1000000 -886 -1554 0
1000000 -887 -1343 0
1000000 -888 -1527 0
1000000 -889 -1344 0
1000000 -890 -1448 0
1000000 -891 -1522 0
1000000 -892 -1373 0
1000000 -893 -1450 0
1000000 -894 -1339 0
1000000 -895 -1465 0
1000000 -896 -1344 0
1000000 -897 -1422 0
1000000 -898 -1396 0
1000000 -899 -1524 0
1000000 -900 -1318 0
1000000 -901 -1556 0
1000000 -902 -1541 0
1000000 -903 -1304 0
1000000 -904 -1380 0
1000000 -905 -1331 0
1000000 -906 -1487 0
1000000 -907 -1508 0
1000000 -908 -1291 0
1000000 -909 -1521 0
1000000 -910 -1566 0
1000000 -911 -1436 0
1000000 -912 -1443 0
1000000 -913 -1310 0
1000000 -914 -1488 0
1000000 -915 -1562 0
1000000 -916 -1466 0
1000000 -917 -1392 0
1000000 -918 -1453 0
1000000 -919 -1463 0
1000000 -920 -1519 0
1000000 -921 -1502 0
1000000 -922 -1294 0
1000000 -923 -1495 0
1000000 -924 -1309 0
1000000 -925 -1362 0
1000000 -926 -1351 0
1000000 -927 -1477 0
1000000 -928 -1291 0
1000000 -929 -1345 0
1000000 -930 -1390 0
1000000 -931 -1439 0
1000000 -932 -1461 0
1000000 -933 -1335 0
1000000 -934 -1460 0
1000000 -935 -1550 0
1000000 -936 -1515 0
1000000 -937 -1379 0
1000000 -938 -1328 0
1000000 -939 -1367 0
1000000 -940 -1439 0
1000000 -941 -1557 0
1000000 -942 -1470 0
1000000 -943 -1367 0
1000000 -944 -1401 0
1000000 -945 -1575 0
1000000 -946 -1495 0
1000000 -947 -1471 0
1000000 -948 -1397 0
1000000 -949 -1320 0
1000000 -950 -1534 0
1000000 -951 -1413 0
1000000 -952 -1491 0
1000000 -953 -1580 0
1000000 -954 -1452 0
1000000 -955 -1384 0
1000000 -956 -1288 0
1000000 -957 -1547 0
1000000 -958 -1501 0
1000000 -959 -1305 0
1000000 -960 -1553 0
1000000 -961 -1296 0
1000000 -962 -1374 0
1000000 -963 -1363 0
1000000 -964 -1403 0
1000000 -965 -1579 0
1000000 -966 -1576 0
1000000 -967 -1425 0
1000000 -968 -1290 0
1000000 -969 -1406 0
1000000 -970 -1354 0
1000000 -971 -1338 0
1000000 -972 -1480 0
1000000 -973 -1304 0
1000000 -974 -1534 0
1000000 -975 -1551 0
1000000 -976 -1489 0
1000000 -977 -1331 0
1000000 -978 -1482 0
1000000 -979 -1486 0
1000000 -980 -1445 0
1000000 -981 -1421 0
1000000 -982 -1570 0
1000000 -983 -1427 0
1000000 -984 -1287 0
1000000 -985 -1304 0
1000000 -986 -1489 0
1000000 -987 -1502 0
1000000 -988 -1491 0
1000000 -989 -1503 0
1000000 -990 -1441 0
1000000 -991 -1288 0
1000000 -992 -1527 0
1000000 -993 -1393 0
1000000 -994 -1378 0
1000000 -995 -1398 0
1000000 -996 -1290 0
1000000 -997 -1348 0
1000000 -998 -1429 0
1000000 -999 -1312 0
1000000 -1000 -1487 0
1000000 -1001 -1457 0
1000000 -1002 -1328 0
1000000 -1003 -1324 0
1000000 -1004 -1377 0
1000000 -1005 -1515 0
1000000 -1006 -1321 0
1000000 -1007 -1361 0
1000000 -1008 -1281 0
1000000 -1009 -1356 0
1000000 -1010 -1373 0
1000000 -1011 -1309 0
1000000 -1012 -1546 0
1000000 -1013 -1325 0
1000000 -1014 -1557 0
1000000 -1015 -1546 0
1000000 -1016 -1542 0
1000000 -1017 -1345 0
1000000 -1018 -1375 0
1000000 -1019 -1333 0
1000000 -1020 -1315 0
1000000 -1021 -1529 0
1000000 -1022 -1416 0
1000000 -1023 -1336 0
1000000 -1024 -1334 0
1000000 -1025 -1419 0
1000000 -1026 -1548 0
1000000 -1027 -1521 0
1000000 -1028 -1499 0
1000000 -1029 -1568 0
1000000 -1030 -1395 0
1000000 -1031 -1555 0
1000000 -1032 -1532 0
1000000 -1033 -1535 0
1000000 -1034 -1340 0
1000000 -1035 -1490 0
1000000 -1036 -1573 0
1000000 -1037 -1357 0
1000000 -1038 -1409 0
1000000 -1039 -1453 0
1000000 -1040 -1574 0
1000000 -1041 -1360 0
1000000 -1042 -1460 0
1000000 -1043 -1430 0
1000000 -1044 -1362 0
1000000 -1045 -1470 0
1000000 -1046 -1421 0
1000000 -1047 -1536 0
1000000 -1048 -1469 0
1000000 -1049 -1292 0
1000000 -1050 -1567 0
1000000 -1051 -1282 0
1000000 -1052 -1448 0
1000000 -1053 -1500 0
1000000 -1054 -1518 0
1000000 -1055 -1426 0
1000000 -1056 -1472 0
1000000 -1057 -1535 0
1000000 -1058 -1504 0
1000000 -1059 -1329 0
1000000 -1060 -1396 0
1000000 -1061 -1367 0
1000000 -1062 -1286 0
1000000 -1063 -1568 0
1000000 -1064 -1453 0
1000000 -1065 -1496 0
1000000 -1066 -1537 0
1000000 -1067 -1358 0
1000000 -1068 -1467 0
1000000 -1069 -1514 0
1000000 -1070 -1329 0
1000000 -1071 -1302 0
1000000 -1072 -1548 0
1000000 -1073 -1418 0
1000000 -1074 -1504 0
1000000 -1075 -1457 0
1000000 -1076 -1323 0
1000000 -1077 -1420 0
1000000 -1078 -1410 0
1000000 -1079 -1438 0
1000000 -1080 -1299 0
1000000 -1081 -1446 0
1000000 -1082 -1505 0
1000000 -1083 -1348 0
1000000 -1084 -1378 0
1000000 -1085 -1405 0
1000000 -1086 -1573 0
1000000 -1087 -1400 0
1000000 -1088 -1350 0
1000000 -1089 -1478 0
1000000 -1090 -1370 0
1000000 -1091 -1434 0
1000000 -1092 -1300 0
1000000 -1093 -1474 0
1000000 -1094 -1531 0
1000000 -1095 -1297 0
1000000 -1096 -1542 0
1000000 -1097 -1297 0
1000000 -1098 -1560 0
1000000 -1099 -1284 0
1000000 -1100 -1527 0
1000000 -1101 -1472 0
1000000 -1102 -1447 0
1000000 -1103 -1490 0
1000000 -1104 -1438 0
1000000 -1105 -1398 0
1000000 -1106 -1336 0
1000000 -1107 -1552 0
1000000 -1108 -1493 0
1000000 -1109 -1287 0
1000000 -1110 -1471 0
1000000 -1111 -1475 0
1000000 -1112 -1512 0
1000000 -1113 -1529 0
1000000 -1114 -1503 0
1000000 -1115 -1572 0
1000000 -1116 -1459 0
1000000 -1117 -1328 0
1000000 -1118 -1471 0
1000000 -1119 -1539 0
1000000 -1120 -1494 0
1000000 -1121 -1448 0
1000000 -1122 -1354 0
1000000 -1123 -1330 0
1000000 -1124 -1364 0
1000000 -1125 -1302 0
1000000 -1126 -1569 0
1000000 -1127 -1377 0
1000000 -1128 -1283 0
1000000 -1129 -1388 0
1000000 -1130 -1331 0
1000000 -1131 -1361 0
1000000 -1132 -1386 0
1000000 -1133 -1325 0
1000000 -1134 -1288 0
1000000 -1135 -1440 0
1000000 -1136 -1289 0
1000000 -1137 -1402 0
1000000 -1138 -1344 0
1000000 -1139 -1554 0
1000000 -1140 -1340 0
1000000 -1141 -1492 0
1000000 -1142 -1316 0
1000000 -1143 -1468 0
1000000 -1144 -1577 0
1000000 -1145 -1333 0
1000000 -1146 -1530 0
1000000 -1147 -1456 0
1000000 -1148 -1327 0
1000000 -1149 -1499 0
1000000 -1150 -1537 0
1000000 -1151 -1551 0
1000000 -1152 -1563 0
1000000 -1153 -1371 0
1000000 -1154 -1389 0
1000000 -1155 -1566 0
1000000 -1156 -1361 0
1000000 -1157 -1327 0
1000000 -1158 -1492 0
1000000 -1159 -1434 0
1000000 -1160 -1357 0
1000000 -1161 -1369 0
1000000 -1162 -1424 0
1000000 -1163 -1294 0
1000000 -1164 -1399 0
1000000 -1165 -1345 0
1000000 -1166 -1486 0
1000000 -1167 -1580 0
1000000 -1168 -1431 0
1000000 -1169 -1533 0
1000000 -1170 -1413 0
1000000 -1171 -1450 0
1000000 -1172 -1283 0
1000000 -1173 -1491 0
1000000 -1174 -1521 0
1000000 -1175 -1385 0
1000000 -1176 -1405 0
1000000 -1177 -1553 0
1000000 -1178 -1500 0
1000000 -1179 -1449 0
1000000 -1180 -1387 0
1000000 -1181 -1573 0
1000000 -1182 -1436 0
1000000 -1183 -1352 0
1000000 -1184 -1550 0
1000000 -1185 -1378 0
1000000 -1186 -1298 0
1000000 -1187 -1301 0
1000000 -1188 -1501 0
1000000 -1189 -1563 0
1000000 -1190 -1436 0
1000000 -1191 -1296 0
1000000 -1192 -1411 0
1000000 -1193 -1319 0
1000000 -1194 -1314 0
1000000 -1195 -1420 0
1000000 -1196 -1383 0
1000000 -1197 -1454 0
1000000 -1198 -1464 0
1000000 -1199 -1326 0
1000000 -1200 -1394 0
1000000 -1201 -1329 0
1000000 -1202 -1369 0
1000000 -1203 -1483 0
1000000 -1204 -1415 0
1000000 -1205 -1402 0
1000000 -1206 -1308 0
1000000 -1207 -1371 0
1000000 -1208 -1322 0
1000000 -1209 -1297 0
1000000 -1210 -1285 0
1000000 -1211 -1502 0
1000000 -1212 -1407 0
1000000 -1213 -1524 0
1000000 -1214 -1326 0
1000000 -1215 -1524 0
1000000 -1216 -1504 0
1000000 -1217 -1565 0
1000000 -1218 -1380 0
1000000 -1219 -1460 0
1000000 -1220 -1405 0
1000000 -1221 -1295 0
1000000 -1222 -1577 0
1000000 -1223 -1445 0
1000000 -1224 -1417 0
1000000 -1225 -1399 0
1000000 -1226 -1540 0
1000000 -1227 -1389 0
1000000 -1228 -1561 0
1000000 -1229 -1518 0
1000000 -1230 -1510 0
1000000 -1231 -1571 0
1000000 -1232 -1444 0
1000000 -1233 -1574 0
1000000 -1234 -1384 0
1000000 -1235 -1499 0
1000000 -1236 -1493 0
1000000 -1237 -1579 0
1000000 -1238 -1313 0
1000000 -1239 -1302 0
1000000 -1240 -1308 0
1000000 -1241 -1374 0
1000000 -1242 -1568 0
1000000 -1243 -1528 0
1000000 -1244 -1293 0
1000000 -1245 -1368 0
1000000 -1246 -1509 0
1000000 -1247 -1468 0
1000000 -1248 -1418 0
1000000 -1249 -1423 0
1000000 -1250 -1558 0
1000000 -1251 -1372 0
1000000 -1252 -1484 0
1000000 -1253 -1477 0
1000000 -1254 -1480 0
1000000 -1255 -1454 0
1000000 -1256 -1322 0
1000000 -1257 -1381 0
1000000 -1258 -1399 0
1000000 -1259 -1511 0
1000000 -1260 -1541 0
1000000 -1261 -1425 0
1000000 -1262 -1358 0
1000000 -1263 -1431 0
1000000 -1264 -1488 0
1000000 -1265 -1433 0
1000000 -1266 -1445 0
1000000 -1267 -1336 0
1000000 -1268 -1339 0
1000000 -1269 -1444 0
1000000 -1270 -1411 0
1000000 -1271 -1447 0
1000000 -1272 -1400 0
1000000 -1273 -1372 0
1000000 -1274 -1432 0
1000000 -1275 -1481 0
1000000 -1276 -1513 0
1000000 -1277 -1376 0
1000000 -1278 -1542 0
1000000 -1279 -1520 0
1000000 -1280 -1391 0
5500 -1281 0
5200 -1282 0
5200 -1283 0
8700 -1284 0
8700 -1285 0
5200 -1286 0
5100 -1287 0
8700 -1288 0
5100 -1289 0
5100 -1290 0
7700 -1291 0
5500 -1292 0
5200 -1293 0
5500 -1294 0
5200 -1295 0
5500 -1296 0
5200 -1297 0
5500 -1298 0
7700 -1299 0
5100 -1300 0
5200 -1301 0
5100 -1302 0
5200 -1303 0
5200 -1304 0
7700 -1305 0
5500 -1306 0
5200 -1307 0
5500 -1308 0
7700 -1309 0
8700 -1310 0
5100 -1311 0
5200 -1312 0
7700 -1313 0
5500 -1314 0
5200 -1315 0
5500 -1316 0
8700 -1317 0
5200 -1318 0
5100 -1319 0
5200 -1320 0
5100 -1321 0
5500 -1322 0
5200 -1323 0
7700 -1324 0
7700 -1325 0
8700 -1326 0
7700 -1327 0
8700 -1328 0
5500 -1329 0
5100 -1330 0
5500 -1331 0
5100 -1332 0
5100 -1333 0
8700 -1334 0
7700 -1335 0
7700 -1336 0
8700 -1337 0
8700 -1338 0
5500 -1339 0
8700 -1340 0
7700 -1341 0
8700 -1342 0
8700 -1343 0
5100 -1344 0
8700 -1345 0
5500 -1346 0
8700 -1347 0
5200 -1348 0
5200 -1349 0
5100 -1350 0
5100 -1351 0
5200 -1352 0
5100 -1353 0
5100 -1354 0
7700 -1355 0
7700 -1356 0
8700 -1357 0
5200 -1358 0
5500 -1359 0
5200 -1360 0
5200 -1361 0
7700 -1362 0
7700 -1363 0
5100 -1364 0
5500 -1365 0
7700 -1366 0
5100 -1367 0
5500 -1368 0
7700 -1369 0
5200 -1370 0
5200 -1371 0
5500 -1372 0
5500 -1373 0
7700 -1374 0
7700 -1375 0
5500 -1376 0
5500 -1377 0
5100 -1378 0
5100 -1379 0
5100 -1380 0
5200 -1381 0
5200 -1382 0
5100 -1383 0
5100 -1384 0
5500 -1385 0
5200 -1386 0
5100 -1387 0
8700 -1388 0
7700 -1389 0
5100 -1390 0
5200 -1391 0
5100 -1392 0
8700 -1393 0
5500 -1394 0
5200 -1395 0
5500 -1396 0
7700 -1397 0
5500 -1398 0
5100 -1399 0
8700 -1400 0
5500 -1401 0
8700 -1402 0
5200 -1403 0
5200 -1404 0
5100 -1405 0
5100 -1406 0
5100 -1407 0
8700 -1408 0
7700 -1409 0
7700 -1410 0
7700 -1411 0
5200 -1412 0
5200 -1413 0
7700 -1414 0
5100 -1415 0
5500 -1416 0
7700 -1417 0
5500 -1418 0
7700 -1419 0
5500 -1420 0
5100 -1421 0
5200 -1422 0
7700 -1423 0
7700 -1424 0
5100 -1425 0
8700 -1426 0
7700 -1427 0
5500 -1428 0
5100 -1429 0
8700 -1430 0
7700 -1431 0
7700 -1432 0
5200 -1433 0
8700 -1434 0
5100 -1435 0
5500 -1436 0
7700 -1437 0
5100 -1438 0
5200 -1439 0
7700 -1440 0
8700 -1441 0
5100 -1442 0
5500 -1443 0
5200 -1444 0
5100 -1445 0
7700 -1446 0
5500 -1447 0
7700 -1448 0
7700 -1449 0
8700 -1450 0
8700 -1451 0
7700 -1452 0
5200 -1453 0
8700 -1454 0
8700 -1455 0
8700 -1456 0
8700 -1457 0
5500 -1458 0
7700 -1459 0
5500 -1460 0
5100 -1461 0
5100 -1462 0
5100 -1463 0
5500 -1464 0
7700 -1465 0
5100 -1466 0
8700 -1467 0
5100 -1468 0
5200 -1469 0
8700 -1470 0
8700 -1471 0
8700 -1472 0
5100 -1473 0
8700 -1474 0
5200 -1475 0
5500 -1476 0
5200 -1477 0
7700 -1478 0
8700 -1479 0
5200 -1480 0
5100 -1481 0
7700 -1482 0
5200 -1483 0
8700 -1484 0
5100 -1485 0
8700 -1486 0
7700 -1487 0
5200 -1488 0
8700 -1489 0
7700 -1490 0
5100 -1491 0
5200 -1492 0
5200 -1493 0
7700 -1494 0
5200 -1495 0
5100 -1496 0
5100 -1497 0
5200 -1498 0
8700 -1499 0
8700 -1500 0
5100 -1501 0
8700 -1502 0
7700 -1503 0
5500 -1504 0
5200 -1505 0
7700 -1506 0
5100 -1507 0
5500 -1508 0
5100 -1509 0
5500 -1510 0
7700 -1511 0
5500 -1512 0
8700 -1513 0
7700 -1514 0
5200 -1515 0
5100 -1516 0
8700 -1517 0
5200 -1518 0
5500 -1519 0
8700 -1520 0
5200 -1521 0
7700 -1522 0
5500 -1523 0
5200 -1524 0
5500 -1525 0
5200 -1526 0
5100 -1527 0
7700 -1528 0
8700 -1529 0
5200 -1530 0
5500 -1531 0
7700 -1532 0
8700 -1533 0
5500 -1534 0
7700 -1535 0
5500 -1536 0
7700 -1537 0
8700 -1538 0
8700 -1539 0
5500 -1540 0
7700 -1541 0
5200 -1542 0
8700 -1543 0
5200 -1544 0
5200 -1545 0
5100 -1546 0
5500 -1547 0
5500 -1548 0
5500 -1549 0
7700 -1550 0
8700 -1551 0
8700 -1552 0
5100 -1553 0
5100 -1554 0
5100 -1555 0
5200 -1556 0
5500 -1557 0
7700 -1558 0
8700 -1559 0
7700 -1560 0
5500 -1561 0
5500 -1562 0
8700 -1563 0
5200 -1564 0
5100 -1565 0
5200 -1566 0
5500 -1567 0
5500 -1568 0
5200 -1569 0
5100 -1570 0
5100 -1571 0
5500 -1572 0
5100 -1573 0
5100 -1574 0
8700 -1575 0
8700 -1576 0
7700 -1577 0
5200 -1578 0
5500 -1579 0
5100 -1580 0
4400 681 0
1600 682 0
1800 683 0
2500 684 0
2400 685 0
1800 686 0
1800 687 0
1600 688 0
2500 689 0
2400 690 0
1800 691 0
4400 692 0
2400 693 0
1600 694 0
2500 695 0
4400 696 0
2400 697 0
2400 698 0
1800 699 0
2400 700 0
2500 701 0
2500 702 0
2400 703 0
1800 704 0
4400 705 0
4400 706 0
1800 707 0
1600 708 0
2500 709 0
1600 710 0
1800 711 0
1600 712 0
1800 713 0
4400 714 0
4400 715 0
1600 716 0
1600 717 0
2500 718 0
4400 719 0
2500 720 0
1600 721 0
1800 722 0
4400 723 0
1800 724 0
2500 725 0
2500 726 0
2400 727 0
4400 728 0
4400 729 0
2500 730 0
1800 731 0
4400 732 0
2500 733 0
2400 734 0
1600 735 0
4400 736 0
1600 737 0
1800 738 0
2400 739 0
4400 740 0
1600 741 0
1600 742 0
2500 743 0
1600 744 0
1800 745 0
1600 746 0
1800 747 0
1800 748 0
2500 749 0
2400 750 0
1800 751 0
1600 752 0
1600 753 0
1800 754 0
1600 755 0
4400 756 0
2500 757 0
1600 758 0
2500 759 0
1800 760 0
1800 761 0
1800 762 0
2500 763 0
1600 764 0
4400 765 0
2500 766 0
4400 767 0
1600 768 0
1600 769 0
2500 770 0
2400 771 0
4400 772 0
1800 773 0
4400 774 0
1600 775 0
1600 776 0
2500 777 0
2400 778 0
1800 779 0
4400 780 0
2400 781 0
1800 782 0
1600 783 0
1600 784 0
2500 785 0
2500 786 0
4400 787 0
2400 788 0
2400 789 0
1800 790 0
4400 791 0
2500 792 0
4400 793 0
1600 794 0
2500 795 0
2400 796 0
2500 797 0
1600 798 0
2500 799 0
2400 800 0
1600 801 0
1800 802 0
4400 803 0
1800 804 0
1600 805 0
1600 806 0
1600 807 0
2400 808 0
1600 809 0
4400 810 0
2400 811 0
1600 812 0
2400 813 0
4400 814 0
4400 815 0
2400 816 0
2500 817 0
1800 818 0
1600 819 0
1800 820 0
4400 821 0
1800 822 0
2500 823 0
1800 824 0
1800 825 0
4400 826 0
4400 827 0
1600 828 0
2400 829 0
1600 830 0
4400 831 0
1600 832 0
1800 833 0
1800 834 0
4400 835 0
4400 836 0
1600 837 0
1600 838 0
1800 839 0
2400 840 0
2400 841 0
4400 842 0
1600 843 0
2400 844 0
1600 845 0
2500 846 0
1800 847 0
1600 848 0
1600 849 0
1600 850 0
2400 851 0
1600 852 0
2500 853 0
2400 854 0
4400 855 0
4400 856 0
1800 857 0
2500 858 0
1600 859 0
2500 860 0
4400 861 0
1600 862 0
2500 863 0
2400 864 0
1600 865 0
2400 866 0
2500 867 0
1600 868 0
1800 869 0
1800 870 0
4400 871 0
1600 872 0
2500 873 0
1800 874 0
4400 875 0
1600 876 0
1800 877 0
1600 878 0
4400 879 0
2500 880 0
4400 881 0
2500 882 0
2400 883 0
1800 884 0
2400 885 0
2500 886 0
1600 887 0
2500 888 0
2500 889 0
1600 890 0
2400 891 0
1800 892 0
2500 893 0
2500 894 0
1800 895 0
2500 896 0
1800 897 0
1800 898 0
1800 899 0
1600 900 0
2400 901 0
2400 902 0
4400 903 0
1600 904 0
4400 905 0
2400 906 0
2400 907 0
2400 908 0
2500 909 0
4400 910 0
1600 911 0
4400 912 0
2400 913 0
1600 914 0
4400 915 0
2400 916 0
2400 917 0
1600 918 0
1800 919 0
1600 920 0
1800 921 0
2500 922 0
1600 923 0
1800 924 0
4400 925 0
2400 926 0
2500 927 0
1600 928 0
1800 929 0
4400 930 0
1800 931 0
1600 932 0
1800 933 0
1600 934 0
1800 935 0
2400 936 0
1600 937 0
1600 938 0
2500 939 0
2400 940 0
1600 941 0
4400 942 0
1800 943 0
4400 944 0
1800 945 0
1800 946 0
2500 947 0
1600 948 0
1800 949 0
2500 950 0
4400 951 0
2500 952 0
4400 953 0
1600 954 0
1800 955 0
2400 956 0
4400 957 0
1800 958 0
2400 959 0
2400 960 0
4400 961 0
1800 962 0
2400 963 0
2500 964 0
2500 965 0
1800 966 0
1600 967 0
2500 968 0
4400 969 0
1800 970 0
2400 971 0
2500 972 0
1800 973 0
1800 974 0
1600 975 0
2400 976 0
2400 977 0
2400 978 0
4400 979 0
1800 980 0
4400 981 0
4400 982 0
1800 983 0
2400 984 0
1800 985 0
1600 986 0
1800 987 0
1800 988 0
2500 989 0
1600 990 0
2500 991 0
2400 992 0
2400 993 0
1600 994 0
4400 995 0
1800 996 0
2500 997 0
1600 998 0
2500 999 0
1800 1000 0
4400 1001 0
2500 1002 0
1600 1003 0
1800 1004 0
1800 1005 0
4400 1006 0
1600 1007 0
1800 1008 0
2500 1009 0
2400 1010 0
1600 1011 0
2500 1012 0
4400 1013 0
4400 1014 0
1800 1015 0
4400 1016 0
2400 1017 0
2500 1018 0
1600 1019 0
1800 1020 0
1600 1021 0
2500 1022 0
2400 1023 0
2500 1024 0
2500 1025 0
1800 1026 0
1600 1027 0
2500 1028 0
2500 1029 0
2400 1030 0
4400 1031 0
2400 1032 0
1600 1033 0
1600 1034 0
1800 1035 0
4400 1036 0
1600 1037 0
4400 1038 0
2400 1039 0
1600 1040 0
2500 1041 0
1600 1042 0
4400 1043 0
1600 1044 0
1800 1045 0
2500 1046 0
1800 1047 0
2400 1048 0
1600 1049 0
1600 1050 0
2400 1051 0
1800 1052 0
2500 1053 0
1800 1054 0
4400 1055 0
1800 1056 0
2500 1057 0
1600 1058 0
1800 1059 0
2400 1060 0
2500 1061 0
1600 1062 0
2500 1063 0
2400 1064 0
4400 1065 0
2500 1066 0
2500 1067 0
1800 1068 0
2400 1069 0
2400 1070 0
4400 1071 0
2400 1072 0
2500 1073 0
4400 1074 0
2400 1075 0
4400 1076 0
2400 1077 0
2400 1078 0
1800 1079 0
2400 1080 0
4400 1081 0
2500 1082 0
1800 1083 0
2400 1084 0
2400 1085 0
4400 1086 0
1800 1087 0
2400 1088 0
2500 1089 0
2500 1090 0
2400 1091 0
2500 1092 0
1800 1093 0
2400 1094 0
4400 1095 0
1800 1096 0
2500 1097 0
2400 1098 0
1800 1099 0
2500 1100 0
2400 1101 0
1600 1102 0
4400 1103 0
2500 1104 0
2500 1105 0
1600 1106 0
1600 1107 0
1800 1108 0
4400 1109 0
4400 1110 0
2500 1111 0
1600 1112 0
4400 1113 0
2400 1114 0
4400 1115 0
2500 1116 0
4400 1117 0
1800 1118 0
1600 1119 0
2500 1120 0
2500 1121 0
1600 1122 0
1600 1123 0
1600 1124 0
2500 1125 0
1600 1126 0
1600 1127 0
2500 1128 0
2500 1129 0
1800 1130 0
4400 1131 0
2400 1132 0
2500 1133 0
2400 1134 0
1800 1135 0
4400 1136 0
4400 1137 0
4400 1138 0
1800 1139 0
1600 1140 0
4400 1141 0
4400 1142 0
1800 1143 0
1600 1144 0
4400 1145 0
4400 1146 0
1600 1147 0
2500 1148 0
2500 1149 0
4400 1150 0
2400 1151 0
1600 1152 0
1600 1153 0
2400 1154 0
1600 1155 0
1800 1156 0
1600 1157 0
1600 1158 0
1600 1159 0
2500 1160 0
1800 1161 0
1600 1162 0
1800 1163 0
1800 1164 0
1800 1165 0
2400 1166 0
1600 1167 0
2500 1168 0
2500 1169 0
2500 1170 0
2500 1171 0
1600 1172 0
2500 1173 0
1800 1174 0
2400 1175 0
4400 1176 0
2500 1177 0
4400 1178 0
4400 1179 0
4400 1180 0
1800 1181 0
2500 1182 0
1600 1183 0
1800 1184 0
1600 1185 0
2500 1186 0
1800 1187 0
4400 1188 0
1800 1189 0
1800 1190 0
2500 1191 0
4400 1192 0
4400 1193 0
2400 1194 0
2400 1195 0
1600 1196 0
2400 1197 0
2500 1198 0
1800 1199 0
4400 1200 0
1800 1201 0
2500 1202 0
1800 1203 0
4400 1204 0
2400 1205 0
1600 1206 0
4400 1207 0
4400 1208 0
4400 1209 0
4400 1210 0
2500 1211 0
4400 1212 0
1800 1213 0
2500 1214 0
2400 1215 0
1800 1216 0
1800 1217 0
1800 1218 0
1800 1219 0
2500 1220 0
2400 1221 0
2400 1222 0
4400 1223 0
1600 1224 0
2500 1225 0
2400 1226 0
2500 1227 0
2500 1228 0
4400 1229 0
2400 1230 0
1600 1231 0
1600 1232 0
1600 1233 0
1800 1234 0
2400 1235 0
1800 1236 0
1800 1237 0
1800 1238 0
4400 1239 0
4400 1240 0
2500 1241 0
2500 1242 0
2400 1243 0
2400 1244 0
4400 1245 0
2500 1246 0
2500 1247 0
1800 1248 0
1600 1249 0
1600 1250 0
1600 1251 0
4400 1252 0
1600 1253 0
1600 1254 0
1800 1255 0
2400 1256 0
4400 1257 0
2500 1258 0
1800 1259 0
1600 1260 0
2500 1261 0
1800 1262 0
4400 1263 0
1600 1264 0
4400 1265 0
1800 1266 0
2500 1267 0
2400 1268 0
1600 1269 0
4400 1270 0
2500 1271 0
2500 1272 0
2400 1273 0
1800 1274 0
2400 1275 0
2400 1276 0
1800 1277 0
1800 1278 0
1800 1279 0
2500 1280 0
33930 348 653 -586 0
15080 348 -653 586 0
35438 348 -653 -586 0
7540 -348 653 586 0
34684 -348 653 -586 0
19604 -348 -653 586 0
35890 -348 -653 -586 0
7220 -446 0
13300 665 544 -396 0
10450 665 -544 396 0
16435 665 -544 -396 0
2280 -665 544 396 0
13984 -665 544 -396 0
11476 -665 -544 396 0
16743 -665 -544 -396 0
16150 -260 0
34320 280 560 -468 0
13728 280 -560 468 0
37066 280 -560 -468 0
30030 -280 560 468 0
40326 -280 560 -468 0
34148 -280 -560 468 0
41150 -280 -560 -468 0
16965 430 -293 0
754 -430 293 0
17380 -430 -293 0
6420 550 416 -326 0
4815 550 -416 326 0
8346 550 -416 -326 0
9630 -550 416 326 0
10272 -550 416 -326 0
10112 -550 -416 326 0
10465 -550 -416 -326 0
4030 582 418 -545 0
620 582 -418 545 0
4247 582 -418 -545 0
2170 -582 418 545 0
4789 -582 418 -545 0
2573 -582 -418 545 0
4931 -582 -418 -545 0
1926 343 -626 0
2675 -343 626 0
4120 -343 -626 0
2790 561 632 -370 0
2480 561 -632 370 0
4154 561 -632 -370 0
5270 -561 632 370 0
5688 -561 632 -370 0
5642 -561 -632 370 0
5893 -561 -632 -370 0
12870 616 496 -445 0
6435 616 -496 445 0
17375 616 -496 -445 0
34320 -616 496 445 0
36894 -616 496 -445 0
35607 -616 -496 445 0
37795 -616 -496 -445 0
5890 515 401 -664 0
4960 515 -401 664 0
6138 515 -401 -664 0
3100 -515 401 664 0
6045 -515 401 -664 0
5580 -515 -401 664 0
6169 -515 -401 -664 0
1885 -627 0
3420 202 -295 0
18050 -202 295 0
18221 -202 -295 0
8580 279 399 -589 0
858 279 -399 589 0
9266 279 -399 -589 0
34320 -279 399 589 0
36036 -279 399 -589 0
34492 -279 -399 589 0
36173 -279 -399 -589 0
3410 649 -591 0
4650 -649 591 0
5502 -649 -591 0
17100 -296 0
3720 310 332 -595 0
620 310 -332 595 0
3968 310 -332 -595 0
2170 -310 332 595 0
4588 -310 332 -595 0
2573 -310 -332 595 0
4749 -310 -332 -595 0
7540 241 598 -464 0
4524 241 -598 464 0
11159 241 -598 -464 0
7540 -241 598 464 0
13572 -241 598 -464 0
11159 -241 -598 464 0
16467 -241 -598 -464 0
10165 -388 0
15080 623 -344 0
20735 -623 344 0
27521 -623 -344 0
26390 592 -234 0
11310 -592 234 0
29783 -592 -234 0
16302 366 208 -367 0
36465 366 -208 367 0
38910 366 -208 -367 0
858 -366 208 367 0
16834 -366 208 -367 0
36594 -366 -208 367 0
38990 -366 -208 -367 0
124 -487 0
5580 272 654 -222 0
3100 272 -654 222 0
5890 272 -654 -222 0
310 -272 654 222 0
5611 -272 654 -222 0
3255 -272 -654 222 0
5905 -272 -654 -222 0
2480 547 459 -408 0
4340 547 -459 408 0
5084 547 -459 -408 0
5580 -547 459 408 0
5828 -547 459 -408 0
6014 -547 -459 408 0
6088 -547 -459 -408 0
30160 -289 0
4815 469 656 -488 0
3424 469 -656 488 0
6698 469 -656 -488 0
2675 -469 656 488 0
6286 -469 656 -488 0
5243 -469 -656 488 0
7699 -469 -656 -488 0
3424 386 -454 0
9095 -386 454 0
9609 -386 -454 0
6435 534 246 -304 0
15015 534 -246 304 0
19198 534 -246 -304 0
38610 -534 246 304 0
39254 -534 246 -304 0
40112 -534 -246 304 0
40530 -534 -246 -304 0
7220 398 -424 0
16150 -398 424 0
17233 -398 -424 0
3100 567 -321 0
2356 -567 321 0
4278 -567 -321 0
18850 218 -354 0
32045 -218 354 0
34873 -218 -354 0
24505 414 -316 0
15080 -414 316 0
29783 -414 -316 0
21450 342 245 -247 0
34320 342 -245 247 0
38610 342 -245 -247 0
6435 -342 245 247 0
24667 -342 245 -247 0
35607 -342 -245 247 0
39254 -342 -245 -247 0
4815 253 -242 0
5885 -253 242 0
8052 -253 -242 0
4750 415 251 -436 0
3800 415 -251 436 0
7600 415 -251 -436 0
5700 -415 251 436 0
9025 -415 251 -436 0
8360 -415 -251 436 0
11020 -415 -251 -436 0
2356 461 -572 0
2480 -461 572 0
3894 -461 -572 0
17160 282 599 -236 0
8580 282 -599 236 0
22308 282 -599 -236 0
38610 -282 599 236 0
40326 -282 599 -236 0
39468 -282 -599 236 0
40841 -282 -599 -236 0
858 551 498 -457 0
7722 551 -498 457 0
8426 551 -498 -457 0
23595 -551 498 457 0
23981 -551 498 -457 0
27070 -551 -498 457 0
27387 -551 -498 -457 0
1284 330 -440 0
3210 -330 440 0
4109 -330 -440 0
17100 -361 0
17100 671 -290 0
1900 -671 290 0
17290 -671 -290 0
14250 673 622 -648 0
10450 673 -622 648 0
16862 673 -622 -648 0
4750 -673 622 648 0
15438 -673 622 -648 0
12588 -673 -622 648 0
17397 -673 -622 -648 0
3745 312 371 -522 0
6955 312 -371 522 0
8266 312 -371 -522 0
8025 -312 371 522 0
8961 -312 371 -522 0
9764 -312 -371 522 0
10091 -312 -371 -522 0
6955 541 226 -479 0
2140 541 -226 479 0
7704 541 -226 -479 0
2675 -541 226 479 0
7891 -541 226 -479 0
4280 -541 -226 479 0
8453 -541 -226 -479 0
28275 680 581 -210 0
7540 680 -581 210 0
30160 680 -581 -210 0
18850 -680 581 210 0
32988 -680 581 -210 0
22620 -680 -581 210 0
33930 -680 -581 -210 0
20735 313 -365 0
35815 -313 365 0
36852 -313 -365 0
1284 302 384 -583 0
3745 302 -384 583 0
4580 302 -384 -583 0
1284 -302 384 583 0
2414 -302 384 -583 0
4580 -302 -384 583 0
5314 -302 -384 -583 0
12870 463 638 -407 0
2145 463 -638 407 0
14372 463 -638 -407 0
38610 -463 638 407 0
39897 -463 638 -407 0
38825 -463 -638 407 0
40047 -463 -638 -407 0
23595 647 -548 0
19305 -647 548 0
32282 -647 -548 0
40755 442 -372 0
8580 -442 372 0
41184 -442 -372 0
380 -238 0
22620 410 292 -259 0
4524 410 -292 259 0
24430 410 -292 -259 0
7540 -410 292 259 0
25636 -410 292 -259 0
11159 -410 -292 259 0
27084 -410 -292 -259 0
7540 254 -539 0
35815 -254 539 0
36192 -254 -539 0
6080 203 -217 0
16150 -203 217 0
17062 -203 -217 0
5270 409 475 -266 0
744 409 -475 266 0
5382 409 -475 -266 0
2170 -409 475 266 0
5595 -409 475 -266 0
2654 -409 -475 266 0
5668 -409 -475 -266 0
19305 223 358 -355 0
19305 223 -358 355 0
29923 223 -358 -355 0
13728 -223 358 355 0
26855 -223 358 -355 0
26855 -223 -358 355 0
34075 -223 -358 -355 0
9425 -559 0
4340 -660 0
9095 516 483 -460 0
1070 516 -483 460 0
9255 516 -483 -460 0
2675 -516 483 460 0
9496 -516 483 -460 0
3477 -516 -483 460 0
9617 -516 -483 -460 0
18850 614 346 -506 0
5655 614 -346 506 0
21677 614 -346 -506 0
33930 -614 346 506 0
35815 -614 346 -506 0
34496 -614 -346 506 0
36098 -614 -346 -506 0
2356 -205 0
17100 505 512 -345 0
4750 505 -512 345 0
17575 505 -512 -345 0
10450 -505 512 345 0
18145 -505 512 -345 0
12588 -505 -512 345 0
18359 -505 -512 -345 0
6955 609 -339 0
3210 -609 339 0
8078 -609 -339 0
9630 275 -558 0
8025 -275 558 0
10433 -275 -558 0
6650 543 556 -625 0
4750 543 -556 625 0
9737 543 -556 -625 0
8550 -543 556 625 0
12207 -543 556 -625 0
11162 -543 -556 625 0
13906 -543 -556 -625 0
3420 368 307 -603 0
11400 368 -307 603 0
12768 368 -307 -603 0
6080 -368 307 603 0
8406 -368 307 -603 0
13832 -368 -307 603 0
14762 -368 -307 -603 0
30160 406 -328 0
1885 -406 328 0
30537 -406 -328 0
3410 458 471 -564 0
5580 458 -471 564 0
5921 458 -471 -564 0
1984 -458 471 564 0
4303 -458 471 -564 0
5778 -458 -471 564 0
6010 -458 -471 -564 0
1550 -378 0
1605 674 376 -225 0
2675 674 -376 225 0
3879 674 -376 -225 0
1926 -674 376 225 0
3242 -674 376 -225 0
4120 -674 -376 225 0
5107 -674 -376 -225 0
28275 486 530 -519 0
11310 486 -530 519 0
31102 486 -530 -519 0
13195 -486 530 519 0
31574 -486 530 -519 0
20547 -486 -530 519 0
33412 -486 -530 -519 0
23595 431 -377 0
10725 -431 377 0
28421 -431 -377 0
10450 636 526 -381 0
3420 636 -526 381 0
11989 636 -526 -381 0
15200 -636 526 381 0
17290 -636 526 -381 0
15884 -636 -526 381 0
17598 -636 -526 -381 0
1605 212 578 -435 0
2675 212 -578 435 0
3879 212 -578 -435 0
9095 -212 578 435 0
9336 -212 578 -435 0
9496 -212 -578 435 0
9677 -212 -578 -435 0
18050 207 -201 0
1900 -207 201 0
18145 -207 -201 0
12350 462 444 -374 0
17100 462 -444 374 0
18335 462 -444 -374 0
7600 -462 444 374 0
15010 -462 444 -374 0
17860 -462 -444 374 0
18601 -462 -444 -374 0
40755 662 -450 0
2145 -662 450 0
40862 -662 -450 0
2850 402 -341 0
8550 -402 341 0
10117 -402 -341 0
214 557 524 -291 0
5885 557 -524 291 0
5981 557 -524 -291 0
4280 -557 524 291 0
4408 -557 524 -291 0
7811 -557 -524 291 0
7869 -557 -524 -291 0
23595 301 403 -633 0
6435 301 -403 633 0
26491 301 -403 -633 0
10725 -301 403 633 0
28421 -301 403 -633 0
15551 -301 -403 633 0
30593 -301 -403 -633 0
3410 209 520 -285 0
5270 209 -520 285 0
5781 209 -520 -285 0
2170 -209 520 285 0
4387 -209 520 -285 0
5595 -209 -520 285 0
5928 -209 -520 -285 0
14250 227 362 -661 0
380 227 -362 661 0
14345 227 -362 -661 0
8550 -227 362 661 0
16388 -227 362 -661 0
8759 -227 -362 661 0
16440 -227 -362 -661 0
2675 278 491 -287 0
4815 278 -491 287 0
6286 278 -491 -287 0
4815 -278 491 287 0
6286 -278 491 -287 0
7463 -278 -491 287 0
8272 -278 -491 -287 0
620 605 -340 0
124 -605 340 0
732 -605 -340 0
3420 235 497 -255 0
8550 235 -497 255 0
10431 235 -497 -255 0
6080 -235 497 255 0
8406 -235 497 -255 0
11894 -235 -497 255 0
13173 -235 -497 -255 0
3210 -575 0
18850 306 672 -574 0
6786 306 -672 574 0
22243 306 -672 -574 0
32045 -306 672 574 0
34873 -306 672 -574 0
33063 -306 -672 574 0
35381 -306 -672 -574 0
26390 244 294 -562 0
9425 244 -294 562 0
29217 244 -294 -562 0
28275 -244 294 562 0
34873 -244 294 -562 0
30631 -244 -294 562 0
35579 -244 -294 -562 0
13195 352 503 -338 0
28275 352 -503 338 0
31574 352 -503 -338 0
13195 -352 503 338 0
21772 -352 503 -338 0
31574 -352 -503 338 0
33718 -352 -503 -338 0
3410 -617 0
5350 -552 0
5700 585 -669 0
12350 -585 669 0
14345 -585 -669 0
1926 -447 0
34320 499 380 -549 0
19305 499 -380 549 0
38181 499 -380 -549 0
40755 -499 380 549 0
42471 -499 380 -549 0
41720 -499 -380 549 0
42664 -499 -380 -549 0
20735 311 538 -629 0
22620 311 -538 629 0
30914 311 -538 -629 0
18850 -311 538 629 0
29218 -311 538 -629 0
30160 -311 -538 629 0
34307 -311 -538 -629 0
2480 394 -286 0
124 -394 286 0
2554 -394 -286 0
2145 -356 0
3770 249 333 -465 0
33930 249 -333 465 0
34307 249 -333 -465 0
18850 -249 333 465 0
20735 -249 333 -465 0
35815 -249 -333 465 0
36003 -249 -333 -465 0
6786 577 258 -318 0
12064 577 -258 318 0
16678 577 -258 -318 0
11310 -577 258 318 0
16060 -577 258 -318 0
19755 -577 -258 318 0
22985 -577 -258 -318 0
1984 -642 0
4524 239 -618 0
12064 -239 618 0
15140 -239 -618 0
2140 382 422 -528 0
6955 382 -422 528 0
7704 382 -422 -528 0
214 -382 422 528 0
2311 -382 422 -528 0
7030 -382 -422 528 0
7764 -382 -422 -528 0
8025 270 -663 0
1605 -270 663 0
8426 -270 -663 0
5890 566 652 -214 0
3720 566 -652 214 0
6076 566 -652 -214 0
3720 -566 652 214 0
6076 -566 652 -214 0
5208 -566 -652 214 0
6150 -566 -652 -214 0
18850 643 393 -248 0
24505 643 -393 248 0
31102 643 -393 -248 0
3770 -643 393 248 0
20735 -643 393 -248 0
25825 -643 -393 248 0
31762 -643 -393 -248 0
6080 375 -555 0
14250 -375 555 0
15770 -375 -555 0
7220 363 675 -529 0
12350 363 -675 529 0
14877 363 -675 -529 0
13300 -363 675 529 0
15466 -363 675 -529 0
17005 -363 -675 529 0
17763 -363 -675 -529 0
6786 262 -232 0
28275 -262 232 0
29971 -262 -232 0
2675 -644 0
4290 600 666 -634 0
8580 600 -666 634 0
12012 600 -666 -634 0
13728 -600 666 634 0
16645 -600 666 -634 0
19562 -600 -666 634 0
21896 -600 -666 -634 0
19305 565 -206 0
27885 -565 206 0
34642 -565 -206 0
1070 261 -513 0
8560 -261 513 0
8774 -261 -513 0
32175 322 -650 0
12870 -322 650 0
35392 -322 -650 0
2145 -429 0
3800 596 329 -269 0
4750 596 -329 269 0
7600 596 -329 -269 0
14250 -596 329 269 0
15200 -596 329 -269 0
15438 -596 -329 269 0
16150 -596 -329 -269 0
5148 -455 0
3410 -489 0
32045 273 265 -637 0
9425 273 -265 637 0
33459 273 -265 -637 0
9425 -273 265 637 0
33459 -273 265 -637 0
16494 -273 -265 637 0
34519 -273 -265 -637 0
12350 635 -308 0
13300 -635 308 0
17005 -635 -308 0
744 -452 0
10450 668 -320 0
3800 -668 320 0
12160 -668 -320 0
7220 324 230 -492 0
16150 324 -230 492 0
17233 324 -230 -492 0
15200 -324 230 492 0
16644 -324 230 -492 0
18430 -324 -230 492 0
18647 -324 -230 -492 0
380 233 419 -553 0
10450 233 -419 553 0
10621 233 -419 -553 0
14250 -233 419 553 0
14345 -233 419 -553 0
16862 -233 -419 553 0
16905 -233 -419 -553 0
6420 -297 0
26390 -397 0
10165 -508 0
13300 658 651 -476 0
4750 658 -651 476 0
14725 658 -651 -476 0
8550 -658 651 476 0
15865 -658 651 -476 0
11162 -658 -651 476 0
16649 -658 -651 -476 0
9500 533 601 -277 0
4750 533 -601 277 0
11875 533 -601 -277 0
14250 -533 601 277 0
16625 -533 601 -277 0
15438 -533 -601 277 0
17219 -533 -601 -277 0
11310 438 679 -628 0
16965 438 -679 628 0
23185 438 -679 -628 0
20735 -438 679 628 0
25825 -438 679 -628 0
28369 -438 -679 628 0
31168 -438 -679 -628 0
13300 501 532 -620 0
5700 501 -532 620 0
15010 501 -532 -620 0
15200 -501 532 620 0
17860 -501 532 -620 0
16340 -501 -532 620 0
18202 -501 -532 -620 0
930 514 537 -639 0
124 514 -537 639 0
1035 514 -537 -639 0
1860 -514 537 639 0
2511 -514 537 -639 0
1947 -514 -537 639 0
2585 -514 -537 -639 0
9630 613 -467 0
3424 -613 467 0
9972 -613 -467 0
124 593 554 -420 0
620 593 -554 420 0
732 593 -554 -420 0
5890 -593 554 420 0
5896 -593 554 -420 0
5921 -593 -554 420 0
5927 -593 -554 -420 0
6435 631 327 -615 0
23595 631 -327 615 0
26491 631 -327 -615 0
4290 -631 327 615 0
10081 -631 327 -615 0
25525 -631 -327 615 0
28132 -631 -327 -615 0
5580 267 281 -347 0
1240 267 -281 347 0
5704 267 -281 -347 0
1984 -267 281 347 0
5778 -267 281 -347 0
2827 -267 -281 347 0
5863 -267 -281 -347 0
4524 453 612 -470 0
24505 453 -612 470 0
26088 453 -612 -470 0
6786 -453 612 470 0
10496 -453 612 -470 0
26880 -453 -612 470 0
28178 -453 -612 -470 0
10450 641 334 -274 0
6080 641 -334 274 0
13186 641 -334 -274 0
13300 -641 334 274 0
16435 -641 334 -274 0
15124 -641 -334 274 0
17256 -641 -334 -274 0
5655 309 590 -437 0
35815 309 -590 437 0
36098 309 -590 -437 0
28275 -309 590 437 0
29689 -309 590 -437 0
37229 -309 -590 437 0
37299 -309 -590 -437 0
2140 426 271 -357 0
214 426 -271 357 0
2311 426 -271 -357 0
8560 -426 271 357 0
8988 -426 271 -357 0
8603 -426 -271 357 0
9022 -426 -271 -357 0
5350 646 540 -390 0
1070 646 -540 390 0
5885 646 -540 -390 0
6955 -646 540 390 0
8827 -646 540 -390 0
7330 -646 -540 390 0
9015 -646 -540 -390 0
13195 -525 0
930 472 231 -288 0
5890 472 -231 288 0
5937 472 -231 -288 0
1984 -472 231 288 0
2616 -472 231 -288 0
5989 -472 -231 288 0
6021 -472 -231 -288 0
23595 411 349 -527 0
4290 411 -349 527 0
25525 411 -349 -527 0
21450 -411 349 527 0
33248 -411 349 -527 0
23595 -411 -349 527 0
34213 -411 -349 -527 0
3720 576 624 -484 0
3100 576 -624 484 0
4960 576 -624 -484 0
1984 -576 624 484 0
4514 -576 624 -484 0
4092 -576 -624 484 0
5357 -576 -624 -484 0
14250 531 -434 0
6650 -531 434 0
15912 -531 -434 0
15200 -493 0
18850 237 630 -494 0
4524 237 -630 494 0
21112 237 -630 -494 0
24505 -237 630 494 0
31102 -237 630 -494 0
26088 -237 -630 494 0
31894 -237 -630 -494 0
5350 221 -305 0
4280 -221 305 0
7490 -221 -305 0
18850 299 303 -331 0
18850 299 -303 331 0
28275 299 -303 -331 0
1885 -299 303 331 0
19793 -299 303 -331 0
19793 -299 -303 331 0
28746 -299 -303 -331 0
4280 536 264 -359 0
1070 536 -264 359 0
4922 536 -264 -359 0
6955 -536 264 359 0
8453 -536 264 -359 0
7330 -536 -264 359 0
8678 -536 -264 -359 0
2850 594 485 -640 0
15200 594 -485 640 0
15770 594 -485 -640 0
13300 -594 485 640 0
14155 -594 485 -640 0
17860 -594 -485 640 0
18031 -594 -485 -640 0
2790 317 546 -480 0
1550 317 -546 480 0
3642 317 -546 -480 0
3100 -317 546 480 0
4495 -317 546 -480 0
3875 -317 -546 480 0
4921 -317 -546 -480 0
2480 284 335 -521 0
1550 284 -335 521 0
3410 284 -335 -521 0
2480 -284 335 521 0
3968 -284 335 -521 0
3410 -284 -335 521 0
4526 -284 -335 -521 0
2790 670 657 -315 0
4340 670 -657 315 0
5177 670 -657 -315 0
5270 -670 657 315 0
5688 -670 657 -315 0
5921 -670 -657 315 0
6047 -670 -657 -315 0
16965 369 580 -350 0
35815 369 -580 350 0
36663 369 -580 -350 0
15080 -369 580 350 0
25259 -369 580 -350 0
36569 -369 -580 350 0
37078 -369 -580 -350 0
36465 391 250 -473 0
36465 391 -250 473 0
41935 391 -250 -473 0
6435 -391 250 473 0
37430 -391 250 -473 0
37430 -391 -250 473 0
42080 -391 -250 -473 0
28275 336 364 -474 0
15080 336 -364 474 0
32045 336 -364 -474 0
11310 -336 364 474 0
31102 -336 364 -474 0
21866 -336 -364 474 0
33742 -336 -364 -474 0
3745 570 -511 0
6955 -570 511 0
8266 -570 -511 0
1860 252 645 -379 0
744 252 -645 379 0
2381 252 -645 -379 0
3720 -252 645 379 0
4464 -252 645 -379 0
4018 -252 -645 379 0
4672 -252 -645 -379 0
30030 456 389 -509 0
7722 456 -389 509 0
32347 456 -389 -509 0
30030 -456 389 509 0
39039 -456 389 -509 0
32347 -456 -389 509 0
39734 -456 -389 -509 0
16302 421 360 -602 0
30030 421 -360 602 0
34921 421 -360 -602 0
40755 -421 360 602 0
41570 -421 360 -602 0
42256 -421 -360 602 0
42501 -421 -360 -602 0
12064 -215 0
1070 427 256 -257 0
9095 427 -256 257 0
9255 427 -256 -257 0
1070 -427 256 257 0
2033 -427 256 -257 0
9255 -427 -256 257 0
9400 -427 -256 -257 0
4030 276 517 -607 0
3100 276 -517 607 0
5115 276 -517 -607 0
620 -276 517 607 0
4247 -276 517 -607 0
3410 -276 -517 607 0
5223 -276 -517 -607 0
5350 619 -404 0
214 -619 404 0
5457 -619 -404 0
12064 655 -240 0
18850 -655 240 0
24882 -655 -240 0
15080 -383 0
535 597 337 -611 0
3745 597 -337 611 0
4093 597 -337 -611 0
3424 -597 337 611 0
3788 -597 337 -611 0
5971 -597 -337 611 0
6207 -597 -337 -611 0
11310 229 400 -502 0
3770 229 -400 502 0
13949 229 -400 -502 0
15080 -229 400 502 0
21866 -229 400 -502 0
17342 -229 -400 502 0
23449 -229 -400 -502 0
14250 569 -392 0
18050 -569 392 0
18762 -569 -392 0
13728 204 466 -604 0
30030 204 -466 604 0
34148 204 -466 -604 0
8580 -204 466 604 0
19562 -204 466 -604 0
32604 -204 -466 604 0
35899 -204 -466 -604 0
9095 219 268 -228 0
2675 219 -268 228 0
9496 219 -268 -228 0
4815 -219 268 228 0
9817 -219 268 -228 0
6286 -219 -268 228 0
10038 -219 -268 -228 0
6955 584 325 -300 0
3210 584 -325 300 0
8078 584 -325 -300 0
10165 -584 325 300 0
10513 -584 325 -300 0
10325 -584 -325 300 0
10569 -584 -325 -300 0
535 432 495 -423 0
9630 432 -495 423 0
9684 432 -495 -423 0
2140 -432 495 423 0
2568 -432 495 -423 0
9844 -432 -495 423 0
9887 -432 -495 -423 0
24505 298 395 -224 0
15080 298 -395 224 0
29783 298 -395 -224 0
18850 -298 395 224 0
31102 -298 395 -224 0
26390 -298 -395 224 0
33742 -298 -395 -224 0
5270 283 -385 0
5580 -283 385 0
6107 -283 -385 0
858 412 490 -433 0
5148 412 -490 433 0
5903 412 -490 -433 0
15015 -412 490 433 0
15573 -412 490 -433 0
18361 -412 -490 433 0
18852 -412 -490 -433 0
8025 425 610 -449 0
535 425 -610 449 0
8159 425 -610 -449 0
2675 -425 610 449 0
8694 -425 610 -449 0
3076 -425 -610 449 0
8794 -425 -610 -449 0
35815 216 523 -373 0
754 216 -523 373 0
35853 216 -523 -373 0
22620 -216 523 373 0
36946 -216 523 -373 0
22922 -216 -523 373 0
36961 -216 -523 -373 0
13195 351 659 -571 0
12064 351 -659 571 0
21037 351 -659 -571 0
16965 -351 659 571 0
24222 -351 659 -571 0
23600 -351 -659 571 0
28535 -351 -659 -571 0
1926 441 -405 0
7490 -441 405 0
8068 -441 -405 0
34320 211 621 -428 0
13728 211 -621 428 0
37066 211 -621 -428 0
15015 -211 621 428 0
37323 -211 621 -428 0
23938 -211 -621 428 0
39108 -211 -621 -428 0
3745 243 451 -263 0
9630 243 -451 263 0
10005 243 -451 -263 0
7490 -243 451 263 0
8613 -243 451 -263 0
10379 -243 -451 263 0
10491 -243 -451 -263 0
2140 478 -588 0
4066 -478 588 0
5393 -478 -588 0
5270 477 606 -481 0
5580 477 -606 481 0
6107 477 -606 -481 0
310 -477 606 481 0
5316 -477 606 -481 0
5611 -477 -606 481 0
6112 -477 -606 -481 0
930 507 323 -608 0
1550 507 -323 608 0
2248 507 -323 -608 0
2790 -507 323 608 0
3302 -507 323 -608 0
3642 -507 -323 608 0
4026 -507 -323 -608 0
5700 439 518 -510 0
13300 439 -518 510 0
15010 439 -518 -510 0
16150 -439 518 510 0
17005 -439 518 -510 0
18145 -439 -518 510 0
18402 -439 -518 -510 0
8550 -568 0
22620 678 -500 0
754 -678 500 0
22922 -678 -500 0
4030 504 413 -353 0
2170 504 -413 353 0
4789 504 -413 -353 0
4030 -504 413 353 0
5441 -504 413 -353 0
4789 -504 -413 353 0
5706 -504 -413 -353 0
744 676 -579 0
620 -676 579 0
1290 -676 -579 0
11400 677 -314 0
3420 -677 314 0
12768 -677 -314 0
2170 213 -220 0
744 -213 220 0
2654 -213 -220 0
17100 563 -573 0
7220 -563 573 0
17822 -563 -573 0
18050 -319 0
35815 443 482 -542 0
14326 443 -482 542 0
36531 443 -482 -542 0
18850 -443 482 542 0
36757 -443 482 -542 0
26013 -443 -482 542 0
37116 -443 -482 -542 0
15080 535 667 -387 0
30160 535 -667 387 0
33176 535 -667 -387 0
11310 -535 667 387 0
21866 -535 667 -387 0
32422 -535 -667 387 0
34533 -535 -667 -387 0
5700 587 448 -417 0
14250 587 -448 417 0
15675 587 -448 -417 0
3420 -587 448 417 0
8094 -587 448 -417 0
15105 -587 -448 417 0
16274 -587 -448 -417 0
