p wcnf 11850 34796 1000000
1000000 90 -8559 -7182 -761 0
1000000 1501 -8559 -7182 -761 0
1000000 643 -6714 -6030 -7563 -6145 -6519 0
1000000 1502 -6714 -6030 -7563 -6145 -6519 0
1000000 752 -5797 -8599 -965 0
1000000 1503 -5797 -8599 -965 0
1000000 1099 -8816 -7343 0
1000000 1504 -8816 -7343 0
1000000 735 -8991 -6205 -7504 -7487 -9550 0
1000000 1505 -8991 -6205 -7504 -7487 -9550 0
1000000 522 -5342 -8114 -8863 -5896 -5223 0
1000000 1506 -5342 -8114 -8863 -5896 -5223 0
1000000 52 -9351 -7305 -6218 0
1000000 1507 -9351 -7305 -6218 0
1000000 188 -7877 -7679 -8702 -7866 0
1000000 1508 -7877 -7679 -8702 -7866 0
1000000 451 -7854 -6882 0
1000000 1509 -7854 -6882 0
1000000 644 -7994 -8234 0
1000000 1510 -7994 -8234 0
1000000 1497 -8218 -6035 -7498 -8038 -8869 -9458 0
1000000 1511 -8218 -6035 -7498 -8038 -8869 -9458 0
1000000 199 -6746 -9562 0
1000000 1512 -6746 -9562 0
1000000 629 -7386 -5328 -7417 0
1000000 1513 -7386 -5328 -7417 0
1000000 328 -8885 -9139 -8249 0
1000000 1514 -8885 -9139 -8249 0
1000000 327 -5259 -6543 -5560 -6102 0
1000000 1515 -5259 -6543 -5560 -6102 0
1000000 1174 -6122 -5982 -9487 -1403 0
1000000 1516 -6122 -5982 -9487 -1403 0
1000000 1241 -6072 -1438 0
1000000 1517 -6072 -1438 0
1000000 628 -6907 -6238 -991 0
1000000 1518 -6907 -6238 -991 0
1000000 1064 -6846 -9477 0
1000000 1519 -6846 -9477 0
1000000 52 -5137 -8072 -7100 -8452 0
1000000 1520 -5137 -8072 -7100 -8452 0
1000000 10 -6611 -8952 -5967 -9054 -5413 -6274 -8701 0
1000000 1521 -6611 -8952 -5967 -9054 -5413 -6274 -8701 0
1000000 245 -7076 -8538 -6236 -8677 -7399 -8554 -5909 0
1000000 1522 -7076 -8538 -6236 -8677 -7399 -8554 -5909 0
1000000 1297 -8208 -6985 -7814 -7977 0
1000000 1523 -8208 -6985 -7814 -7977 0
1000000 861 -8684 -9027 -7376 -7112 -6824 0
1000000 1524 -8684 -9027 -7376 -7112 -6824 0
1000000 1339 -7777 -8739 -8682 0
1000000 1525 -7777 -8739 -8682 0
1000000 848 -7208 -8884 -6870 -6518 -7055 -5323 0
1000000 1526 -7208 -8884 -6870 -6518 -7055 -5323 0
1000000 365 -9013 -6317 -9196 -5467 -7234 -7051 -6771 0
1000000 1527 -9013 -6317 -9196 -5467 -7234 -7051 -6771 0
1000000 81 -9486 -5881 0
1000000 1528 -9486 -5881 0
1000000 1046 -5938 -6346 -6234 -8845 -6405 0
1000000 1529 -5938 -6346 -6234 -8845 -6405 0
1000000 1199 -8602 -1440 0
1000000 1530 -8602 -1440 0
1000000 546 -8083 -6159 -8632 -6608 0
1000000 1531 -8083 -6159 -8632 -6608 0
1000000 124 -6022 -5837 -8416 -6391 -9419 -5803 -1262 0
1000000 1532 -6022 -5837 -8416 -6391 -9419 -5803 -1262 0
1000000 658 -6410 -8429 -914 0
1000000 1533 -6410 -8429 -914 0
1000000 1403 -8669 -7220 -8569 -6699 -8662 -1407 0
1000000 1534 -8669 -7220 -8569 -6699 -8662 -1407 0
1000000 1181 -7753 -7300 -5859 -7723 -8904 -1393 0
1000000 1535 -7753 -7300 -5859 -7723 -8904 -1393 0
1000000 392 -9258 -9297 -6085 -8148 0
1000000 1536 -9258 -9297 -6085 -8148 0
1000000 234 -5503 -5228 -8399 -1132 0
1000000 1537 -5503 -5228 -8399 -1132 0
1000000 1213 -7353 -1396 0
1000000 1538 -7353 -1396 0
1000000 1102 -7950 -9140 -5992 0
1000000 1539 -7950 -9140 -5992 0
1000000 1173 -8595 -5737 -8388 -7540 -1292 0
1000000 1540 -8595 -5737 -8388 -7540 -1292 0
1000000 734 -8509 -9397 0
1000000 1541 -8509 -9397 0
1000000 481 -7572 -8596 -9083 -9371 -6099 0
1000000 1542 -7572 -8596 -9083 -9371 -6099 0
1000000 698 -5555 -5756 -5204 -8606 -9349 0
1000000 1543 -5555 -5756 -5204 -8606 -9349 0
1000000 582 -6139 -6370 -8905 -6731 0
1000000 1544 -6139 -6370 -8905 -6731 0
1000000 254 -7191 -7580 -5502 0
1000000 1545 -7191 -7580 -5502 0
1000000 821 -5418 -9358 -7598 -8652 -5290 -9523 0
1000000 1546 -5418 -9358 -7598 -8652 -5290 -9523 0
1000000 904 -8604 -7770 -8199 -8434 -7104 -8635 -7040 0
1000000 1547 -8604 -7770 -8199 -8434 -7104 -8635 -7040 0
1000000 88 -7033 -403 0
1000000 1548 -7033 -403 0
1000000 781 -7002 -9230 -7500 -7895 -7358 -8637 0
1000000 1549 -7002 -9230 -7500 -7895 -7358 -8637 0
1000000 824 -6283 -9486 0
1000000 1550 -6283 -9486 0
1000000 769 -5354 -6086 -915 0
1000000 1551 -5354 -6086 -915 0
1000000 191 -6659 -6387 -8154 -7777 -5274 0
1000000 1552 -6659 -6387 -8154 -7777 -5274 0
1000000 740 -7966 -7991 -7227 -9506 -9258 0
1000000 1553 -7966 -7991 -7227 -9506 -9258 0
1000000 1441 -7313 -6785 0
1000000 1554 -7313 -6785 0
1000000 211 -5210 -8013 -6694 -5558 0
1000000 1555 -5210 -8013 -6694 -5558 0
1000000 360 -5539 -1100 0
1000000 1556 -5539 -1100 0
1000000 287 -5248 -7239 -6300 -8786 -8837 -6541 -5717 0
1000000 1557 -5248 -7239 -6300 -8786 -8837 -6541 -5717 0
1000000 99 -9032 -8987 -7145 -5415 -7183 -775 0
1000000 1558 -9032 -8987 -7145 -5415 -7183 -775 0
1000000 1327 -6015 -5235 -6827 -7012 -5316 -8779 0
1000000 1559 -6015 -5235 -6827 -7012 -5316 -8779 0
1000000 920 -9260 -8723 0
1000000 1560 -9260 -8723 0
1000000 1134 -5345 -6211 -7395 -7350 -6682 0
1000000 1561 -5345 -6211 -7395 -7350 -6682 0
1000000 898 -8434 -9266 -5198 -8105 -5856 -9353 -6074 0
1000000 1562 -8434 -9266 -5198 -8105 -5856 -9353 -6074 0
1000000 552 -8880 -7863 -9265 -558 0
1000000 1563 -8880 -7863 -9265 -558 0
1000000 1474 -7965 -5509 -9202 -6441 -7672 -7969 0
1000000 1564 -7965 -5509 -9202 -6441 -7672 -7969 0
1000000 913 -7931 -9524 -5716 -9485 -7182 -9088 -1143 0
1000000 1565 -7931 -9524 -5716 -9485 -7182 -9088 -1143 0
1000000 900 -9341 -5926 -8002 -7076 -8639 -8792 0
1000000 1566 -9341 -5926 -8002 -7076 -8639 -8792 0
1000000 1460 -7630 -7299 -7825 -7337 -1499 0
1000000 1567 -7630 -7299 -7825 -7337 -1499 0
1000000 157 -9275 -1371 0
1000000 1568 -9275 -1371 0
1000000 832 -9314 -5141 0
1000000 1569 -9314 -5141 0
1000000 646 -6257 -6385 -7746 -7830 0
1000000 1570 -6257 -6385 -7746 -7830 0
1000000 414 -5546 -9433 -7965 -7584 -6366 -8931 0
1000000 1571 -5546 -9433 -7965 -7584 -6366 -8931 0
1000000 1469 -9060 -5533 -7636 0
1000000 1572 -9060 -5533 -7636 0
1000000 318 -5118 -8776 -5618 -8819 0
1000000 1573 -5118 -8776 -5618 -8819 0
1000000 215 -8545 -7134 -5483 0
1000000 1574 -8545 -7134 -5483 0
1000000 1477 -6781 -7312 -7336 -9110 -7683 -9219 -8530 0
1000000 1575 -6781 -7312 -7336 -9110 -7683 -9219 -8530 0
1000000 606 -7670 -9443 0
1000000 1576 -7670 -9443 0
1000000 1074 -6314 -6487 -1169 0
1000000 1577 -6314 -6487 -1169 0
1000000 71 -6169 -8081 -5787 -5231 0
1000000 1578 -6169 -8081 -5787 -5231 0
1000000 880 -6662 -7300 -7571 -1272 0
1000000 1579 -6662 -7300 -7571 -1272 0
1000000 1108 -8737 -8534 -7900 -7309 -6152 -5244 -9345 0
1000000 1580 -8737 -8534 -7900 -7309 -6152 -5244 -9345 0
1000000 845 -8689 -6911 -8840 -7174 -8676 -1303 0
1000000 1581 -8689 -6911 -8840 -7174 -8676 -1303 0
1000000 292 -5311 -9302 0
1000000 1582 -5311 -9302 0
1000000 1205 -6701 -6391 0
1000000 1583 -6701 -6391 0
1000000 644 -8705 -8473 -5187 -7794 -6961 -7623 0
1000000 1584 -8705 -8473 -5187 -7794 -6961 -7623 0
1000000 1272 -8325 -8042 -6693 0
1000000 1585 -8325 -8042 -6693 0
1000000 1061 -5696 -5141 -9334 -1380 0
1000000 1586 -5696 -5141 -9334 -1380 0
1000000 880 -7173 -7400 -6581 -6811 -5340 -6346 -7723 0
1000000 1587 -7173 -7400 -6581 -6811 -5340 -6346 -7723 0
1000000 858 -7036 -6027 -7764 -1421 0
1000000 1588 -7036 -6027 -7764 -1421 0
1000000 96 -6088 -5730 -9167 -6600 -5428 -8646 0
1000000 1589 -6088 -5730 -9167 -6600 -5428 -8646 0
1000000 276 -5533 -6879 -7186 -7645 -8612 -9562 0
1000000 1590 -5533 -6879 -7186 -7645 -8612 -9562 0
1000000 271 -8831 -5868 -5495 0
1000000 1591 -8831 -5868 -5495 0
1000000 208 -6341 -5274 -7909 -8994 -6640 0
1000000 1592 -6341 -5274 -7909 -8994 -6640 0
1000000 1233 -9013 -8930 -8298 -5750 0
1000000 1593 -9013 -8930 -8298 -5750 0
1000000 1325 -5449 -7040 0
1000000 1594 -5449 -7040 0
1000000 743 -6032 -8760 -5174 -6273 -9023 0
1000000 1595 -6032 -8760 -5174 -6273 -9023 0
1000000 598 -9374 -7563 -6736 -6465 -7164 0
1000000 1596 -9374 -7563 -6736 -6465 -7164 0
1000000 1405 -5689 -9103 -8466 -8271 0
1000000 1597 -5689 -9103 -8466 -8271 0
1000000 1254 -6485 -5143 -7892 -7849 -9508 -1321 0
1000000 1598 -6485 -5143 -7892 -7849 -9508 -1321 0
1000000 618 -8720 -5645 -6599 -7321 -7838 -5200 -9496 0
1000000 1599 -8720 -5645 -6599 -7321 -7838 -5200 -9496 0
1000000 1249 -8523 -9514 -6265 -1457 0
1000000 1600 -8523 -9514 -6265 -1457 0
1000000 363 -7646 -5337 -6669 -5104 -9038 -9046 -7810 0
1000000 1601 -7646 -5337 -6669 -5104 -9038 -9046 -7810 0
1000000 920 -7313 -9221 -7062 -6282 -8016 -6613 0
1000000 1602 -7313 -9221 -7062 -6282 -8016 -6613 0
1000000 523 -5463 -7557 -5206 0
1000000 1603 -5463 -7557 -5206 0
1000000 1276 -6098 -8713 -6467 -6698 0
1000000 1604 -6098 -8713 -6467 -6698 0
1000000 1231 -9293 -7457 -7758 -1340 0
1000000 1605 -9293 -7457 -7758 -1340 0
1000000 1166 -7593 -6646 -5541 -8180 0
1000000 1606 -7593 -6646 -5541 -8180 0
1000000 660 -7715 -7782 -6293 -8627 -1143 0
1000000 1607 -7715 -7782 -6293 -8627 -1143 0
1000000 1184 -5582 -5177 -9163 -8375 -1396 0
1000000 1608 -5582 -5177 -9163 -8375 -1396 0
1000000 3 -5574 -6522 -7855 0
1000000 1609 -5574 -6522 -7855 0
1000000 323 -5256 -6631 -9136 -8618 -6344 -473 0
1000000 1610 -5256 -6631 -9136 -8618 -6344 -473 0
1000000 154 -6023 -9523 0
1000000 1611 -6023 -9523 0
1000000 322 -5438 -5278 -8362 0
1000000 1612 -5438 -5278 -8362 0
1000000 802 -5305 -8525 -8014 -5110 -8071 -7494 0
1000000 1613 -5305 -8525 -8014 -5110 -8071 -7494 0
1000000 1151 -9170 -7026 -6374 -1419 0
1000000 1614 -9170 -7026 -6374 -1419 0
1000000 953 -5903 -6800 -5839 -7600 -7353 -8118 0
1000000 1615 -5903 -6800 -5839 -7600 -7353 -8118 0
1000000 1022 -7206 -6758 -7276 -9294 -6455 -1081 0
1000000 1616 -7206 -6758 -7276 -9294 -6455 -1081 0
1000000 305 -8316 -7482 -5638 0
1000000 1617 -8316 -7482 -5638 0
1000000 1482 -7470 -8543 -1493 0
1000000 1618 -7470 -8543 -1493 0
1000000 776 -7230 -8184 -6689 -8853 -5170 -5994 -6591 0
1000000 1619 -7230 -8184 -6689 -8853 -5170 -5994 -6591 0
1000000 938 -5220 -7331 -8997 0
1000000 1620 -5220 -7331 -8997 0
1000000 997 -5298 -5990 -6201 -7846 0
1000000 1621 -5298 -5990 -6201 -7846 0
1000000 1077 -9565 -5342 -7983 -1310 0
1000000 1622 -9565 -5342 -7983 -1310 0
1000000 761 -7050 -6421 -8867 -5997 0
1000000 1623 -7050 -6421 -8867 -5997 0
1000000 385 -5939 -8785 -9125 -7263 -8681 0
1000000 1624 -5939 -8785 -9125 -7263 -8681 0
1000000 485 -7981 -7186 -8538 0
1000000 1625 -7981 -7186 -8538 0
1000000 3 -6798 -8707 -6143 -5256 0
1000000 1626 -6798 -8707 -6143 -5256 0
1000000 531 -6590 -7932 -6481 -8889 0
1000000 1627 -6590 -7932 -6481 -8889 0
1000000 1389 -5775 -9134 0
1000000 1628 -5775 -9134 0
1000000 998 -8250 -5820 -7595 -8940 -1451 0
1000000 1629 -8250 -5820 -7595 -8940 -1451 0
1000000 491 -7587 -5895 -6528 -5358 -8428 -8629 0
1000000 1630 -7587 -5895 -6528 -5358 -8428 -8629 0
1000000 89 -5629 -288 0
1000000 1631 -5629 -288 0
1000000 324 -6648 -8484 -6675 0
1000000 1632 -6648 -8484 -6675 0
1000000 1414 -7548 -6059 0
1000000 1633 -7548 -6059 0
1000000 978 -6933 -8240 -8853 -8639 -9194 0
1000000 1634 -6933 -8240 -8853 -8639 -9194 0
1000000 302 -7056 -7942 -698 0
1000000 1635 -7056 -7942 -698 0
1000000 925 -6373 -8944 0
1000000 1636 -6373 -8944 0
1000000 679 -6520 -5962 -5177 -9162 -8883 -9242 -6606 0
1000000 1637 -6520 -5962 -5177 -9162 -8883 -9242 -6606 0
1000000 1467 -6433 -8721 -8509 -7259 0
1000000 1638 -6433 -8721 -8509 -7259 0
1000000 1312 -7749 -6792 -5214 -8896 -7810 0
1000000 1639 -7749 -6792 -5214 -8896 -7810 0
1000000 282 -6650 -5682 -8925 -9132 -8086 -7729 0
1000000 1640 -6650 -5682 -8925 -9132 -8086 -7729 0
1000000 649 -6844 -9446 -9021 -7720 0
1000000 1641 -6844 -9446 -9021 -7720 0
1000000 469 -8667 -5998 0
1000000 1642 -8667 -5998 0
1000000 273 -7321 -1442 0
1000000 1643 -7321 -1442 0
1000000 812 -8254 -8905 -8930 -6719 0
1000000 1644 -8254 -8905 -8930 -6719 0
1000000 189 -9526 -7378 -5444 -8717 -8462 -7241 -415 0
1000000 1645 -9526 -7378 -5444 -8717 -8462 -7241 -415 0
1000000 145 -6266 -7855 -8082 -5397 -9337 -5633 -775 0
1000000 1646 -6266 -7855 -8082 -5397 -9337 -5633 -775 0
1000000 798 -6229 -7807 -8354 -6956 -5315 -5446 0
1000000 1647 -6229 -7807 -8354 -6956 -5315 -5446 0
1000000 105 -9438 -7148 -6610 -8494 -5266 0
1000000 1648 -9438 -7148 -6610 -8494 -5266 0
1000000 77 -8498 -7448 -9015 -852 0
1000000 1649 -8498 -7448 -9015 -852 0
1000000 1305 -8317 -7690 -6003 -9589 -1362 0
1000000 1650 -8317 -7690 -6003 -9589 -1362 0
1000000 965 -7814 -977 0
1000000 1651 -7814 -977 0
1000000 1326 -8739 -6464 -7111 -8250 -1473 0
1000000 1652 -8739 -6464 -7111 -8250 -1473 0
1000000 1490 -6095 -9339 -1500 0
1000000 1653 -6095 -9339 -1500 0
1000000 1482 -7037 -5819 -8477 -7919 -9227 0
1000000 1654 -7037 -5819 -8477 -7919 -9227 0
1000000 1223 -7463 -7337 -8680 -6453 0
1000000 1655 -7463 -7337 -8680 -6453 0
1000000 451 -8847 -5747 -8487 0
1000000 1656 -8847 -5747 -8487 0
1000000 67 -7821 -6613 0
1000000 1657 -7821 -6613 0
1000000 384 -8769 -8039 -5255 -8508 -9503 -1029 0
1000000 1658 -8769 -8039 -5255 -8508 -9503 -1029 0
1000000 462 -8290 -8488 0
1000000 1659 -8290 -8488 0
1000000 149 -6109 -7899 -6332 -6105 -8185 -8093 -8459 0
1000000 1660 -6109 -7899 -6332 -6105 -8185 -8093 -8459 0
1000000 427 -7332 -8175 -7728 0
1000000 1661 -7332 -8175 -7728 0
1000000 101 -5144 -7575 -9214 -5397 -6313 -6718 0
1000000 1662 -5144 -7575 -9214 -5397 -6313 -6718 0
1000000 180 -8816 -7596 -5227 -8124 -9134 0
1000000 1663 -8816 -7596 -5227 -8124 -9134 0
1000000 523 -7311 -880 0
1000000 1664 -7311 -880 0
1000000 1075 -8586 -1139 0
1000000 1665 -8586 -1139 0
1000000 220 -7945 -9356 0
1000000 1666 -7945 -9356 0
1000000 632 -7143 -7555 -8845 -5458 0
1000000 1667 -7143 -7555 -8845 -5458 0
1000000 738 -5323 -6909 -5996 -6941 -5817 -9447 -810 0
1000000 1668 -5323 -6909 -5996 -6941 -5817 -9447 -810 0
1000000 1413 -7289 -8504 -7594 -1459 0
1000000 1669 -7289 -8504 -7594 -1459 0
1000000 844 -7745 -6060 -6291 -5169 -9282 0
1000000 1670 -7745 -6060 -6291 -5169 -9282 0
1000000 448 -9269 -6184 -8172 -8648 0
1000000 1671 -9269 -6184 -8172 -8648 0
1000000 956 -6033 -5719 -8533 -7524 0
1000000 1672 -6033 -5719 -8533 -7524 0
1000000 821 -6336 -6869 -7387 -5629 0
1000000 1673 -6336 -6869 -7387 -5629 0
1000000 224 -7879 -5497 -5819 -8281 -9104 -5287 -9258 0
1000000 1674 -7879 -5497 -5819 -8281 -9104 -5287 -9258 0
1000000 33 -8394 -7153 -6178 -5174 -8404 -8578 0
1000000 1675 -8394 -7153 -6178 -5174 -8404 -8578 0
1000000 1262 -7637 -5185 -6899 -7377 0
1000000 1676 -7637 -5185 -6899 -7377 0
1000000 1389 -5650 -7443 -6479 -8882 0
1000000 1677 -5650 -7443 -6479 -8882 0
1000000 345 -6262 -6460 -5140 -8171 0
1000000 1678 -6262 -6460 -5140 -8171 0
1000000 626 -5864 -1172 0
1000000 1679 -5864 -1172 0
1000000 1419 -6760 -8975 -8756 -8936 0
1000000 1680 -6760 -8975 -8756 -8936 0
1000000 852 -6435 -7798 -5377 -7016 -7290 -1071 0
1000000 1681 -6435 -7798 -5377 -7016 -7290 -1071 0
1000000 109 -8319 -7533 -6617 -5647 -5896 0
1000000 1682 -8319 -7533 -6617 -5647 -5896 0
1000000 871 -8761 -8093 -7995 -7499 -8644 -6590 -9480 0
1000000 1683 -8761 -8093 -7995 -7499 -8644 -6590 -9480 0
1000000 1076 -6295 -8356 0
1000000 1684 -6295 -8356 0
1000000 874 -7057 -7711 -6260 -7780 -7973 -8732 -9508 0
1000000 1685 -7057 -7711 -6260 -7780 -7973 -8732 -9508 0
1000000 138 -5896 -5680 -1269 0
1000000 1686 -5896 -5680 -1269 0
1000000 1356 -7581 -8212 -6581 -5862 -9362 -5422 -6808 0
1000000 1687 -7581 -8212 -6581 -5862 -9362 -5422 -6808 0
1000000 177 -7571 -5207 -8981 -7095 -344 0
1000000 1688 -7571 -5207 -8981 -7095 -344 0
1000000 1396 -7815 -7582 -7578 -8694 -7568 -7767 -5469 0
1000000 1689 -7815 -7582 -7578 -8694 -7568 -7767 -5469 0
1000000 1042 -6698 -9222 -8462 -9273 -6131 0
1000000 1690 -6698 -9222 -8462 -9273 -6131 0
1000000 538 -5620 -8153 0
1000000 1691 -5620 -8153 0
1000000 485 -5472 -8809 -1356 0
1000000 1692 -5472 -8809 -1356 0
1000000 541 -5160 -811 0
1000000 1693 -5160 -811 0
1000000 672 -7457 -9073 -6772 -5812 -9026 -8199 -5132 0
1000000 1694 -7457 -9073 -6772 -5812 -9026 -8199 -5132 0
1000000 721 -6379 -7377 0
1000000 1695 -6379 -7377 0
1000000 1036 -8543 -5557 -7592 -8975 0
1000000 1696 -8543 -5557 -7592 -8975 0
1000000 614 -6552 -8973 -5500 -5824 0
1000000 1697 -6552 -8973 -5500 -5824 0
1000000 496 -8400 -7074 -863 0
1000000 1698 -8400 -7074 -863 0
1000000 1277 -5799 -6726 -8050 -8736 -5992 0
1000000 1699 -5799 -6726 -8050 -8736 -5992 0
1000000 277 -8689 -5259 -7974 -6109 -7769 -8094 0
1000000 1700 -8689 -5259 -7974 -6109 -7769 -8094 0
1000000 1426 -6785 -8614 -9337 -7414 -1475 0
1000000 1701 -6785 -8614 -9337 -7414 -1475 0
1000000 411 -9579 -7570 -5619 -7025 -7631 0
1000000 1702 -9579 -7570 -5619 -7025 -7631 0
1000000 1286 -6925 -6716 -6894 -7101 0
1000000 1703 -6925 -6716 -6894 -7101 0
1000000 1373 -9050 -8259 -8309 0
1000000 1704 -9050 -8259 -8309 0
1000000 347 -8559 -9459 -8712 -1292 0
1000000 1705 -8559 -9459 -8712 -1292 0
1000000 1096 -7121 -5938 -7840 -1239 0
1000000 1706 -7121 -5938 -7840 -1239 0
1000000 65 -5945 -9293 -5499 -8901 -9117 -5841 -660 0
1000000 1707 -5945 -9293 -5499 -8901 -9117 -5841 -660 0
1000000 253 -5189 -7281 -6218 -8664 -6862 -6345 0
1000000 1708 -5189 -7281 -6218 -8664 -6862 -6345 0
1000000 716 -6257 -7317 -8843 -9534 -7747 -6890 -6201 0
1000000 1709 -6257 -7317 -8843 -9534 -7747 -6890 -6201 0
1000000 715 -6694 -6237 -6958 -9037 -6017 0
1000000 1710 -6694 -6237 -6958 -9037 -6017 0
1000000 1208 -5349 -6934 0
1000000 1711 -5349 -6934 0
1000000 389 -5592 -9284 -5408 0
1000000 1712 -5592 -9284 -5408 0
1000000 1399 -9021 -8234 -6172 -6899 0
1000000 1713 -9021 -8234 -6172 -6899 0
1000000 693 -6046 -1068 0
1000000 1714 -6046 -1068 0
1000000 782 -8215 -9282 0
1000000 1715 -8215 -9282 0
1000000 688 -5308 -7730 -6998 -8464 -9191 0
1000000 1716 -5308 -7730 -6998 -8464 -9191 0
1000000 1005 -7246 -8191 -8145 -7094 -9539 -6601 0
1000000 1717 -7246 -8191 -8145 -7094 -9539 -6601 0
1000000 1286 -8844 -8743 -5139 -7569 0
1000000 1718 -8844 -8743 -5139 -7569 0
1000000 289 -6740 -8482 -7606 0
1000000 1719 -6740 -8482 -7606 0
1000000 386 -6309 -6209 -7786 -5355 -9489 -7622 -1020 0
1000000 1720 -6309 -6209 -7786 -5355 -9489 -7622 -1020 0
1000000 1240 -7255 -6075 0
1000000 1721 -7255 -6075 0
1000000 1376 -5313 -8767 -8076 -1425 0
1000000 1722 -5313 -8767 -8076 -1425 0
1000000 1095 -7388 -5338 -1283 0
1000000 1723 -7388 -5338 -1283 0
1000000 99 -5189 -641 0
1000000 1724 -5189 -641 0
1000000 1178 -8458 -7585 -1452 0
1000000 1725 -8458 -7585 -1452 0
1000000 1163 -8338 -7397 -8636 -8522 -9545 -8961 -8874 0
1000000 1726 -8338 -7397 -8636 -8522 -9545 -8961 -8874 0
1000000 990 -7237 -7685 -7006 -5697 -7067 -8378 0
1000000 1727 -7237 -7685 -7006 -5697 -7067 -8378 0
1000000 360 -7933 -6471 -7083 -6873 -7757 -7370 -5290 0
1000000 1728 -7933 -6471 -7083 -6873 -7757 -7370 -5290 0
1000000 865 -5904 -8048 -6027 -6930 -5416 0
1000000 1729 -5904 -8048 -6027 -6930 -5416 0
1000000 1473 -8460 -8594 0
1000000 1730 -8460 -8594 0
1000000 1052 -9497 -7344 -6956 -5293 -6738 -9068 -7746 0
1000000 1731 -9497 -7344 -6956 -5293 -6738 -9068 -7746 0
1000000 602 -7611 -1078 0
1000000 1732 -7611 -1078 0
1000000 887 -7176 -7050 -8006 -6375 -7506 -5728 -6714 0
1000000 1733 -7176 -7050 -8006 -6375 -7506 -5728 -6714 0
1000000 485 -6745 -5563 -6128 0
1000000 1734 -6745 -5563 -6128 0
1000000 13 -8910 -6150 -5320 -6097 -9505 0
1000000 1735 -8910 -6150 -5320 -6097 -9505 0
1000000 364 -5478 -9530 -7890 -5171 -7719 -524 0
1000000 1736 -5478 -9530 -7890 -5171 -7719 -524 0
1000000 647 -8409 -6839 -6632 -8558 -8947 -9270 -9554 0
1000000 1737 -8409 -6839 -6632 -8558 -8947 -9270 -9554 0
1000000 1211 -7770 -9065 -7649 0
1000000 1738 -7770 -9065 -7649 0
1000000 57 -7756 -9087 -8631 -8456 0
1000000 1739 -7756 -9087 -8631 -8456 0
1000000 1437 -9085 -5158 -7697 -6741 -8312 -7314 -6893 0
1000000 1740 -9085 -5158 -7697 -6741 -8312 -7314 -6893 0
1000000 1118 -7069 -6256 -8209 -6108 -6479 -7277 -1250 0
1000000 1741 -7069 -6256 -8209 -6108 -6479 -7277 -1250 0
1000000 1265 -7316 -9559 -9255 -5777 -9236 0
1000000 1742 -7316 -9559 -9255 -5777 -9236 0
1000000 800 -7522 -6635 -8648 -5241 0
1000000 1743 -7522 -6635 -8648 -5241 0
1000000 1218 -6435 -8346 -7137 -8161 -5920 -8540 -1249 0
1000000 1744 -6435 -8346 -7137 -8161 -5920 -8540 -1249 0
1000000 642 -6777 -7696 -7852 -5148 -8184 -7543 -1386 0
1000000 1745 -6777 -7696 -7852 -5148 -8184 -7543 -1386 0
1000000 1217 -8501 -7789 -1288 0
1000000 1746 -8501 -7789 -1288 0
1000000 640 -6960 -7007 -9263 -696 0
1000000 1747 -6960 -7007 -9263 -696 0
1000000 466 -9265 -8966 -6005 -5438 0
1000000 1748 -9265 -8966 -6005 -5438 0
1000000 1264 -6402 -5952 0
1000000 1749 -6402 -5952 0
1000000 1267 -7747 -6900 -7933 -8750 -6632 -6184 -8948 0
1000000 1750 -7747 -6900 -7933 -8750 -6632 -6184 -8948 0
1000000 1282 -9101 -7726 -8144 -8946 -7622 -8335 -5905 0
1000000 1751 -9101 -7726 -8144 -8946 -7622 -8335 -5905 0
1000000 1425 -9230 -9306 -8828 -1436 0
1000000 1752 -9230 -9306 -8828 -1436 0
1000000 534 -5455 -9300 -5871 -6507 -8138 0
1000000 1753 -5455 -9300 -5871 -6507 -8138 0
1000000 968 -7077 -6201 -5518 -8154 -5766 0
1000000 1754 -7077 -6201 -5518 -8154 -5766 0
1000000 287 -5691 -5165 -9580 -8700 0
1000000 1755 -5691 -5165 -9580 -8700 0
1000000 1238 -6442 -8156 -7244 -6975 -5911 -9452 0
1000000 1756 -6442 -8156 -7244 -6975 -5911 -9452 0
1000000 1379 -5830 -7360 -6213 0
1000000 1757 -5830 -7360 -6213 0
1000000 12 -5665 -7256 -7839 -6407 -6593 -7335 -6147 0
1000000 1758 -5665 -7256 -7839 -6407 -6593 -7335 -6147 0
1000000 668 -6487 -7585 -7336 -6306 -7488 -5126 0
1000000 1759 -6487 -7585 -7336 -6306 -7488 -5126 0
1000000 371 -7758 -7116 -8087 -7398 -9446 0
1000000 1760 -7758 -7116 -8087 -7398 -9446 0
1000000 96 -5307 -6781 -7605 -5472 -5287 -6685 0
1000000 1761 -5307 -6781 -7605 -5472 -5287 -6685 0
1000000 652 -5723 -7538 -5317 -5534 0
1000000 1762 -5723 -7538 -5317 -5534 0
1000000 10 -8873 -9343 0
1000000 1763 -8873 -9343 0
1000000 1341 -5276 -5299 0
1000000 1764 -5276 -5299 0
1000000 1151 -7533 -7030 -7412 -8699 -5526 -7645 0
1000000 1765 -7533 -7030 -7412 -8699 -5526 -7645 0
1000000 1391 -5866 -1465 0
1000000 1766 -5866 -1465 0
1000000 483 -6508 -542 0
1000000 1767 -6508 -542 0
1000000 1490 -6522 -8933 -8422 -8177 -8648 0
1000000 1768 -6522 -8933 -8422 -8177 -8648 0
1000000 1490 -6163 -8323 -7084 0
1000000 1769 -6163 -8323 -7084 0
1000000 8 -5972 -8445 0
1000000 1770 -5972 -8445 0
1000000 146 -9138 -9600 0
1000000 1771 -9138 -9600 0
1000000 1320 -6163 -7447 -8472 -8357 -8757 0
1000000 1772 -6163 -7447 -8472 -8357 -8757 0
1000000 218 -8666 -6769 0
1000000 1773 -8666 -6769 0
1000000 793 -6298 -1422 0
1000000 1774 -6298 -1422 0
1000000 1244 -7555 -7348 -1436 0
1000000 1775 -7555 -7348 -1436 0
1000000 207 -7030 -6193 -6869 -7243 -9415 0
1000000 1776 -7030 -6193 -6869 -7243 -9415 0
1000000 925 -6624 -5921 -5494 -9109 -5995 0
1000000 1777 -6624 -5921 -5494 -9109 -5995 0
1000000 1424 -5601 -6093 -8343 -1431 0
1000000 1778 -5601 -6093 -8343 -1431 0
1000000 530 -8395 -7192 -1300 0
1000000 1779 -8395 -7192 -1300 0
1000000 545 -5564 -6099 -7856 -6489 -9008 0
1000000 1780 -5564 -6099 -7856 -6489 -9008 0
1000000 795 -5109 -6683 -5594 -7329 -8652 -9423 -6953 0
1000000 1781 -5109 -6683 -5594 -7329 -8652 -9423 -6953 0
1000000 1042 -6974 -6853 -7999 -8620 -5790 0
1000000 1782 -6974 -6853 -7999 -8620 -5790 0
1000000 234 -7851 -9248 -6690 0
1000000 1783 -7851 -9248 -6690 0
1000000 156 -8237 -8094 -9131 0
1000000 1784 -8237 -8094 -9131 0
1000000 445 -8296 -9108 -5242 -8958 -7322 -6869 0
1000000 1785 -8296 -9108 -5242 -8958 -7322 -6869 0
1000000 1402 -6473 -6049 -5404 -7505 -8682 -9551 -1466 0
1000000 1786 -6473 -6049 -5404 -7505 -8682 -9551 -1466 0
1000000 1455 -7672 -5892 -7492 -7491 -1476 0
1000000 1787 -7672 -5892 -7492 -7491 -1476 0
1000000 1034 -9075 -7341 -6595 -9425 -9119 -6592 -7369 0
1000000 1788 -9075 -7341 -6595 -9425 -9119 -6592 -7369 0
1000000 1278 -9534 -6259 -7694 -8830 -6240 -6757 0
1000000 1789 -9534 -6259 -7694 -8830 -6240 -6757 0
1000000 734 -5379 -7474 -5980 -5586 -1220 0
1000000 1790 -5379 -7474 -5980 -5586 -1220 0
1000000 1424 -8412 -6389 -5646 0
1000000 1791 -8412 -6389 -5646 0
1000000 889 -5933 -1313 0
1000000 1792 -5933 -1313 0
1000000 263 -8912 -5766 -6890 -8562 -5204 -5566 -9041 0
1000000 1793 -8912 -5766 -6890 -8562 -5204 -5566 -9041 0
1000000 894 -5603 -8293 -7400 -6315 -7790 -7497 0
1000000 1794 -5603 -8293 -7400 -6315 -7790 -7497 0
1000000 1202 -7427 -5189 -6795 0
1000000 1795 -7427 -5189 -6795 0
1000000 1210 -5683 -9388 0
1000000 1796 -5683 -9388 0
1000000 810 -6217 -7447 -6049 -8213 -6754 -8667 0
1000000 1797 -6217 -7447 -6049 -8213 -6754 -8667 0
1000000 1093 -5949 -6628 -9129 -6138 -6228 0
1000000 1798 -5949 -6628 -9129 -6138 -6228 0
1000000 1134 -7337 -8677 -8018 0
1000000 1799 -7337 -8677 -8018 0
1000000 477 -7903 -9214 -8077 -5925 0
1000000 1800 -7903 -9214 -8077 -5925 0
1000000 657 -8628 -7544 0
1000000 1801 -8628 -7544 0
1000000 1356 -8189 -9388 -6219 -6894 0
1000000 1802 -8189 -9388 -6219 -6894 0
1000000 116 -9538 -9443 -6910 -6421 -851 0
1000000 1803 -9538 -9443 -6910 -6421 -851 0
1000000 40 -9557 -5843 -7842 -6235 -5746 -9088 -7573 0
1000000 1804 -9557 -5843 -7842 -6235 -5746 -9088 -7573 0
1000000 457 -7049 -6129 -8671 -9429 -7756 -7795 -7449 0
1000000 1805 -7049 -6129 -8671 -9429 -7756 -7795 -7449 0
1000000 1197 -8336 -7107 -7641 -7537 -8539 -6366 -7616 0
1000000 1806 -8336 -7107 -7641 -7537 -8539 -6366 -7616 0
1000000 1326 -7809 -6262 -8325 -5190 -7351 0
1000000 1807 -7809 -6262 -8325 -5190 -7351 0
1000000 29 -9324 -9345 -6327 -644 0
1000000 1808 -9324 -9345 -6327 -644 0
1000000 1222 -6531 -8595 -8892 0
1000000 1809 -6531 -8595 -8892 0
1000000 409 -6212 -9308 -5410 -5317 -9460 -8220 -7975 0
1000000 1810 -6212 -9308 -5410 -5317 -9460 -8220 -7975 0
1000000 1157 -5262 -5986 -8515 0
1000000 1811 -5262 -5986 -8515 0
1000000 121 -8262 -5864 -6655 -6402 0
1000000 1812 -8262 -5864 -6655 -6402 0
1000000 274 -5528 -8674 -7836 -7442 -9014 -5923 -8246 0
1000000 1813 -5528 -8674 -7836 -7442 -9014 -5923 -8246 0
1000000 120 -9174 -6247 -7743 -6209 -5409 0
1000000 1814 -9174 -6247 -7743 -6209 -5409 0
1000000 1458 -9020 -8908 -6818 0
1000000 1815 -9020 -8908 -6818 0
1000000 3 -7537 -5547 -8911 -290 0
1000000 1816 -7537 -5547 -8911 -290 0
1000000 310 -6757 -8782 -5192 -5843 -5848 0
1000000 1817 -6757 -8782 -5192 -5843 -5848 0
1000000 745 -5448 -7658 -5831 -8420 -5453 -7758 0
1000000 1818 -5448 -7658 -5831 -8420 -5453 -7758 0
1000000 999 -6043 -7021 -9522 -6974 0
1000000 1819 -6043 -7021 -9522 -6974 0
1000000 180 -9100 -9312 -7599 -7416 0
1000000 1820 -9100 -9312 -7599 -7416 0
1000000 693 -9132 -9062 -5300 0
1000000 1821 -9132 -9062 -5300 0
1000000 246 -9127 -8894 -9158 -8792 -500 0
1000000 1822 -9127 -8894 -9158 -8792 -500 0
1000000 1196 -6667 -6395 -8967 -7460 -1457 0
1000000 1823 -6667 -6395 -8967 -7460 -1457 0
1000000 119 -6638 -9495 0
1000000 1824 -6638 -9495 0
1000000 526 -9036 -6382 -6519 0
1000000 1825 -9036 -6382 -6519 0
1000000 1127 -9007 -7302 -9228 -7104 -6477 -7877 -6997 0
1000000 1826 -9007 -7302 -9228 -7104 -6477 -7877 -6997 0
1000000 39 -8755 -5452 -8895 -8278 -8221 -6920 -6098 0
1000000 1827 -8755 -5452 -8895 -8278 -8221 -6920 -6098 0
1000000 1475 -9037 -7985 -5766 -6389 0
1000000 1828 -9037 -7985 -5766 -6389 0
1000000 1291 -6521 -9018 -8167 -9259 -7024 -5614 0
1000000 1829 -6521 -9018 -8167 -9259 -7024 -5614 0
1000000 309 -6842 -8183 -7329 -6744 -6458 -8050 -7950 0
1000000 1830 -6842 -8183 -7329 -6744 -6458 -8050 -7950 0
1000000 680 -5393 -5189 -6632 0
1000000 1831 -5393 -5189 -6632 0
1000000 1171 -6199 -8818 -5479 0
1000000 1832 -6199 -8818 -5479 0
1000000 1386 -8770 -6546 -6403 -1394 0
1000000 1833 -8770 -6546 -6403 -1394 0
1000000 436 -9247 -6514 -8908 -698 0
1000000 1834 -9247 -6514 -8908 -698 0
1000000 1452 -6762 -6151 0
1000000 1835 -6762 -6151 0
1000000 680 -6435 -8817 -6984 -5768 0
1000000 1836 -6435 -8817 -6984 -5768 0
1000000 358 -7031 -8536 -8279 -6251 -5707 -1451 0
1000000 1837 -7031 -8536 -8279 -6251 -5707 -1451 0
1000000 1358 -5233 -9064 -5322 -1367 0
1000000 1838 -5233 -9064 -5322 -1367 0
1000000 748 -5119 -7722 -6536 0
1000000 1839 -5119 -7722 -6536 0
1000000 49 -9326 -9291 -5758 -7291 -8364 0
1000000 1840 -9326 -9291 -5758 -7291 -8364 0
1000000 725 -9253 -7242 -7534 -9131 -992 0
1000000 1841 -9253 -7242 -7534 -9131 -992 0
1000000 1494 -6319 -5889 -6359 -5997 -6979 -6394 -5661 0
1000000 1842 -6319 -5889 -6359 -5997 -6979 -6394 -5661 0
1000000 68 -5224 -7760 0
1000000 1843 -5224 -7760 0
1000000 1318 -9075 -9490 -8243 -5263 -6215 -6980 -6818 0
1000000 1844 -9075 -9490 -8243 -5263 -6215 -6980 -6818 0
1000000 735 -7680 -8627 -6867 -5263 -9303 0
1000000 1845 -7680 -8627 -6867 -5263 -9303 0
1000000 1337 -9143 -5735 -5817 -8136 -9243 0
1000000 1846 -9143 -5735 -5817 -8136 -9243 0
1000000 349 -8588 -6966 -567 0
1000000 1847 -8588 -6966 -567 0
1000000 858 -6669 -5966 -6625 0
1000000 1848 -6669 -5966 -6625 0
1000000 1407 -8590 -6742 -8855 -7479 -5562 -7062 -8292 0
1000000 1849 -8590 -6742 -8855 -7479 -5562 -7062 -8292 0
1000000 1339 -7733 -5123 -8495 0
1000000 1850 -7733 -5123 -8495 0
1000000 64 -7807 -7521 -7727 -6385 -5479 -8209 -1372 0
1000000 1851 -7807 -7521 -7727 -6385 -5479 -8209 -1372 0
1000000 1258 -6827 -6170 -1455 0
1000000 1852 -6827 -6170 -1455 0
1000000 902 -7529 -1029 0
1000000 1853 -7529 -1029 0
1000000 456 -6432 -5904 -7154 -5381 0
1000000 1854 -6432 -5904 -7154 -5381 0
1000000 951 -8335 -5483 0
1000000 1855 -8335 -5483 0
1000000 1085 -7623 -8062 -8072 -9510 -5581 -6806 -6775 0
1000000 1856 -7623 -8062 -8072 -9510 -5581 -6806 -6775 0
1000000 881 -6719 -6780 -6168 0
1000000 1857 -6719 -6780 -6168 0
1000000 122 -8893 -6766 -9464 -7704 0
1000000 1858 -8893 -6766 -9464 -7704 0
1000000 146 -7471 -6123 -5204 -7686 0
1000000 1859 -7471 -6123 -5204 -7686 0
1000000 1421 -7304 -7375 -6621 -7120 -7667 -5185 -6447 0
1000000 1860 -7304 -7375 -6621 -7120 -7667 -5185 -6447 0
1000000 602 -8754 -5426 -5641 -8272 -5994 -632 0
1000000 1861 -8754 -5426 -5641 -8272 -5994 -632 0
1000000 31 -8295 -7691 -7429 -5555 -9136 0
1000000 1862 -8295 -7691 -7429 -5555 -9136 0
1000000 654 -5950 -6189 0
1000000 1863 -5950 -6189 0
1000000 149 -6399 -6655 -5376 0
1000000 1864 -6399 -6655 -5376 0
1000000 541 -9460 -7959 -5168 -5868 -6742 -9135 0
1000000 1865 -9460 -7959 -5168 -5868 -6742 -9135 0
1000000 159 -6669 -8860 -6616 -8871 -5641 -8690 0
1000000 1866 -6669 -8860 -6616 -8871 -5641 -8690 0
1000000 381 -7140 -7982 -7991 -9382 -690 0
1000000 1867 -7140 -7982 -7991 -9382 -690 0
1000000 705 -5766 -8800 -8547 -5272 -7748 -8414 0
1000000 1868 -5766 -8800 -8547 -5272 -7748 -8414 0
1000000 1016 -8526 -6132 -9448 -5999 -5220 -6815 0
1000000 1869 -8526 -6132 -9448 -5999 -5220 -6815 0
1000000 823 -5895 -5679 -5786 -7675 -6718 -6953 -6278 0
1000000 1870 -5895 -5679 -5786 -7675 -6718 -6953 -6278 0
1000000 972 -8753 -7739 0
1000000 1871 -8753 -7739 0
1000000 489 -6425 -5680 0
1000000 1872 -6425 -5680 0
1000000 1117 -7472 -9049 0
1000000 1873 -7472 -9049 0
1000000 862 -7995 -8648 -8794 -5363 0
1000000 1874 -7995 -8648 -8794 -5363 0
1000000 1025 -7663 -8310 -7798 -5709 0
1000000 1875 -7663 -8310 -7798 -5709 0
1000000 1408 -5453 -6448 -7002 -5743 -5733 0
1000000 1876 -5453 -6448 -7002 -5743 -5733 0
1000000 992 -7540 -8856 0
1000000 1877 -7540 -8856 0
1000000 15 -7369 -7237 -5337 -6663 -1319 0
1000000 1878 -7369 -7237 -5337 -6663 -1319 0
1000000 189 -7823 -6982 -7134 -7986 0
1000000 1879 -7823 -6982 -7134 -7986 0
1000000 777 -6341 -6434 -1135 0
1000000 1880 -6341 -6434 -1135 0
1000000 123 -8612 -7175 -6150 -8079 -6446 0
1000000 1881 -8612 -7175 -6150 -8079 -6446 0
1000000 1072 -5261 -5779 -8063 -7463 -9494 -1400 0
1000000 1882 -5261 -5779 -8063 -7463 -9494 -1400 0
1000000 23 -7231 -5368 -5272 -7085 -9297 0
1000000 1883 -7231 -5368 -5272 -7085 -9297 0
1000000 864 -5265 -5887 -8229 0
1000000 1884 -5265 -5887 -8229 0
1000000 880 -7612 -1301 0
1000000 1885 -7612 -1301 0
1000000 909 -5356 -8796 -7391 -5125 0
1000000 1886 -5356 -8796 -7391 -5125 0
1000000 1378 -9442 -6701 -6270 -7550 0
1000000 1887 -9442 -6701 -6270 -7550 0
1000000 141 -9084 -8483 -8826 0
1000000 1888 -9084 -8483 -8826 0
1000000 1266 -8689 -6993 -1489 0
1000000 1889 -8689 -6993 -1489 0
1000000 839 -5308 -5179 -8304 -7519 -5504 0
1000000 1890 -5308 -5179 -8304 -7519 -5504 0
1000000 1162 -6262 -7402 -6241 -8277 -8015 -5137 -1388 0
1000000 1891 -6262 -7402 -6241 -8277 -8015 -5137 -1388 0
1000000 1231 -5891 -8531 -8782 -8697 -5553 -6647 -8879 0
1000000 1892 -5891 -8531 -8782 -8697 -5553 -6647 -8879 0
1000000 370 -5918 -5889 -7561 -8345 -8371 -6109 -6873 0
1000000 1893 -5918 -5889 -7561 -8345 -8371 -6109 -6873 0
1000000 174 -9330 -5982 -8086 -5904 0
1000000 1894 -9330 -5982 -8086 -5904 0
1000000 1053 -8017 -7942 -6615 -5168 -6354 -5738 0
1000000 1895 -8017 -7942 -6615 -5168 -6354 -5738 0
1000000 1443 -8859 -6079 -7752 -9110 -7474 -7375 0
1000000 1896 -8859 -6079 -7752 -9110 -7474 -7375 0
1000000 142 -8311 -9427 -6128 -5471 -5321 -5124 -1057 0
1000000 1897 -8311 -9427 -6128 -5471 -5321 -5124 -1057 0
1000000 597 -6105 -9332 0
1000000 1898 -6105 -9332 0
1000000 303 -8845 -5860 0
1000000 1899 -8845 -5860 0
1000000 209 -6217 -6005 -8757 -5855 -7831 -8585 0
1000000 1900 -6217 -6005 -8757 -5855 -7831 -8585 0
1000000 465 -8424 -7407 -8898 -9058 -9334 -8622 0
1000000 1901 -8424 -7407 -8898 -9058 -9334 -8622 0
1000000 86 -6940 -8179 -9154 -5227 0
1000000 1902 -6940 -8179 -9154 -5227 0
1000000 1349 -9037 -8648 -8402 0
1000000 1903 -9037 -8648 -8402 0
1000000 518 -7777 -8874 -7659 -8781 0
1000000 1904 -7777 -8874 -7659 -8781 0
1000000 733 -9282 -8552 -7653 -8018 -8501 0
1000000 1905 -9282 -8552 -7653 -8018 -8501 0
1000000 343 -9036 -1069 0
1000000 1906 -9036 -1069 0
1000000 1421 -5822 -5484 -7867 -5399 -7090 0
1000000 1907 -5822 -5484 -7867 -5399 -7090 0
1000000 1209 -5524 -5218 -1432 0
1000000 1908 -5524 -5218 -1432 0
1000000 1052 -7487 -1100 0
1000000 1909 -7487 -1100 0
1000000 1053 -5956 -9150 -7033 -5817 -9269 0
1000000 1910 -5956 -9150 -7033 -5817 -9269 0
1000000 130 -8740 -7414 -7442 -767 0
1000000 1911 -8740 -7414 -7442 -767 0
1000000 1121 -8204 -8112 -8830 -9222 0
1000000 1912 -8204 -8112 -8830 -9222 0
1000000 387 -9416 -6475 -8713 0
1000000 1913 -9416 -6475 -8713 0
1000000 1230 -7281 -5441 -6991 -7986 0
1000000 1914 -7281 -5441 -6991 -7986 0
1000000 268 -5763 -8390 -7510 -6819 -5710 -996 0
1000000 1915 -5763 -8390 -7510 -6819 -5710 -996 0
1000000 1007 -6590 -6384 -7326 0
1000000 1916 -6590 -6384 -7326 0
1000000 102 -7064 -8720 -8395 -497 0
1000000 1917 -7064 -8720 -8395 -497 0
1000000 232 -9079 -5224 -8214 -8122 -8972 -8599 0
1000000 1918 -9079 -5224 -8214 -8122 -8972 -8599 0
1000000 792 -6884 -6748 -7683 -6528 -5242 -8736 0
1000000 1919 -6884 -6748 -7683 -6528 -5242 -8736 0
1000000 720 -6119 -9092 -7061 -9236 -6911 -828 0
1000000 1920 -6119 -9092 -7061 -9236 -6911 -828 0
1000000 1312 -5926 -7957 -6797 -5519 0
1000000 1921 -5926 -7957 -6797 -5519 0
1000000 572 -5574 -9498 -7199 -7431 0
1000000 1922 -5574 -9498 -7199 -7431 0
1000000 757 -6756 -6708 -7909 -7943 -7104 0
1000000 1923 -6756 -6708 -7909 -7943 -7104 0
1000000 794 -8590 -8187 -5594 -6390 -5805 -5326 0
1000000 1924 -8590 -8187 -5594 -6390 -5805 -5326 0
1000000 1257 -5127 -9170 -7825 0
1000000 1925 -5127 -9170 -7825 0
1000000 980 -5402 -5355 0
1000000 1926 -5402 -5355 0
1000000 773 -8765 -5448 -6394 -8220 -6628 0
1000000 1927 -8765 -5448 -6394 -8220 -6628 0
1000000 682 -6123 -8660 -5745 -7220 -8015 -9335 0
1000000 1928 -6123 -8660 -5745 -7220 -8015 -9335 0
1000000 1341 -8552 -9278 -7435 -7104 -8369 -8477 -6628 0
1000000 1929 -8552 -9278 -7435 -7104 -8369 -8477 -6628 0
1000000 838 -5562 -7854 -7023 -9226 -7652 -7031 -985 0
1000000 1930 -5562 -7854 -7023 -9226 -7652 -7031 -985 0
1000000 885 -6670 -7557 -6738 -5842 -8351 -8615 -1000 0
1000000 1931 -6670 -7557 -6738 -5842 -8351 -8615 -1000 0
1000000 1321 -7654 -9318 -6259 -6856 -5125 -6256 0
1000000 1932 -7654 -9318 -6259 -6856 -5125 -6256 0
1000000 897 -5559 -6552 -5744 -8434 0
1000000 1933 -5559 -6552 -5744 -8434 0
1000000 903 -7403 -5802 -7149 -6603 0
1000000 1934 -7403 -5802 -7149 -6603 0
1000000 855 -5950 -9491 -6394 0
1000000 1935 -5950 -9491 -6394 0
1000000 1361 -5137 -7264 -6109 -9551 -1379 0
1000000 1936 -5137 -7264 -6109 -9551 -1379 0
1000000 96 -9270 -6864 0
1000000 1937 -9270 -6864 0
1000000 784 -8212 -8400 -6545 0
1000000 1938 -8212 -8400 -6545 0
1000000 709 -7735 -8661 0
1000000 1939 -7735 -8661 0
1000000 1431 -5689 -5293 -8528 -9411 -8078 -8639 -1441 0
1000000 1940 -5689 -5293 -8528 -9411 -8078 -8639 -1441 0
1000000 1252 -9583 -6615 0
1000000 1941 -9583 -6615 0
1000000 336 -6248 -9562 -8995 0
1000000 1942 -6248 -9562 -8995 0
1000000 1445 -6008 -6272 -8348 0
1000000 1943 -6008 -6272 -8348 0
1000000 1277 -7919 -7708 -7828 -6789 -8358 -6109 0
1000000 1944 -7919 -7708 -7828 -6789 -8358 -6109 0
1000000 1109 -7525 -6824 -8974 -8286 -6727 -6560 0
1000000 1945 -7525 -6824 -8974 -8286 -6727 -6560 0
1000000 18 -6280 -963 0
1000000 1946 -6280 -963 0
1000000 965 -9373 -8322 -5325 -5759 -7827 -6347 0
1000000 1947 -9373 -8322 -5325 -5759 -7827 -6347 0
1000000 1050 -6894 -9581 -1389 0
1000000 1948 -6894 -9581 -1389 0
1000000 282 -9096 -9428 -8300 -5718 0
1000000 1949 -9096 -9428 -8300 -5718 0
1000000 562 -9374 -5636 -5632 -6868 -6555 -5297 0
1000000 1950 -9374 -5636 -5632 -6868 -6555 -5297 0
1000000 551 -9458 -6516 -9106 -8188 -7528 0
1000000 1951 -9458 -6516 -9106 -8188 -7528 0
1000000 434 -7180 -8932 -7382 -7946 -8735 -8394 0
1000000 1952 -7180 -8932 -7382 -7946 -8735 -8394 0
1000000 939 -6874 -9266 0
1000000 1953 -6874 -9266 0
1000000 1441 -8868 -6699 -9447 0
1000000 1954 -8868 -6699 -9447 0
1000000 1159 -5114 -5839 -9391 -8844 0
1000000 1955 -5114 -5839 -9391 -8844 0
1000000 520 -8007 -7207 -1219 0
1000000 1956 -8007 -7207 -1219 0
1000000 980 -5963 -6903 -8939 -9251 -7705 -7643 0
1000000 1957 -5963 -6903 -8939 -9251 -7705 -7643 0
1000000 960 -8006 -6500 -6596 -6996 -8251 -965 0
1000000 1958 -8006 -6500 -6596 -6996 -8251 -965 0
1000000 1116 -7628 -8283 0
1000000 1959 -7628 -8283 0
1000000 933 -7444 -5384 -8022 -8978 -9435 0
1000000 1960 -7444 -5384 -8022 -8978 -9435 0
1000000 1130 -9229 -8858 -6696 -5439 -7427 -8103 0
1000000 1961 -9229 -8858 -6696 -5439 -7427 -8103 0
1000000 1355 -7877 -8855 -7434 -6461 -8152 -8362 -5188 0
1000000 1962 -7877 -8855 -7434 -6461 -8152 -8362 -5188 0
1000000 1095 -6616 -6658 0
1000000 1963 -6616 -6658 0
1000000 939 -5618 -5828 0
1000000 1964 -5618 -5828 0
1000000 1229 -6419 -9558 0
1000000 1965 -6419 -9558 0
1000000 1115 -8613 -8148 -5716 0
1000000 1966 -8613 -8148 -5716 0
1000000 289 -6424 -9591 -8849 -7386 -6826 -650 0
1000000 1967 -6424 -9591 -8849 -7386 -6826 -650 0
1000000 269 -8154 -9587 -7684 -7734 -7239 0
1000000 1968 -8154 -9587 -7684 -7734 -7239 0
1000000 232 -9300 -7184 -8530 -5632 -7810 -9041 -1051 0
1000000 1969 -9300 -7184 -8530 -5632 -7810 -9041 -1051 0
1000000 543 -7008 -5570 0
1000000 1970 -7008 -5570 0
1000000 346 -7126 -6736 -8085 -783 0
1000000 1971 -7126 -6736 -8085 -783 0
1000000 842 -8529 -5431 -8112 -7570 -7727 -5355 0
1000000 1972 -8529 -5431 -8112 -7570 -7727 -5355 0
1000000 913 -7942 -8755 -8168 -9377 -7126 -5510 -9456 0
1000000 1973 -7942 -8755 -8168 -9377 -7126 -5510 -9456 0
1000000 330 -5640 -6425 0
1000000 1974 -5640 -6425 0
1000000 349 -7050 -7547 -7841 -1091 0
1000000 1975 -7050 -7547 -7841 -1091 0
1000000 1219 -9198 -6833 -6600 -7722 -7032 -5366 -8115 0
1000000 1976 -9198 -6833 -6600 -7722 -7032 -5366 -8115 0
1000000 1094 -8457 -9495 -5983 0
1000000 1977 -8457 -9495 -5983 0
1000000 795 -7537 -5548 -6134 0
1000000 1978 -7537 -5548 -6134 0
1000000 116 -6363 -8442 -9588 -7496 -5564 -9247 -6338 0
1000000 1979 -6363 -8442 -9588 -7496 -5564 -9247 -6338 0
1000000 411 -7795 -5849 0
1000000 1980 -7795 -5849 0
1000000 697 -5901 -6843 -6071 0
1000000 1981 -5901 -6843 -6071 0
1000000 493 -7586 -5128 -7610 -6600 -7508 -7841 -6212 0
1000000 1982 -7586 -5128 -7610 -6600 -7508 -7841 -6212 0
1000000 1024 -7908 -8448 -6815 0
1000000 1983 -7908 -8448 -6815 0
1000000 206 -5575 -7451 -6110 -8185 -5699 0
1000000 1984 -5575 -7451 -6110 -8185 -5699 0
1000000 1400 -7077 -5975 -7481 -1448 0
1000000 1985 -7077 -5975 -7481 -1448 0
1000000 692 -8842 -6572 0
1000000 1986 -8842 -6572 0
1000000 1212 -8351 -6283 -7862 0
1000000 1987 -8351 -6283 -7862 0
1000000 593 -6712 -6127 0
1000000 1988 -6712 -6127 0
1000000 929 -5139 -8026 -8601 -1218 0
1000000 1989 -5139 -8026 -8601 -1218 0
1000000 862 -5758 -7301 0
1000000 1990 -5758 -7301 0
1000000 1099 -7248 -7106 -9078 -8530 -7399 -7965 0
1000000 1991 -7248 -7106 -9078 -8530 -7399 -7965 0
1000000 1143 -5178 -8350 0
1000000 1992 -5178 -8350 0
1000000 1048 -5832 -9594 0
1000000 1993 -5832 -9594 0
1000000 35 -7103 -7811 0
1000000 1994 -7103 -7811 0
1000000 1357 -7855 -7682 -8285 -5771 0
1000000 1995 -7855 -7682 -8285 -5771 0
1000000 455 -5976 -8500 -6197 0
1000000 1996 -5976 -8500 -6197 0
1000000 1165 -8369 -8691 -7549 -7682 -8396 -8377 -7442 0
1000000 1997 -8369 -8691 -7549 -7682 -8396 -8377 -7442 0
1000000 385 -5374 -8619 -7755 -6726 -6765 -5449 -7614 0
1000000 1998 -5374 -8619 -7755 -6726 -6765 -5449 -7614 0
1000000 360 -6319 -7370 -5953 -8732 -8254 -1295 0
1000000 1999 -6319 -7370 -5953 -8732 -8254 -1295 0
1000000 635 -7985 -1381 0
1000000 2000 -7985 -1381 0
1000000 1173 -7256 -1213 0
1000000 2001 -7256 -1213 0
1000000 1309 -9136 -9369 0
1000000 2002 -9136 -9369 0
1000000 666 -5673 -8414 -6372 -5697 0
1000000 2003 -5673 -8414 -6372 -5697 0
1000000 356 -6056 -7207 -7622 -9022 -9059 -8388 0
1000000 2004 -6056 -7207 -7622 -9022 -9059 -8388 0
1000000 1133 -7083 -8306 -5786 -6556 0
1000000 2005 -7083 -8306 -5786 -6556 0
1000000 400 -8547 -8530 -8091 -7873 -7252 -8130 -6343 0
1000000 2006 -8547 -8530 -8091 -7873 -7252 -8130 -6343 0
1000000 307 -6671 -1056 0
1000000 2007 -6671 -1056 0
1000000 25 -7357 -9468 -6959 -7324 -8149 -6235 -7609 0
1000000 2008 -7357 -9468 -6959 -7324 -8149 -6235 -7609 0
1000000 1271 -5816 -5585 -7578 -5367 0
1000000 2009 -5816 -5585 -7578 -5367 0
1000000 1466 -5528 -8416 -6790 0
1000000 2010 -5528 -8416 -6790 0
1000000 722 -8440 -8935 -8652 -9269 -6322 0
1000000 2011 -8440 -8935 -8652 -9269 -6322 0
1000000 1279 -5869 -6757 0
1000000 2012 -5869 -6757 0
1000000 509 -5489 -8772 -8969 -8392 -8726 -9048 0
1000000 2013 -5489 -8772 -8969 -8392 -8726 -9048 0
1000000 1350 -5751 -7411 -5573 0
1000000 2014 -5751 -7411 -5573 0
1000000 1005 -7695 -8042 -8801 -7384 -1203 0
1000000 2015 -7695 -8042 -8801 -7384 -1203 0
1000000 541 -7843 -8117 -9052 -6188 -6272 -7324 0
1000000 2016 -7843 -8117 -9052 -6188 -6272 -7324 0
1000000 739 -8070 -9094 -8480 -5446 -6579 -6560 -9370 0
1000000 2017 -8070 -9094 -8480 -5446 -6579 -6560 -9370 0
1000000 95 -5313 -8682 -7733 0
1000000 2018 -5313 -8682 -7733 0
1000000 1339 -8598 -8538 -6437 -9149 -8766 -7868 -6004 0
1000000 2019 -8598 -8538 -6437 -9149 -8766 -7868 -6004 0
1000000 760 -9435 -5768 -7427 -9157 -6850 0
1000000 2020 -9435 -5768 -7427 -9157 -6850 0
1000000 456 -5183 -8374 -7206 -6993 -8928 -8135 0
1000000 2021 -5183 -8374 -7206 -6993 -8928 -8135 0
1000000 1378 -8161 -8947 -7856 -9564 -5832 -7747 0
1000000 2022 -8161 -8947 -7856 -9564 -5832 -7747 0
1000000 1455 -5276 -7289 -6558 -5548 -7316 0
1000000 2023 -5276 -7289 -6558 -5548 -7316 0
1000000 629 -9150 -6524 -6812 -8048 -6332 0
1000000 2024 -9150 -6524 -6812 -8048 -6332 0
1000000 1197 -6319 -6187 0
1000000 2025 -6319 -6187 0
1000000 404 -7502 -6581 -1088 0
1000000 2026 -7502 -6581 -1088 0
1000000 1048 -8839 -8650 0
1000000 2027 -8839 -8650 0
1000000 247 -6527 -1007 0
1000000 2028 -6527 -1007 0
1000000 48 -6881 -8503 -7994 -7164 0
1000000 2029 -6881 -8503 -7994 -7164 0
1000000 528 -9338 -8879 -8360 -6274 -5996 -5796 0
1000000 2030 -9338 -8879 -8360 -6274 -5996 -5796 0
1000000 364 -6757 -9175 -8991 -1049 0
1000000 2031 -6757 -9175 -8991 -1049 0
1000000 297 -7770 -6657 -5843 -9370 -8711 -6758 0
1000000 2032 -7770 -6657 -5843 -9370 -8711 -6758 0
1000000 310 -6622 -9233 -5778 -7357 0
1000000 2033 -6622 -9233 -5778 -7357 0
1000000 1433 -6042 -9397 -9288 -6632 -7256 -1477 0
1000000 2034 -6042 -9397 -9288 -6632 -7256 -1477 0
1000000 1029 -6652 -5677 -5290 0
1000000 2035 -6652 -5677 -5290 0
1000000 140 -7874 -7020 -6008 -7272 -5169 -5948 -245 0
1000000 2036 -7874 -7020 -6008 -7272 -5169 -5948 -245 0
1000000 437 -5937 -7965 -7509 -8299 -6134 -7647 0
1000000 2037 -5937 -7965 -7509 -8299 -6134 -7647 0
1000000 776 -8024 -6459 -6518 -8431 0
1000000 2038 -8024 -6459 -6518 -8431 0
1000000 80 -8955 -8206 -6878 0
1000000 2039 -8955 -8206 -6878 0
1000000 540 -6263 -9102 -9451 -6292 0
1000000 2040 -6263 -9102 -9451 -6292 0
1000000 959 -6510 -7247 -5698 -9362 -7416 -9141 0
1000000 2041 -6510 -7247 -5698 -9362 -7416 -9141 0
1000000 264 -5992 -7497 -6998 -1332 0
1000000 2042 -5992 -7497 -6998 -1332 0
1000000 997 -8606 -8691 -6879 -9556 -7962 -6168 -5553 0
1000000 2043 -8606 -8691 -6879 -9556 -7962 -6168 -5553 0
1000000 1173 -8888 -5483 -8032 -5464 -5485 -6146 -9409 0
1000000 2044 -8888 -5483 -8032 -5464 -5485 -6146 -9409 0
1000000 854 -6281 -8062 -1123 0
1000000 2045 -6281 -8062 -1123 0
1000000 241 -6422 -8941 -6800 -7758 -5985 -8692 -659 0
1000000 2046 -6422 -8941 -6800 -7758 -5985 -8692 -659 0
1000000 1252 -8382 -8758 0
1000000 2047 -8382 -8758 0
1000000 1281 -6938 -6445 -5854 -5614 -8077 -6875 -1396 0
1000000 2048 -6938 -6445 -5854 -5614 -8077 -6875 -1396 0
1000000 742 -8874 -8757 -7071 0
1000000 2049 -8874 -8757 -7071 0
1000000 945 -5788 -9194 -7108 0
1000000 2050 -5788 -9194 -7108 0
1000000 1316 -8881 -5317 -7946 -8815 -6889 0
1000000 2051 -8881 -5317 -7946 -8815 -6889 0
1000000 135 -5214 -7251 -1000 0
1000000 2052 -5214 -7251 -1000 0
1000000 876 -8157 -7431 -6030 -7926 -6120 -6675 -6591 0
1000000 2053 -8157 -7431 -6030 -7926 -6120 -6675 -6591 0
1000000 561 -6288 -9206 -5156 -1464 0
1000000 2054 -6288 -9206 -5156 -1464 0
1000000 899 -9003 -8747 -6720 -5544 -7102 -9210 0
1000000 2055 -9003 -8747 -6720 -5544 -7102 -9210 0
1000000 1256 -7589 -8813 -9288 -6586 0
1000000 2056 -7589 -8813 -9288 -6586 0
1000000 1102 -8198 -1289 0
1000000 2057 -8198 -1289 0
1000000 856 -6189 -9561 -7957 -7911 0
1000000 2058 -6189 -9561 -7957 -7911 0
1000000 501 -9225 -6296 -7830 -939 0
1000000 2059 -9225 -6296 -7830 -939 0
1000000 222 -8277 -5302 -7537 -7741 -7375 0
1000000 2060 -8277 -5302 -7537 -7741 -7375 0
1000000 551 -7482 -9420 -6547 -9259 -5773 -8283 -9440 0
1000000 2061 -7482 -9420 -6547 -9259 -5773 -8283 -9440 0
1000000 527 -9323 -7503 -6102 -6554 -1438 0
1000000 2062 -9323 -7503 -6102 -6554 -1438 0
1000000 1128 -5538 -1462 0
1000000 2063 -5538 -1462 0
1000000 672 -8095 -7017 -7671 -7508 -8804 -695 0
1000000 2064 -8095 -7017 -7671 -7508 -8804 -695 0
1000000 631 -5718 -5439 0
1000000 2065 -5718 -5439 0
1000000 712 -6815 -9064 -5791 0
1000000 2066 -6815 -9064 -5791 0
1000000 774 -9356 -8290 -5910 -9154 0
1000000 2067 -9356 -8290 -5910 -9154 0
1000000 228 -7375 -8179 -7658 -6802 0
1000000 2068 -7375 -8179 -7658 -6802 0
1000000 321 -9364 -9005 -7195 -8105 -8020 -6903 -8183 0
1000000 2069 -9364 -9005 -7195 -8105 -8020 -6903 -8183 0
1000000 783 -5743 -9041 -6275 -7922 -7786 -7755 -5172 0
1000000 2070 -5743 -9041 -6275 -7922 -7786 -7755 -5172 0
1000000 1444 -6414 -8805 -8041 -5440 0
1000000 2071 -6414 -8805 -8041 -5440 0
1000000 1431 -7835 -6262 -6983 0
1000000 2072 -7835 -6262 -6983 0
1000000 179 -6389 -9362 -7335 -7526 -9380 -9202 0
1000000 2073 -6389 -9362 -7335 -7526 -9380 -9202 0
1000000 242 -5755 -7184 -9228 -9101 -8285 0
1000000 2074 -5755 -7184 -9228 -9101 -8285 0
1000000 431 -8609 -7107 0
1000000 2075 -8609 -7107 0
1000000 758 -8468 -9065 -5924 -5316 -1437 0
1000000 2076 -8468 -9065 -5924 -5316 -1437 0
1000000 586 -9049 -7216 -5343 -5773 -9433 -5276 -5384 0
1000000 2077 -9049 -7216 -5343 -5773 -9433 -5276 -5384 0
1000000 368 -7591 -5500 0
1000000 2078 -7591 -5500 0
1000000 604 -9504 -9111 -5849 0
1000000 2079 -9504 -9111 -5849 0
1000000 829 -5904 -6774 0
1000000 2080 -5904 -6774 0
1000000 248 -6513 -5499 -6324 -5168 -9395 0
1000000 2081 -6513 -5499 -6324 -5168 -9395 0
1000000 99 -7074 -8460 0
1000000 2082 -7074 -8460 0
1000000 119 -7014 -7217 -7215 -5114 0
1000000 2083 -7014 -7217 -7215 -5114 0
1000000 497 -7466 -5327 -5594 -8154 -9435 0
1000000 2084 -7466 -5327 -5594 -8154 -9435 0
1000000 1429 -8530 -7855 -8794 -6604 -8931 0
1000000 2085 -8530 -7855 -8794 -6604 -8931 0
1000000 1000 -5388 -1460 0
1000000 2086 -5388 -1460 0
1000000 60 -8131 -5649 -8712 -7184 -7144 0
1000000 2087 -8131 -5649 -8712 -7184 -7144 0
1000000 564 -6754 -8719 -9317 -5363 -9507 -8356 -7736 0
1000000 2088 -6754 -8719 -9317 -5363 -9507 -8356 -7736 0
1000000 1080 -6173 -7869 -6721 -5440 -5551 -8361 -1155 0
1000000 2089 -6173 -7869 -6721 -5440 -5551 -8361 -1155 0
1000000 1121 -5588 -6931 -5819 -7812 -6944 0
1000000 2090 -5588 -6931 -5819 -7812 -6944 0
1000000 424 -6311 -6839 0
1000000 2091 -6311 -6839 0
1000000 1225 -7585 -5765 -7752 -8231 -8296 -5798 0
1000000 2092 -7585 -5765 -7752 -8231 -8296 -5798 0
1000000 567 -8442 -8303 -6181 -8087 -5283 -7449 0
1000000 2093 -8442 -8303 -6181 -8087 -5283 -7449 0
1000000 1312 -6857 -6524 -9147 -1447 0
1000000 2094 -6857 -6524 -9147 -1447 0
1000000 1411 -5472 -9483 -8576 -8140 -9362 -1454 0
1000000 2095 -5472 -9483 -8576 -8140 -9362 -1454 0
1000000 221 -6556 -7877 -7983 -9528 -8369 -5567 0
1000000 2096 -6556 -7877 -7983 -9528 -8369 -5567 0
1000000 562 -9175 -7736 -5649 -6763 -9442 -5322 -5454 0
1000000 2097 -9175 -7736 -5649 -6763 -9442 -5322 -5454 0
1000000 934 -5390 -5515 -5343 -5938 0
1000000 2098 -5390 -5515 -5343 -5938 0
1000000 684 -5428 -9308 -5799 -7395 -1309 0
1000000 2099 -5428 -9308 -5799 -7395 -1309 0
1000000 138 -6514 -8235 0
1000000 2100 -6514 -8235 0
1000000 803 -6229 -5927 -5220 -9379 0
1000000 2101 -6229 -5927 -5220 -9379 0
1000000 1332 -6636 -7483 -6619 -5506 -8933 -6021 -8395 0
1000000 2102 -6636 -7483 -6619 -5506 -8933 -6021 -8395 0
1000000 132 -7875 -5285 -6231 -8044 -8013 -8193 -6862 0
1000000 2103 -7875 -5285 -6231 -8044 -8013 -8193 -6862 0
1000000 1417 -8249 -9350 -7479 -5597 -8510 0
1000000 2104 -8249 -9350 -7479 -5597 -8510 0
1000000 253 -9371 -5745 -7309 -5166 0
1000000 2105 -9371 -5745 -7309 -5166 0
1000000 1065 -6775 -6599 -5505 0
1000000 2106 -6775 -6599 -5505 0
1000000 82 -7830 -6759 -6793 -8298 -5117 -9220 -6002 0
1000000 2107 -7830 -6759 -6793 -8298 -5117 -9220 -6002 0
1000000 876 -7874 -8049 -5408 -7932 -7623 -1435 0
1000000 2108 -7874 -8049 -5408 -7932 -7623 -1435 0
1000000 1198 -5988 -6935 -7590 -5730 -8607 0
1000000 2109 -5988 -6935 -7590 -5730 -8607 0
1000000 1307 -8788 -7116 -1499 0
1000000 2110 -8788 -7116 -1499 0
1000000 1261 -6545 -8448 -7062 -5826 -8038 0
1000000 2111 -6545 -8448 -7062 -5826 -8038 0
1000000 1004 -6499 -7298 -6362 -7883 0
1000000 2112 -6499 -7298 -6362 -7883 0
1000000 1190 -5946 -6578 -6768 -7684 -1195 0
1000000 2113 -5946 -6578 -6768 -7684 -1195 0
1000000 1183 -9321 -5485 -5765 -7876 -7141 -7412 -5809 0
1000000 2114 -9321 -5485 -5765 -7876 -7141 -7412 -5809 0
1000000 1410 -8984 -6884 -8432 -1412 0
1000000 2115 -8984 -6884 -8432 -1412 0
1000000 230 -6034 -6502 0
1000000 2116 -6034 -6502 0
1000000 113 -9462 -7836 -5367 -9019 -6708 -6417 0
1000000 2117 -9462 -7836 -5367 -9019 -6708 -6417 0
1000000 457 -6989 -6047 0
1000000 2118 -6989 -6047 0
1000000 1311 -8451 -1382 0
1000000 2119 -8451 -1382 0
1000000 736 -8162 -5365 -7173 -7323 0
1000000 2120 -8162 -5365 -7173 -7323 0
1000000 125 -7669 -6122 -9124 -6095 -8248 -7078 -5916 0
1000000 2121 -7669 -6122 -9124 -6095 -8248 -7078 -5916 0
1000000 736 -6398 -7564 -7999 -1243 0
1000000 2122 -6398 -7564 -7999 -1243 0
1000000 1359 -8735 -7976 -7637 -8934 -6718 -6084 0
1000000 2123 -8735 -7976 -7637 -8934 -6718 -6084 0
1000000 1232 -8137 -5523 -7007 -6296 -6588 -6873 0
1000000 2124 -8137 -5523 -7007 -6296 -6588 -6873 0
1000000 536 -7561 -9129 -8356 -5654 0
1000000 2125 -7561 -9129 -8356 -5654 0
1000000 935 -7793 -6356 -5802 -7818 -5509 -6966 -8661 0
1000000 2126 -7793 -6356 -5802 -7818 -5509 -6966 -8661 0
1000000 1300 -8897 -8350 0
1000000 2127 -8897 -8350 0
1000000 1499 -7787 -9281 -8572 -6943 -9256 -9333 -5800 0
1000000 2128 -7787 -9281 -8572 -6943 -9256 -9333 -5800 0
1000000 325 -5981 -9241 -5874 -7578 0
1000000 2129 -5981 -9241 -5874 -7578 0
1000000 991 -9104 -5526 -8393 -9194 -8838 -5201 0
1000000 2130 -9104 -5526 -8393 -9194 -8838 -5201 0
1000000 1060 -8661 -6983 0
1000000 2131 -8661 -6983 0
1000000 1260 -5487 -7021 0
1000000 2132 -5487 -7021 0
1000000 462 -5322 -8890 -6449 -5378 -6024 -5724 -7626 0
1000000 2133 -5322 -8890 -6449 -5378 -6024 -5724 -7626 0
1000000 356 -5172 -9032 -6901 0
1000000 2134 -5172 -9032 -6901 0
1000000 218 -7922 -5178 -5968 -8288 -8807 -5436 -8161 0
1000000 2135 -7922 -5178 -5968 -8288 -8807 -5436 -8161 0
1000000 1163 -6686 -8283 -5680 -8029 -8375 -5227 0
1000000 2136 -6686 -8283 -5680 -8029 -8375 -5227 0
1000000 416 -7601 -7768 -8222 -6072 -5171 -919 0
1000000 2137 -7601 -7768 -8222 -6072 -5171 -919 0
1000000 1494 -9044 -6694 0
1000000 2138 -9044 -6694 0
1000000 240 -6729 -6764 -6143 -7878 -5598 0
1000000 2139 -6729 -6764 -6143 -7878 -5598 0
1000000 607 -7412 -7388 -6634 -7018 0
1000000 2140 -7412 -7388 -6634 -7018 0
1000000 1294 -8286 -9548 -6556 -8838 -6557 0
1000000 2141 -8286 -9548 -6556 -8838 -6557 0
1000000 765 -7694 -8330 -7218 -5819 -5421 0
1000000 2142 -7694 -8330 -7218 -5819 -5421 0
1000000 1159 -8386 -5266 -6062 0
1000000 2143 -8386 -5266 -6062 0
1000000 37 -8698 -9405 -8331 -6091 -5452 -784 0
1000000 2144 -8698 -9405 -8331 -6091 -5452 -784 0
1000000 648 -9344 -6294 -6486 -5130 0
1000000 2145 -9344 -6294 -6486 -5130 0
1000000 648 -7115 -8222 -8085 -5394 -9473 -7916 -706 0
1000000 2146 -7115 -8222 -8085 -5394 -9473 -7916 -706 0
1000000 51 -5890 -7557 -6716 -9061 -6397 -5688 0
1000000 2147 -5890 -7557 -6716 -9061 -6397 -5688 0
1000000 1162 -8426 -7042 -6239 0
1000000 2148 -8426 -7042 -6239 0
1000000 1343 -5555 -7122 -8005 -9284 0
1000000 2149 -5555 -7122 -8005 -9284 0
1000000 1378 -9077 -9284 -8587 -9187 -8401 -8595 0
1000000 2150 -9077 -9284 -8587 -9187 -8401 -8595 0
1000000 633 -7997 -5711 -7012 -8017 -5372 -934 0
1000000 2151 -7997 -5711 -7012 -8017 -5372 -934 0
1000000 1070 -8502 -9420 -7397 -8262 0
1000000 2152 -8502 -9420 -7397 -8262 0
1000000 1328 -7743 -7931 -6653 -5594 -6119 0
1000000 2153 -7743 -7931 -6653 -5594 -6119 0
1000000 308 -5738 -6055 0
1000000 2154 -5738 -6055 0
1000000 1417 -6386 -5426 -7611 -9079 -8689 0
1000000 2155 -6386 -5426 -7611 -9079 -8689 0
1000000 1445 -6442 -7703 -8004 -8964 -8108 -8905 -9232 0
1000000 2156 -6442 -7703 -8004 -8964 -8108 -8905 -9232 0
1000000 888 -7735 -8793 -8800 -6561 -5149 0
1000000 2157 -7735 -8793 -8800 -6561 -5149 0
1000000 1250 -5304 -7036 -5484 -5329 -8820 -7690 0
1000000 2158 -5304 -7036 -5484 -5329 -8820 -7690 0
1000000 688 -8350 -9295 -9211 -8440 0
1000000 2159 -8350 -9295 -9211 -8440 0
1000000 334 -8091 -7092 -7486 -5509 -6254 -6085 -5488 0
1000000 2160 -8091 -7092 -7486 -5509 -6254 -6085 -5488 0
1000000 1356 -7090 -6816 -1390 0
1000000 2161 -7090 -6816 -1390 0
1000000 597 -7878 -6456 -9225 -7711 -7956 0
1000000 2162 -7878 -6456 -9225 -7711 -7956 0
1000000 1032 -8667 -7114 -7785 -5203 -8134 -8319 0
1000000 2163 -8667 -7114 -7785 -5203 -8134 -8319 0
1000000 252 -6442 -8735 -8089 -7468 -268 0
1000000 2164 -6442 -8735 -8089 -7468 -268 0
1000000 706 -6075 -8058 -5564 -7580 -7408 -6788 0
1000000 2165 -6075 -8058 -5564 -7580 -7408 -6788 0
1000000 153 -8247 -6235 -8236 -7827 -8874 -7018 0
1000000 2166 -8247 -6235 -8236 -7827 -8874 -7018 0
1000000 302 -8315 -5219 0
1000000 2167 -8315 -5219 0
1000000 659 -8377 -6517 -7398 -8304 -983 0
1000000 2168 -8377 -6517 -7398 -8304 -983 0
1000000 83 -6737 -9543 0
1000000 2169 -6737 -9543 0
1000000 1212 -8357 -7501 0
1000000 2170 -8357 -7501 0
1000000 1252 -7169 -8793 -5403 -7375 -6520 -5222 0
1000000 2171 -7169 -8793 -5403 -7375 -6520 -5222 0
1000000 360 -5732 -7801 -5644 -806 0
1000000 2172 -5732 -7801 -5644 -806 0
1000000 557 -5577 -8900 0
1000000 2173 -5577 -8900 0
1000000 1172 -7161 -5552 -7648 -6369 0
1000000 2174 -7161 -5552 -7648 -6369 0
1000000 801 -7341 -9387 -6337 -8682 -6469 -5876 -8931 0
1000000 2175 -7341 -9387 -6337 -8682 -6469 -5876 -8931 0
1000000 304 -8084 -826 0
1000000 2176 -8084 -826 0
1000000 169 -8226 -9383 0
1000000 2177 -8226 -9383 0
1000000 1051 -7036 -5101 -5893 -7920 -6660 0
1000000 2178 -7036 -5101 -5893 -7920 -6660 0
1000000 1179 -8640 -8680 -7713 -6768 -8701 -1405 0
1000000 2179 -8640 -8680 -7713 -6768 -8701 -1405 0
1000000 363 -8076 -6259 -7775 -8406 -6736 -8497 0
1000000 2180 -8076 -6259 -7775 -8406 -6736 -8497 0
1000000 1165 -7960 -6494 -6275 -8512 -5279 0
1000000 2181 -7960 -6494 -6275 -8512 -5279 0
1000000 1495 -6390 -7694 -5892 -8954 -9375 -6812 0
1000000 2182 -6390 -7694 -5892 -8954 -9375 -6812 0
1000000 58 -7667 -7743 -7298 -7067 -7553 -1065 0
1000000 2183 -7667 -7743 -7298 -7067 -7553 -1065 0
1000000 1012 -5454 -7741 -5937 -7477 -7877 -1074 0
1000000 2184 -5454 -7741 -5937 -7477 -7877 -1074 0
1000000 351 -8353 -7465 0
1000000 2185 -8353 -7465 0
1000000 1457 -8511 -5315 -9577 -5990 -7157 -8798 0
1000000 2186 -8511 -5315 -9577 -5990 -7157 -8798 0
1000000 539 -8636 -6009 -8260 0
1000000 2187 -8636 -6009 -8260 0
1000000 60 -8534 -8677 -7393 -5401 0
1000000 2188 -8534 -8677 -7393 -5401 0
1000000 1189 -5965 -5610 -6882 -6944 -9554 -7672 -8182 0
1000000 2189 -5965 -5610 -6882 -6944 -9554 -7672 -8182 0
1000000 421 -8219 -7349 -8680 -8137 -9387 -8877 -1089 0
1000000 2190 -8219 -7349 -8680 -8137 -9387 -8877 -1089 0
1000000 1045 -7408 -6967 -6748 0
1000000 2191 -7408 -6967 -6748 0
1000000 1330 -9431 -8159 -8897 -6242 0
1000000 2192 -9431 -8159 -8897 -6242 0
1000000 613 -8994 -7968 -7678 0
1000000 2193 -8994 -7968 -7678 0
1000000 25 -8679 -7342 -327 0
1000000 2194 -8679 -7342 -327 0
1000000 253 -5668 -7252 0
1000000 2195 -5668 -7252 0
1000000 1419 -8048 -9073 -7981 -7864 -6912 0
1000000 2196 -8048 -9073 -7981 -7864 -6912 0
1000000 68 -7712 -9459 -7537 -8641 -6746 -7177 -8549 0
1000000 2197 -7712 -9459 -7537 -8641 -6746 -7177 -8549 0
1000000 553 -7352 -5855 0
1000000 2198 -7352 -5855 0
1000000 388 -6073 -7911 -7199 -5446 -6810 -5439 0
1000000 2199 -6073 -7911 -7199 -5446 -6810 -5439 0
1000000 1036 -6346 -8597 -8670 -8411 -8948 -9519 -7823 0
1000000 2200 -6346 -8597 -8670 -8411 -8948 -9519 -7823 0
1000000 46 -8895 -9475 0
1000000 2201 -8895 -9475 0
1000000 1139 -9000 -8048 0
1000000 2202 -9000 -8048 0
1000000 1006 -6950 -9286 -6757 -8649 -5656 -8686 0
1000000 2203 -6950 -9286 -6757 -8649 -5656 -8686 0
1000000 1406 -9387 -5514 -8813 -1457 0
1000000 2204 -9387 -5514 -8813 -1457 0
1000000 117 -5790 -7301 -9293 -7653 -6731 0
1000000 2205 -5790 -7301 -9293 -7653 -6731 0
1000000 1372 -6793 -5153 -6427 -9281 0
1000000 2206 -6793 -5153 -6427 -9281 0
1000000 1203 -6245 -7653 -5438 0
1000000 2207 -6245 -7653 -5438 0
1000000 1292 -6551 -5396 -7774 -9393 -7908 -8986 -5307 0
1000000 2208 -6551 -5396 -7774 -9393 -7908 -8986 -5307 0
1000000 1354 -5629 -5227 -9336 -7459 -6764 0
1000000 2209 -5629 -5227 -9336 -7459 -6764 0
1000000 1110 -5996 -9078 -6129 -7894 -5481 -5391 -1223 0
1000000 2210 -5996 -9078 -6129 -7894 -5481 -5391 -1223 0
1000000 172 -6884 -250 0
1000000 2211 -6884 -250 0
1000000 1088 -7263 -7703 -9471 -7371 -8478 -1456 0
1000000 2212 -7263 -7703 -9471 -7371 -8478 -1456 0
1000000 430 -6328 -7178 -9014 -7059 -5192 -9086 0
1000000 2213 -6328 -7178 -9014 -7059 -5192 -9086 0
1000000 383 -5206 -7231 -9496 -8917 0
1000000 2214 -5206 -7231 -9496 -8917 0
1000000 1156 -5126 -7022 -5308 -6454 -8601 -7944 0
1000000 2215 -5126 -7022 -5308 -6454 -8601 -7944 0
1000000 450 -7488 -8511 -6231 0
1000000 2216 -7488 -8511 -6231 0
1000000 1098 -8672 -5832 0
1000000 2217 -8672 -5832 0
1000000 110 -9243 -6473 -7859 -1374 0
1000000 2218 -9243 -6473 -7859 -1374 0
1000000 979 -8987 -9153 -5621 -6586 -6923 -8317 -8154 0
1000000 2219 -8987 -9153 -5621 -6586 -6923 -8317 -8154 0
1000000 1267 -5981 -6798 0
1000000 2220 -5981 -6798 0
1000000 693 -6574 -6483 -8086 -5998 -1275 0
1000000 2221 -6574 -6483 -8086 -5998 -1275 0
1000000 20 -8702 -9277 -8761 -6570 -8739 -8151 0
1000000 2222 -8702 -9277 -8761 -6570 -8739 -8151 0
1000000 417 -8576 -8155 0
1000000 2223 -8576 -8155 0
1000000 98 -8025 -8008 -7707 -8435 -9227 -7678 -5895 0
1000000 2224 -8025 -8008 -7707 -8435 -9227 -7678 -5895 0
1000000 762 -7644 -5856 -9082 -7709 -9362 -7127 0
1000000 2225 -7644 -5856 -9082 -7709 -9362 -7127 0
1000000 1400 -8061 -6993 -7451 0
1000000 2226 -8061 -6993 -7451 0
1000000 719 -7847 -6857 -7349 -9062 -9025 -6468 -6412 0
1000000 2227 -7847 -6857 -7349 -9062 -9025 -6468 -6412 0
1000000 470 -7279 -946 0
1000000 2228 -7279 -946 0
1000000 14 -9154 -8687 -6049 0
1000000 2229 -9154 -8687 -6049 0
1000000 494 -7024 -7265 -5294 -7482 -7379 -7731 -786 0
1000000 2230 -7024 -7265 -5294 -7482 -7379 -7731 -786 0
1000000 306 -7102 -5448 -5310 -5177 -5684 0
1000000 2231 -7102 -5448 -5310 -5177 -5684 0
1000000 1260 -6119 -8662 0
1000000 2232 -6119 -8662 0
1000000 473 -8039 -6285 -7561 -5992 -8790 -7887 -533 0
1000000 2233 -8039 -6285 -7561 -5992 -8790 -7887 -533 0
1000000 21 -7507 -9540 -8243 -9003 -8255 -8510 -9483 0
1000000 2234 -7507 -9540 -8243 -9003 -8255 -8510 -9483 0
1000000 603 -6039 -9389 -8761 -5556 0
1000000 2235 -6039 -9389 -8761 -5556 0
1000000 572 -8214 -7058 -8774 -6237 0
1000000 2236 -8214 -7058 -8774 -6237 0
1000000 857 -7944 -8006 -5492 0
1000000 2237 -7944 -8006 -5492 0
1000000 935 -8083 -9370 -6047 -8492 -8077 0
1000000 2238 -8083 -9370 -6047 -8492 -8077 0
1000000 769 -7288 -8487 -6694 -7600 0
1000000 2239 -7288 -8487 -6694 -7600 0
1000000 1397 -7845 -9009 -1436 0
1000000 2240 -7845 -9009 -1436 0
1000000 1406 -9580 -8212 -7432 -6267 -1419 0
1000000 2241 -9580 -8212 -7432 -6267 -1419 0
1000000 477 -5553 -9077 -7649 -8451 -5924 -1432 0
1000000 2242 -5553 -9077 -7649 -8451 -5924 -1432 0
1000000 154 -8685 -5917 -6641 -8612 -5308 -9241 0
1000000 2243 -8685 -5917 -6641 -8612 -5308 -9241 0
1000000 1200 -7587 -6558 -7531 -6790 -5110 0
1000000 2244 -7587 -6558 -7531 -6790 -5110 0
1000000 305 -6824 -5111 -5910 -8604 -6825 -5933 0
1000000 2245 -6824 -5111 -5910 -8604 -6825 -5933 0
1000000 1139 -7923 -6290 -7643 0
1000000 2246 -7923 -6290 -7643 0
1000000 1120 -5693 -5309 -9570 -6577 0
1000000 2247 -5693 -5309 -9570 -6577 0
1000000 78 -5545 -5555 -8227 -7741 -9245 0
1000000 2248 -5545 -5555 -8227 -7741 -9245 0
1000000 1211 -5540 -5222 0
1000000 2249 -5540 -5222 0
1000000 1236 -9150 -7295 -9181 -6918 -7810 -9448 -8137 0
1000000 2250 -9150 -7295 -9181 -6918 -7810 -9448 -8137 0
1000000 1464 -9406 -8320 -7763 -9267 0
1000000 2251 -9406 -8320 -7763 -9267 0
1000000 175 -8686 -905 0
1000000 2252 -8686 -905 0
1000000 907 -8939 -8923 -6664 -8207 -6372 -6939 -8706 0
1000000 2253 -8939 -8923 -6664 -8207 -6372 -6939 -8706 0
1000000 953 -6110 -7943 -8533 -9319 0
1000000 2254 -6110 -7943 -8533 -9319 0
1000000 1180 -9091 -9148 -8947 -9218 -8145 -1226 0
1000000 2255 -9091 -9148 -8947 -9218 -8145 -1226 0
1000000 1034 -5431 -5333 -8132 -7987 -9253 -6657 -1370 0
1000000 2256 -5431 -5333 -8132 -7987 -9253 -6657 -1370 0
1000000 650 -8893 -5257 -6687 0
1000000 2257 -8893 -5257 -6687 0
1000000 249 -9291 -6781 -8380 -5981 -8181 0
1000000 2258 -9291 -6781 -8380 -5981 -8181 0
1000000 20 -8059 -5334 0
1000000 2259 -8059 -5334 0
1000000 1455 -6226 -6926 -6677 -6446 0
1000000 2260 -6226 -6926 -6677 -6446 0
1000000 1343 -7437 -7693 -6369 -8660 -7702 -5357 -7095 0
1000000 2261 -7437 -7693 -6369 -8660 -7702 -5357 -7095 0
1000000 924 -5108 -1036 0
1000000 2262 -5108 -1036 0
1000000 601 -8095 -7396 -7064 -1477 0
1000000 2263 -8095 -7396 -7064 -1477 0
1000000 927 -6355 -7392 -8041 -9002 -5392 -1401 0
1000000 2264 -6355 -7392 -8041 -9002 -5392 -1401 0
1000000 124 -8544 -5773 -6015 0
1000000 2265 -8544 -5773 -6015 0
1000000 1161 -6511 -7437 -9233 -8915 -9544 -7162 0
1000000 2266 -6511 -7437 -9233 -8915 -9544 -7162 0
1000000 330 -5574 -9187 -6531 0
1000000 2267 -5574 -9187 -6531 0
1000000 1047 -6440 -1282 0
1000000 2268 -6440 -1282 0
1000000 1406 -7031 -7906 -8764 -5836 -6423 0
1000000 2269 -7031 -7906 -8764 -5836 -6423 0
1000000 763 -5285 -6060 0
1000000 2270 -5285 -6060 0
1000000 616 -8046 -5506 0
1000000 2271 -8046 -5506 0
1000000 416 -7753 -7567 -8598 -5338 0
1000000 2272 -7753 -7567 -8598 -5338 0
1000000 772 -6029 -9279 -8401 -1445 0
1000000 2273 -6029 -9279 -8401 -1445 0
1000000 609 -7229 -8672 -6660 -753 0
1000000 2274 -7229 -8672 -6660 -753 0
1000000 862 -6681 -6831 -6425 -955 0
1000000 2275 -6681 -6831 -6425 -955 0
1000000 975 -9444 -6618 -8347 -9398 0
1000000 2276 -9444 -6618 -8347 -9398 0
1000000 84 -8567 -6040 -5182 -7722 -707 0
1000000 2277 -8567 -6040 -5182 -7722 -707 0
1000000 1030 -9567 -5427 -8172 -7404 -9418 -7079 -1479 0
1000000 2278 -9567 -5427 -8172 -7404 -9418 -7079 -1479 0
1000000 116 -8061 -6432 0
1000000 2279 -8061 -6432 0
1000000 139 -5274 -7302 0
1000000 2280 -5274 -7302 0
1000000 131 -7043 -6223 0
1000000 2281 -7043 -6223 0
1000000 253 -8112 -9041 -8868 -9413 0
1000000 2282 -8112 -9041 -8868 -9413 0
1000000 985 -8565 -9518 -7872 -5878 0
1000000 2283 -8565 -9518 -7872 -5878 0
1000000 843 -8894 -9011 -8261 -7881 0
1000000 2284 -8894 -9011 -8261 -7881 0
1000000 846 -8326 -5848 -7172 -7239 0
1000000 2285 -8326 -5848 -7172 -7239 0
1000000 708 -5802 -1291 0
1000000 2286 -5802 -1291 0
1000000 1274 -8367 -7306 -8873 -1372 0
1000000 2287 -8367 -7306 -8873 -1372 0
1000000 1245 -5763 -7408 -6653 -7872 -7297 0
1000000 2288 -5763 -7408 -6653 -7872 -7297 0
1000000 207 -5239 -8424 -9031 -6898 -8891 0
1000000 2289 -5239 -8424 -9031 -6898 -8891 0
1000000 755 -6475 -7484 -6450 0
1000000 2290 -6475 -7484 -6450 0
1000000 114 -5249 -5283 -7418 0
1000000 2291 -5249 -5283 -7418 0
1000000 794 -9470 -8973 -8430 -8835 -8669 -5342 0
1000000 2292 -9470 -8973 -8430 -8835 -8669 -5342 0
1000000 816 -7286 -8956 -8168 0
1000000 2293 -7286 -8956 -8168 0
1000000 64 -8172 -8590 -7161 -6796 -8338 -7327 0
1000000 2294 -8172 -8590 -7161 -6796 -8338 -7327 0
1000000 814 -8821 -8897 -6907 -5766 -5954 0
1000000 2295 -8821 -8897 -6907 -5766 -5954 0
1000000 254 -6400 -5214 -9378 -5820 -8733 -5817 -274 0
1000000 2296 -6400 -5214 -9378 -5820 -8733 -5817 -274 0
1000000 276 -5139 -6082 -7646 0
1000000 2297 -5139 -6082 -7646 0
1000000 173 -8596 -5535 -9502 -6563 0
1000000 2298 -8596 -5535 -9502 -6563 0
1000000 258 -9422 -9402 0
1000000 2299 -9422 -9402 0
1000000 1460 -5433 -6391 -1478 0
1000000 2300 -5433 -6391 -1478 0
1000000 155 -8143 -6424 -6685 -8057 -8365 0
1000000 2301 -8143 -6424 -6685 -8057 -8365 0
1000000 203 -6487 -7874 -7047 -9429 -9293 0
1000000 2302 -6487 -7874 -7047 -9429 -9293 0
1000000 921 -5236 -6712 0
1000000 2303 -5236 -6712 0
1000000 119 -9505 -6360 -7933 -6259 -5946 -8913 0
1000000 2304 -9505 -6360 -7933 -6259 -5946 -8913 0
1000000 1191 -8566 -7909 -6945 -5590 0
1000000 2305 -8566 -7909 -6945 -5590 0
1000000 1256 -5487 -7711 -9025 -5504 -8950 0
1000000 2306 -5487 -7711 -9025 -5504 -8950 0
1000000 1215 -8911 -6289 -6371 -8700 -8808 -7662 0
1000000 2307 -8911 -6289 -6371 -8700 -8808 -7662 0
1000000 1094 -6540 -8406 -9517 -7327 0
1000000 2308 -6540 -8406 -9517 -7327 0
1000000 1117 -7765 -7178 -8347 -5785 -6179 -6582 0
1000000 2309 -7765 -7178 -8347 -5785 -6179 -6582 0
1000000 26 -5195 -6339 -768 0
1000000 2310 -5195 -6339 -768 0
1000000 325 -8667 -6076 -5343 -8455 0
1000000 2311 -8667 -6076 -5343 -8455 0
1000000 754 -9368 -9023 -7193 -9361 0
1000000 2312 -9368 -9023 -7193 -9361 0
1000000 327 -9098 -5421 -5888 -8557 -1471 0
1000000 2313 -9098 -5421 -5888 -8557 -1471 0
1000000 619 -5195 -8712 0
1000000 2314 -5195 -8712 0
1000000 1238 -6528 -6225 -6644 -8973 0
1000000 2315 -6528 -6225 -6644 -8973 0
1000000 1185 -9595 -9537 -6392 -9320 -6164 -7869 0
1000000 2316 -9595 -9537 -6392 -9320 -6164 -7869 0
1000000 26 -7205 -5234 -6240 -5469 0
1000000 2317 -7205 -5234 -6240 -5469 0
1000000 416 -8022 -8318 -6191 0
1000000 2318 -8022 -8318 -6191 0
1000000 40 -9243 -7857 0
1000000 2319 -9243 -7857 0
1000000 720 -6588 -7845 -6794 -9289 -5151 -5107 0
1000000 2320 -6588 -7845 -6794 -9289 -5151 -5107 0
1000000 1009 -7270 -7733 -6955 -6310 -7734 -1367 0
1000000 2321 -7270 -7733 -6955 -6310 -7734 -1367 0
1000000 973 -6366 -6394 -5770 0
1000000 2322 -6366 -6394 -5770 0
1000000 295 -5646 -8165 -7337 -8161 -9436 -7263 -7001 0
1000000 2323 -5646 -8165 -7337 -8161 -9436 -7263 -7001 0
1000000 950 -7395 -5214 -8972 -5869 -5766 -5873 0
1000000 2324 -7395 -5214 -8972 -5869 -5766 -5873 0
1000000 480 -7014 -6606 0
1000000 2325 -7014 -6606 0
1000000 1235 -6123 -9347 -6909 0
1000000 2326 -6123 -9347 -6909 0
1000000 916 -9280 -8193 -9244 -7542 -8041 -7509 -6612 0
1000000 2327 -9280 -8193 -9244 -7542 -8041 -7509 -6612 0
1000000 219 -7431 -6040 -6125 -8047 -7366 -6439 -705 0
1000000 2328 -7431 -6040 -6125 -8047 -7366 -6439 -705 0
1000000 1202 -9299 -7528 -6882 0
1000000 2329 -9299 -7528 -6882 0
1000000 1469 -6590 -8916 -7973 0
1000000 2330 -6590 -8916 -7973 0
1000000 1041 -9216 -7571 -6530 -5750 -7257 -5755 -6308 0
1000000 2331 -9216 -7571 -6530 -5750 -7257 -5755 -6308 0
1000000 1479 -6601 -8533 -7112 -5536 0
1000000 2332 -6601 -8533 -7112 -5536 0
1000000 493 -6930 -6477 -8107 -9090 -5332 -1223 0
1000000 2333 -6930 -6477 -8107 -9090 -5332 -1223 0
1000000 602 -8624 -6462 0
1000000 2334 -8624 -6462 0
1000000 687 -8151 -8548 -9591 -5360 -1341 0
1000000 2335 -8151 -8548 -9591 -5360 -1341 0
1000000 251 -6148 -8414 -5399 0
1000000 2336 -6148 -8414 -5399 0
1000000 892 -9302 -9570 -5101 -5800 -6639 -8648 0
1000000 2337 -9302 -9570 -5101 -5800 -6639 -8648 0
1000000 357 -5238 -7449 -5297 -9508 -8987 -9316 -9401 0
1000000 2338 -5238 -7449 -5297 -9508 -8987 -9316 -9401 0
1000000 1382 -5761 -5928 -7599 -8194 -7290 0
1000000 2339 -5761 -5928 -7599 -8194 -7290 0
1000000 654 -6013 -7559 -8016 -5466 -8861 -860 0
1000000 2340 -6013 -7559 -8016 -5466 -8861 -860 0
1000000 466 -6232 -9490 -9291 -5402 -7863 -8431 -5977 0
1000000 2341 -6232 -9490 -9291 -5402 -7863 -8431 -5977 0
1000000 503 -8264 -1128 0
1000000 2342 -8264 -1128 0
1000000 335 -8032 -8275 0
1000000 2343 -8032 -8275 0
1000000 852 -6555 -5557 -7373 -6345 -9443 -5644 0
1000000 2344 -6555 -5557 -7373 -6345 -9443 -5644 0
1000000 379 -8703 -6694 -5160 -7732 -7091 -8502 -7354 0
1000000 2345 -8703 -6694 -5160 -7732 -7091 -8502 -7354 0
1000000 1156 -6994 -8092 -5114 -6461 0
1000000 2346 -6994 -8092 -5114 -6461 0
1000000 1091 -7835 -5446 -5174 -7068 -5272 -8323 0
1000000 2347 -7835 -5446 -5174 -7068 -5272 -8323 0
1000000 187 -7140 -7492 -8323 -9500 -9297 -7771 0
1000000 2348 -7140 -7492 -8323 -9500 -9297 -7771 0
1000000 848 -9461 -5311 -5468 0
1000000 2349 -9461 -5311 -5468 0
1000000 523 -6374 -9262 -5329 -7500 -7155 -5459 -7897 0
1000000 2350 -6374 -9262 -5329 -7500 -7155 -5459 -7897 0
1000000 677 -5555 -7207 -7071 -1432 0
1000000 2351 -5555 -7207 -7071 -1432 0
1000000 464 -8259 -8716 -968 0
1000000 2352 -8259 -8716 -968 0
1000000 676 -7180 -9046 -998 0
1000000 2353 -7180 -9046 -998 0
1000000 635 -7796 -9544 0
1000000 2354 -7796 -9544 0
1000000 864 -7030 -7836 -7910 -6276 0
1000000 2355 -7030 -7836 -7910 -6276 0
1000000 122 -5266 -5482 -5103 -8758 -7057 -7394 -1428 0
1000000 2356 -5266 -5482 -5103 -8758 -7057 -7394 -1428 0
1000000 1272 -5679 -6464 -9071 -1403 0
1000000 2357 -5679 -6464 -9071 -1403 0
1000000 764 -6062 -6167 -6532 -6144 -7249 -7221 -9531 0
1000000 2358 -6062 -6167 -6532 -6144 -7249 -7221 -9531 0
1000000 1052 -8402 -8262 -7765 -7315 0
1000000 2359 -8402 -8262 -7765 -7315 0
1000000 238 -7485 -8361 0
1000000 2360 -7485 -8361 0
1000000 330 -6918 -1101 0
1000000 2361 -6918 -1101 0
1000000 362 -9039 -8279 -6126 -9183 -5696 -9331 -578 0
1000000 2362 -9039 -8279 -6126 -9183 -5696 -9331 -578 0
1000000 1087 -5218 -8563 -7122 0
1000000 2363 -5218 -8563 -7122 0
1000000 363 -8438 -8150 -9181 -5592 -8962 0
1000000 2364 -8438 -8150 -9181 -5592 -8962 0
1000000 1056 -8093 -5659 -6688 -7908 -8163 -6368 0
1000000 2365 -8093 -5659 -6688 -7908 -8163 -6368 0
1000000 608 -6056 -5928 -5782 -7885 -1007 0
1000000 2366 -6056 -5928 -5782 -7885 -1007 0
1000000 709 -7577 -8502 -6996 -9310 -1078 0
1000000 2367 -7577 -8502 -6996 -9310 -1078 0
1000000 1132 -9437 -5924 -8521 -6990 0
1000000 2368 -9437 -5924 -8521 -6990 0
1000000 1012 -9303 -7818 -8445 -6959 0
1000000 2369 -9303 -7818 -8445 -6959 0
1000000 1287 -7199 -6460 -5744 0
1000000 2370 -7199 -6460 -5744 0
1000000 903 -7222 -8601 0
1000000 2371 -7222 -8601 0
1000000 535 -5336 -8158 -7438 -6970 -8508 -5456 0
1000000 2372 -5336 -8158 -7438 -6970 -8508 -5456 0
1000000 1495 -8139 -8565 -7484 -5525 0
1000000 2373 -8139 -8565 -7484 -5525 0
1000000 1336 -6183 -5347 -8069 -7698 -5775 -6318 0
1000000 2374 -6183 -5347 -8069 -7698 -5775 -6318 0
1000000 941 -6080 -6808 -8730 0
1000000 2375 -6080 -6808 -8730 0
1000000 1299 -7518 -6337 -8645 -9233 0
1000000 2376 -7518 -6337 -8645 -9233 0
1000000 1376 -8079 -8528 -1491 0
1000000 2377 -8079 -8528 -1491 0
1000000 1346 -6392 -5948 -7718 -8649 -6980 -9091 -1402 0
1000000 2378 -6392 -5948 -7718 -8649 -6980 -9091 -1402 0
1000000 600 -6494 -9403 -6936 -9592 -8620 -8828 -9020 0
1000000 2379 -6494 -9403 -6936 -9592 -8620 -8828 -9020 0
1000000 291 -6189 -9248 0
1000000 2380 -6189 -9248 0
1000000 610 -5499 -7024 -6895 -6214 -8555 -6366 -7282 0
1000000 2381 -5499 -7024 -6895 -6214 -8555 -6366 -7282 0
1000000 34 -7103 -6722 0
1000000 2382 -7103 -6722 0
1000000 679 -8826 -6596 -8656 0
1000000 2383 -8826 -6596 -8656 0
1000000 201 -9092 -6575 -8960 -6196 -8334 -830 0
1000000 2384 -9092 -6575 -8960 -6196 -8334 -830 0
1000000 1109 -5857 -7497 0
1000000 2385 -5857 -7497 0
1000000 60 -6545 -6336 -5934 -8859 -8295 -6783 0
1000000 2386 -6545 -6336 -5934 -8859 -8295 -6783 0
1000000 1405 -6933 -6792 -5256 -5608 -5479 0
1000000 2387 -6933 -6792 -5256 -5608 -5479 0
1000000 443 -6083 -8386 -1431 0
1000000 2388 -6083 -8386 -1431 0
1000000 836 -5315 -8808 -6814 -5150 -5718 0
1000000 2389 -5315 -8808 -6814 -5150 -5718 0
1000000 1388 -7529 -6757 -6500 -5252 0
1000000 2390 -7529 -6757 -6500 -5252 0
1000000 1486 -6454 -5171 -8160 -8802 -1491 0
1000000 2391 -6454 -5171 -8160 -8802 -1491 0
1000000 149 -8514 -6461 -5174 -8415 0
1000000 2392 -8514 -6461 -5174 -8415 0
1000000 990 -8282 -5481 -6185 -1055 0
1000000 2393 -8282 -5481 -6185 -1055 0
1000000 811 -9407 -5838 -5738 -5449 -1179 0
1000000 2394 -9407 -5838 -5738 -5449 -1179 0
1000000 185 -8091 -6907 0
1000000 2395 -8091 -6907 0
1000000 1072 -7209 -6126 -5740 -6481 -7465 0
1000000 2396 -7209 -6126 -5740 -6481 -7465 0
1000000 221 -6494 -8386 -8896 0
1000000 2397 -6494 -8386 -8896 0
1000000 692 -7807 -7260 -5243 -6921 -8617 -1042 0
1000000 2398 -7807 -7260 -5243 -6921 -8617 -1042 0
1000000 1342 -5448 -5689 -6497 -5610 -7506 -1416 0
1000000 2399 -5448 -5689 -6497 -5610 -7506 -1416 0
1000000 1480 -6994 -9356 -6475 -9116 -5520 -9169 -6155 0
1000000 2400 -6994 -9356 -6475 -9116 -5520 -9169 -6155 0
1000000 859 -7595 -8215 -7414 -6923 -1479 0
1000000 2401 -7595 -8215 -7414 -6923 -1479 0
1000000 780 -8070 -7546 -6457 -8628 0
1000000 2402 -8070 -7546 -6457 -8628 0
1000000 1033 -5684 -1240 0
1000000 2403 -5684 -1240 0
1000000 1174 -7792 -9429 -5230 -9388 -9109 -8807 -6510 0
1000000 2404 -7792 -9429 -5230 -9388 -9109 -8807 -6510 0
1000000 733 -7272 -7567 -8740 0
1000000 2405 -7272 -7567 -8740 0
1000000 573 -8712 -782 0
1000000 2406 -8712 -782 0
1000000 566 -6294 -8408 -9424 -9510 -8248 -6453 0
1000000 2407 -6294 -8408 -9424 -9510 -8248 -6453 0
1000000 410 -7692 -5992 -8995 -9233 -8757 -6046 -808 0
1000000 2408 -7692 -5992 -8995 -9233 -8757 -6046 -808 0
1000000 863 -8755 -6527 -8336 -7223 0
1000000 2409 -8755 -6527 -8336 -7223 0
1000000 755 -6619 -5135 -8235 0
1000000 2410 -6619 -5135 -8235 0
1000000 177 -7057 -6934 -5399 -9071 -5140 -9262 0
1000000 2411 -7057 -6934 -5399 -9071 -5140 -9262 0
1000000 1271 -7247 -9505 0
1000000 2412 -7247 -9505 0
1000000 352 -8601 -5282 -9344 -7571 -8235 0
1000000 2413 -8601 -5282 -9344 -7571 -8235 0
1000000 641 -8518 -8755 -7998 -7827 -8840 0
1000000 2414 -8518 -8755 -7998 -7827 -8840 0
1000000 1182 -8503 -8632 -8727 -7647 -8198 -5213 -9112 0
1000000 2415 -8503 -8632 -8727 -7647 -8198 -5213 -9112 0
1000000 1490 -7671 -7884 -7487 0
1000000 2416 -7671 -7884 -7487 0
1000000 1003 -9389 -9211 -5402 -7340 -6127 0
1000000 2417 -9389 -9211 -5402 -7340 -6127 0
1000000 32 -6994 -7998 -5470 -8075 -7376 -8527 -55 0
1000000 2418 -6994 -7998 -5470 -8075 -7376 -8527 -55 0
1000000 459 -8073 -1277 0
1000000 2419 -8073 -1277 0
1000000 993 -5231 -6188 -6753 -6177 -9103 -7704 -5146 0
1000000 2420 -5231 -6188 -6753 -6177 -9103 -7704 -5146 0
1000000 643 -7965 -7955 -6979 0
1000000 2421 -7965 -7955 -6979 0
1000000 88 -6550 -8965 -9026 0
1000000 2422 -6550 -8965 -9026 0
1000000 1201 -6951 -8459 -8855 -8640 -9600 -9229 0
1000000 2423 -6951 -8459 -8855 -8640 -9600 -9229 0
1000000 1381 -8558 -7202 -6925 -1383 0
1000000 2424 -8558 -7202 -6925 -1383 0
1000000 596 -6636 -5132 -8109 -8040 -8868 0
1000000 2425 -6636 -5132 -8109 -8040 -8868 0
1000000 1258 -8678 -7309 -5660 -5428 0
1000000 2426 -8678 -7309 -5660 -5428 0
1000000 1408 -8491 -7046 -7804 -6902 -9473 0
1000000 2427 -8491 -7046 -7804 -6902 -9473 0
1000000 840 -7070 -8887 -5180 -5120 -8330 0
1000000 2428 -7070 -8887 -5180 -5120 -8330 0
1000000 1306 -8872 -9262 0
1000000 2429 -8872 -9262 0
1000000 169 -8130 -9591 -732 0
1000000 2430 -8130 -9591 -732 0
1000000 1059 -6891 -5268 -7780 -6849 -7316 -9475 -8400 0
1000000 2431 -6891 -5268 -7780 -6849 -7316 -9475 -8400 0
1000000 910 -6255 -6843 -8985 -7495 -6981 -5838 -7813 0
1000000 2432 -6255 -6843 -8985 -7495 -6981 -5838 -7813 0
1000000 1131 -7785 -8263 -8650 -6491 -5885 0
1000000 2433 -7785 -8263 -8650 -6491 -5885 0
1000000 1360 -9597 -8010 -6353 -6551 -6544 -5428 0
1000000 2434 -9597 -8010 -6353 -6551 -6544 -5428 0
1000000 977 -5344 -9416 -5337 0
1000000 2435 -5344 -9416 -5337 0
1000000 544 -6899 -6096 -8369 0
1000000 2436 -6899 -6096 -8369 0
1000000 501 -5260 -8482 -9428 -8505 -8144 0
1000000 2437 -5260 -8482 -9428 -8505 -8144 0
1000000 674 -8125 -5844 -5791 -7382 -7907 -6676 -5122 0
1000000 2438 -8125 -5844 -5791 -7382 -7907 -6676 -5122 0
1000000 1235 -6171 -8464 -6311 -6543 -8024 -8650 -5736 0
1000000 2439 -6171 -8464 -6311 -6543 -8024 -8650 -5736 0
1000000 1049 -9287 -9239 -9178 -5551 -6274 -8285 0
1000000 2440 -9287 -9239 -9178 -5551 -6274 -8285 0
1000000 142 -8426 -9320 -5396 -7844 -6143 -9146 -5824 0
1000000 2441 -8426 -9320 -5396 -7844 -6143 -9146 -5824 0
1000000 1443 -8194 -6550 -6353 -1461 0
1000000 2442 -8194 -6550 -6353 -1461 0
1000000 1163 -5587 -5300 -7790 -5156 -7732 0
1000000 2443 -5587 -5300 -7790 -5156 -7732 0
1000000 467 -8072 -6761 -7286 -9231 -8799 -1348 0
1000000 2444 -8072 -6761 -7286 -9231 -8799 -1348 0
1000000 1066 -7690 -7676 -5404 -9100 0
1000000 2445 -7690 -7676 -5404 -9100 0
1000000 1269 -6271 -7951 -5895 -8021 -6376 -6535 -7029 0
1000000 2446 -6271 -7951 -5895 -8021 -6376 -6535 -7029 0
1000000 286 -7351 -6909 -5851 -8504 -8018 -5456 -6344 0
1000000 2447 -7351 -6909 -5851 -8504 -8018 -5456 -6344 0
1000000 112 -7642 -6012 -5813 -579 0
1000000 2448 -7642 -6012 -5813 -579 0
1000000 879 -7199 -1036 0
1000000 2449 -7199 -1036 0
1000000 453 -8114 -9241 -8070 -7832 -6334 -5255 -9353 0
1000000 2450 -8114 -9241 -8070 -7832 -6334 -5255 -9353 0
1000000 796 -8013 -6331 -5583 -9103 0
1000000 2451 -8013 -6331 -5583 -9103 0
1000000 1165 -8326 -7104 -6768 -9257 -6260 -9209 -6472 0
1000000 2452 -8326 -7104 -6768 -9257 -6260 -9209 -6472 0
1000000 886 -5167 -7195 -7593 -8098 -5437 -5727 -9109 0
1000000 2453 -5167 -7195 -7593 -8098 -5437 -5727 -9109 0
1000000 1157 -5880 -7584 -6701 0
1000000 2454 -5880 -7584 -6701 0
1000000 705 -9505 -8310 -7175 -7068 -8738 -5853 0
1000000 2455 -9505 -8310 -7175 -7068 -8738 -5853 0
1000000 1283 -6000 -8307 -5925 -8729 -5875 -1444 0
1000000 2456 -6000 -8307 -5925 -8729 -5875 -1444 0
1000000 1259 -6828 -5606 -7536 0
1000000 2457 -6828 -5606 -7536 0
1000000 1435 -9557 -8776 -9455 -9415 -1480 0
1000000 2458 -9557 -8776 -9455 -9415 -1480 0
1000000 1055 -7958 -7645 -9564 -7781 -1161 0
1000000 2459 -7958 -7645 -9564 -7781 -1161 0
1000000 828 -5550 -8374 -9180 -5417 -859 0
1000000 2460 -5550 -8374 -9180 -5417 -859 0
1000000 1468 -8799 -8793 -7218 -6342 -6401 0
1000000 2461 -8799 -8793 -7218 -6342 -6401 0
1000000 717 -6004 -5905 -7925 -5347 -7355 0
1000000 2462 -6004 -5905 -7925 -5347 -7355 0
1000000 213 -6886 -8994 -9215 -5398 -8556 0
1000000 2463 -6886 -8994 -9215 -5398 -8556 0
1000000 1178 -7450 -5801 -5804 0
1000000 2464 -7450 -5801 -5804 0
1000000 397 -7578 -8617 -7320 -8583 -9180 -9449 0
1000000 2465 -7578 -8617 -7320 -8583 -9180 -9449 0
1000000 1152 -8103 -8304 -7786 -6495 -1409 0
1000000 2466 -8103 -8304 -7786 -6495 -1409 0
1000000 937 -8736 -6683 -5256 -5345 -8001 -8412 -1193 0
1000000 2467 -8736 -6683 -5256 -5345 -8001 -8412 -1193 0
1000000 1170 -6986 -5781 -8217 -8970 -5823 -9356 0
1000000 2468 -6986 -5781 -8217 -8970 -5823 -9356 0
1000000 1328 -7390 -5563 -9420 -8406 -7740 -6550 -5428 0
1000000 2469 -7390 -5563 -9420 -8406 -7740 -6550 -5428 0
1000000 383 -9178 -8265 -775 0
1000000 2470 -9178 -8265 -775 0
1000000 1200 -7851 -8048 -7757 -8991 -5809 -9351 -1430 0
1000000 2471 -7851 -8048 -7757 -8991 -5809 -9351 -1430 0
1000000 1493 -6950 -9313 0
1000000 2472 -6950 -9313 0
1000000 1182 -5705 -7933 -6745 -6415 -8727 -1205 0
1000000 2473 -5705 -7933 -6745 -6415 -8727 -1205 0
1000000 870 -5400 -8499 -6832 -7829 0
1000000 2474 -5400 -8499 -6832 -7829 0
1000000 1271 -6002 -9127 -8768 -8873 0
1000000 2475 -6002 -9127 -8768 -8873 0
1000000 312 -5450 -5687 -6894 -8726 -6844 -8537 -5879 0
1000000 2476 -5450 -5687 -6894 -8726 -6844 -8537 -5879 0
1000000 227 -8128 -5388 -8082 -6809 -8387 -268 0
1000000 2477 -8128 -5388 -8082 -6809 -8387 -268 0
1000000 213 -7633 -5541 0
1000000 2478 -7633 -5541 0
1000000 868 -7182 -6878 -7234 -5742 -7175 0
1000000 2479 -7182 -6878 -7234 -5742 -7175 0
1000000 234 -5325 -6779 -5778 -8933 0
1000000 2480 -5325 -6779 -5778 -8933 0
1000000 437 -5880 -7709 -6684 -8042 0
1000000 2481 -5880 -7709 -6684 -8042 0
1000000 1107 -5145 -8902 0
1000000 2482 -5145 -8902 0
1000000 391 -7363 -6397 -6077 -8578 -9459 0
1000000 2483 -7363 -6397 -6077 -8578 -9459 0
1000000 1170 -6674 -7008 -8421 -8082 -7794 0
1000000 2484 -6674 -7008 -8421 -8082 -7794 0
1000000 329 -6617 -8969 -5161 0
1000000 2485 -6617 -8969 -5161 0
1000000 361 -5266 -8872 -8951 -9294 -8410 -5881 0
1000000 2486 -5266 -8872 -8951 -9294 -8410 -5881 0
1000000 832 -6260 -5162 -9461 -6958 0
1000000 2487 -6260 -5162 -9461 -6958 0
1000000 640 -8134 -9203 -6625 -5775 0
1000000 2488 -8134 -9203 -6625 -5775 0
1000000 426 -8829 -6717 -801 0
1000000 2489 -8829 -6717 -801 0
1000000 1310 -7864 -5303 -7311 -9326 -6097 -5975 -1469 0
1000000 2490 -7864 -5303 -7311 -9326 -6097 -5975 -1469 0
1000000 837 -8049 -6454 -9301 -6115 -7214 -5958 0
1000000 2491 -8049 -6454 -9301 -6115 -7214 -5958 0
1000000 1300 -5627 -6180 -6480 -8138 -5952 0
1000000 2492 -5627 -6180 -6480 -8138 -5952 0
1000000 681 -6939 -8831 0
1000000 2493 -6939 -8831 0
1000000 841 -7295 -8011 -5366 -7978 -9260 -5406 -6822 0
1000000 2494 -7295 -8011 -5366 -7978 -9260 -5406 -6822 0
1000000 272 -6163 -6320 -9292 -7456 0
1000000 2495 -6163 -6320 -9292 -7456 0
1000000 1489 -5675 -7745 -1499 0
1000000 2496 -5675 -7745 -1499 0
1000000 407 -6189 -7939 -6201 0
1000000 2497 -6189 -7939 -6201 0
1000000 125 -5214 -6202 -8875 -8076 -8653 -9325 0
1000000 2498 -5214 -6202 -8875 -8076 -8653 -9325 0
1000000 936 -7411 -7450 0
1000000 2499 -7411 -7450 0
1000000 923 -8340 -9252 0
1000000 2500 -8340 -9252 0
1000000 1054 -7576 -5311 -8068 -7291 -8236 -7926 0
1000000 2501 -7576 -5311 -8068 -7291 -8236 -7926 0
1000000 1126 -6527 -6167 -5340 -6718 0
1000000 2502 -6527 -6167 -5340 -6718 0
1000000 332 -9026 -5360 0
1000000 2503 -9026 -5360 0
1000000 202 -8466 -6904 -8035 -7697 -6669 -5103 -7573 0
1000000 2504 -8466 -6904 -8035 -7697 -6669 -5103 -7573 0
1000000 622 -6703 -8761 -8706 -9416 -7425 -7114 0
1000000 2505 -6703 -8761 -8706 -9416 -7425 -7114 0
1000000 103 -6565 -6031 -9245 -9570 0
1000000 2506 -6565 -6031 -9245 -9570 0
1000000 606 -5775 -6158 -9107 -1438 0
1000000 2507 -5775 -6158 -9107 -1438 0
1000000 424 -7364 -6229 -7326 -6542 -5711 -5261 0
1000000 2508 -7364 -6229 -7326 -6542 -5711 -5261 0
1000000 365 -7012 -8010 -5154 -6930 -9125 -5359 -6866 0
1000000 2509 -7012 -8010 -5154 -6930 -9125 -5359 -6866 0
1000000 475 -6435 -6256 -7375 -7242 -7403 -7862 -8422 0
1000000 2510 -6435 -6256 -7375 -7242 -7403 -7862 -8422 0
1000000 834 -7040 -1119 0
1000000 2511 -7040 -1119 0
1000000 554 -6157 -6442 -1144 0
1000000 2512 -6157 -6442 -1144 0
1000000 728 -9017 -7866 -869 0
1000000 2513 -9017 -7866 -869 0
1000000 1246 -6083 -9020 0
1000000 2514 -6083 -9020 0
1000000 1068 -6398 -8481 -5255 -6489 -7161 -6528 -5667 0
1000000 2515 -6398 -8481 -5255 -6489 -7161 -6528 -5667 0
1000000 506 -9594 -7845 -6219 -5493 -8258 -6717 -8297 0
1000000 2516 -9594 -7845 -6219 -5493 -8258 -6717 -8297 0
1000000 1206 -7480 -8096 -6322 -8013 0
1000000 2517 -7480 -8096 -6322 -8013 0
1000000 703 -7596 -8329 -6330 -5921 -6617 -1206 0
1000000 2518 -7596 -8329 -6330 -5921 -6617 -1206 0
1000000 1323 -5205 -7119 -8476 -8154 -9085 -1376 0
1000000 2519 -5205 -7119 -8476 -8154 -9085 -1376 0
1000000 1315 -8192 -6504 -5307 -8571 0
1000000 2520 -8192 -6504 -5307 -8571 0
1000000 248 -9161 -7795 -8132 -7845 -8965 -6230 -7935 0
1000000 2521 -9161 -7795 -8132 -7845 -8965 -6230 -7935 0
1000000 1261 -5166 -6097 -6887 -7726 -7808 -5609 0
1000000 2522 -5166 -6097 -6887 -7726 -7808 -5609 0
1000000 542 -9523 -8886 -9445 -1060 0
1000000 2523 -9523 -8886 -9445 -1060 0
1000000 808 -5155 -6939 -6817 -7336 -7996 -8335 -7096 0
1000000 2524 -5155 -6939 -6817 -7336 -7996 -8335 -7096 0
1000000 433 -5548 -8050 -7457 -6673 -8718 0
1000000 2525 -5548 -8050 -7457 -6673 -8718 0
1000000 1395 -6310 -7044 -6240 -7240 0
1000000 2526 -6310 -7044 -6240 -7240 0
1000000 763 -8757 -9494 -7925 0
1000000 2527 -8757 -9494 -7925 0
1000000 1153 -7090 -8856 -5475 -9387 -6305 -6778 0
1000000 2528 -7090 -8856 -5475 -9387 -6305 -6778 0
1000000 454 -9455 -5210 -6633 -5351 0
1000000 2529 -9455 -5210 -6633 -5351 0
1000000 425 -8451 -8795 -7807 -9581 -8062 0
1000000 2530 -8451 -8795 -7807 -9581 -8062 0
1000000 112 -7074 -9111 -9582 -6564 0
1000000 2531 -7074 -9111 -9582 -6564 0
1000000 747 -8176 -8555 -7135 -8723 -8128 0
1000000 2532 -8176 -8555 -7135 -8723 -8128 0
1000000 1222 -5569 -8605 -7575 -7283 0
1000000 2533 -5569 -8605 -7575 -7283 0
1000000 1267 -6987 -7117 -9344 0
1000000 2534 -6987 -7117 -9344 0
1000000 45 -9551 -5926 -5314 0
1000000 2535 -9551 -5926 -5314 0
1000000 1255 -6097 -7206 -9565 -9546 -5765 -6326 -5596 0
1000000 2536 -6097 -7206 -9565 -9546 -5765 -6326 -5596 0
1000000 505 -8783 -5809 -8414 -8134 -9132 -8049 0
1000000 2537 -8783 -5809 -8414 -8134 -9132 -8049 0
1000000 235 -6601 -7627 0
1000000 2538 -6601 -7627 0
1000000 61 -7128 -6810 -1265 0
1000000 2539 -7128 -6810 -1265 0
1000000 1326 -8539 -8064 -6658 -6586 -5814 0
1000000 2540 -8539 -8064 -6658 -6586 -5814 0
1000000 278 -6456 -5726 -8035 -7435 -8956 -7386 0
1000000 2541 -6456 -5726 -8035 -7435 -8956 -7386 0
1000000 128 -5745 -5648 -1015 0
1000000 2542 -5745 -5648 -1015 0
1000000 1208 -8812 -7440 -7377 -7932 -9541 0
1000000 2543 -8812 -7440 -7377 -7932 -9541 0
1000000 1373 -8608 -6361 0
1000000 2544 -8608 -6361 0
1000000 208 -5378 -5297 -8871 -9244 -7582 -6787 -6190 0
1000000 2545 -5378 -5297 -8871 -9244 -7582 -6787 -6190 0
1000000 1038 -7539 -5720 0
1000000 2546 -7539 -5720 0
1000000 239 -8670 -6435 -9454 0
1000000 2547 -8670 -6435 -9454 0
1000000 491 -6748 -6552 -7072 -8667 0
1000000 2548 -6748 -6552 -7072 -8667 0
1000000 955 -8829 -7790 0
1000000 2549 -8829 -7790 0
1000000 1490 -9548 -5154 -5720 -8457 -9011 -1498 0
1000000 2550 -9548 -5154 -5720 -8457 -9011 -1498 0
1000000 1477 -9510 -8595 -6342 -7673 -6131 0
1000000 2551 -9510 -8595 -6342 -7673 -6131 0
1000000 91 -6257 -7754 -8004 -6553 -6933 0
1000000 2552 -6257 -7754 -8004 -6553 -6933 0
1000000 995 -9412 -7648 -9329 -8003 -8052 -8943 0
1000000 2553 -9412 -7648 -9329 -8003 -8052 -8943 0
1000000 402 -5302 -5737 0
1000000 2554 -5302 -5737 0
1000000 1288 -8507 -8282 -9580 -5255 0
1000000 2555 -8507 -8282 -9580 -5255 0
1000000 1318 -9078 -8534 -8447 -5940 -8513 -1342 0
1000000 2556 -9078 -8534 -8447 -5940 -8513 -1342 0
1000000 367 -7142 -1381 0
1000000 2557 -7142 -1381 0
1000000 472 -5773 -7044 -7978 -9237 -5485 -6586 0
1000000 2558 -5773 -7044 -7978 -9237 -5485 -6586 0
1000000 1176 -7895 -5156 -6097 -5935 -1200 0
1000000 2559 -7895 -5156 -6097 -5935 -1200 0
1000000 1373 -7095 -6106 -5824 0
1000000 2560 -7095 -6106 -5824 0
1000000 1438 -8980 -8822 -7232 -8007 -5430 -6055 0
1000000 2561 -8980 -8822 -7232 -8007 -5430 -6055 0
1000000 1298 -8409 -5316 -5239 -9495 0
1000000 2562 -8409 -5316 -5239 -9495 0
1000000 1353 -6657 -6810 -7395 -8211 -5405 -8897 0
1000000 2563 -6657 -6810 -7395 -8211 -5405 -8897 0
1000000 1407 -5297 -8871 -8751 -7731 -5423 -8104 0
1000000 2564 -5297 -8871 -8751 -7731 -5423 -8104 0
1000000 653 -8244 -5383 -8686 -5281 -8734 -6309 -5405 0
1000000 2565 -8244 -5383 -8686 -5281 -8734 -6309 -5405 0
1000000 1314 -9135 -6650 0
1000000 2566 -9135 -6650 0
1000000 1047 -9526 -6868 -6688 -5884 -8621 -9298 0
1000000 2567 -9526 -6868 -6688 -5884 -8621 -9298 0
1000000 19 -6872 -7036 -8841 -8548 -8125 -5545 -29 0
1000000 2568 -6872 -7036 -8841 -8548 -8125 -5545 -29 0
1000000 1325 -6783 -8667 -5608 0
1000000 2569 -6783 -8667 -5608 0
1000000 1262 -6590 -8462 0
1000000 2570 -6590 -8462 0
1000000 194 -7943 -9240 -8461 -5244 -6564 -6104 -5658 0
1000000 2571 -7943 -9240 -8461 -5244 -6564 -6104 -5658 0
1000000 413 -5620 -8617 -8078 -8181 -6432 -9262 -964 0
1000000 2572 -5620 -8617 -8078 -8181 -6432 -9262 -964 0
1000000 377 -9355 -8152 -8545 -8267 -7333 -6747 0
1000000 2573 -9355 -8152 -8545 -8267 -7333 -6747 0
1000000 860 -9082 -8746 -5738 -939 0
1000000 2574 -9082 -8746 -5738 -939 0
1000000 22 -8223 -5465 -7915 -6973 -5858 -5476 -1397 0
1000000 2575 -8223 -5465 -7915 -6973 -5858 -5476 -1397 0
1000000 620 -5203 -8818 -7156 -6676 -5531 -7516 -6076 0
1000000 2576 -5203 -8818 -7156 -6676 -5531 -7516 -6076 0
1000000 517 -7306 -954 0
1000000 2577 -7306 -954 0
1000000 169 -5215 -7715 -5671 -9377 -8850 0
1000000 2578 -5215 -7715 -5671 -9377 -8850 0
1000000 1055 -6170 -8380 -6784 -9089 -6303 -6381 -6530 0
1000000 2579 -6170 -8380 -6784 -9089 -6303 -6381 -6530 0
1000000 532 -7977 -9416 0
1000000 2580 -7977 -9416 0
1000000 245 -8953 -5133 -6871 0
1000000 2581 -8953 -5133 -6871 0
1000000 680 -9264 -6886 -5399 -7661 0
1000000 2582 -9264 -6886 -5399 -7661 0
1000000 148 -7415 -8813 -8694 -7635 -7938 -8160 0
1000000 2583 -7415 -8813 -8694 -7635 -7938 -8160 0
1000000 1409 -6644 -8530 -1433 0
1000000 2584 -6644 -8530 -1433 0
1000000 709 -5160 -6511 -5353 -7918 -5990 -1427 0
1000000 2585 -5160 -6511 -5353 -7918 -5990 -1427 0
1000000 1245 -6817 -5294 -9009 -7938 -6339 -6958 0
1000000 2586 -6817 -5294 -9009 -7938 -6339 -6958 0
1000000 321 -6230 -8001 -9469 -729 0
1000000 2587 -6230 -8001 -9469 -729 0
1000000 869 -7706 -6964 -5452 -1426 0
1000000 2588 -7706 -6964 -5452 -1426 0
1000000 10 -9464 -8454 0
1000000 2589 -9464 -8454 0
1000000 839 -8248 -7141 -5780 0
1000000 2590 -8248 -7141 -5780 0
1000000 357 -7598 -6732 -6658 -6438 -6962 -6466 0
1000000 2591 -7598 -6732 -6658 -6438 -6962 -6466 0
1000000 1140 -8269 -8860 -6292 -6213 -7872 -7733 -9280 0
1000000 2592 -8269 -8860 -6292 -6213 -7872 -7733 -9280 0
1000000 450 -8326 -7274 -8996 -5958 -7778 0
1000000 2593 -8326 -7274 -8996 -5958 -7778 0
1000000 277 -5982 -7374 0
1000000 2594 -5982 -7374 0
1000000 1326 -6622 -8480 -9480 -7045 -8403 -6958 0
1000000 2595 -6622 -8480 -9480 -7045 -8403 -6958 0
1000000 982 -5880 -6740 -9347 0
1000000 2596 -5880 -6740 -9347 0
1000000 577 -6722 -5403 0
1000000 2597 -6722 -5403 0
1000000 1431 -6675 -6879 -8294 0
1000000 2598 -6675 -6879 -8294 0
1000000 727 -9372 -9505 -9152 0
1000000 2599 -9372 -9505 -9152 0
1000000 358 -9389 -8522 -6215 0
1000000 2600 -9389 -8522 -6215 0
1000000 1087 -6836 -5948 0
1000000 2601 -6836 -5948 0
1000000 574 -9044 -6992 -6366 -8465 -6508 0
1000000 2602 -9044 -6992 -6366 -8465 -6508 0
1000000 657 -7586 -6278 0
1000000 2603 -7586 -6278 0
1000000 1189 -7968 -8068 -8744 -8973 0
1000000 2604 -7968 -8068 -8744 -8973 0
1000000 93 -8581 -8515 -7955 -8977 -5635 -7264 -7728 0
1000000 2605 -8581 -8515 -7955 -8977 -5635 -7264 -7728 0
1000000 983 -5623 -9446 -8510 0
1000000 2606 -5623 -9446 -8510 0
1000000 238 -6203 -7772 -8980 -9407 -6826 -6240 -6197 0
1000000 2607 -6203 -7772 -8980 -9407 -6826 -6240 -6197 0
1000000 924 -6514 -5353 -5343 -9277 -8006 -9303 -8946 0
1000000 2608 -6514 -5353 -5343 -9277 -8006 -9303 -8946 0
1000000 73 -7236 -7416 -7001 -8854 -9042 -7161 0
1000000 2609 -7236 -7416 -7001 -8854 -9042 -7161 0
1000000 1241 -5215 -1259 0
1000000 2610 -5215 -1259 0
1000000 1412 -5410 -8416 -5780 -9404 0
1000000 2611 -5410 -8416 -5780 -9404 0
1000000 807 -8698 -8485 -6733 0
1000000 2612 -8698 -8485 -6733 0
1000000 969 -7732 -6689 -7098 -9034 -9007 -7457 -6651 0
1000000 2613 -7732 -6689 -7098 -9034 -9007 -7457 -6651 0
1000000 67 -5604 -8898 -8497 -9181 0
1000000 2614 -5604 -8898 -8497 -9181 0
1000000 182 -7161 -9010 -6620 -5205 0
1000000 2615 -7161 -9010 -6620 -5205 0
1000000 1331 -6118 -8669 -6130 -5181 -9519 -8660 -8982 0
1000000 2616 -6118 -8669 -6130 -5181 -9519 -8660 -8982 0
1000000 1248 -7444 -5427 0
1000000 2617 -7444 -5427 0
1000000 162 -5955 -6530 -5216 -5871 -7338 0
1000000 2618 -5955 -6530 -5216 -5871 -7338 0
1000000 160 -6814 -193 0
1000000 2619 -6814 -193 0
1000000 1335 -5438 -5885 -7714 -6599 -6601 -8404 -8954 0
1000000 2620 -5438 -5885 -7714 -6599 -6601 -8404 -8954 0
1000000 1112 -8816 -6664 -8520 -6536 -9064 -9052 0
1000000 2621 -8816 -6664 -8520 -6536 -9064 -9052 0
1000000 950 -9012 -6730 -8738 -7836 -7183 -8354 0
1000000 2622 -9012 -6730 -8738 -7836 -7183 -8354 0
1000000 391 -6425 -8252 -7354 -1135 0
1000000 2623 -6425 -8252 -7354 -1135 0
1000000 222 -7393 -5995 0
1000000 2624 -7393 -5995 0
1000000 927 -6989 -9256 -5408 -6565 -5820 -1311 0
1000000 2625 -6989 -9256 -5408 -6565 -5820 -1311 0
1000000 437 -5563 -7729 -9496 0
1000000 2626 -5563 -7729 -9496 0
1000000 874 -5724 -6744 -6958 -8446 -8936 -8868 -1014 0
1000000 2627 -5724 -6744 -6958 -8446 -8936 -8868 -1014 0
1000000 805 -9223 -5895 -8640 -5791 -6131 -1042 0
1000000 2628 -9223 -5895 -8640 -5791 -6131 -1042 0
1000000 1347 -7003 -6397 -7480 -6549 -6375 -5690 0
1000000 2629 -7003 -6397 -7480 -6549 -6375 -5690 0
1000000 1392 -9521 -7490 -8741 -8842 -7654 -6596 0
1000000 2630 -9521 -7490 -8741 -8842 -7654 -6596 0
1000000 976 -9110 -8042 -9218 -1174 0
1000000 2631 -9110 -8042 -9218 -1174 0
1000000 27 -7697 -7296 0
1000000 2632 -7697 -7296 0
1000000 421 -5875 -6900 -6464 -6439 -7228 -7682 0
1000000 2633 -5875 -6900 -6464 -6439 -7228 -7682 0
1000000 1113 -6098 -9439 -8117 -5824 -6751 -1206 0
1000000 2634 -6098 -9439 -8117 -5824 -6751 -1206 0
1000000 851 -5216 -7306 -5690 0
1000000 2635 -5216 -7306 -5690 0
1000000 5 -6824 -8004 -6533 -7949 0
1000000 2636 -6824 -8004 -6533 -7949 0
1000000 147 -9407 -9079 -9107 -8849 -7301 0
1000000 2637 -9407 -9079 -9107 -8849 -7301 0
1000000 482 -9409 -5709 -1040 0
1000000 2638 -9409 -5709 -1040 0
1000000 1073 -5665 -7529 -6315 -8738 0
1000000 2639 -5665 -7529 -6315 -8738 0
1000000 1231 -6148 -7975 -5357 -1466 0
1000000 2640 -6148 -7975 -5357 -1466 0
1000000 585 -9557 -8014 0
1000000 2641 -9557 -8014 0
1000000 1362 -5913 -6219 -5789 0
1000000 2642 -5913 -6219 -5789 0
1000000 541 -8051 -7051 -9198 -8136 -8775 -8198 -8467 0
1000000 2643 -8051 -7051 -9198 -8136 -8775 -8198 -8467 0
1000000 590 -7789 -8196 -9408 -8617 -8375 0
1000000 2644 -7789 -8196 -9408 -8617 -8375 0
1000000 1310 -7945 -8420 -5844 -5545 -7123 -8563 0
1000000 2645 -7945 -8420 -5844 -5545 -7123 -8563 0
1000000 183 -5215 -8857 -7780 0
1000000 2646 -5215 -8857 -7780 0
1000000 543 -8998 -7026 -7648 -6309 -1228 0
1000000 2647 -8998 -7026 -7648 -6309 -1228 0
1000000 1127 -6923 -7795 -7755 -6175 -8423 -7471 0
1000000 2648 -6923 -7795 -7755 -6175 -8423 -7471 0
1000000 94 -8703 -6345 -6713 0
1000000 2649 -8703 -6345 -6713 0
1000000 846 -5563 -8326 -8434 -9303 -6784 0
1000000 2650 -5563 -8326 -8434 -9303 -6784 0
1000000 1436 -7709 -8905 -5359 -6536 -1485 0
1000000 2651 -7709 -8905 -5359 -6536 -1485 0
1000000 815 -7867 -8577 -9019 0
1000000 2652 -7867 -8577 -9019 0
1000000 1184 -6927 -9595 -7524 -6413 -8360 -7405 -1478 0
1000000 2653 -6927 -9595 -7524 -6413 -8360 -7405 -1478 0
1000000 599 -8707 -6630 -6173 -7050 0
1000000 2654 -8707 -6630 -6173 -7050 0
1000000 1150 -8554 -7293 -6963 0
1000000 2655 -8554 -7293 -6963 0
1000000 971 -7832 -5941 -5535 -5320 0
1000000 2656 -7832 -5941 -5535 -5320 0
1000000 1461 -6392 -8522 -6646 -9179 -8048 -6863 -8247 0
1000000 2657 -6392 -8522 -6646 -9179 -8048 -6863 -8247 0
1000000 737 -6984 -6674 -6249 0
1000000 2658 -6984 -6674 -6249 0
1000000 880 -6629 -5360 -6942 0
1000000 2659 -6629 -5360 -6942 0
1000000 518 -6851 -9047 0
1000000 2660 -6851 -9047 0
1000000 1310 -6641 -1408 0
1000000 2661 -6641 -1408 0
1000000 1461 -8796 -8223 -7955 -5873 -5560 -1475 0
1000000 2662 -8796 -8223 -7955 -5873 -5560 -1475 0
1000000 788 -8500 -8329 0
1000000 2663 -8500 -8329 0
1000000 30 -6894 -7337 -7450 -5443 -6455 -7190 0
1000000 2664 -6894 -7337 -7450 -5443 -6455 -7190 0
1000000 1333 -8413 -1394 0
1000000 2665 -8413 -1394 0
1000000 993 -8600 -6384 0
1000000 2666 -8600 -6384 0
1000000 38 -7650 -8606 -8374 -9437 -6754 0
1000000 2667 -7650 -8606 -8374 -9437 -6754 0
1000000 1059 -8404 -9526 -7010 -7214 -7486 -8855 0
1000000 2668 -8404 -9526 -7010 -7214 -7486 -8855 0
1000000 810 -8422 -9114 -6737 0
1000000 2669 -8422 -9114 -6737 0
1000000 324 -5757 -5846 0
1000000 2670 -5757 -5846 0
1000000 1346 -7999 -1417 0
1000000 2671 -7999 -1417 0
1000000 1320 -8689 -9305 0
1000000 2672 -8689 -9305 0
1000000 575 -6530 -9212 -5589 -8134 -5730 -9086 -7383 0
1000000 2673 -6530 -9212 -5589 -8134 -5730 -9086 -7383 0
1000000 535 -8387 -6227 -7196 -6077 -6743 -9396 -8307 0
1000000 2674 -8387 -6227 -7196 -6077 -6743 -9396 -8307 0
1000000 1444 -8701 -6744 0
1000000 2675 -8701 -6744 0
1000000 1437 -8409 -6493 -6356 -8917 -8718 -8965 -1448 0
1000000 2676 -8409 -6493 -6356 -8917 -8718 -8965 -1448 0
1000000 632 -8138 -5298 -6829 -5879 0
1000000 2677 -8138 -5298 -6829 -5879 0
1000000 1130 -6398 -8621 -6139 -8217 -9193 -5626 0
1000000 2678 -6398 -8621 -6139 -8217 -9193 -5626 0
1000000 135 -7947 -7579 0
1000000 2679 -7947 -7579 0
1000000 796 -5791 -7813 -9184 -5286 0
1000000 2680 -5791 -7813 -9184 -5286 0
1000000 827 -7819 -5688 -7895 -6091 -8784 -1114 0
1000000 2681 -7819 -5688 -7895 -6091 -8784 -1114 0
1000000 1323 -6954 -8819 0
1000000 2682 -6954 -8819 0
1000000 166 -9043 -7471 0
1000000 2683 -9043 -7471 0
1000000 1268 -6742 -6622 -5328 -8970 -7463 0
1000000 2684 -6742 -6622 -5328 -8970 -7463 0
1000000 120 -7947 -8050 -8282 -5880 -1355 0
1000000 2685 -7947 -8050 -8282 -5880 -1355 0
1000000 1478 -6644 -9310 -6862 0
1000000 2686 -6644 -9310 -6862 0
1000000 705 -8464 -6127 -6195 -5481 -5607 -7303 0
1000000 2687 -8464 -6127 -6195 -5481 -5607 -7303 0
1000000 498 -7630 -5666 -948 0
1000000 2688 -7630 -5666 -948 0
1000000 1484 -8710 -5810 -8605 -9009 -6596 0
1000000 2689 -8710 -5810 -8605 -9009 -6596 0
1000000 1335 -7318 -7157 -7977 -6766 -7259 -8018 -7047 0
1000000 2690 -7318 -7157 -7977 -6766 -7259 -8018 -7047 0
1000000 183 -7561 -8831 -6042 0
1000000 2691 -7561 -8831 -6042 0
1000000 1119 -7023 -7562 -8976 -5860 -8138 -7582 -5388 0
1000000 2692 -7023 -7562 -8976 -5860 -8138 -7582 -5388 0
1000000 786 -6331 -5957 -958 0
1000000 2693 -6331 -5957 -958 0
1000000 926 -6010 -5494 -5371 -5113 -8272 -9061 0
1000000 2694 -6010 -5494 -5371 -5113 -8272 -9061 0
1000000 1251 -9296 -5805 -5237 -6349 -6563 -1299 0
1000000 2695 -9296 -5805 -5237 -6349 -6563 -1299 0
1000000 386 -7459 -6880 -6112 -5172 -6919 0
1000000 2696 -7459 -6880 -6112 -5172 -6919 0
1000000 100 -7456 -9024 -6801 -7477 -8177 -7167 -5777 0
1000000 2697 -7456 -9024 -6801 -7477 -8177 -7167 -5777 0
1000000 158 -7487 -9086 -6520 -8441 0
1000000 2698 -7487 -9086 -6520 -8441 0
1000000 367 -8944 -5222 0
1000000 2699 -8944 -5222 0
1000000 293 -8362 -8135 -6794 0
1000000 2700 -8362 -8135 -6794 0
1000000 1233 -9576 -6565 -8036 -9273 -1244 0
1000000 2701 -9576 -6565 -8036 -9273 -1244 0
1000000 813 -8225 -7245 -5474 -5630 -6954 0
1000000 2702 -8225 -7245 -5474 -5630 -6954 0
1000000 1354 -5569 -5228 0
1000000 2703 -5569 -5228 0
1000000 1368 -7387 -8740 -8190 -5733 -8416 0
1000000 2704 -7387 -8740 -8190 -5733 -8416 0
1000000 879 -9080 -8270 -9183 -9069 -7260 -1199 0
1000000 2705 -9080 -8270 -9183 -9069 -7260 -1199 0
1000000 539 -7406 -6263 -6016 0
1000000 2706 -7406 -6263 -6016 0
1000000 1111 -7986 -8776 -9548 -6949 0
1000000 2707 -7986 -8776 -9548 -6949 0
1000000 1126 -7116 -7388 -5247 0
1000000 2708 -7116 -7388 -5247 0
1000000 1421 -6908 -6285 -5502 -5198 -8582 -5465 0
1000000 2709 -6908 -6285 -5502 -5198 -8582 -5465 0
1000000 616 -9291 -6392 -6841 -6307 -6857 -7733 -1229 0
1000000 2710 -9291 -6392 -6841 -6307 -6857 -7733 -1229 0
1000000 695 -5985 -6425 -5104 -7362 -6921 -7098 -8863 0
1000000 2711 -5985 -6425 -5104 -7362 -6921 -7098 -8863 0
1000000 1455 -6996 -6933 -5732 -6417 -5656 -5712 0
1000000 2712 -6996 -6933 -5732 -6417 -5656 -5712 0
1000000 1336 -5879 -8233 -6330 0
1000000 2713 -5879 -8233 -6330 0
1000000 779 -6851 -8448 -5709 -6532 -1435 0
1000000 2714 -6851 -8448 -5709 -6532 -1435 0
1000000 963 -6692 -7705 -8669 -5612 -1461 0
1000000 2715 -6692 -7705 -8669 -5612 -1461 0
1000000 733 -8860 -5777 -5343 0
1000000 2716 -8860 -5777 -5343 0
1000000 784 -8554 -8425 -9578 -6213 -7379 0
1000000 2717 -8554 -8425 -9578 -6213 -7379 0
1000000 627 -6115 -702 0
1000000 2718 -6115 -702 0
1000000 217 -8497 -5321 0
1000000 2719 -8497 -5321 0
1000000 1 -6733 -1452 0
1000000 2720 -6733 -1452 0
1000000 24 -8863 -7944 -7893 -9140 -7561 0
1000000 2721 -8863 -7944 -7893 -9140 -7561 0
1000000 1056 -7187 -6030 0
1000000 2722 -7187 -6030 0
1000000 1031 -9062 -7868 0
1000000 2723 -9062 -7868 0
1000000 244 -7097 -7662 -5642 -7048 -7556 0
1000000 2724 -7097 -7662 -5642 -7048 -7556 0
1000000 101 -8087 -9180 0
1000000 2725 -8087 -9180 0
1000000 993 -9399 -6118 0
1000000 2726 -9399 -6118 0
1000000 500 -9102 -9558 -8612 -1265 0
1000000 2727 -9102 -9558 -8612 -1265 0
1000000 1163 -6112 -5950 -7316 -6822 -9124 -9084 0
1000000 2728 -6112 -5950 -7316 -6822 -9124 -9084 0
1000000 432 -8750 -6157 -6684 -9566 -6779 0
1000000 2729 -8750 -6157 -6684 -9566 -6779 0
1000000 1065 -7660 -7209 -8316 -1289 0
1000000 2730 -7660 -7209 -8316 -1289 0
1000000 1455 -8054 -8623 -7332 -6262 -8356 -5692 -1489 0
1000000 2731 -8054 -8623 -7332 -6262 -8356 -5692 -1489 0
1000000 1037 -6816 -5886 -5113 -5578 -8771 0
1000000 2732 -6816 -5886 -5113 -5578 -8771 0
1000000 1296 -8995 -9090 0
1000000 2733 -8995 -9090 0
1000000 967 -6804 -5401 -7688 -7651 -8161 0
1000000 2734 -6804 -5401 -7688 -7651 -8161 0
1000000 186 -5428 -9060 -7035 -7559 -7808 -6730 -7376 0
1000000 2735 -5428 -9060 -7035 -7559 -7808 -6730 -7376 0
1000000 342 -8355 -8325 0
1000000 2736 -8355 -8325 0
1000000 1136 -5700 -6167 -7417 -1165 0
1000000 2737 -5700 -6167 -7417 -1165 0
1000000 385 -5825 -7749 -8972 -6330 -6215 -7634 -1221 0
1000000 2738 -5825 -7749 -8972 -6330 -6215 -7634 -1221 0
1000000 1413 -6016 -6153 0
1000000 2739 -6016 -6153 0
1000000 526 -6042 -5863 -6317 -5514 -9040 0
1000000 2740 -6042 -5863 -6317 -5514 -9040 0
1000000 835 -7486 -9331 -6695 -6390 -7960 0
1000000 2741 -7486 -9331 -6695 -6390 -7960 0
1000000 970 -8874 -8516 -8447 -7358 -5761 0
1000000 2742 -8874 -8516 -8447 -7358 -5761 0
1000000 1296 -8099 -5372 -6232 -1394 0
1000000 2743 -8099 -5372 -6232 -1394 0
1000000 994 -6444 -9317 -7411 0
1000000 2744 -6444 -9317 -7411 0
1000000 1122 -8301 -8085 -7530 -7778 -7979 -6172 0
1000000 2745 -8301 -8085 -7530 -7778 -7979 -6172 0
1000000 294 -6555 -7204 -1170 0
1000000 2746 -6555 -7204 -1170 0
1000000 655 -7106 -5215 0
1000000 2747 -7106 -5215 0
1000000 1097 -5832 -7720 -7941 -9230 0
1000000 2748 -5832 -7720 -7941 -9230 0
1000000 512 -8000 -6550 -771 0
1000000 2749 -8000 -6550 -771 0
1000000 144 -5818 -5410 -5497 -5754 0
1000000 2750 -5818 -5410 -5497 -5754 0
1000000 111 -9121 -9410 -1167 0
1000000 2751 -9121 -9410 -1167 0
1000000 621 -8150 -7381 -7663 -8832 -6646 -7204 -9233 0
1000000 2752 -8150 -7381 -7663 -8832 -6646 -7204 -9233 0
1000000 423 -8123 -5701 -5540 0
1000000 2753 -8123 -5701 -5540 0
1000000 1430 -9484 -8491 -5972 -7307 -8022 -7556 -1439 0
1000000 2754 -9484 -8491 -5972 -7307 -8022 -7556 -1439 0
1000000 1020 -8109 -8199 -5667 -7900 0
1000000 2755 -8109 -8199 -5667 -7900 0
1000000 1276 -5358 -7323 0
1000000 2756 -5358 -7323 0
1000000 892 -5149 -8479 -6234 -6364 -9375 -8614 -5240 0
1000000 2757 -5149 -8479 -6234 -6364 -9375 -8614 -5240 0
1000000 577 -6292 -9529 -5361 0
1000000 2758 -6292 -9529 -5361 0
1000000 1342 -8629 -5832 -9113 -6210 -9135 -7863 -9535 0
1000000 2759 -8629 -5832 -9113 -6210 -9135 -7863 -9535 0
1000000 76 -5228 -8341 -7286 0
1000000 2760 -5228 -8341 -7286 0
1000000 1477 -8201 -9059 0
1000000 2761 -8201 -9059 0
1000000 64 -6891 -6837 0
1000000 2762 -6891 -6837 0
1000000 677 -8515 -6793 -5352 -9599 0
1000000 2763 -8515 -6793 -5352 -9599 0
1000000 1253 -9566 -6741 0
1000000 2764 -9566 -6741 0
1000000 806 -5869 -8632 -6429 -5945 -5752 -6961 -1001 0
1000000 2765 -5869 -8632 -6429 -5945 -5752 -6961 -1001 0
1000000 487 -8610 -9102 -6012 -7734 -8531 -7385 -8192 0
1000000 2766 -8610 -9102 -6012 -7734 -8531 -7385 -8192 0
1000000 1305 -6680 -5987 -8069 -5159 -6696 -1344 0
1000000 2767 -6680 -5987 -8069 -5159 -6696 -1344 0
1000000 74 -7361 -7647 -8668 0
1000000 2768 -7361 -7647 -8668 0
1000000 671 -8626 -7569 -6175 -8876 0
1000000 2769 -8626 -7569 -6175 -8876 0
1000000 696 -9404 -5295 -8752 -6737 -5422 0
1000000 2770 -9404 -5295 -8752 -6737 -5422 0
1000000 1031 -5155 -7063 -7378 -8679 -1158 0
1000000 2771 -5155 -7063 -7378 -8679 -1158 0
1000000 1497 -8948 -5189 -5410 -5161 -6522 0
1000000 2772 -8948 -5189 -5410 -5161 -6522 0
1000000 53 -8435 -7846 -6883 -9263 -6956 -8548 -5843 0
1000000 2773 -8435 -7846 -6883 -9263 -6956 -8548 -5843 0
1000000 139 -6270 -6102 -6055 -8194 -6612 -5917 0
1000000 2774 -6270 -6102 -6055 -8194 -6612 -5917 0
1000000 372 -6719 -8830 -5164 -9300 -1363 0
1000000 2775 -6719 -8830 -5164 -9300 -1363 0
1000000 177 -7314 -9563 0
1000000 2776 -7314 -9563 0
1000000 682 -6920 -5643 -8145 0
1000000 2777 -6920 -5643 -8145 0
1000000 989 -5554 -7956 -7103 -7107 -9193 -5610 0
1000000 2778 -5554 -7956 -7103 -7107 -9193 -5610 0
1000000 1332 -8520 -5735 -5967 -5311 -8691 -7920 -9501 0
1000000 2779 -8520 -5735 -5967 -5311 -8691 -7920 -9501 0
1000000 349 -6280 -6815 -9068 -1330 0
1000000 2780 -6280 -6815 -9068 -1330 0
1000000 390 -8081 -5847 -8405 -7445 -6603 0
1000000 2781 -8081 -5847 -8405 -7445 -6603 0
1000000 823 -8368 -7729 -6842 -8629 -6274 -8004 -8977 0
1000000 2782 -8368 -7729 -6842 -8629 -6274 -8004 -8977 0
1000000 62 -8931 -6217 -6523 -9585 -6491 -7745 -413 0
1000000 2783 -8931 -6217 -6523 -9585 -6491 -7745 -413 0
1000000 6 -7953 -5240 -6474 0
1000000 2784 -7953 -5240 -6474 0
1000000 1314 -7302 -8268 0
1000000 2785 -7302 -8268 0
1000000 984 -7081 -6698 -6032 -5463 -9409 0
1000000 2786 -7081 -6698 -6032 -5463 -9409 0
1000000 422 -7820 -8506 -5749 -8213 -7080 0
1000000 2787 -7820 -8506 -5749 -8213 -7080 0
1000000 1263 -7223 -8379 -7312 -6132 -5360 -7659 -5439 0
1000000 2788 -7223 -8379 -7312 -6132 -5360 -7659 -5439 0
1000000 341 -8276 -6930 -8349 0
1000000 2789 -8276 -6930 -8349 0
1000000 1018 -6318 -9266 -6117 -8655 -1453 0
1000000 2790 -6318 -9266 -6117 -8655 -1453 0
1000000 455 -5168 -8698 -7652 -5823 -668 0
1000000 2791 -5168 -8698 -7652 -5823 -668 0
1000000 699 -5283 -8319 -5911 -5790 -6440 -5505 0
1000000 2792 -5283 -8319 -5911 -5790 -6440 -5505 0
1000000 309 -5274 -5687 0
1000000 2793 -5274 -5687 0
1000000 180 -7306 -6865 0
1000000 2794 -7306 -6865 0
1000000 136 -9122 -753 0
1000000 2795 -9122 -753 0
1000000 148 -9013 -7299 -7109 -7462 -8640 -189 0
1000000 2796 -9013 -7299 -7109 -7462 -8640 -189 0
1000000 1214 -5571 -5958 -7336 -8463 0
1000000 2797 -5571 -5958 -7336 -8463 0
1000000 186 -5536 -5365 -5360 -5457 -6517 -5275 0
1000000 2798 -5536 -5365 -5360 -5457 -6517 -5275 0
1000000 161 -9507 -9488 -7702 -6377 -8183 -8359 -7872 0
1000000 2799 -9507 -9488 -7702 -6377 -8183 -8359 -7872 0
1000000 288 -8851 -9373 -7361 -812 0
1000000 2800 -8851 -9373 -7361 -812 0
1000000 1348 -5927 -5646 -7025 0
1000000 2801 -5927 -5646 -7025 0
1000000 40 -5162 -8416 -7523 -8730 -8229 -8617 0
1000000 2802 -5162 -8416 -7523 -8730 -8229 -8617 0
1000000 1085 -6705 -7220 -6325 -1373 0
1000000 2803 -6705 -7220 -6325 -1373 0
1000000 1246 -8533 -6188 0
1000000 2804 -8533 -6188 0
1000000 688 -6392 -5948 -8943 0
1000000 2805 -6392 -5948 -8943 0
1000000 1480 -5787 -8472 -7720 -7460 -1481 0
1000000 2806 -5787 -8472 -7720 -7460 -1481 0
1000000 1408 -9464 -9172 -7897 -9414 0
1000000 2807 -9464 -9172 -7897 -9414 0
1000000 171 -8352 -7780 -6501 -799 0
1000000 2808 -8352 -7780 -6501 -799 0
1000000 890 -8846 -5469 -5421 0
1000000 2809 -8846 -5469 -5421 0
1000000 1270 -9490 -5849 -7056 -8504 0
1000000 2810 -9490 -5849 -7056 -8504 0
1000000 1369 -9397 -8438 -5957 -1457 0
1000000 2811 -9397 -8438 -5957 -1457 0
1000000 45 -6387 -7398 -8665 -5730 -5597 -8849 0
1000000 2812 -6387 -7398 -8665 -5730 -5597 -8849 0
1000000 1338 -5302 -8925 -7939 -6762 -7403 -1371 0
1000000 2813 -5302 -8925 -7939 -6762 -7403 -1371 0
1000000 460 -6603 -6218 -9561 -5133 -7718 -5979 0
1000000 2814 -6603 -6218 -9561 -5133 -7718 -5979 0
1000000 946 -5318 -8092 -9315 -8762 0
1000000 2815 -5318 -8092 -9315 -8762 0
1000000 183 -6007 -5985 -5202 -6717 -9103 0
1000000 2816 -6007 -5985 -5202 -6717 -9103 0
1000000 784 -7962 -9344 -9052 -6870 -8765 -971 0
1000000 2817 -7962 -9344 -9052 -6870 -8765 -971 0
1000000 153 -7377 -6046 -7249 -7936 -7422 -609 0
1000000 2818 -7377 -6046 -7249 -7936 -7422 -609 0
1000000 715 -6528 -5512 -5611 -6822 -1304 0
1000000 2819 -6528 -5512 -5611 -6822 -1304 0
1000000 283 -8805 -8744 -5274 -9392 0
1000000 2820 -8805 -8744 -5274 -9392 0
1000000 205 -6027 -9404 -7774 -5987 -5185 -665 0
1000000 2821 -6027 -9404 -7774 -5987 -5185 -665 0
1000000 494 -8938 -6910 -5467 0
1000000 2822 -8938 -6910 -5467 0
1000000 319 -5885 -7727 -8505 -6149 0
1000000 2823 -5885 -7727 -8505 -6149 0
1000000 268 -6951 -7550 0
1000000 2824 -6951 -7550 0
1000000 1347 -6657 -5752 0
1000000 2825 -6657 -5752 0
1000000 509 -8273 -5509 -8792 -5903 -8221 -5179 0
1000000 2826 -8273 -5509 -8792 -5903 -8221 -5179 0
1000000 92 -8844 -9094 -6954 -7204 -8973 -6654 0
1000000 2827 -8844 -9094 -6954 -7204 -8973 -6654 0
1000000 1343 -7070 -6895 -7269 -7943 -1380 0
1000000 2828 -7070 -6895 -7269 -7943 -1380 0
1000000 852 -9234 -8071 -6294 -7449 -7080 -1053 0
1000000 2829 -9234 -8071 -6294 -7449 -7080 -1053 0
1000000 305 -5913 -1407 0
1000000 2830 -5913 -1407 0
1000000 1445 -6064 -6071 -5118 0
1000000 2831 -6064 -6071 -5118 0
1000000 1048 -9347 -8478 -6519 -6798 -9167 0
1000000 2832 -9347 -8478 -6519 -6798 -9167 0
1000000 481 -9536 -8043 -8354 -5156 -8143 -1388 0
1000000 2833 -9536 -8043 -8354 -5156 -8143 -1388 0
1000000 915 -7280 -6054 -6409 -5662 -8239 -5854 0
1000000 2834 -7280 -6054 -6409 -5662 -8239 -5854 0
1000000 264 -9211 -9419 -8798 -7351 -6015 0
1000000 2835 -9211 -9419 -8798 -7351 -6015 0
1000000 508 -6132 -8240 -7078 -6679 -9585 0
1000000 2836 -6132 -8240 -7078 -6679 -9585 0
1000000 1032 -6483 -5890 -9396 0
1000000 2837 -6483 -5890 -9396 0
1000000 730 -9272 -9378 0
1000000 2838 -9272 -9378 0
1000000 510 -7342 -8060 -9559 -7600 -9292 -6996 -8905 0
1000000 2839 -7342 -8060 -9559 -7600 -9292 -6996 -8905 0
1000000 514 -9396 -8099 -5184 0
1000000 2840 -9396 -8099 -5184 0
1000000 1360 -7321 -9319 -7070 -7525 -6607 -1378 0
1000000 2841 -7321 -9319 -7070 -7525 -6607 -1378 0
1000000 300 -6771 -7889 0
1000000 2842 -6771 -7889 0
1000000 449 -6967 -9531 -7980 -1265 0
1000000 2843 -6967 -9531 -7980 -1265 0
1000000 1065 -7119 -7454 -6837 -9413 -7135 0
1000000 2844 -7119 -7454 -6837 -9413 -7135 0
1000000 97 -9321 -8688 -9384 -9274 0
1000000 2845 -9321 -8688 -9384 -9274 0
1000000 792 -7584 -9597 -5824 -7281 -9244 -9274 0
1000000 2846 -7584 -9597 -5824 -7281 -9244 -9274 0
1000000 372 -8734 -6498 -9121 -6464 -6530 -5516 0
1000000 2847 -8734 -6498 -9121 -6464 -6530 -5516 0
1000000 285 -7941 -6905 -7844 -8857 -8134 -8420 -8001 0
1000000 2848 -7941 -6905 -7844 -8857 -8134 -8420 -8001 0
1000000 869 -7132 -7561 -6944 -6602 -7374 -7277 -1412 0
1000000 2849 -7132 -7561 -6944 -6602 -7374 -7277 -1412 0
1000000 332 -8626 -9018 -7709 -1206 0
1000000 2850 -8626 -9018 -7709 -1206 0
1000000 1393 -9281 -6419 -5739 -6333 0
1000000 2851 -9281 -6419 -5739 -6333 0
1000000 490 -6268 -7241 -7874 0
1000000 2852 -6268 -7241 -7874 0
1000000 1169 -8880 -6904 -9355 -7485 -7039 -7070 -1367 0
1000000 2853 -8880 -6904 -9355 -7485 -7039 -7070 -1367 0
1000000 652 -7306 -6011 -8464 0
1000000 2854 -7306 -6011 -8464 0
1000000 858 -9219 -6690 0
1000000 2855 -9219 -6690 0
1000000 1042 -8628 -5755 -7278 -7269 -6879 -8155 -1233 0
1000000 2856 -8628 -5755 -7278 -7269 -6879 -8155 -1233 0
1000000 460 -9282 -6680 -9447 -6479 -6384 -8243 -7097 0
1000000 2857 -9282 -6680 -9447 -6479 -6384 -8243 -7097 0
1000000 678 -6858 -8224 -8985 -9403 -7051 -6758 0
1000000 2858 -6858 -8224 -8985 -9403 -7051 -6758 0
1000000 50 -8754 -8154 -9566 -6276 -5760 -8434 -8906 0
1000000 2859 -8754 -8154 -9566 -6276 -5760 -8434 -8906 0
1000000 19 -7849 -6677 -9510 -7789 -9327 0
1000000 2860 -7849 -6677 -9510 -7789 -9327 0
1000000 1486 -6608 -6768 -7251 -8477 -7239 0
1000000 2861 -6608 -6768 -7251 -8477 -7239 0
1000000 619 -7712 -5845 -8629 -9305 -7797 -8991 0
1000000 2862 -7712 -5845 -8629 -9305 -7797 -8991 0
1000000 340 -6152 -7497 -7766 0
1000000 2863 -6152 -7497 -7766 0
1000000 1339 -9251 -1415 0
1000000 2864 -9251 -1415 0
1000000 320 -7934 -7883 -8523 -7650 -6195 0
1000000 2865 -7934 -7883 -8523 -7650 -6195 0
1000000 456 -8616 -9040 -9179 0
1000000 2866 -8616 -9040 -9179 0
1000000 1035 -5383 -7266 -7269 -6103 0
1000000 2867 -5383 -7266 -7269 -6103 0
1000000 1416 -5627 -5179 -7870 -5358 -8841 -6953 0
1000000 2868 -5627 -5179 -7870 -5358 -8841 -6953 0
1000000 1500 -9496 -6296 -7190 -8449 -7740 -8821 0
1000000 2869 -9496 -6296 -7190 -8449 -7740 -8821 0
1000000 745 -6448 -6771 -6345 -8390 -8936 -8605 -7817 0
1000000 2870 -6448 -6771 -6345 -8390 -8936 -8605 -7817 0
1000000 509 -8292 -7951 -7192 -8236 -6860 -1468 0
1000000 2871 -8292 -7951 -7192 -8236 -6860 -1468 0
1000000 272 -9291 -7833 -8888 0
1000000 2872 -9291 -7833 -8888 0
1000000 1347 -5874 -8787 -9142 0
1000000 2873 -5874 -8787 -9142 0
1000000 1357 -6145 -8062 -8219 -7974 -6493 -7446 0
1000000 2874 -6145 -8062 -8219 -7974 -6493 -7446 0
1000000 1481 -9282 -5515 0
1000000 2875 -9282 -5515 0
1000000 1229 -7862 -9146 -7955 -7107 -1403 0
1000000 2876 -7862 -9146 -7955 -7107 -1403 0
1000000 1128 -8779 -9491 0
1000000 2877 -8779 -9491 0
1000000 1482 -5381 -7931 -5664 0
1000000 2878 -5381 -7931 -5664 0
1000000 272 -7463 -9236 0
1000000 2879 -7463 -9236 0
1000000 1376 -7745 -6761 -6243 -9219 -5606 0
1000000 2880 -7745 -6761 -6243 -9219 -5606 0
1000000 989 -8779 -8584 -8051 -7069 -6420 0
1000000 2881 -8779 -8584 -8051 -7069 -6420 0
1000000 797 -9532 -7545 -9474 -8501 -9311 -7499 -7102 0
1000000 2882 -9532 -7545 -9474 -8501 -9311 -7499 -7102 0
1000000 1489 -7765 -7788 -9129 -5918 -9536 -8482 0
1000000 2883 -7765 -7788 -9129 -5918 -9536 -8482 0
1000000 1145 -8879 -5326 -1266 0
1000000 2884 -8879 -5326 -1266 0
1000000 347 -5288 -7254 -7263 -9357 -7886 -6783 -9260 0
1000000 2885 -5288 -7254 -7263 -9357 -7886 -6783 -9260 0
1000000 401 -8489 -9247 -9094 -9580 -8254 -6016 0
1000000 2886 -8489 -9247 -9094 -9580 -8254 -6016 0
1000000 1172 -7054 -7644 -9388 -8747 -7877 -8731 -8774 0
1000000 2887 -7054 -7644 -9388 -8747 -7877 -8731 -8774 0
1000000 541 -8035 -7856 -9250 -6353 -9482 0
1000000 2888 -8035 -7856 -9250 -6353 -9482 0
1000000 1495 -8208 -5233 -6297 -8579 -7148 0
1000000 2889 -8208 -5233 -6297 -8579 -7148 0
1000000 330 -8903 -6439 -9271 -5880 -9214 -8493 -6761 0
1000000 2890 -8903 -6439 -9271 -5880 -9214 -8493 -6761 0
1000000 1387 -5447 -7975 -5812 0
1000000 2891 -5447 -7975 -5812 0
1000000 776 -9093 -6330 -6634 -5941 0
1000000 2892 -9093 -6330 -6634 -5941 0
1000000 1248 -8537 -7533 -8086 -5492 -9500 -1394 0
1000000 2893 -8537 -7533 -8086 -5492 -9500 -1394 0
1000000 1035 -8448 -5232 -1253 0
1000000 2894 -8448 -5232 -1253 0
1000000 227 -8397 -8496 0
1000000 2895 -8397 -8496 0
1000000 347 -6917 -8893 -9579 -6469 0
1000000 2896 -6917 -8893 -9579 -6469 0
1000000 1420 -5663 -6193 -8185 0
1000000 2897 -5663 -6193 -8185 0
1000000 764 -9170 -6794 -5271 -8344 0
1000000 2898 -9170 -6794 -5271 -8344 0
1000000 1058 -7745 -7789 0
1000000 2899 -7745 -7789 0
1000000 766 -7690 -5822 -8291 -8279 0
1000000 2900 -7690 -5822 -8291 -8279 0
1000000 510 -9508 -8899 -6741 -8813 -590 0
1000000 2901 -9508 -8899 -6741 -8813 -590 0
1000000 820 -6971 -6723 -8043 -5459 -9303 -9404 -7217 0
1000000 2902 -6971 -6723 -8043 -5459 -9303 -9404 -7217 0
1000000 1217 -5458 -7535 -8620 -7885 -8415 0
1000000 2903 -5458 -7535 -8620 -7885 -8415 0
1000000 535 -5402 -8467 -9389 -7988 -1148 0
1000000 2904 -5402 -8467 -9389 -7988 -1148 0
1000000 448 -5850 -773 0
1000000 2905 -5850 -773 0
1000000 1021 -6672 -9075 -5211 0
1000000 2906 -6672 -9075 -5211 0
1000000 873 -9159 -6953 -6297 -6976 -8145 -9597 -8025 0
1000000 2907 -9159 -6953 -6297 -6976 -8145 -9597 -8025 0
1000000 1129 -6281 -7500 -6452 -5327 -1225 0
1000000 2908 -6281 -7500 -6452 -5327 -1225 0
1000000 931 -9228 -6273 -6522 -6478 -6748 0
1000000 2909 -9228 -6273 -6522 -6478 -6748 0
1000000 563 -6957 -5662 -5327 -7080 -9508 0
1000000 2910 -6957 -5662 -5327 -7080 -9508 0
1000000 1275 -9100 -5237 -5774 0
1000000 2911 -9100 -5237 -5774 0
1000000 4 -5276 -6176 -5858 0
1000000 2912 -5276 -6176 -5858 0
1000000 449 -6829 -6475 -5412 -6101 -5562 -6542 -6267 0
1000000 2913 -6829 -6475 -5412 -6101 -5562 -6542 -6267 0
1000000 1387 -7629 -5659 -8694 -6025 0
1000000 2914 -7629 -5659 -8694 -6025 0
1000000 594 -8588 -8445 -1148 0
1000000 2915 -8588 -8445 -1148 0
1000000 1415 -8624 -7353 0
1000000 2916 -8624 -7353 0
1000000 996 -8092 -8335 -8750 -8404 -1023 0
1000000 2917 -8092 -8335 -8750 -8404 -1023 0
1000000 178 -5649 -8618 -6474 -5892 -5422 -6664 -1383 0
1000000 2918 -5649 -8618 -6474 -5892 -5422 -6664 -1383 0
1000000 1303 -8825 -5654 -7602 -6105 -5371 -6072 0
1000000 2919 -8825 -5654 -7602 -6105 -5371 -6072 0
1000000 243 -5200 -335 0
1000000 2920 -5200 -335 0
1000000 348 -8900 -7195 -6071 -5947 0
1000000 2921 -8900 -7195 -6071 -5947 0
1000000 1428 -6862 -5404 -8168 -6625 -9169 -6890 -9159 0
1000000 2922 -6862 -5404 -8168 -6625 -9169 -6890 -9159 0
1000000 790 -6522 -6570 -6142 -6493 -9405 -1270 0
1000000 2923 -6522 -6570 -6142 -6493 -9405 -1270 0
1000000 578 -6627 -7050 -7134 -7071 -6875 -5829 0
1000000 2924 -6627 -7050 -7134 -7071 -6875 -5829 0
1000000 1024 -8522 -9373 -6827 -9327 -8561 -6265 0
1000000 2925 -8522 -9373 -6827 -9327 -8561 -6265 0
1000000 458 -5513 -7717 -7631 -1053 0
1000000 2926 -5513 -7717 -7631 -1053 0
1000000 686 -8313 -5401 -9406 0
1000000 2927 -8313 -5401 -9406 0
1000000 417 -9588 -8659 -9013 0
1000000 2928 -9588 -8659 -9013 0
1000000 1078 -6618 -7832 -8465 -6032 0
1000000 2929 -6618 -7832 -8465 -6032 0
1000000 913 -5222 -6409 0
1000000 2930 -5222 -6409 0
1000000 644 -8526 -6873 -7789 -8824 -8489 0
1000000 2931 -8526 -6873 -7789 -8824 -8489 0
1000000 192 -6819 -8929 -8724 -7831 -8747 -7087 0
1000000 2932 -6819 -8929 -8724 -7831 -8747 -7087 0
1000000 27 -6053 -6300 0
1000000 2933 -6053 -6300 0
1000000 1372 -9186 -9502 -7636 0
1000000 2934 -9186 -9502 -7636 0
1000000 151 -6742 -6622 -8667 -9221 0
1000000 2935 -6742 -6622 -8667 -9221 0
1000000 1287 -5405 -5848 -8522 -5931 -9226 -7829 -8291 0
1000000 2936 -5405 -5848 -8522 -5931 -9226 -7829 -8291 0
1000000 770 -8973 -5176 -8195 -7608 0
1000000 2937 -8973 -5176 -8195 -7608 0
1000000 1010 -9214 -6754 -8405 -6950 0
1000000 2938 -9214 -6754 -8405 -6950 0
1000000 1427 -5926 -5343 -7636 -8724 -5758 -8477 0
1000000 2939 -5926 -5343 -7636 -8724 -5758 -8477 0
1000000 1436 -5237 -6840 0
1000000 2940 -5237 -6840 0
1000000 1019 -7663 -6052 -8609 -1089 0
1000000 2941 -7663 -6052 -8609 -1089 0
1000000 281 -5599 -6657 -8595 -6235 -7255 -6945 -7862 0
1000000 2942 -5599 -6657 -8595 -6235 -7255 -6945 -7862 0
1000000 673 -7864 -6486 0
1000000 2943 -7864 -6486 0
1000000 621 -5182 -7104 -5287 -5913 -7569 -5469 -680 0
1000000 2944 -5182 -7104 -5287 -5913 -7569 -5469 -680 0
1000000 762 -6842 -6018 -6853 -7306 -6613 -6601 0
1000000 2945 -6842 -6018 -6853 -7306 -6613 -6601 0
1000000 591 -6747 -6560 -8378 -5814 -9257 -8295 0
1000000 2946 -6747 -6560 -8378 -5814 -9257 -8295 0
1000000 1386 -8173 -5472 -8936 -9550 -5213 -8325 -1472 0
1000000 2947 -8173 -5472 -8936 -9550 -5213 -8325 -1472 0
1000000 288 -8083 -1437 0
1000000 2948 -8083 -1437 0
1000000 878 -8353 -6687 0
1000000 2949 -8353 -6687 0
1000000 249 -8745 -5250 -6506 -8889 -5923 -7693 0
1000000 2950 -8745 -5250 -6506 -8889 -5923 -7693 0
1000000 500 -6754 -5132 0
1000000 2951 -6754 -5132 0
1000000 1322 -5692 -6515 -8283 -9315 -9029 -5887 0
1000000 2952 -5692 -6515 -8283 -9315 -9029 -5887 0
1000000 1002 -8711 -5376 -6108 0
1000000 2953 -8711 -5376 -6108 0
1000000 1371 -6266 -6612 -8409 -1468 0
1000000 2954 -6266 -6612 -8409 -1468 0
1000000 222 -9028 -5468 -7877 -1144 0
1000000 2955 -9028 -5468 -7877 -1144 0
1000000 81 -6124 -8729 -8101 -8396 -6805 -8666 -672 0
1000000 2956 -6124 -8729 -8101 -8396 -6805 -8666 -672 0
1000000 73 -8292 -6114 -8253 -6317 -6574 -7183 0
1000000 2957 -8292 -6114 -8253 -6317 -6574 -7183 0
1000000 1009 -9426 -8479 -5542 -5590 0
1000000 2958 -9426 -8479 -5542 -5590 0
1000000 1331 -9062 -5887 -7219 -8394 -1441 0
1000000 2959 -9062 -5887 -7219 -8394 -1441 0
1000000 56 -7220 -5870 -8255 -5350 -7177 -5757 0
1000000 2960 -7220 -5870 -8255 -5350 -7177 -5757 0
1000000 777 -8941 -7520 -8984 -8708 0
1000000 2961 -8941 -7520 -8984 -8708 0
1000000 889 -9271 -6440 -7621 -1294 0
1000000 2962 -9271 -6440 -7621 -1294 0
1000000 763 -9103 -7385 -9522 -1012 0
1000000 2963 -9103 -7385 -9522 -1012 0
1000000 1181 -6230 -7796 -5940 0
1000000 2964 -6230 -7796 -5940 0
1000000 754 -6788 -1090 0
1000000 2965 -6788 -1090 0
1000000 1197 -6560 -5328 -6589 -7322 -8308 0
1000000 2966 -6560 -5328 -6589 -7322 -8308 0
1000000 112 -6890 -7314 -6966 0
1000000 2967 -6890 -7314 -6966 0
1000000 901 -5889 -7128 -8021 -7117 -5362 -5713 -1463 0
1000000 2968 -5889 -7128 -8021 -7117 -5362 -5713 -1463 0
1000000 1035 -7935 -5553 -8600 -7790 -8104 -5295 -8935 0
1000000 2969 -7935 -5553 -8600 -7790 -8104 -5295 -8935 0
1000000 809 -6166 -8510 -5563 -8562 -7775 -7195 -9411 0
1000000 2970 -6166 -8510 -5563 -8562 -7775 -7195 -9411 0
1000000 1212 -9008 -7650 -7310 -9536 0
1000000 2971 -9008 -7650 -7310 -9536 0
1000000 1300 -6652 -1450 0
1000000 2972 -6652 -1450 0
1000000 484 -8535 -6232 -7976 -1146 0
1000000 2973 -8535 -6232 -7976 -1146 0
1000000 1011 -9231 -9462 -7112 -6506 -8946 -8169 -7047 0
1000000 2974 -9231 -9462 -7112 -6506 -8946 -8169 -7047 0
1000000 1270 -8473 -6177 -7520 -8073 -6709 -5922 0
1000000 2975 -8473 -6177 -7520 -8073 -6709 -5922 0
1000000 1370 -9312 -7700 -6065 -9219 -7977 -6333 -1423 0
1000000 2976 -9312 -7700 -6065 -9219 -7977 -6333 -1423 0
1000000 840 -7814 -5901 -7157 -8738 -5889 -7217 -7240 0
1000000 2977 -7814 -5901 -7157 -8738 -5889 -7217 -7240 0
1000000 199 -7693 -7915 -8802 -6264 -7095 -7334 0
1000000 2978 -7693 -7915 -8802 -6264 -7095 -7334 0
1000000 854 -8028 -7372 -5440 0
1000000 2979 -8028 -7372 -5440 0
1000000 435 -6072 -5215 -7921 -8912 -7682 0
1000000 2980 -6072 -5215 -7921 -8912 -7682 0
1000000 196 -6756 -8345 -8481 -6744 -979 0
1000000 2981 -6756 -8345 -8481 -6744 -979 0
1000000 989 -6876 -5722 -7718 -7180 -8336 -1055 0
1000000 2982 -6876 -5722 -7718 -7180 -8336 -1055 0
1000000 778 -8490 -5727 -6296 -6732 -9448 0
1000000 2983 -8490 -5727 -6296 -6732 -9448 0
1000000 674 -7915 -7548 -5686 -9048 -5145 0
1000000 2984 -7915 -7548 -5686 -9048 -5145 0
1000000 1346 -9570 -6929 -8307 -5163 -7190 -6449 -1397 0
1000000 2985 -9570 -6929 -8307 -5163 -7190 -6449 -1397 0
1000000 1029 -8038 -8870 -9154 -9211 0
1000000 2986 -8038 -8870 -9154 -9211 0
1000000 535 -6574 -7470 -8768 -7437 -7962 0
1000000 2987 -6574 -7470 -8768 -7437 -7962 0
1000000 1250 -6723 -1258 0
1000000 2988 -6723 -1258 0
1000000 1113 -6026 -9070 -5136 -5843 -7671 -6600 -8033 0
1000000 2989 -6026 -9070 -5136 -5843 -7671 -6600 -8033 0
1000000 1093 -5876 -6991 -6842 0
1000000 2990 -5876 -6991 -6842 0
1000000 92 -6950 -5488 -5327 -5867 -6579 0
1000000 2991 -6950 -5488 -5327 -5867 -6579 0
1000000 1381 -7383 -5796 -8698 -9267 -6912 0
1000000 2992 -7383 -5796 -8698 -9267 -6912 0
1000000 1220 -7854 -8521 0
1000000 2993 -7854 -8521 0
1000000 12 -9311 -9087 0
1000000 2994 -9311 -9087 0
1000000 116 -6189 -6639 0
1000000 2995 -6189 -6639 0
1000000 639 -5781 -5228 -7821 -8881 -7930 -5197 0
1000000 2996 -5781 -5228 -7821 -8881 -7930 -5197 0
1000000 802 -5398 -1160 0
1000000 2997 -5398 -1160 0
1000000 1432 -9291 -8483 -9189 0
1000000 2998 -9291 -8483 -9189 0
1000000 353 -7148 -5435 -7231 0
1000000 2999 -7148 -5435 -7231 0
1000000 789 -7311 -6456 0
1000000 3000 -7311 -6456 0
1000000 537 -6937 -6029 -8942 -6578 -6673 0
1000000 3001 -6937 -6029 -8942 -6578 -6673 0
1000000 150 -6029 -6658 -7798 -5814 -6102 0
1000000 3002 -6029 -6658 -7798 -5814 -6102 0
1000000 1008 -5606 -9282 -6159 -6850 -6621 -9230 0
1000000 3003 -5606 -9282 -6159 -6850 -6621 -9230 0
1000000 936 -9575 -9185 -1368 0
1000000 3004 -9575 -9185 -1368 0
1000000 1463 -9169 -5488 0
1000000 3005 -9169 -5488 0
1000000 925 -6260 -8395 -5354 -6659 -6678 -1149 0
1000000 3006 -6260 -8395 -5354 -6659 -6678 -1149 0
1000000 1313 -9250 -6865 -9233 -5510 -8055 -1425 0
1000000 3007 -9250 -6865 -9233 -5510 -8055 -1425 0
1000000 525 -9296 -5599 -1319 0
1000000 3008 -9296 -5599 -1319 0
1000000 808 -8806 -6562 0
1000000 3009 -8806 -6562 0
1000000 231 -8887 -5325 -8206 -268 0
1000000 3010 -8887 -5325 -8206 -268 0
1000000 1402 -5819 -7274 -7622 -5615 -7126 0
1000000 3011 -5819 -7274 -7622 -5615 -7126 0
1000000 234 -7584 -8709 -7878 -9413 -7420 -6551 0
1000000 3012 -7584 -8709 -7878 -9413 -7420 -6551 0
1000000 1223 -8210 -8749 -7765 -5125 -8020 -1301 0
1000000 3013 -8210 -8749 -7765 -5125 -8020 -1301 0
1000000 768 -7413 -9276 0
1000000 3014 -7413 -9276 0
1000000 1025 -8333 -8485 -8542 -8558 -9056 -6457 -9498 0
1000000 3015 -8333 -8485 -8542 -8558 -9056 -6457 -9498 0
1000000 430 -6186 -7658 -9447 0
1000000 3016 -6186 -7658 -9447 0
1000000 1175 -8198 -6471 -7353 -5170 -8289 0
1000000 3017 -8198 -6471 -7353 -5170 -8289 0
1000000 821 -5499 -5326 -9014 -5111 0
1000000 3018 -5499 -5326 -9014 -5111 0
1000000 507 -6139 -8096 -6888 0
1000000 3019 -6139 -8096 -6888 0
1000000 868 -8017 -9581 0
1000000 3020 -8017 -9581 0
1000000 981 -8078 -9321 -9582 -7548 -7594 -6687 0
1000000 3021 -8078 -9321 -9582 -7548 -7594 -6687 0
1000000 1204 -7517 -5235 -7864 -7392 0
1000000 3022 -7517 -5235 -7864 -7392 0
1000000 787 -5462 -8543 -5361 -7372 0
1000000 3023 -5462 -8543 -5361 -7372 0
1000000 1302 -8710 -1459 0
1000000 3024 -8710 -1459 0
1000000 1223 -6708 -9332 -6306 0
1000000 3025 -6708 -9332 -6306 0
1000000 444 -7020 -5279 -7175 -7591 -6733 0
1000000 3026 -7020 -5279 -7175 -7591 -6733 0
1000000 989 -6621 -7412 -8599 0
1000000 3027 -6621 -7412 -8599 0
1000000 721 -6204 -6966 -7426 -7144 -1007 0
1000000 3028 -6204 -6966 -7426 -7144 -1007 0
1000000 1362 -7678 -7266 0
1000000 3029 -7678 -7266 0
1000000 568 -9024 -5353 0
1000000 3030 -9024 -5353 0
1000000 442 -8831 -8011 -8228 -6133 0
1000000 3031 -8831 -8011 -8228 -6133 0
1000000 954 -8478 -5873 -1475 0
1000000 3032 -8478 -5873 -1475 0
1000000 584 -5445 -5183 -6188 -5911 -9378 -8427 0
1000000 3033 -5445 -5183 -6188 -5911 -9378 -8427 0
1000000 110 -7816 -9297 -6210 0
1000000 3034 -7816 -9297 -6210 0
1000000 1243 -9187 -6514 -7807 0
1000000 3035 -9187 -6514 -7807 0
1000000 951 -5109 -5225 -6116 -8801 -5346 -1082 0
1000000 3036 -5109 -5225 -6116 -8801 -5346 -1082 0
1000000 932 -6759 -5714 -6537 -1427 0
1000000 3037 -6759 -5714 -6537 -1427 0
1000000 853 -6142 -9256 -9475 -8703 -6892 0
1000000 3038 -6142 -9256 -9475 -8703 -6892 0
1000000 181 -8676 -6812 0
1000000 3039 -8676 -6812 0
1000000 907 -6677 -6804 0
1000000 3040 -6677 -6804 0
1000000 526 -8275 -8293 -9499 -8379 -5987 0
1000000 3041 -8275 -8293 -9499 -8379 -5987 0
1000000 1447 -7336 -8962 -6319 0
1000000 3042 -7336 -8962 -6319 0
1000000 1196 -5270 -7347 0
1000000 3043 -5270 -7347 0
1000000 69 -5637 -8896 -5311 -5696 -5852 -5389 0
1000000 3044 -5637 -8896 -5311 -5696 -5852 -5389 0
1000000 398 -7887 -5476 -9309 -6293 0
1000000 3045 -7887 -5476 -9309 -6293 0
1000000 517 -5327 -8608 -6025 0
1000000 3046 -5327 -8608 -6025 0
1000000 1081 -5242 -8517 -5987 0
1000000 3047 -5242 -8517 -5987 0
1000000 515 -9310 -9227 0
1000000 3048 -9310 -9227 0
1000000 202 -7581 -8053 -9382 -5475 -8318 -7524 0
1000000 3049 -7581 -8053 -9382 -5475 -8318 -7524 0
1000000 862 -9491 -5813 -7531 -5290 -7564 0
1000000 3050 -9491 -5813 -7531 -5290 -7564 0
1000000 374 -7844 -7754 -8454 -6051 -7523 -5280 -494 0
1000000 3051 -7844 -7754 -8454 -6051 -7523 -5280 -494 0
1000000 45 -5800 -8698 -8283 -6564 0
1000000 3052 -5800 -8698 -8283 -6564 0
1000000 280 -7101 -5923 -8246 -7592 -5989 -8584 -6728 0
1000000 3053 -7101 -5923 -8246 -7592 -5989 -8584 -6728 0
1000000 384 -6921 -7953 -6633 -5136 -6189 -7888 0
1000000 3054 -6921 -7953 -6633 -5136 -6189 -7888 0
1000000 984 -8752 -5772 -7488 0
1000000 3055 -8752 -5772 -7488 0
1000000 197 -8768 -8319 0
1000000 3056 -8768 -8319 0
1000000 472 -8243 -7598 -7434 -5456 -7746 -8412 0
1000000 3057 -8243 -7598 -7434 -5456 -7746 -8412 0
1000000 1385 -8028 -9477 0
1000000 3058 -8028 -9477 0
1000000 211 -7308 -6701 -8080 0
1000000 3059 -7308 -6701 -8080 0
1000000 1299 -8991 -7072 -5639 -5396 -8355 0
1000000 3060 -8991 -7072 -5639 -5396 -8355 0
1000000 1071 -8436 -5757 -9511 -6027 -9506 -8540 0
1000000 3061 -8436 -5757 -9511 -6027 -9506 -8540 0
1000000 459 -5637 -6578 -5708 -5446 -6017 -7468 -5361 0
1000000 3062 -5637 -6578 -5708 -5446 -6017 -7468 -5361 0
1000000 552 -6221 -7538 -6968 0
1000000 3063 -6221 -7538 -6968 0
1000000 964 -8552 -5925 -1205 0
1000000 3064 -8552 -5925 -1205 0
1000000 1138 -9438 -8557 -5133 -8421 -5194 -1150 0
1000000 3065 -9438 -8557 -5133 -8421 -5194 -1150 0
1000000 1411 -9028 -9422 -9035 0
1000000 3066 -9028 -9422 -9035 0
1000000 1298 -9502 -7135 -6914 -6670 0
1000000 3067 -9502 -7135 -6914 -6670 0
1000000 610 -8133 -8982 -5780 -5124 -7149 -7622 -7049 0
1000000 3068 -8133 -8982 -5780 -5124 -7149 -7622 -7049 0
1000000 745 -6576 -8477 -8772 0
1000000 3069 -6576 -8477 -8772 0
1000000 196 -6107 -5334 -5485 -9301 -689 0
1000000 3070 -6107 -5334 -5485 -9301 -689 0
1000000 731 -8341 -8929 -8474 -5635 -8021 -845 0
1000000 3071 -8341 -8929 -8474 -5635 -8021 -845 0
1000000 689 -6770 -8849 -9159 -7118 -7392 -5632 -5830 0
1000000 3072 -6770 -8849 -9159 -7118 -7392 -5632 -5830 0
1000000 1207 -6421 -7088 -7779 -9386 -5686 0
1000000 3073 -6421 -7088 -7779 -9386 -5686 0
1000000 1229 -5762 -5316 -8839 -5200 -5499 -8322 0
1000000 3074 -5762 -5316 -8839 -5200 -5499 -8322 0
1000000 978 -7217 -9567 -7110 -7566 0
1000000 3075 -7217 -9567 -7110 -7566 0
1000000 1323 -8755 -1426 0
1000000 3076 -8755 -1426 0
1000000 934 -5858 -7916 -5248 0
1000000 3077 -5858 -7916 -5248 0
1000000 547 -5892 -7870 -8318 -6378 0
1000000 3078 -5892 -7870 -8318 -6378 0
1000000 1458 -8002 -1476 0
1000000 3079 -8002 -1476 0
1000000 710 -6045 -8650 -1379 0
1000000 3080 -6045 -8650 -1379 0
1000000 573 -6461 -8892 0
1000000 3081 -6461 -8892 0
1000000 18 -6541 -7214 -8837 0
1000000 3082 -6541 -7214 -8837 0
1000000 54 -7101 -8648 -9067 -6082 -9400 0
1000000 3083 -7101 -8648 -9067 -6082 -9400 0
1000000 1214 -6620 -8070 -5855 -8604 -9335 -8048 -1244 0
1000000 3084 -6620 -8070 -5855 -8604 -9335 -8048 -1244 0
1000000 1437 -7980 -1455 0
1000000 3085 -7980 -1455 0
1000000 160 -7064 -6291 -5807 -1401 0
1000000 3086 -7064 -6291 -5807 -1401 0
1000000 533 -6874 -7751 -9174 0
1000000 3087 -6874 -7751 -9174 0
1000000 315 -9326 -6704 -5941 -7286 0
1000000 3088 -9326 -6704 -5941 -7286 0
1000000 205 -7762 -9274 -7854 -6395 -7349 0
1000000 3089 -7762 -9274 -7854 -6395 -7349 0
1000000 1180 -7591 -8344 -7192 -1399 0
1000000 3090 -7591 -8344 -7192 -1399 0
1000000 1396 -7083 -8997 -7337 0
1000000 3091 -7083 -8997 -7337 0
1000000 1400 -6766 -5770 -9498 -7036 -5793 0
1000000 3092 -6766 -5770 -9498 -7036 -5793 0
1000000 1318 -7570 -8414 -7275 0
1000000 3093 -7570 -8414 -7275 0
1000000 108 -7172 -8981 -8464 -6069 0
1000000 3094 -7172 -8981 -8464 -6069 0
1000000 380 -5304 -9073 0
1000000 3095 -5304 -9073 0
1000000 1125 -6096 -6840 -8893 -9345 -7929 -7973 -8963 0
1000000 3096 -6096 -6840 -8893 -9345 -7929 -7973 -8963 0
1000000 531 -5552 -7790 -5421 -6506 -7444 -5777 -8594 0
1000000 3097 -5552 -7790 -5421 -6506 -7444 -5777 -8594 0
1000000 648 -6479 -9194 -8251 -7796 -5945 -9102 0
1000000 3098 -6479 -9194 -8251 -7796 -5945 -9102 0
1000000 590 -5553 -8882 -7921 -8011 0
1000000 3099 -5553 -8882 -7921 -8011 0
1000000 1093 -9038 -7913 -5828 -5413 0
1000000 3100 -9038 -7913 -5828 -5413 0
1000000 278 -9302 -6574 -8118 -7727 0
1000000 3101 -9302 -6574 -8118 -7727 0
1000000 884 -8314 -9069 -8160 -8151 -7243 -7205 -8136 0
1000000 3102 -8314 -9069 -8160 -8151 -7243 -7205 -8136 0
1000000 1319 -7762 -8124 -6756 -6893 -8387 -1417 0
1000000 3103 -7762 -8124 -6756 -6893 -8387 -1417 0
1000000 403 -8925 -6800 -7741 -5463 -8210 -8138 -7406 0
1000000 3104 -8925 -6800 -7741 -5463 -8210 -8138 -7406 0
1000000 111 -6983 -8503 0
1000000 3105 -6983 -8503 0
1000000 1155 -8640 -5465 -6862 -7709 -7646 -6569 -8758 0
1000000 3106 -8640 -5465 -6862 -7709 -7646 -6569 -8758 0
1000000 177 -6499 -8195 -8769 -5558 -7352 -8980 -6481 0
1000000 3107 -6499 -8195 -8769 -5558 -7352 -8980 -6481 0
1000000 909 -6942 -9468 -5624 -1311 0
1000000 3108 -6942 -9468 -5624 -1311 0
1000000 540 -5660 -9166 -8787 -7621 -9418 -7926 0
1000000 3109 -5660 -9166 -8787 -7621 -9418 -7926 0
1000000 1022 -8920 -5735 -6896 -9392 -8053 -1303 0
1000000 3110 -8920 -5735 -6896 -9392 -8053 -1303 0
1000000 1295 -5454 -7868 -6681 -5207 -7469 -5266 0
1000000 3111 -5454 -7868 -6681 -5207 -7469 -5266 0
1000000 108 -5137 -6885 0
1000000 3112 -5137 -6885 0
1000000 1284 -5521 -8979 -6156 -8032 0
1000000 3113 -5521 -8979 -6156 -8032 0
1000000 339 -5646 -6592 -8316 -8531 0
1000000 3114 -5646 -6592 -8316 -8531 0
1000000 90 -5384 -8453 -8104 -578 0
1000000 3115 -5384 -8453 -8104 -578 0
1000000 418 -7483 -8091 -6279 -5339 -7160 -1078 0
1000000 3116 -7483 -8091 -6279 -5339 -7160 -1078 0
1000000 1194 -7773 -7478 -8073 -9473 0
1000000 3117 -7773 -7478 -8073 -9473 0
1000000 88 -7207 -7898 -7587 -6531 -7465 -7313 0
1000000 3118 -7207 -7898 -7587 -6531 -7465 -7313 0
1000000 373 -9218 -6289 -5715 0
1000000 3119 -9218 -6289 -5715 0
1000000 596 -5340 -1077 0
1000000 3120 -5340 -1077 0
1000000 14 -7124 -6400 -6713 -8520 0
1000000 3121 -7124 -6400 -6713 -8520 0
1000000 1405 -5712 -7868 -8164 0
1000000 3122 -5712 -7868 -8164 0
1000000 1254 -9007 -8975 -5196 -7874 -7453 -8765 0
1000000 3123 -9007 -8975 -5196 -7874 -7453 -8765 0
1000000 1248 -8073 -8462 -7663 -5967 -5293 -7614 0
1000000 3124 -8073 -8462 -7663 -5967 -5293 -7614 0
1000000 213 -7618 -9567 -8326 -9044 -8947 -7432 0
1000000 3125 -7618 -9567 -8326 -9044 -8947 -7432 0
1000000 501 -7631 -8405 -8724 0
1000000 3126 -7631 -8405 -8724 0
1000000 131 -7614 -7394 -5350 -5597 -9529 -579 0
1000000 3127 -7614 -7394 -5350 -5597 -9529 -579 0
1000000 1153 -7273 -6129 -6251 0
1000000 3128 -7273 -6129 -6251 0
1000000 334 -5733 -7978 -6587 -9386 -8979 0
1000000 3129 -5733 -7978 -6587 -9386 -8979 0
1000000 529 -6880 -9550 -1365 0
1000000 3130 -6880 -9550 -1365 0
1000000 613 -8770 -7634 -8407 -8305 0
1000000 3131 -8770 -7634 -8407 -8305 0
1000000 105 -9114 -1279 0
1000000 3132 -9114 -1279 0
1000000 782 -8670 -6261 -6934 -5703 -9552 -6209 0
1000000 3133 -8670 -6261 -6934 -5703 -9552 -6209 0
1000000 1135 -5460 -5909 -7711 0
1000000 3134 -5460 -5909 -7711 0
1000000 1395 -9036 -6484 -6646 -6507 -8850 -8462 -1405 0
1000000 3135 -9036 -6484 -6646 -6507 -8850 -8462 -1405 0
1000000 751 -5578 -5999 -5517 -5941 -8986 -5138 -9479 0
1000000 3136 -5578 -5999 -5517 -5941 -8986 -5138 -9479 0
1000000 937 -5218 -8004 -8937 -8608 -8309 -6347 -5439 0
1000000 3137 -5218 -8004 -8937 -8608 -8309 -6347 -5439 0
1000000 797 -9436 -7573 -9197 -9132 -6873 -8783 -7730 0
1000000 3138 -9436 -7573 -9197 -9132 -6873 -8783 -7730 0
1000000 416 -5791 -8215 -5205 -7617 -6777 -9543 -5944 0
1000000 3139 -5791 -8215 -5205 -7617 -6777 -9543 -5944 0
1000000 565 -8581 -8571 -7160 -6593 -6153 0
1000000 3140 -8581 -8571 -7160 -6593 -6153 0
1000000 530 -6261 -6413 -7948 -8995 -8021 -5953 -9074 0
1000000 3141 -6261 -6413 -7948 -8995 -8021 -5953 -9074 0
1000000 460 -7889 -482 0
1000000 3142 -7889 -482 0
1000000 605 -6099 -6985 -5302 -5235 -7145 -5240 -9251 0
1000000 3143 -6099 -6985 -5302 -5235 -7145 -5240 -9251 0
1000000 435 -5554 -8463 -5734 -7167 -643 0
1000000 3144 -5554 -8463 -5734 -7167 -643 0
1000000 1086 -5896 -7032 0
1000000 3145 -5896 -7032 0
1000000 199 -7378 -5831 -5235 -9155 -8375 -5593 -8683 0
1000000 3146 -7378 -5831 -5235 -9155 -8375 -5593 -8683 0
1000000 729 -7864 -9224 -9016 -5140 -5940 -6848 -8764 0
1000000 3147 -7864 -9224 -9016 -5140 -5940 -6848 -8764 0
1000000 497 -7638 -6400 -9230 -7127 0
1000000 3148 -7638 -6400 -9230 -7127 0
1000000 365 -9501 -385 0
1000000 3149 -9501 -385 0
1000000 453 -5430 -8835 -5307 -5808 -6401 0
1000000 3150 -5430 -8835 -5307 -5808 -6401 0
1000000 1401 -7861 -8038 -9229 -7659 -6066 -8455 -5848 0
1000000 3151 -7861 -8038 -9229 -7659 -6066 -8455 -5848 0
1000000 323 -5811 -9030 -5678 -8498 -7248 0
1000000 3152 -5811 -9030 -5678 -8498 -7248 0
1000000 1089 -8586 -8831 -6338 -6489 -7434 -7259 -5531 0
1000000 3153 -8586 -8831 -6338 -6489 -7434 -7259 -5531 0
1000000 145 -8950 -6602 -7887 -6321 -7319 -7378 -8586 0
1000000 3154 -8950 -6602 -7887 -6321 -7319 -7378 -8586 0
1000000 566 -6498 -8117 -5351 -9016 -7876 -1006 0
1000000 3155 -6498 -8117 -5351 -9016 -7876 -1006 0
1000000 615 -9531 -8963 -8990 -8664 -6682 -5208 -5276 0
1000000 3156 -9531 -8963 -8990 -8664 -6682 -5208 -5276 0
1000000 104 -9431 -8318 -8155 -9588 0
1000000 3157 -9431 -8318 -8155 -9588 0
1000000 43 -7609 -8201 -6178 -6678 -6735 -6635 -8033 0
1000000 3158 -7609 -8201 -6178 -6678 -6735 -6635 -8033 0
1000000 680 -5764 -6917 -6687 -5511 -5590 -6375 -7997 0
1000000 3159 -5764 -6917 -6687 -5511 -5590 -6375 -7997 0
1000000 782 -6864 -5215 -9564 -7521 0
1000000 3160 -6864 -5215 -9564 -7521 0
1000000 173 -8162 -6783 -7436 -7908 -6246 -8866 -6281 0
1000000 3161 -8162 -6783 -7436 -7908 -6246 -8866 -6281 0
1000000 449 -7157 -7867 0
1000000 3162 -7157 -7867 0
1000000 1193 -6691 -8932 0
1000000 3163 -6691 -8932 0
1000000 1134 -6419 -8572 -6805 0
1000000 3164 -6419 -8572 -6805 0
1000000 1389 -5698 -1470 0
1000000 3165 -5698 -1470 0
1000000 928 -7998 -9020 -6546 0
1000000 3166 -7998 -9020 -6546 0
1000000 200 -6102 -5231 -8917 -5379 -8808 -8173 0
1000000 3167 -6102 -5231 -8917 -5379 -8808 -8173 0
1000000 515 -5138 -7395 0
1000000 3168 -5138 -7395 0
1000000 1027 -7701 -9491 -8674 -8084 -9300 0
1000000 3169 -7701 -9491 -8674 -8084 -9300 0
1000000 1152 -8217 -7446 -6666 -6459 -5909 -6839 0
1000000 3170 -8217 -7446 -6666 -6459 -5909 -6839 0
1000000 28 -6275 -6849 -7298 -7652 -8908 -5553 0
1000000 3171 -6275 -6849 -7298 -7652 -8908 -5553 0
1000000 655 -9597 -9483 0
1000000 3172 -9597 -9483 0
1000000 1112 -9565 -1124 0
1000000 3173 -9565 -1124 0
1000000 409 -8073 -5273 -9207 -8614 -5157 -6138 -464 0
1000000 3174 -8073 -5273 -9207 -8614 -5157 -6138 -464 0
1000000 1175 -6260 -5929 -6538 -1480 0
1000000 3175 -6260 -5929 -6538 -1480 0
1000000 524 -5776 -7515 -5745 -6052 0
1000000 3176 -5776 -7515 -5745 -6052 0
1000000 701 -9025 -8333 -731 0
1000000 3177 -9025 -8333 -731 0
1000000 546 -6454 -839 0
1000000 3178 -6454 -839 0
1000000 267 -6048 -7892 -9374 -5938 0
1000000 3179 -6048 -7892 -9374 -5938 0
1000000 1388 -8862 -7294 -6430 -7723 -9090 0
1000000 3180 -8862 -7294 -6430 -7723 -9090 0
1000000 182 -7105 -6959 -8525 -8272 -7156 -7759 0
1000000 3181 -7105 -6959 -8525 -8272 -7156 -7759 0
1000000 329 -7965 -6944 -6423 -8057 -6569 -1201 0
1000000 3182 -7965 -6944 -6423 -8057 -6569 -1201 0
1000000 1460 -7386 -8306 0
1000000 3183 -7386 -8306 0
1000000 1126 -5909 -8068 -5270 -7883 -8266 -5744 -7871 0
1000000 3184 -5909 -8068 -5270 -7883 -8266 -5744 -7871 0
1000000 1054 -8918 -1325 0
1000000 3185 -8918 -1325 0
1000000 801 -8631 -7568 -6463 -8044 -9182 0
1000000 3186 -8631 -7568 -6463 -8044 -9182 0
1000000 403 -6657 -8025 -8787 -6507 0
1000000 3187 -6657 -8025 -8787 -6507 0
1000000 739 -6668 -7986 -9137 -9571 -1353 0
1000000 3188 -6668 -7986 -9137 -9571 -1353 0
1000000 364 -9007 -6217 -9477 -6145 -6450 -5476 -6052 0
1000000 3189 -9007 -6217 -9477 -6145 -6450 -5476 -6052 0
1000000 389 -8675 -5476 -5296 -6918 -6167 0
1000000 3190 -8675 -5476 -5296 -6918 -6167 0
1000000 739 -5624 -7467 -9010 -6567 0
1000000 3191 -5624 -7467 -9010 -6567 0
1000000 338 -8528 -8943 -7275 -7198 -6726 -5564 -9266 0
1000000 3192 -8528 -8943 -7275 -7198 -6726 -5564 -9266 0
1000000 1308 -8971 -8472 -9015 -8494 -1381 0
1000000 3193 -8971 -8472 -9015 -8494 -1381 0
1000000 868 -6814 -6533 -5508 -7813 -8388 -8548 -991 0
1000000 3194 -6814 -6533 -5508 -7813 -8388 -8548 -991 0
1000000 1107 -8124 -8718 -6260 -6931 0
1000000 3195 -8124 -8718 -6260 -6931 0
1000000 680 -8294 -1042 0
1000000 3196 -8294 -1042 0
1000000 488 -6772 -7265 -9204 -6269 -7339 -5787 0
1000000 3197 -6772 -7265 -9204 -6269 -7339 -5787 0
1000000 1087 -8978 -7173 -8454 0
1000000 3198 -8978 -7173 -8454 0
1000000 556 -7836 -5948 -8771 -5507 -6109 -5485 0
1000000 3199 -7836 -5948 -8771 -5507 -6109 -5485 0
1000000 424 -8386 -7221 -9162 0
1000000 3200 -8386 -7221 -9162 0
1000000 229 -9471 -8215 -6647 0
1000000 3201 -9471 -8215 -6647 0
1000000 1457 -5756 -5443 -6842 -5684 -9465 -6818 0
1000000 3202 -5756 -5443 -6842 -5684 -9465 -6818 0
1000000 1421 -8894 -9104 0
1000000 3203 -8894 -9104 0
1000000 1268 -7554 -1467 0
1000000 3204 -7554 -1467 0
1000000 1222 -5227 -8471 -7004 -8439 0
1000000 3205 -5227 -8471 -7004 -8439 0
1000000 1158 -7696 -9530 -8944 -5601 -8853 -5276 0
1000000 3206 -7696 -9530 -8944 -5601 -8853 -5276 0
1000000 895 -6328 -7393 -8103 -5600 -5410 0
1000000 3207 -6328 -7393 -8103 -5600 -5410 0
1000000 1364 -6076 -8772 0
1000000 3208 -6076 -8772 0
1000000 125 -6946 -7552 -9072 -5299 0
1000000 3209 -6946 -7552 -9072 -5299 0
1000000 101 -6694 -9003 -6767 -9594 -8814 -8637 -6449 0
1000000 3210 -6694 -9003 -6767 -9594 -8814 -8637 -6449 0
1000000 123 -7163 -7180 -7647 -9406 -664 0
1000000 3211 -7163 -7180 -7647 -9406 -664 0
1000000 1194 -7847 -5470 -5225 -8610 -6776 0
1000000 3212 -7847 -5470 -5225 -8610 -6776 0
1000000 1004 -5696 -6697 -8304 -5238 0
1000000 3213 -5696 -6697 -8304 -5238 0
1000000 5 -6623 -6590 -1101 0
1000000 3214 -6623 -6590 -1101 0
1000000 1291 -6904 -5490 -9098 -7927 0
1000000 3215 -6904 -5490 -9098 -7927 0
1000000 55 -8453 -7150 -7320 -8846 -8246 0
1000000 3216 -8453 -7150 -7320 -8846 -8246 0
1000000 916 -5402 -8466 -6431 -5734 -5457 -7406 -1344 0
1000000 3217 -5402 -8466 -6431 -5734 -5457 -7406 -1344 0
1000000 1470 -5448 -7502 -7457 -5386 -8552 0
1000000 3218 -5448 -7502 -7457 -5386 -8552 0
1000000 242 -6942 -8775 -5552 -5972 0
1000000 3219 -6942 -8775 -5552 -5972 0
1000000 718 -7661 -7264 -5484 -6619 -7567 -1148 0
1000000 3220 -7661 -7264 -5484 -6619 -7567 -1148 0
1000000 1 -8645 -6007 -6579 -8291 -7069 0
1000000 3221 -8645 -6007 -6579 -8291 -7069 0
1000000 1115 -8502 -9093 -5334 -6113 -7819 -8172 0
1000000 3222 -8502 -9093 -5334 -6113 -7819 -8172 0
1000000 1407 -8232 -9173 -8999 -6937 -9190 -1452 0
1000000 3223 -8232 -9173 -8999 -6937 -9190 -1452 0
1000000 986 -6212 -5150 0
1000000 3224 -6212 -5150 0
1000000 379 -5235 -5908 -7482 -6189 -6978 -1332 0
1000000 3225 -5235 -5908 -7482 -6189 -6978 -1332 0
1000000 445 -6261 -8414 -5448 0
1000000 3226 -6261 -8414 -5448 0
1000000 196 -7463 -5329 -7843 -5188 -5407 -5986 0
1000000 3227 -7463 -5329 -7843 -5188 -5407 -5986 0
1000000 1488 -5742 -8881 -5980 0
1000000 3228 -5742 -8881 -5980 0
1000000 1433 -5493 -6776 -8473 -6398 -9179 -8976 0
1000000 3229 -5493 -6776 -8473 -6398 -9179 -8976 0
1000000 1332 -7051 -8919 -6685 -6219 -8549 -8147 -5184 0
1000000 3230 -7051 -8919 -6685 -6219 -8549 -8147 -5184 0
1000000 785 -9050 -6999 -7764 -9188 -5782 0
1000000 3231 -9050 -6999 -7764 -9188 -5782 0
1000000 1406 -8428 -7676 -7220 -7405 -7920 -5557 -7539 0
1000000 3232 -8428 -7676 -7220 -7405 -7920 -5557 -7539 0
1000000 782 -7110 -8981 -5995 0
1000000 3233 -7110 -8981 -5995 0
1000000 224 -7145 -9491 -5886 -9509 -8128 -8088 -1008 0
1000000 3234 -7145 -9491 -5886 -9509 -8128 -8088 -1008 0
1000000 946 -5173 -8802 -8570 -6303 -6535 -1284 0
1000000 3235 -5173 -8802 -8570 -6303 -6535 -1284 0
1000000 728 -8887 -8818 0
1000000 3236 -8887 -8818 0
1000000 344 -9237 -6227 -8675 -5946 -5143 -8457 -6467 0
1000000 3237 -9237 -6227 -8675 -5946 -5143 -8457 -6467 0
1000000 834 -5678 -7251 0
1000000 3238 -5678 -7251 0
1000000 587 -7436 -5223 -6297 0
1000000 3239 -7436 -5223 -6297 0
1000000 184 -7103 -5500 0
1000000 3240 -7103 -5500 0
1000000 877 -5470 -7990 -6505 -5544 0
1000000 3241 -5470 -7990 -6505 -5544 0
1000000 849 -7472 -8574 -7790 0
1000000 3242 -7472 -8574 -7790 0
1000000 1048 -8581 -6853 -5411 -7733 -6123 0
1000000 3243 -8581 -6853 -5411 -7733 -6123 0
1000000 931 -5837 -6642 0
1000000 3244 -5837 -6642 0
1000000 1406 -9550 -7345 -8392 -5577 -8238 0
1000000 3245 -9550 -7345 -8392 -5577 -8238 0
1000000 787 -9454 -8803 -6098 -6893 -5792 -1418 0
1000000 3246 -9454 -8803 -6098 -6893 -5792 -1418 0
1000000 409 -7332 -6818 -6740 -7526 -6776 -1236 0
1000000 3247 -7332 -6818 -6740 -7526 -6776 -1236 0
1000000 218 -7067 -6322 -6642 -9207 0
1000000 3248 -7067 -6322 -6642 -9207 0
1000000 421 -8574 -6768 -6214 -7872 0
1000000 3249 -8574 -6768 -6214 -7872 0
1000000 1334 -8930 -9436 -7414 -9497 -7754 -7153 -7373 0
1000000 3250 -8930 -9436 -7414 -9497 -7754 -7153 -7373 0
1000000 1144 -8325 -8415 -9581 -7001 -6184 -6672 0
1000000 3251 -8325 -8415 -9581 -7001 -6184 -6672 0
1000000 734 -9161 -8569 -5565 -5822 -6765 -7182 0
1000000 3252 -9161 -8569 -5565 -5822 -6765 -7182 0
1000000 27 -8833 -7613 -5867 0
1000000 3253 -8833 -7613 -5867 0
1000000 1318 -7226 -7213 -7002 -8583 -8766 0
1000000 3254 -7226 -7213 -7002 -8583 -8766 0
1000000 1342 -7649 -5813 -9383 -6493 -8338 0
1000000 3255 -7649 -5813 -9383 -6493 -8338 0
1000000 112 -7681 -8642 -8668 -7854 -8499 -9442 0
1000000 3256 -7681 -8642 -8668 -7854 -8499 -9442 0
1000000 1031 -5180 -6867 -5186 -8371 -1129 0
1000000 3257 -5180 -6867 -5186 -8371 -1129 0
1000000 1334 -8562 -9504 -5904 -5390 -5341 0
1000000 3258 -8562 -9504 -5904 -5390 -5341 0
1000000 667 -7532 -8555 0
1000000 3259 -7532 -8555 0
1000000 804 -9326 -9509 -9057 -6358 0
1000000 3260 -9326 -9509 -9057 -6358 0
1000000 318 -6274 -5711 0
1000000 3261 -6274 -5711 0
1000000 577 -7543 -5734 -8958 -9309 -8357 0
1000000 3262 -7543 -5734 -8958 -9309 -8357 0
1000000 102 -6071 -5388 0
1000000 3263 -6071 -5388 0
1000000 1438 -7962 -5975 0
1000000 3264 -7962 -5975 0
1000000 755 -6043 -5818 -7793 -6954 -7325 -5437 0
1000000 3265 -6043 -5818 -7793 -6954 -7325 -5437 0
1000000 1127 -7127 -9347 -8526 -1458 0
1000000 3266 -7127 -9347 -8526 -1458 0
1000000 855 -7533 -9319 -7886 0
1000000 3267 -7533 -9319 -7886 0
1000000 1500 -5721 -5953 -7700 -7912 0
1000000 3268 -5721 -5953 -7700 -7912 0
1000000 64 -6358 -5398 -1264 0
1000000 3269 -6358 -5398 -1264 0
1000000 612 -7802 -7794 -8605 -1105 0
1000000 3270 -7802 -7794 -8605 -1105 0
1000000 558 -7848 -5538 -6946 -6257 -8045 -6779 0
1000000 3271 -7848 -5538 -6946 -6257 -8045 -6779 0
1000000 486 -7590 -6231 -8325 -8742 -8769 -7752 -7162 0
1000000 3272 -7590 -6231 -8325 -8742 -8769 -7752 -7162 0
1000000 1134 -7416 -6630 -7167 0
1000000 3273 -7416 -6630 -7167 0
1000000 617 -8089 -8180 -9235 -8483 -9215 -8577 0
1000000 3274 -8089 -8180 -9235 -8483 -9215 -8577 0
1000000 213 -7783 -8037 -8810 -6720 -7123 -8387 -387 0
1000000 3275 -7783 -8037 -8810 -6720 -7123 -8387 -387 0
1000000 733 -8307 -9198 -6543 0
1000000 3276 -8307 -9198 -6543 0
1000000 1106 -5592 -8028 -5377 0
1000000 3277 -5592 -8028 -5377 0
1000000 364 -8195 -9431 0
1000000 3278 -8195 -9431 0
1000000 638 -8801 -6912 -7192 -5585 -6421 0
1000000 3279 -8801 -6912 -7192 -5585 -6421 0
1000000 605 -9108 -7827 -7061 -7202 -1288 0
1000000 3280 -9108 -7827 -7061 -7202 -1288 0
1000000 1161 -9003 -6062 0
1000000 3281 -9003 -6062 0
1000000 1463 -8847 -5264 -8416 -5134 -6245 -6763 0
1000000 3282 -8847 -5264 -8416 -5134 -6245 -6763 0
1000000 1155 -6023 -9497 -8893 -8234 -7577 -6947 0
1000000 3283 -6023 -9497 -8893 -8234 -7577 -6947 0
1000000 284 -6047 -6995 -7522 -6013 -592 0
1000000 3284 -6047 -6995 -7522 -6013 -592 0
1000000 596 -8033 -8677 -7255 -8641 -5522 -7107 0
1000000 3285 -8033 -8677 -7255 -8641 -5522 -7107 0
1000000 482 -6049 -7901 0
1000000 3286 -6049 -7901 0
1000000 781 -5475 -5499 -8585 -1495 0
1000000 3287 -5475 -5499 -8585 -1495 0
1000000 514 -8244 -7996 -6943 -1253 0
1000000 3288 -8244 -7996 -6943 -1253 0
1000000 246 -8231 -9270 -6686 -6717 0
1000000 3289 -8231 -9270 -6686 -6717 0
1000000 346 -6661 -7326 -9247 -8906 -5733 -8630 -1041 0
1000000 3290 -6661 -7326 -9247 -8906 -5733 -8630 -1041 0
1000000 195 -8773 -6503 -8435 0
1000000 3291 -8773 -6503 -8435 0
1000000 1067 -7314 -1123 0
1000000 3292 -7314 -1123 0
1000000 298 -5767 -6831 -7525 -5396 -8628 -9402 0
1000000 3293 -5767 -6831 -7525 -5396 -8628 -9402 0
1000000 282 -9293 -9492 -6998 -8214 -5618 -7539 -9288 0
1000000 3294 -9293 -9492 -6998 -8214 -5618 -7539 -9288 0
1000000 896 -5930 -9459 0
1000000 3295 -5930 -9459 0
1000000 588 -9062 -7027 -8593 -9024 -5678 0
1000000 3296 -9062 -7027 -8593 -9024 -5678 0
1000000 462 -6477 -8767 -6835 -9510 -6232 -5834 0
1000000 3297 -6477 -8767 -6835 -9510 -6232 -5834 0
1000000 853 -7427 -5966 -8725 -5724 -6616 -6029 0
1000000 3298 -7427 -5966 -8725 -5724 -6616 -6029 0
1000000 370 -8883 -8051 -6224 0
1000000 3299 -8883 -8051 -6224 0
1000000 1011 -7453 -1027 0
1000000 3300 -7453 -1027 0
1000000 376 -7352 -7457 -6303 -6756 -9388 -5800 -6698 0
1000000 3301 -7352 -7457 -6303 -6756 -9388 -5800 -6698 0
1000000 1467 -8814 -9554 0
1000000 3302 -8814 -9554 0
1000000 530 -7418 -7129 -8648 -5844 -5707 -9231 -9293 0
1000000 3303 -7418 -7129 -8648 -5844 -5707 -9231 -9293 0
1000000 42 -7525 -9138 -5953 -8136 -6833 0
1000000 3304 -7525 -9138 -5953 -8136 -6833 0
1000000 253 -8285 -7776 -6828 -594 0
1000000 3305 -8285 -7776 -6828 -594 0
1000000 1415 -8381 -7728 -1431 0
1000000 3306 -8381 -7728 -1431 0
1000000 736 -8375 -6912 -7990 -849 0
1000000 3307 -8375 -6912 -7990 -849 0
1000000 59 -6970 -8337 -8487 -6968 -5877 -6099 0
1000000 3308 -6970 -8337 -8487 -6968 -5877 -6099 0
1000000 16 -6677 -7615 -5700 0
1000000 3309 -6677 -7615 -5700 0
1000000 651 -5283 -7875 -9566 -7330 -1166 0
1000000 3310 -5283 -7875 -9566 -7330 -1166 0
1000000 703 -8825 -5914 -7610 -7609 -6705 -5395 -5240 0
1000000 3311 -8825 -5914 -7610 -7609 -6705 -5395 -5240 0
1000000 603 -8911 -8471 -8797 -7294 -7915 -8942 -982 0
1000000 3312 -8911 -8471 -8797 -7294 -7915 -8942 -982 0
1000000 1009 -5285 -9449 -7372 -5271 -8104 -5735 -1163 0
1000000 3313 -5285 -9449 -7372 -5271 -8104 -5735 -1163 0
1000000 343 -6353 -9294 -7290 -8273 -5459 -8476 -8429 0
1000000 3314 -6353 -9294 -7290 -8273 -5459 -8476 -8429 0
1000000 1303 -7841 -6209 -6088 -1307 0
1000000 3315 -7841 -6209 -6088 -1307 0
1000000 1173 -5213 -6687 -7399 0
1000000 3316 -5213 -6687 -7399 0
1000000 1171 -9564 -6489 -9534 0
1000000 3317 -9564 -6489 -9534 0
1000000 1002 -7765 -7029 -8937 -9168 -1289 0
1000000 3318 -7765 -7029 -8937 -9168 -1289 0
1000000 1497 -7448 -7027 -5520 -5828 -8797 -6294 -5108 0
1000000 3319 -7448 -7027 -5520 -5828 -8797 -6294 -5108 0
1000000 328 -9233 -6321 -7353 0
1000000 3320 -9233 -6321 -7353 0
1000000 509 -5606 -7892 -5911 0
1000000 3321 -5606 -7892 -5911 0
1000000 1059 -8229 -7293 -9450 -5299 -6089 -9374 -1409 0
1000000 3322 -8229 -7293 -9450 -5299 -6089 -9374 -1409 0
1000000 198 -7999 -9222 -9430 -7322 -5680 -6660 -5491 0
1000000 3323 -7999 -9222 -9430 -7322 -5680 -6660 -5491 0
1000000 1352 -6847 -9299 -6509 -5819 -7480 0
1000000 3324 -6847 -9299 -6509 -5819 -7480 0
1000000 1208 -6725 -7333 -7301 -1392 0
1000000 3325 -6725 -7333 -7301 -1392 0
1000000 142 -5790 -9266 -5383 0
1000000 3326 -5790 -9266 -5383 0
1000000 766 -6430 -5873 -7321 0
1000000 3327 -6430 -5873 -7321 0
1000000 845 -5897 -9576 -6806 -5113 -7697 -8717 -6768 0
1000000 3328 -5897 -9576 -6806 -5113 -7697 -8717 -6768 0
1000000 1024 -9442 -7859 -7698 -8509 -8210 -8332 0
1000000 3329 -9442 -7859 -7698 -8509 -8210 -8332 0
1000000 814 -7050 -8750 -6452 -890 0
1000000 3330 -7050 -8750 -6452 -890 0
1000000 61 -6100 -5639 -6341 -7301 -7890 -8083 -7792 0
1000000 3331 -6100 -5639 -6341 -7301 -7890 -8083 -7792 0
1000000 564 -6689 -7392 -8495 -7640 -6975 -7283 0
1000000 3332 -6689 -7392 -8495 -7640 -6975 -7283 0
1000000 1285 -7571 -6045 -7193 -1322 0
1000000 3333 -7571 -6045 -7193 -1322 0
1000000 537 -5611 -7613 -8015 0
1000000 3334 -5611 -7613 -8015 0
1000000 104 -7963 -7638 -5428 0
1000000 3335 -7963 -7638 -5428 0
1000000 734 -7354 -7868 -5703 -7919 -7680 -8100 -7568 0
1000000 3336 -7354 -7868 -5703 -7919 -7680 -8100 -7568 0
1000000 543 -9355 -7930 -5489 -9118 0
1000000 3337 -9355 -7930 -5489 -9118 0
1000000 1488 -5389 -7445 -9567 -8286 0
1000000 3338 -5389 -7445 -9567 -8286 0
1000000 1044 -5388 -6752 -5457 -5550 0
1000000 3339 -5388 -6752 -5457 -5550 0
1000000 1091 -6896 -5825 -5704 -5584 -6591 -8259 0
1000000 3340 -6896 -5825 -5704 -5584 -6591 -8259 0
1000000 692 -9544 -6439 -9014 -7973 -9332 -7924 -5662 0
1000000 3341 -9544 -6439 -9014 -7973 -9332 -7924 -5662 0
1000000 1321 -7045 -7367 -6672 -8674 0
1000000 3342 -7045 -7367 -6672 -8674 0
1000000 908 -8221 -977 0
1000000 3343 -8221 -977 0
1000000 598 -8722 -8002 -6462 0
1000000 3344 -8722 -8002 -6462 0
1000000 58 -8126 -990 0
1000000 3345 -8126 -990 0
1000000 134 -6295 -7428 -8485 -5966 -7605 -8709 0
1000000 3346 -6295 -7428 -8485 -5966 -7605 -8709 0
1000000 607 -6816 -9105 -8233 -5752 -8694 0
1000000 3347 -6816 -9105 -8233 -5752 -8694 0
1000000 1168 -7524 -6284 -7053 0
1000000 3348 -7524 -6284 -7053 0
1000000 99 -8014 -9098 -6706 -639 0
1000000 3349 -8014 -9098 -6706 -639 0
1000000 1462 -7619 -5869 -7051 0
1000000 3350 -7619 -5869 -7051 0
1000000 1101 -5809 -5207 -1321 0
1000000 3351 -5809 -5207 -1321 0
1000000 815 -6617 -7395 -6255 -7987 0
1000000 3352 -6617 -7395 -6255 -7987 0
1000000 746 -7092 -8436 -6471 0
1000000 3353 -7092 -8436 -6471 0
1000000 1421 -8245 -6540 -5914 -8171 -5415 -6970 -5827 0
1000000 3354 -8245 -6540 -5914 -8171 -5415 -6970 -5827 0
1000000 268 -8593 -8611 -9495 -5711 0
1000000 3355 -8593 -8611 -9495 -5711 0
1000000 796 -7951 -6176 0
1000000 3356 -7951 -6176 0
1000000 664 -6393 -9233 -5215 0
1000000 3357 -6393 -9233 -5215 0
1000000 370 -6744 -1380 0
1000000 3358 -6744 -1380 0
1000000 368 -6590 -5420 -7182 -8662 -6363 -5895 0
1000000 3359 -6590 -5420 -7182 -8662 -6363 -5895 0
1000000 1298 -5987 -5470 -5675 -5986 -5918 -1390 0
1000000 3360 -5987 -5470 -5675 -5986 -5918 -1390 0
1000000 585 -9145 -7319 -5212 -5327 -9164 0
1000000 3361 -9145 -7319 -5212 -5327 -9164 0
1000000 251 -5131 -6255 -7387 -7619 -7883 0
1000000 3362 -5131 -6255 -7387 -7619 -7883 0
1000000 987 -7579 -7971 0
1000000 3363 -7579 -7971 0
1000000 1355 -5678 -5885 -9438 0
1000000 3364 -5678 -5885 -9438 0
1000000 461 -6546 -8007 0
1000000 3365 -6546 -8007 0
1000000 100 -7490 -9181 -8184 -6262 0
1000000 3366 -7490 -9181 -8184 -6262 0
1000000 976 -9442 -1040 0
1000000 3367 -9442 -1040 0
1000000 1083 -7898 -7289 -8700 -5414 -7497 -6650 -1091 0
1000000 3368 -7898 -7289 -8700 -5414 -7497 -6650 -1091 0
1000000 1459 -5167 -5444 -5849 -7754 0
1000000 3369 -5167 -5444 -5849 -7754 0
1000000 402 -6561 -7588 0
1000000 3370 -6561 -7588 0
1000000 666 -8933 -8131 -7599 0
1000000 3371 -8933 -8131 -7599 0
1000000 1335 -9235 -6211 -6849 0
1000000 3372 -9235 -6211 -6849 0
1000000 135 -5697 -8001 -9037 -8992 0
1000000 3373 -5697 -8001 -9037 -8992 0
1000000 1061 -6756 -7351 0
1000000 3374 -6756 -7351 0
1000000 718 -6351 -7409 -5830 -5619 0
1000000 3375 -6351 -7409 -5830 -5619 0
1000000 1456 -5810 -8417 -7542 -5703 0
1000000 3376 -5810 -8417 -7542 -5703 0
1000000 1308 -7913 -7429 -7075 -8003 -7676 0
1000000 3377 -7913 -7429 -7075 -8003 -7676 0
1000000 343 -8335 -8083 -7932 -6346 -9247 -6396 -1289 0
1000000 3378 -8335 -8083 -7932 -6346 -9247 -6396 -1289 0
1000000 646 -7366 -7524 -5268 -7080 0
1000000 3379 -7366 -7524 -5268 -7080 0
1000000 990 -8739 -6255 -7404 -8235 0
1000000 3380 -8739 -6255 -7404 -8235 0
1000000 1463 -6625 -1479 0
1000000 3381 -6625 -1479 0
1000000 1049 -9182 -8207 0
1000000 3382 -9182 -8207 0
1000000 827 -5749 -8798 -8021 -6553 -8129 0
1000000 3383 -5749 -8798 -8021 -6553 -8129 0
1000000 1326 -9520 -6694 -6190 -7965 -9111 0
1000000 3384 -9520 -6694 -6190 -7965 -9111 0
1000000 1188 -5477 -9216 -7621 -8981 -7020 -9558 -6899 0
1000000 3385 -5477 -9216 -7621 -8981 -7020 -9558 -6899 0
1000000 515 -5776 -8044 -898 0
1000000 3386 -5776 -8044 -898 0
1000000 766 -7263 -6565 -6994 -5950 -8818 0
1000000 3387 -7263 -6565 -6994 -5950 -8818 0
1000000 1257 -6454 -5282 -7111 -6817 -7780 -5555 0
1000000 3388 -6454 -5282 -7111 -6817 -7780 -5555 0
1000000 1074 -7452 -7753 -8527 -7424 -8647 -9349 0
1000000 3389 -7452 -7753 -8527 -7424 -8647 -9349 0
1000000 446 -6662 -5345 -8747 -7317 -7996 -8583 -5331 0
1000000 3390 -6662 -5345 -8747 -7317 -7996 -8583 -5331 0
1000000 117 -7570 -7627 -8456 -9023 -8683 -5719 0
1000000 3391 -7570 -7627 -8456 -9023 -8683 -5719 0
1000000 1144 -6983 -5182 -8916 -6778 -8265 0
1000000 3392 -6983 -5182 -8916 -6778 -8265 0
1000000 975 -8173 -6216 -6567 -8389 -6405 -6041 0
1000000 3393 -8173 -6216 -6567 -8389 -6405 -6041 0
1000000 433 -5159 -6257 -5853 -8935 -9159 0
1000000 3394 -5159 -6257 -5853 -8935 -9159 0
1000000 1101 -7237 -5249 -7825 -9547 -6042 0
1000000 3395 -7237 -5249 -7825 -9547 -6042 0
1000000 8 -6960 -6557 -6860 -5574 -7052 -8880 0
1000000 3396 -6960 -6557 -6860 -5574 -7052 -8880 0
1000000 488 -8443 -8347 -5712 -6024 -6713 -876 0
1000000 3397 -8443 -8347 -5712 -6024 -6713 -876 0
1000000 1422 -7397 -9264 -1477 0
1000000 3398 -7397 -9264 -1477 0
1000000 1057 -9411 -5832 -5366 -5658 -6642 -5661 -5916 0
1000000 3399 -9411 -5832 -5366 -5658 -6642 -5661 -5916 0
1000000 248 -7729 -9333 0
1000000 3400 -7729 -9333 0
1000000 1423 -8864 -9356 -6083 -5687 -5473 -9522 -8687 0
1000000 3401 -8864 -9356 -6083 -5687 -5473 -9522 -8687 0
1000000 1131 -5623 -5512 -5318 -5551 -5255 -5910 0
1000000 3402 -5623 -5512 -5318 -5551 -5255 -5910 0
1000000 937 -7814 -5653 -6287 -6667 -5503 0
1000000 3403 -7814 -5653 -6287 -6667 -5503 0
1000000 521 -6149 -7518 -9523 0
1000000 3404 -6149 -7518 -9523 0
1000000 274 -7023 -9009 -6899 -1164 0
1000000 3405 -7023 -9009 -6899 -1164 0
1000000 638 -6553 -6346 0
1000000 3406 -6553 -6346 0
1000000 579 -7978 -9431 -8994 -5152 -8868 0
1000000 3407 -7978 -9431 -8994 -5152 -8868 0
1000000 1343 -8528 -8254 -7264 -7131 0
1000000 3408 -8528 -8254 -7264 -7131 0
1000000 1306 -5246 -7922 -7303 -6596 -9447 -1310 0
1000000 3409 -5246 -7922 -7303 -6596 -9447 -1310 0
1000000 1109 -5791 -6488 -6630 -5838 -8154 -1261 0
1000000 3410 -5791 -6488 -6630 -5838 -8154 -1261 0
1000000 671 -5419 -9412 -7385 0
1000000 3411 -5419 -9412 -7385 0
1000000 170 -6919 -6752 -7706 0
1000000 3412 -6919 -6752 -7706 0
1000000 112 -7512 -9325 -7296 -5112 -8899 -7681 0
1000000 3413 -7512 -9325 -7296 -5112 -8899 -7681 0
1000000 1023 -8879 -5708 -7147 -1165 0
1000000 3414 -8879 -5708 -7147 -1165 0
1000000 678 -7705 -9234 -5826 0
1000000 3415 -7705 -9234 -5826 0
1000000 1314 -6712 -9258 -9585 -7890 -7722 0
1000000 3416 -6712 -9258 -9585 -7890 -7722 0
1000000 725 -8809 -8014 -8940 0
1000000 3417 -8809 -8014 -8940 0
1000000 742 -8620 -1382 0
1000000 3418 -8620 -1382 0
1000000 705 -7442 -5574 -9149 -7882 -6518 0
1000000 3419 -7442 -5574 -9149 -7882 -6518 0
1000000 648 -6985 -5198 -8454 -5645 0
1000000 3420 -6985 -5198 -8454 -5645 0
1000000 1082 -7851 -7026 -7693 -8019 -7871 -7613 -1361 0
1000000 3421 -7851 -7026 -7693 -8019 -7871 -7613 -1361 0
1000000 724 -8792 -6734 -8461 0
1000000 3422 -8792 -6734 -8461 0
1000000 1457 -6127 -5787 -5460 -7819 0
1000000 3423 -6127 -5787 -5460 -7819 0
1000000 454 -7004 -8852 0
1000000 3424 -7004 -8852 0
1000000 10 -7866 -8564 -8494 -6429 -5490 0
1000000 3425 -7866 -8564 -8494 -6429 -5490 0
1000000 629 -8671 -7811 -9349 -8470 -8657 -5387 -5615 0
1000000 3426 -8671 -7811 -9349 -8470 -8657 -5387 -5615 0
1000000 1410 -6961 -1499 0
1000000 3427 -6961 -1499 0
1000000 908 -5377 -7521 -5987 -1421 0
1000000 3428 -5377 -7521 -5987 -1421 0
1000000 1329 -9443 -1441 0
1000000 3429 -9443 -1441 0
1000000 471 -6753 -7973 -8012 -8186 -8356 -7702 0
1000000 3430 -6753 -7973 -8012 -8186 -8356 -7702 0
1000000 665 -6116 -6458 -8937 -7485 0
1000000 3431 -6116 -6458 -8937 -7485 0
1000000 26 -9559 -9147 0
1000000 3432 -9559 -9147 0
1000000 354 -6426 -6378 -8614 -8225 -944 0
1000000 3433 -6426 -6378 -8614 -8225 -944 0
1000000 9 -5539 -6872 -6299 -5173 0
1000000 3434 -5539 -6872 -6299 -5173 0
1000000 535 -7981 -5890 -5162 -5760 -5252 -6147 0
1000000 3435 -7981 -5890 -5162 -5760 -5252 -6147 0
1000000 645 -7111 -8388 -6093 -7778 -8380 0
1000000 3436 -7111 -8388 -6093 -7778 -8380 0
1000000 1191 -5881 -7189 -6539 0
1000000 3437 -5881 -7189 -6539 0
1000000 203 -8560 -5385 -7630 0
1000000 3438 -8560 -5385 -7630 0
1000000 509 -8276 -7463 -1427 0
1000000 3439 -8276 -7463 -1427 0
1000000 903 -7230 -5572 0
1000000 3440 -7230 -5572 0
1000000 2 -5209 -7606 -6165 -6615 -7805 -8438 -8734 0
1000000 3441 -5209 -7606 -6165 -6615 -7805 -8438 -8734 0
1000000 430 -6764 -5134 0
1000000 3442 -6764 -5134 0
1000000 890 -7434 -9480 -8798 -5579 -9066 0
1000000 3443 -7434 -9480 -8798 -5579 -9066 0
1000000 1017 -7534 -5959 -9102 -5848 -7595 -7758 0
1000000 3444 -7534 -5959 -9102 -5848 -7595 -7758 0
1000000 1122 -9031 -6817 -5161 -7372 -6840 0
1000000 3445 -9031 -6817 -5161 -7372 -6840 0
1000000 1133 -9075 -5589 0
1000000 3446 -9075 -5589 0
1000000 288 -6836 -8847 0
1000000 3447 -6836 -8847 0
1000000 1166 -5569 -7857 0
1000000 3448 -5569 -7857 0
1000000 983 -8638 -7471 -6721 -1372 0
1000000 3449 -8638 -7471 -6721 -1372 0
1000000 1465 -5818 -6374 -6488 -7327 -1494 0
1000000 3450 -5818 -6374 -6488 -7327 -1494 0
1000000 605 -6731 -7022 -8527 -9541 -5249 -7490 -7614 0
1000000 3451 -6731 -7022 -8527 -9541 -5249 -7490 -7614 0
1000000 282 -9534 -7474 -8869 -6137 -6398 -8826 -7279 0
1000000 3452 -9534 -7474 -8869 -6137 -6398 -8826 -7279 0
1000000 1380 -8205 -6410 -8407 -1454 0
1000000 3453 -8205 -6410 -8407 -1454 0
1000000 37 -5813 -7861 -872 0
1000000 3454 -5813 -7861 -872 0
1000000 1348 -7682 -6104 -9018 -5749 -7409 0
1000000 3455 -7682 -6104 -9018 -5749 -7409 0
1000000 575 -7934 -8437 -5926 -8546 0
1000000 3456 -7934 -8437 -5926 -8546 0
1000000 433 -5122 -5164 -9553 -7923 -915 0
1000000 3457 -5122 -5164 -9553 -7923 -915 0
1000000 237 -5594 -8478 -5987 -7693 -6700 -7115 0
1000000 3458 -5594 -8478 -5987 -7693 -6700 -7115 0
1000000 792 -6909 -6115 -8181 0
1000000 3459 -6909 -6115 -8181 0
1000000 542 -8397 -6852 -5381 -5465 -7235 -8989 -7254 0
1000000 3460 -8397 -6852 -5381 -5465 -7235 -8989 -7254 0
1000000 751 -9131 -9551 -1128 0
1000000 3461 -9131 -9551 -1128 0
1000000 53 -5498 -7226 -7225 -7745 -8946 0
1000000 3462 -5498 -7226 -7225 -7745 -8946 0
1000000 985 -8973 -5538 -5833 -6371 0
1000000 3463 -8973 -5538 -5833 -6371 0
1000000 390 -5259 -8932 -9408 -7866 -5263 -7130 0
1000000 3464 -5259 -8932 -9408 -7866 -5263 -7130 0
1000000 139 -7379 -6064 -7895 0
1000000 3465 -7379 -6064 -7895 0
1000000 949 -7118 -7871 0
1000000 3466 -7118 -7871 0
1000000 266 -6985 -6294 0
1000000 3467 -6985 -6294 0
1000000 785 -8138 -6022 0
1000000 3468 -8138 -6022 0
1000000 627 -8658 -8056 -8134 -8872 -6108 -9350 -7673 0
1000000 3469 -8658 -8056 -8134 -8872 -6108 -9350 -7673 0
1000000 1264 -8847 -5362 -5412 0
1000000 3470 -8847 -5362 -5412 0
1000000 1405 -8665 -6217 -7983 -6567 -6836 -1469 0
1000000 3471 -8665 -6217 -7983 -6567 -6836 -1469 0
1000000 296 -9554 -9591 -7347 0
1000000 3472 -9554 -9591 -7347 0
1000000 437 -8392 -7871 -5506 -8848 0
1000000 3473 -8392 -7871 -5506 -8848 0
1000000 1342 -7078 -8848 -6088 -6895 -1445 0
1000000 3474 -7078 -8848 -6088 -6895 -1445 0
1000000 1232 -6909 -1395 0
1000000 3475 -6909 -1395 0
1000000 42 -6714 -6465 -5164 -343 0
1000000 3476 -6714 -6465 -5164 -343 0
1000000 1344 -8580 -7868 -6186 -5269 -6466 -6634 0
1000000 3477 -8580 -7868 -6186 -5269 -6466 -6634 0
1000000 143 -9349 -185 0
1000000 3478 -9349 -185 0
1000000 268 -9062 -6244 -6144 -6378 0
1000000 3479 -9062 -6244 -6144 -6378 0
1000000 1239 -8250 -8877 -6334 -9023 -8874 -5753 -5929 0
1000000 3480 -8250 -8877 -6334 -9023 -8874 -5753 -5929 0
1000000 1387 -9176 -1493 0
1000000 3481 -9176 -1493 0
1000000 257 -9302 -7600 -5800 0
1000000 3482 -9302 -7600 -5800 0
1000000 1163 -5173 -5376 0
1000000 3483 -5173 -5376 0
1000000 1424 -8099 -7848 -7392 -9133 -7057 -5810 -9308 0
1000000 3484 -8099 -7848 -7392 -9133 -7057 -5810 -9308 0
1000000 1350 -9159 -9347 -6467 -5545 0
1000000 3485 -9159 -9347 -6467 -5545 0
1000000 858 -6402 -8516 -8408 -7402 0
1000000 3486 -6402 -8516 -8408 -7402 0
1000000 442 -8007 -9154 -9365 -9060 -5449 -8552 0
1000000 3487 -8007 -9154 -9365 -9060 -5449 -8552 0
1000000 630 -8741 -6940 -8249 0
1000000 3488 -8741 -6940 -8249 0
1000000 482 -7685 -9413 -6793 -8646 -9279 -548 0
1000000 3489 -7685 -9413 -6793 -8646 -9279 -548 0
1000000 611 -8505 -9178 -8313 -8764 -9045 -8754 0
1000000 3490 -8505 -9178 -8313 -8764 -9045 -8754 0
1000000 1041 -8218 -8092 -8967 -5772 -8739 -9177 0
1000000 3491 -8218 -8092 -8967 -5772 -8739 -9177 0
1000000 1147 -5748 -8539 -6136 -6461 0
1000000 3492 -5748 -8539 -6136 -6461 0
1000000 722 -5754 -9196 -9225 -5880 -7453 -8909 0
1000000 3493 -5754 -9196 -9225 -5880 -7453 -8909 0
1000000 594 -6701 -6461 -7036 -5934 -5331 -682 0
1000000 3494 -6701 -6461 -7036 -5934 -5331 -682 0
1000000 548 -6232 -6973 -8753 -6690 -6819 0
1000000 3495 -6232 -6973 -8753 -6690 -6819 0
1000000 851 -7584 -5409 -5371 -6271 -8780 -7347 0
1000000 3496 -7584 -5409 -5371 -6271 -8780 -7347 0
1000000 1066 -8748 -6229 -8151 -9035 0
1000000 3497 -8748 -6229 -8151 -9035 0
1000000 306 -5929 -5553 -5918 -9021 -6868 -8918 -9543 0
1000000 3498 -5929 -5553 -5918 -9021 -6868 -8918 -9543 0
1000000 1411 -6686 -8528 -7681 -7493 0
1000000 3499 -6686 -8528 -7681 -7493 0
1000000 910 -7883 -8200 -6327 0
1000000 3500 -7883 -8200 -6327 0
1000000 928 -5747 -5933 -5216 -5462 -7323 -5658 0
1000000 3501 -5747 -5933 -5216 -5462 -7323 -5658 0
1000000 969 -8070 -5853 -6650 -7279 -5146 0
1000000 3502 -8070 -5853 -6650 -7279 -5146 0
1000000 670 -9378 -8331 -6482 -7847 -5417 -9169 -5484 0
1000000 3503 -9378 -8331 -6482 -7847 -5417 -9169 -5484 0
1000000 151 -8268 -9133 -8867 -8303 0
1000000 3504 -8268 -9133 -8867 -8303 0
1000000 355 -8104 -5482 -6802 -1094 0
1000000 3505 -8104 -5482 -6802 -1094 0
1000000 210 -9318 -325 0
1000000 3506 -9318 -325 0
1000000 316 -6271 -9379 -8912 -9442 -7355 -8675 0
1000000 3507 -6271 -9379 -8912 -9442 -7355 -8675 0
1000000 1274 -5607 -9407 -6626 0
1000000 3508 -5607 -9407 -6626 0
1000000 1230 -5108 -7456 -7096 -7958 0
1000000 3509 -5108 -7456 -7096 -7958 0
1000000 711 -5988 -8810 -1006 0
1000000 3510 -5988 -8810 -1006 0
1000000 1441 -6437 -6613 0
1000000 3511 -6437 -6613 0
1000000 1489 -7672 -1493 0
1000000 3512 -7672 -1493 0
1000000 874 -7563 -5990 -7740 -9062 -6291 -8147 -5738 0
1000000 3513 -7563 -5990 -7740 -9062 -6291 -8147 -5738 0
1000000 947 -8936 -1361 0
1000000 3514 -8936 -1361 0
1000000 468 -6258 -6270 -8856 -6874 -7931 -5810 -6427 0
1000000 3515 -6258 -6270 -8856 -6874 -7931 -5810 -6427 0
1000000 761 -8514 -7618 -9392 0
1000000 3516 -8514 -7618 -9392 0
1000000 67 -8037 -8666 -8783 -6468 -9301 -5450 0
1000000 3517 -8037 -8666 -8783 -6468 -9301 -5450 0
1000000 529 -9467 -5989 -6982 -6275 0
1000000 3518 -9467 -5989 -6982 -6275 0
1000000 313 -5682 -6038 -7303 -5821 -8348 -1080 0
1000000 3519 -5682 -6038 -7303 -5821 -8348 -1080 0
1000000 26 -6404 -6226 0
1000000 3520 -6404 -6226 0
1000000 279 -7017 -9233 -8568 -6439 -7740 -9185 0
1000000 3521 -7017 -9233 -8568 -6439 -7740 -9185 0
1000000 1170 -6434 -5291 -8397 -6158 -1453 0
1000000 3522 -6434 -5291 -8397 -6158 -1453 0
1000000 411 -5759 -8675 -8051 -6998 -8598 -8312 0
1000000 3523 -5759 -8675 -8051 -6998 -8598 -8312 0
1000000 175 -9141 -5524 -7221 -8712 0
1000000 3524 -9141 -5524 -7221 -8712 0
1000000 1349 -8663 -6600 -9084 -8189 0
1000000 3525 -8663 -6600 -9084 -8189 0
1000000 1167 -7773 -5684 -9131 -1440 0
1000000 3526 -7773 -5684 -9131 -1440 0
1000000 337 -6545 -8906 -813 0
1000000 3527 -6545 -8906 -813 0
1000000 1042 -7850 -6462 -7531 -9413 -1390 0
1000000 3528 -7850 -6462 -7531 -9413 -1390 0
1000000 355 -7545 -6073 -5716 -6393 -7991 0
1000000 3529 -7545 -6073 -5716 -6393 -7991 0
1000000 1145 -5673 -8306 -5249 -1319 0
1000000 3530 -5673 -8306 -5249 -1319 0
1000000 445 -9286 -9274 -8425 -8637 -9494 0
1000000 3531 -9286 -9274 -8425 -8637 -9494 0
1000000 723 -6262 -7882 -6818 -7694 -7488 -5650 0
1000000 3532 -6262 -7882 -6818 -7694 -7488 -5650 0
1000000 713 -8381 -7437 -8219 -9374 -7257 -9241 -1286 0
1000000 3533 -8381 -7437 -8219 -9374 -7257 -9241 -1286 0
1000000 1087 -8871 -1234 0
1000000 3534 -8871 -1234 0
1000000 1007 -8790 -7609 -5182 -8985 -8626 0
1000000 3535 -8790 -7609 -5182 -8985 -8626 0
1000000 275 -6574 -6477 0
1000000 3536 -6574 -6477 0
1000000 580 -9081 -9327 -6810 -9518 -690 0
1000000 3537 -9081 -9327 -6810 -9518 -690 0
1000000 763 -6197 -8873 -5290 -9017 -7465 -1449 0
1000000 3538 -6197 -8873 -5290 -9017 -7465 -1449 0
1000000 356 -9308 -9410 -9147 -7988 -523 0
1000000 3539 -9308 -9410 -9147 -7988 -523 0
1000000 303 -6653 -8018 -6073 0
1000000 3540 -6653 -8018 -6073 0
1000000 1321 -7638 -1441 0
1000000 3541 -7638 -1441 0
1000000 1488 -6797 -7163 -8405 -8291 -5376 -5816 0
1000000 3542 -6797 -7163 -8405 -8291 -5376 -5816 0
1000000 893 -7520 -8030 -5633 -7292 0
1000000 3543 -7520 -8030 -5633 -7292 0
1000000 1364 -8337 -6119 -9375 -6367 0
1000000 3544 -8337 -6119 -9375 -6367 0
1000000 1030 -6387 -5182 -9066 -5346 -9101 -5112 -5148 0
1000000 3545 -6387 -5182 -9066 -5346 -9101 -5112 -5148 0
1000000 562 -7888 -5432 -5864 0
1000000 3546 -7888 -5432 -5864 0
1000000 1137 -7593 -5806 0
1000000 3547 -7593 -5806 0
1000000 803 -7903 -6976 -8454 -5273 0
1000000 3548 -7903 -6976 -8454 -5273 0
1000000 1160 -8978 -7948 -9227 0
1000000 3549 -8978 -7948 -9227 0
1000000 839 -8884 -5255 -7298 -7990 -8305 -8236 -8487 0
1000000 3550 -8884 -5255 -7298 -7990 -8305 -8236 -8487 0
1000000 341 -5314 -6201 -5914 -6023 -5569 -6289 -8701 0
1000000 3551 -5314 -6201 -5914 -6023 -5569 -6289 -8701 0
1000000 217 -7935 -8382 -7656 -7864 -9543 0
1000000 3552 -7935 -8382 -7656 -7864 -9543 0
1000000 7 -6546 -6952 -5630 -7795 -6699 -6272 -6407 0
1000000 3553 -6546 -6952 -5630 -7795 -6699 -6272 -6407 0
1000000 237 -5491 -9441 -6051 -9110 -5560 -8194 -6395 0
1000000 3554 -5491 -9441 -6051 -9110 -5560 -8194 -6395 0
1000000 637 -9091 -1151 0
1000000 3555 -9091 -1151 0
1000000 969 -9497 -6831 -8030 -5821 0
1000000 3556 -9497 -6831 -8030 -5821 0
1000000 1172 -8072 -8420 -6941 -5213 -5663 -7344 0
1000000 3557 -8072 -8420 -6941 -5213 -5663 -7344 0
1000000 971 -5119 -6648 0
1000000 3558 -5119 -6648 0
1000000 740 -8313 -8876 -8905 -902 0
1000000 3559 -8313 -8876 -8905 -902 0
1000000 798 -8481 -6423 -9331 -6141 -9506 0
1000000 3560 -8481 -6423 -9331 -6141 -9506 0
1000000 428 -9557 -5402 -8165 -7331 0
1000000 3561 -9557 -5402 -8165 -7331 0
1000000 460 -9150 -9072 -5227 -6186 -1220 0
1000000 3562 -9150 -9072 -5227 -6186 -1220 0
1000000 887 -9428 -9181 -7087 -6571 0
1000000 3563 -9428 -9181 -7087 -6571 0
1000000 632 -6089 -8759 -5311 -6554 -6123 -6672 0
1000000 3564 -6089 -8759 -5311 -6554 -6123 -6672 0
1000000 824 -5196 -9396 -7020 -835 0
1000000 3565 -5196 -9396 -7020 -835 0
1000000 547 -7900 -8622 -8904 -9023 -1315 0
1000000 3566 -7900 -8622 -8904 -9023 -1315 0
1000000 425 -5207 -9434 -6324 -5681 -7478 -6893 -9244 0
1000000 3567 -5207 -9434 -6324 -5681 -7478 -6893 -9244 0
1000000 94 -6283 -6522 -6535 -8970 -8602 -6445 0
1000000 3568 -6283 -6522 -6535 -8970 -8602 -6445 0
1000000 495 -8497 -6564 -9547 -9103 -6393 0
1000000 3569 -8497 -6564 -9547 -9103 -6393 0
1000000 1333 -6819 -6681 -5612 0
1000000 3570 -6819 -6681 -5612 0
1000000 1360 -6412 -6779 -6189 -5636 0
1000000 3571 -6412 -6779 -6189 -5636 0
1000000 438 -6174 -5923 0
1000000 3572 -6174 -5923 0
1000000 608 -5717 -1375 0
1000000 3573 -5717 -1375 0
1000000 1199 -8742 -8112 -7561 -8826 -8615 -1201 0
1000000 3574 -8742 -8112 -7561 -8826 -8615 -1201 0
1000000 1309 -5332 -7311 -9517 -6271 -5680 -7968 0
1000000 3575 -5332 -7311 -9517 -6271 -5680 -7968 0
1000000 1418 -5505 -1434 0
1000000 3576 -5505 -1434 0
1000000 521 -5243 -9499 -7280 -8061 -9010 0
1000000 3577 -5243 -9499 -7280 -8061 -9010 0
1000000 661 -5245 -9020 -5867 -7469 -7460 -8067 -9418 0
1000000 3578 -5245 -9020 -5867 -7469 -7460 -8067 -9418 0
1000000 215 -7375 -5488 0
1000000 3579 -7375 -5488 0
1000000 491 -5112 -7371 -8682 0
1000000 3580 -5112 -7371 -8682 0
1000000 829 -8462 -6791 -5591 -5137 -8154 -1250 0
1000000 3581 -8462 -6791 -5591 -5137 -8154 -1250 0
1000000 987 -7433 -6844 0
1000000 3582 -7433 -6844 0
1000000 1428 -9393 -5611 0
1000000 3583 -9393 -5611 0
1000000 511 -7517 -8351 -6533 -6700 -9154 -8058 -7140 0
1000000 3584 -7517 -8351 -6533 -6700 -9154 -8058 -7140 0
1000000 612 -8776 -5373 -9242 -6483 -5402 -983 0
1000000 3585 -8776 -5373 -9242 -6483 -5402 -983 0
1000000 1020 -5856 -8275 0
1000000 3586 -5856 -8275 0
1000000 487 -8310 -6931 -7163 -5232 -7238 -1397 0
1000000 3587 -8310 -6931 -7163 -5232 -7238 -1397 0
1000000 358 -7857 -5326 -6319 -9378 0
1000000 3588 -7857 -5326 -6319 -9378 0
1000000 634 -6160 -776 0
1000000 3589 -6160 -776 0
1000000 1476 -7923 -7208 -8645 -1480 0
1000000 3590 -7923 -7208 -8645 -1480 0
1000000 979 -7185 -9341 -5573 0
1000000 3591 -7185 -9341 -5573 0
1000000 603 -7799 -5370 -9128 -8194 -8954 0
1000000 3592 -7799 -5370 -9128 -8194 -8954 0
1000000 1099 -5776 -7215 -6172 -6345 0
1000000 3593 -5776 -7215 -6172 -6345 0
1000000 561 -8920 -5559 -8038 -9592 -5310 0
1000000 3594 -8920 -5559 -8038 -9592 -5310 0
1000000 587 -7910 -9403 -8614 -1073 0
1000000 3595 -7910 -9403 -8614 -1073 0
1000000 1052 -7415 -8804 -8319 -8254 -7025 -7350 -7743 0
1000000 3596 -7415 -8804 -8319 -8254 -7025 -7350 -7743 0
1000000 550 -9153 -7539 -8041 -7844 -7151 -7454 0
1000000 3597 -9153 -7539 -8041 -7844 -7151 -7454 0
1000000 187 -9177 -9344 -6567 -9281 -7355 0
1000000 3598 -9177 -9344 -6567 -9281 -7355 0
1000000 848 -5271 -8415 -6859 -8921 -6090 -7735 -5189 0
1000000 3599 -5271 -8415 -6859 -8921 -6090 -7735 -5189 0
1000000 605 -8449 -8323 -8751 -1258 0
1000000 3600 -8449 -8323 -8751 -1258 0
1000000 749 -6460 -5930 -6815 -5574 -9029 0
1000000 3601 -6460 -5930 -6815 -5574 -9029 0
1000000 1014 -5734 -6310 -7088 -9271 -1211 0
1000000 3602 -5734 -6310 -7088 -9271 -1211 0
1000000 1002 -7403 -6372 -7723 -8493 -5850 -5213 -7049 0
1000000 3603 -7403 -6372 -7723 -8493 -5850 -5213 -7049 0
1000000 531 -5200 -6121 -574 0
1000000 3604 -5200 -6121 -574 0
1000000 263 -9000 -8571 -7855 -5640 -668 0
1000000 3605 -9000 -8571 -7855 -5640 -668 0
1000000 144 -6375 -8225 -5162 -1188 0
1000000 3606 -6375 -8225 -5162 -1188 0
1000000 76 -6033 -5904 -7556 0
1000000 3607 -6033 -5904 -7556 0
1000000 1039 -8957 -7771 -5272 -5238 -1092 0
1000000 3608 -8957 -7771 -5272 -5238 -1092 0
1000000 1148 -8512 -7568 -8106 -6612 -1386 0
1000000 3609 -8512 -7568 -8106 -6612 -1386 0
1000000 1398 -8560 -7455 -6301 0
1000000 3610 -8560 -7455 -6301 0
1000000 1114 -7759 -8495 -9531 -7823 -6822 -7408 0
1000000 3611 -7759 -8495 -9531 -7823 -6822 -7408 0
1000000 1033 -9519 -9148 -5208 -9308 -8107 -9534 -1129 0
1000000 3612 -9519 -9148 -5208 -9308 -8107 -9534 -1129 0
1000000 327 -8430 -8564 -9045 -6166 -1138 0
1000000 3613 -8430 -8564 -9045 -6166 -1138 0
1000000 1492 -9248 -6898 -8090 -9371 -8224 -8886 0
1000000 3614 -9248 -6898 -8090 -9371 -8224 -8886 0
1000000 311 -8926 -7798 0
1000000 3615 -8926 -7798 0
1000000 764 -5420 -8119 -9375 -9404 -6041 -8984 -1113 0
1000000 3616 -5420 -8119 -9375 -9404 -6041 -8984 -1113 0
1000000 678 -5273 -6674 -8200 -8941 0
1000000 3617 -5273 -6674 -8200 -8941 0
1000000 1111 -5856 -9179 0
1000000 3618 -5856 -9179 0
1000000 1207 -8863 -6140 -7542 -9146 -9353 -5900 0
1000000 3619 -8863 -6140 -7542 -9146 -9353 -5900 0
1000000 1315 -8381 -5393 0
1000000 3620 -8381 -5393 0
1000000 964 -5995 -8005 -5962 -5893 -7858 -8307 -9297 0
1000000 3621 -5995 -8005 -5962 -5893 -7858 -8307 -9297 0
1000000 391 -5515 -6374 -5272 -9346 0
1000000 3622 -5515 -6374 -5272 -9346 0
1000000 847 -5474 -7069 0
1000000 3623 -5474 -7069 0
1000000 456 -6465 -7574 -6075 -7063 -760 0
1000000 3624 -6465 -7574 -6075 -7063 -760 0
1000000 1169 -5666 -8948 0
1000000 3625 -5666 -8948 0
1000000 242 -6099 -9066 -8342 -7741 0
1000000 3626 -6099 -9066 -8342 -7741 0
1000000 1238 -5136 -6839 -5905 -5660 0
1000000 3627 -5136 -6839 -5905 -5660 0
1000000 103 -6792 -6118 -739 0
1000000 3628 -6792 -6118 -739 0
1000000 401 -8341 -8507 -9084 0
1000000 3629 -8341 -8507 -9084 0
1000000 219 -8248 -8476 -5266 -5924 -5401 -5995 0
1000000 3630 -8248 -8476 -5266 -5924 -5401 -5995 0
1000000 356 -8815 -8359 0
1000000 3631 -8815 -8359 0
1000000 1344 -8775 -9078 -5131 -9219 -8096 -8294 -8836 0
1000000 3632 -8775 -9078 -5131 -9219 -8096 -8294 -8836 0
1000000 1192 -7692 -6158 -6495 -8893 -1210 0
1000000 3633 -7692 -6158 -6495 -8893 -1210 0
1000000 679 -6249 -6880 -6827 -9332 -8849 -5896 0
1000000 3634 -6249 -6880 -6827 -9332 -8849 -5896 0
1000000 709 -5859 -8603 -6834 0
1000000 3635 -5859 -8603 -6834 0
1000000 455 -7107 -5930 -8167 -9123 -7504 -5588 -1146 0
1000000 3636 -7107 -5930 -8167 -9123 -7504 -5588 -1146 0
1000000 489 -6922 -8156 0
1000000 3637 -6922 -8156 0
1000000 94 -8720 -7164 0
1000000 3638 -8720 -7164 0
1000000 1471 -9173 -9396 0
1000000 3639 -9173 -9396 0
1000000 568 -6170 -5497 -6675 0
1000000 3640 -6170 -5497 -6675 0
1000000 611 -8035 -6148 -8844 -6795 -9495 -6170 0
1000000 3641 -8035 -6148 -8844 -6795 -9495 -6170 0
1000000 1407 -5330 -7760 -7138 -1473 0
1000000 3642 -5330 -7760 -7138 -1473 0
1000000 345 -8955 -5516 -8402 -8752 -8218 -6935 -8056 0
1000000 3643 -8955 -5516 -8402 -8752 -8218 -6935 -8056 0
1000000 738 -6614 -7678 -5270 -9530 -9237 -5875 -1014 0
1000000 3644 -6614 -7678 -5270 -9530 -9237 -5875 -1014 0
1000000 136 -9188 -5640 0
1000000 3645 -9188 -5640 0
1000000 714 -8992 -9037 -8071 -7544 -5641 0
1000000 3646 -8992 -9037 -8071 -7544 -5641 0
1000000 890 -6626 -1489 0
1000000 3647 -6626 -1489 0
1000000 109 -5826 -6653 -8731 -7196 -7300 -9477 0
1000000 3648 -5826 -6653 -8731 -7196 -7300 -9477 0
1000000 1438 -6251 -7484 -8029 0
1000000 3649 -6251 -7484 -8029 0
1000000 231 -6860 -8622 -7695 -9321 -7018 0
1000000 3650 -6860 -8622 -7695 -9321 -7018 0
1000000 751 -8889 -5641 0
1000000 3651 -8889 -5641 0
1000000 1459 -8055 -8948 -9152 -7465 -8664 0
1000000 3652 -8055 -8948 -9152 -7465 -8664 0
1000000 1413 -9481 -8294 0
1000000 3653 -9481 -8294 0
1000000 1444 -7264 -8433 -8460 -8935 -8423 -1465 0
1000000 3654 -7264 -8433 -8460 -8935 -8423 -1465 0
1000000 839 -9437 -6992 -7977 0
1000000 3655 -9437 -6992 -7977 0
1000000 557 -8533 -9296 -5642 -5260 -7544 -8376 0
1000000 3656 -8533 -9296 -5642 -5260 -7544 -8376 0
1000000 641 -6571 -7702 -5441 -5166 -9189 -9014 -7634 0
1000000 3657 -6571 -7702 -5441 -5166 -9189 -9014 -7634 0
1000000 350 -8206 -8462 -6286 -5574 -6985 0
1000000 3658 -8206 -8462 -6286 -5574 -6985 0
1000000 6 -7677 -5230 0
1000000 3659 -7677 -5230 0
1000000 793 -6764 -7375 -1040 0
1000000 3660 -6764 -7375 -1040 0
1000000 1141 -6656 -8754 -7972 -5772 -8546 -7803 -1355 0
1000000 3661 -6656 -8754 -7972 -5772 -8546 -7803 -1355 0
1000000 1325 -9189 -5319 -6981 -9512 -6885 0
1000000 3662 -9189 -5319 -6981 -9512 -6885 0
1000000 1243 -9446 -9439 -5612 -5399 -5764 -8987 -5774 0
1000000 3663 -9446 -9439 -5612 -5399 -5764 -8987 -5774 0
1000000 1273 -7643 -6032 -1329 0
1000000 3664 -7643 -6032 -1329 0
1000000 174 -8498 -8190 -7245 -7218 -5336 0
1000000 3665 -8498 -8190 -7245 -7218 -5336 0
1000000 1247 -7274 -1370 0
1000000 3666 -7274 -1370 0
1000000 782 -7680 -9553 -9470 -6022 0
1000000 3667 -7680 -9553 -9470 -6022 0
1000000 1063 -6707 -5600 -5590 -5524 -6889 -7012 -1250 0
1000000 3668 -6707 -5600 -5590 -5524 -6889 -7012 -1250 0
1000000 1234 -8876 -6318 -5691 -7912 -7332 0
1000000 3669 -8876 -6318 -5691 -7912 -7332 0
1000000 41 -6152 -8650 -6499 -8842 -9343 -9226 0
1000000 3670 -6152 -8650 -6499 -8842 -9343 -9226 0
1000000 1038 -7194 -6639 -5698 -9049 -7600 -1181 0
1000000 3671 -7194 -6639 -5698 -9049 -7600 -1181 0
1000000 279 -9195 -7431 -5709 -292 0
1000000 3672 -9195 -7431 -5709 -292 0
1000000 806 -5171 -5567 -6487 -7877 -5308 0
1000000 3673 -5171 -5567 -6487 -7877 -5308 0
1000000 1279 -6975 -9376 -1498 0
1000000 3674 -6975 -9376 -1498 0
1000000 1266 -8700 -5304 -6581 -8822 -1439 0
1000000 3675 -8700 -5304 -6581 -8822 -1439 0
1000000 35 -8192 -8688 0
1000000 3676 -8192 -8688 0
1000000 624 -9583 -7758 -9357 -5244 -7832 -8102 -1438 0
1000000 3677 -9583 -7758 -9357 -5244 -7832 -8102 -1438 0
1000000 1457 -9446 -5615 -6200 -9401 0
1000000 3678 -9446 -5615 -6200 -9401 0
1000000 619 -8803 -8414 -1196 0
1000000 3679 -8803 -8414 -1196 0
1000000 911 -8595 -5577 -6612 -5958 0
1000000 3680 -8595 -5577 -6612 -5958 0
1000000 984 -8117 -6976 -5919 -7664 -5914 -7983 0
1000000 3681 -8117 -6976 -5919 -7664 -5914 -7983 0
1000000 158 -7330 -5422 -5628 0
1000000 3682 -7330 -5422 -5628 0
1000000 557 -5320 -6621 -5712 -7584 -8689 -8637 -1049 0
1000000 3683 -5320 -6621 -5712 -7584 -8689 -8637 -1049 0
1000000 82 -5668 -1041 0
1000000 3684 -5668 -1041 0
1000000 369 -7457 -5437 -7355 -7383 -7969 0
1000000 3685 -7457 -5437 -7355 -7383 -7969 0
1000000 57 -9027 -6971 -8411 -9366 -6688 -8345 -8205 0
1000000 3686 -9027 -6971 -8411 -9366 -6688 -8345 -8205 0
1000000 774 -9038 -6598 -9042 -7548 -8991 -9228 -7015 0
1000000 3687 -9038 -6598 -9042 -7548 -8991 -9228 -7015 0
1000000 844 -8699 -6320 -7312 -7199 -1010 0
1000000 3688 -8699 -6320 -7312 -7199 -1010 0
1000000 409 -8313 -7724 -5775 0
1000000 3689 -8313 -7724 -5775 0
1000000 133 -5776 -5657 -8809 -7941 -8660 0
1000000 3690 -5776 -5657 -8809 -7941 -8660 0
1000000 612 -6901 -5176 -7133 -8015 0
1000000 3691 -6901 -5176 -7133 -8015 0
1000000 656 -5329 -9070 -7358 -817 0
1000000 3692 -5329 -9070 -7358 -817 0
1000000 613 -5732 -6200 -5488 -7416 -7216 0
1000000 3693 -5732 -6200 -5488 -7416 -7216 0
1000000 1171 -9220 -1339 0
1000000 3694 -9220 -1339 0
1000000 617 -6833 -700 0
1000000 3695 -6833 -700 0
1000000 1123 -7692 -8475 -1408 0
1000000 3696 -7692 -8475 -1408 0
1000000 1354 -6678 -7290 -8156 -5659 -9056 0
1000000 3697 -6678 -7290 -8156 -5659 -9056 0
1000000 304 -5928 -6447 0
1000000 3698 -5928 -6447 0
1000000 775 -6140 -5773 -7192 0
1000000 3699 -6140 -5773 -7192 0
1000000 476 -8994 -8354 -8420 -5461 -8465 -7118 -6235 0
1000000 3700 -8994 -8354 -8420 -5461 -8465 -7118 -6235 0
1000000 1019 -6753 -9177 -7545 -6439 -6946 -8917 0
1000000 3701 -6753 -9177 -7545 -6439 -6946 -8917 0
1000000 414 -5441 -7945 -8700 -9360 0
1000000 3702 -5441 -7945 -8700 -9360 0
1000000 395 -9505 -6577 -5592 -6389 -5686 0
1000000 3703 -9505 -6577 -5592 -6389 -5686 0
1000000 1374 -8608 -8386 -5787 -5104 -9181 -9363 -1455 0
1000000 3704 -8608 -8386 -5787 -5104 -9181 -9363 -1455 0
1000000 1021 -5472 -6327 -9565 -9198 -6447 -5837 -5180 0
1000000 3705 -5472 -6327 -9565 -9198 -6447 -5837 -5180 0
1000000 1071 -9595 -9330 0
1000000 3706 -9595 -9330 0
1000000 1278 -7458 -6406 -8792 0
1000000 3707 -7458 -6406 -8792 0
1000000 773 -8305 -5778 0
1000000 3708 -8305 -5778 0
1000000 1000 -7585 -9128 -9435 -8091 0
1000000 3709 -7585 -9128 -9435 -8091 0
1000000 1210 -5865 -1223 0
1000000 3710 -5865 -1223 0
1000000 399 -9393 -8406 -6509 -8672 -5750 0
1000000 3711 -9393 -8406 -6509 -8672 -5750 0
1000000 702 -6452 -7603 -7968 -6440 -5991 -7532 -6982 0
1000000 3712 -6452 -7603 -7968 -6440 -5991 -7532 -6982 0
1000000 1148 -6113 -1462 0
1000000 3713 -6113 -1462 0
1000000 412 -6665 -7336 -6489 -8110 -6751 -6661 -665 0
1000000 3714 -6665 -7336 -6489 -8110 -6751 -6661 -665 0
1000000 1137 -9387 -6609 -9118 -9573 -6461 -1156 0
1000000 3715 -9387 -6609 -9118 -9573 -6461 -1156 0
1000000 833 -6750 -958 0
1000000 3716 -6750 -958 0
1000000 530 -8746 -743 0
1000000 3717 -8746 -743 0
1000000 1118 -5309 -6530 -7639 -5468 -9589 -8445 0
1000000 3718 -5309 -6530 -7639 -5468 -9589 -8445 0
1000000 1063 -8129 -8338 -5988 -8210 -5374 0
1000000 3719 -8129 -8338 -5988 -8210 -5374 0
1000000 982 -6387 -8823 -6245 -7878 0
1000000 3720 -6387 -8823 -6245 -7878 0
1000000 130 -7538 -5839 -6940 -5362 0
1000000 3721 -7538 -5839 -6940 -5362 0
1000000 1496 -8519 -7400 -8151 0
1000000 3722 -8519 -7400 -8151 0
1000000 624 -8622 -6273 -8486 -9116 -8696 -5193 -8192 0
1000000 3723 -8622 -6273 -8486 -9116 -8696 -5193 -8192 0
1000000 197 -5471 -6226 -5219 -6366 -8993 0
1000000 3724 -5471 -6226 -5219 -6366 -8993 0
1000000 477 -9494 -7547 -8705 -5449 -8494 -7221 -5794 0
1000000 3725 -9494 -7547 -8705 -5449 -8494 -7221 -5794 0
1000000 1484 -8130 -1494 0
1000000 3726 -8130 -1494 0
1000000 179 -7644 -8632 -9117 -6647 0
1000000 3727 -7644 -8632 -9117 -6647 0
1000000 1281 -8977 -7079 0
1000000 3728 -8977 -7079 0
1000000 168 -5527 -6898 0
1000000 3729 -5527 -6898 0
1000000 1259 -7273 -8818 -9458 -7335 0
1000000 3730 -7273 -8818 -9458 -7335 0
1000000 429 -5659 -5130 0
1000000 3731 -5659 -5130 0
1000000 923 -7810 -5942 -9426 -6171 -6390 -9094 0
1000000 3732 -7810 -5942 -9426 -6171 -6390 -9094 0
1000000 192 -6283 -6289 -7268 -5406 -7196 0
1000000 3733 -6283 -6289 -7268 -5406 -7196 0
1000000 471 -5972 -8756 -6695 -6825 -725 0
1000000 3734 -5972 -8756 -6695 -6825 -725 0
1000000 1281 -5715 -6290 -8721 -5609 -8798 -5124 -1333 0
1000000 3735 -5715 -6290 -8721 -5609 -8798 -5124 -1333 0
1000000 503 -7617 -7194 -8970 -8171 -805 0
1000000 3736 -7617 -7194 -8970 -8171 -805 0
1000000 181 -6729 -8860 -6240 -5761 0
1000000 3737 -6729 -8860 -6240 -5761 0
1000000 645 -8541 -7943 -6669 -8446 -6184 -950 0
1000000 3738 -8541 -7943 -6669 -8446 -6184 -950 0
1000000 326 -5908 -7014 0
1000000 3739 -5908 -7014 0
1000000 207 -7536 -8671 -7235 0
1000000 3740 -7536 -8671 -7235 0
1000000 1171 -8399 -7778 -9078 -8257 -7807 -7612 0
1000000 3741 -8399 -7778 -9078 -8257 -7807 -7612 0
1000000 817 -7023 -8245 -8248 0
1000000 3742 -7023 -8245 -8248 0
1000000 1103 -6701 -5764 -8415 -6801 -7987 0
1000000 3743 -6701 -5764 -8415 -6801 -7987 0
1000000 1044 -5235 -7236 -5433 -7486 0
1000000 3744 -5235 -7236 -5433 -7486 0
1000000 1458 -8839 -9371 -7909 -6992 -7340 0
1000000 3745 -8839 -9371 -7909 -6992 -7340 0
1000000 1228 -7924 -6432 -5227 -8797 -7306 0
1000000 3746 -7924 -6432 -5227 -8797 -7306 0
1000000 1075 -7227 -8142 -6918 -8456 0
1000000 3747 -7227 -8142 -6918 -8456 0
1000000 36 -7171 -5104 -8234 -9236 -8843 -7781 -5190 0
1000000 3748 -7171 -5104 -8234 -9236 -8843 -7781 -5190 0
1000000 1450 -7536 -6589 -5674 -6380 -6000 -1480 0
1000000 3749 -7536 -6589 -5674 -6380 -6000 -1480 0
1000000 1195 -5393 -8707 -6525 -5590 -7682 -5978 -5725 0
1000000 3750 -5393 -8707 -6525 -5590 -7682 -5978 -5725 0
1000000 137 -7257 -5381 0
1000000 3751 -7257 -5381 0
1000000 576 -7213 -5576 -8531 -8744 -8486 -8049 0
1000000 3752 -7213 -5576 -8531 -8744 -8486 -8049 0
1000000 708 -9047 -8403 -8603 -8336 -7058 -959 0
1000000 3753 -9047 -8403 -8603 -8336 -7058 -959 0
1000000 263 -5614 -8520 -8938 -7609 -1339 0
1000000 3754 -5614 -8520 -8938 -7609 -1339 0
1000000 11 -8216 -9289 -6394 -5310 -9196 0
1000000 3755 -8216 -9289 -6394 -5310 -9196 0
1000000 574 -7206 -6568 -9400 -7419 -6673 0
1000000 3756 -7206 -6568 -9400 -7419 -6673 0
1000000 1478 -8383 -9062 -9078 -6415 -1489 0
1000000 3757 -8383 -9062 -9078 -6415 -1489 0
1000000 1312 -8700 -5408 0
1000000 3758 -8700 -5408 0
1000000 833 -6901 -9198 -5349 -8666 -7880 -896 0
1000000 3759 -6901 -9198 -5349 -8666 -7880 -896 0
1000000 1451 -6437 -7820 -6871 0
1000000 3760 -6437 -7820 -6871 0
1000000 660 -6380 -9238 -8305 -6581 -920 0
1000000 3761 -6380 -9238 -8305 -6581 -920 0
1000000 294 -8994 -8481 0
1000000 3762 -8994 -8481 0
1000000 1395 -5280 -7119 -8497 -8959 -1494 0
1000000 3763 -5280 -7119 -8497 -8959 -1494 0
1000000 315 -7004 -585 0
1000000 3764 -7004 -585 0
1000000 1006 -8355 -6839 -6030 -5101 -6848 -5428 0
1000000 3765 -8355 -6839 -6030 -5101 -6848 -5428 0
1000000 386 -9466 -6802 -6702 -8304 -1238 0
1000000 3766 -9466 -6802 -6702 -8304 -1238 0
1000000 1373 -5434 -8001 -9181 -7711 -1385 0
1000000 3767 -5434 -8001 -9181 -7711 -1385 0
1000000 242 -7540 -5794 -6262 -6592 -6695 -5288 0
1000000 3768 -7540 -5794 -6262 -6592 -6695 -5288 0
1000000 749 -6037 -8896 -8496 -8132 -6779 -989 0
1000000 3769 -6037 -8896 -8496 -8132 -6779 -989 0
1000000 1257 -6542 -6836 0
1000000 3770 -6542 -6836 0
1000000 272 -6502 -7632 -5898 0
1000000 3771 -6502 -7632 -5898 0
1000000 82 -5724 -5154 -7083 -7376 -7412 -7290 -6808 0
1000000 3772 -5724 -5154 -7083 -7376 -7412 -7290 -6808 0
1000000 812 -7622 -9160 0
1000000 3773 -7622 -9160 0
1000000 1306 -6817 -6918 -6903 -7487 -8903 -7905 0
1000000 3774 -6817 -6918 -6903 -7487 -8903 -7905 0
1000000 81 -7714 -8854 -7313 -6067 -5773 0
1000000 3775 -7714 -8854 -7313 -6067 -5773 0
1000000 173 -5449 -8408 -6901 -7390 -6284 0
1000000 3776 -5449 -8408 -6901 -7390 -6284 0
1000000 1243 -9486 -5694 -7754 -1454 0
1000000 3777 -9486 -5694 -7754 -1454 0
1000000 1247 -5881 -8605 -6259 -5184 -8426 -7367 -8354 0
1000000 3778 -5881 -8605 -6259 -5184 -8426 -7367 -8354 0
1000000 154 -6491 -8760 -9408 -6149 0
1000000 3779 -6491 -8760 -9408 -6149 0
1000000 1110 -5661 -8248 -7344 -8357 -7418 -8431 0
1000000 3780 -5661 -8248 -7344 -8357 -7418 -8431 0
1000000 1330 -6132 -6005 -1463 0
1000000 3781 -6132 -6005 -1463 0
1000000 234 -9371 -7977 -7162 -5412 -5568 -860 0
1000000 3782 -9371 -7977 -7162 -5412 -5568 -860 0
1000000 567 -6581 -9556 -8290 -1003 0
1000000 3783 -6581 -9556 -8290 -1003 0
1000000 805 -8327 -6082 -6601 -5247 0
1000000 3784 -8327 -6082 -6601 -5247 0
1000000 307 -7302 -7243 -7782 -5957 -6680 -5779 -8028 0
1000000 3785 -7302 -7243 -7782 -5957 -6680 -5779 -8028 0
1000000 1074 -5922 -8155 -6511 -7193 -6349 -8938 0
1000000 3786 -5922 -8155 -6511 -7193 -6349 -8938 0
1000000 35 -6761 -5879 -8652 -5583 -6768 -5370 0
1000000 3787 -6761 -5879 -8652 -5583 -6768 -5370 0
1000000 341 -7284 -6219 -6713 0
1000000 3788 -7284 -6219 -6713 0
1000000 97 -6796 -8686 -6671 -8766 -5535 0
1000000 3789 -6796 -8686 -6671 -8766 -5535 0
1000000 1478 -8474 -9122 -8625 -8686 -9480 -1494 0
1000000 3790 -8474 -9122 -8625 -8686 -9480 -1494 0
1000000 259 -7850 -6166 -1383 0
1000000 3791 -7850 -6166 -1383 0
1000000 1237 -7335 -6753 -5148 -8849 -1294 0
1000000 3792 -7335 -6753 -5148 -8849 -1294 0
1000000 1207 -8856 -9413 -9116 -6504 -8673 -8812 -5315 0
1000000 3793 -8856 -9413 -9116 -6504 -8673 -8812 -5315 0
1000000 84 -6256 -6730 -6694 -8796 -1462 0
1000000 3794 -6256 -6730 -6694 -8796 -1462 0
1000000 513 -6442 -8062 -8784 0
1000000 3795 -6442 -8062 -8784 0
1000000 506 -8082 -905 0
1000000 3796 -8082 -905 0
1000000 785 -6455 -6544 -8256 0
1000000 3797 -6455 -6544 -8256 0
1000000 1127 -9579 -6506 -1141 0
1000000 3798 -9579 -6506 -1141 0
1000000 1107 -7498 -1197 0
1000000 3799 -7498 -1197 0
1000000 458 -7935 -6952 -6098 -7396 -6486 -6056 0
1000000 3800 -7935 -6952 -6098 -7396 -6486 -6056 0
1000000 987 -8968 -6447 -8535 -9044 -9272 -8093 -8771 0
1000000 3801 -8968 -6447 -8535 -9044 -9272 -8093 -8771 0
1000000 626 -5234 -6817 -6033 -5553 -7111 -8569 0
1000000 3802 -5234 -6817 -6033 -5553 -7111 -8569 0
1000000 720 -8034 -5212 -6855 -5265 -6822 0
1000000 3803 -8034 -5212 -6855 -5265 -6822 0
1000000 1154 -5504 -9092 -6722 0
1000000 3804 -5504 -9092 -6722 0
1000000 727 -5966 -6609 -7305 -6163 -7377 -8281 0
1000000 3805 -5966 -6609 -7305 -6163 -7377 -8281 0
1000000 702 -8481 -6427 -5301 -5791 0
1000000 3806 -8481 -6427 -5301 -5791 0
1000000 169 -8140 -8403 -7052 -5827 -9485 -752 0
1000000 3807 -8140 -8403 -7052 -5827 -9485 -752 0
1000000 1449 -5444 -5607 -8966 -6584 0
1000000 3808 -5444 -5607 -8966 -6584 0
1000000 1470 -6326 -7901 0
1000000 3809 -6326 -7901 0
1000000 790 -8121 -7686 -5634 -5115 -5537 0
1000000 3810 -8121 -7686 -5634 -5115 -5537 0
1000000 1000 -8576 -6636 -6382 -7424 -7645 -6405 -1108 0
1000000 3811 -8576 -6636 -6382 -7424 -7645 -6405 -1108 0
1000000 962 -5670 -8917 0
1000000 3812 -5670 -8917 0
1000000 663 -8303 -8471 0
1000000 3813 -8303 -8471 0
1000000 679 -9331 -8588 0
1000000 3814 -9331 -8588 0
1000000 636 -7837 -9520 -8215 0
1000000 3815 -7837 -9520 -8215 0
1000000 315 -8624 -6071 -8963 -6721 -7719 -9456 -399 0
1000000 3816 -8624 -6071 -8963 -6721 -7719 -9456 -399 0
1000000 1176 -5510 -8560 -7410 -6506 -5458 -6130 -6602 0
1000000 3817 -5510 -8560 -7410 -6506 -5458 -6130 -6602 0
1000000 309 -9105 -9459 -7614 -7897 -8136 0
1000000 3818 -9105 -9459 -7614 -7897 -8136 0
1000000 980 -8601 -7507 0
1000000 3819 -8601 -7507 0
1000000 844 -7992 -8884 -1295 0
1000000 3820 -7992 -8884 -1295 0
1000000 326 -8631 -5165 -8846 -8847 -8553 0
1000000 3821 -8631 -5165 -8846 -8847 -8553 0
1000000 967 -5319 -6431 -6786 -8777 -7039 -6583 -5252 0
1000000 3822 -5319 -6431 -6786 -8777 -7039 -6583 -5252 0
1000000 1174 -8075 -8467 -6753 -6711 -8152 0
1000000 3823 -8075 -8467 -6753 -6711 -8152 0
1000000 159 -5496 -6759 -7880 -8398 -8044 -8828 0
1000000 3824 -5496 -6759 -7880 -8398 -8044 -8828 0
1000000 475 -6097 -5270 0
1000000 3825 -6097 -5270 0
1000000 458 -7701 -6760 -5317 -8914 -6223 0
1000000 3826 -7701 -6760 -5317 -8914 -6223 0
1000000 55 -9392 -8268 -7875 0
1000000 3827 -9392 -8268 -7875 0
1000000 814 -6628 -6536 -8139 -9265 -9153 -6037 -891 0
1000000 3828 -6628 -6536 -8139 -9265 -9153 -6037 -891 0
1000000 827 -8508 -5886 -8050 -8332 0
1000000 3829 -8508 -5886 -8050 -8332 0
1000000 211 -5307 -7043 -8331 -7765 -5235 -7770 -8973 0
1000000 3830 -5307 -7043 -8331 -7765 -5235 -7770 -8973 0
1000000 1383 -7547 -9081 -8011 -5561 -7685 -1490 0
1000000 3831 -7547 -9081 -8011 -5561 -7685 -1490 0
1000000 446 -5220 -5239 -7561 -9260 -8863 -9371 0
1000000 3832 -5220 -5239 -7561 -9260 -8863 -9371 0
1000000 404 -9513 -6434 -8915 -6203 -8617 -8219 -1351 0
1000000 3833 -9513 -6434 -8915 -6203 -8617 -8219 -1351 0
1000000 516 -6247 -8305 -6876 0
1000000 3834 -6247 -8305 -6876 0
1000000 1320 -8660 -7939 -6326 -8875 -1432 0
1000000 3835 -8660 -7939 -6326 -8875 -1432 0
1000000 1317 -6833 -7521 -8767 -8793 0
1000000 3836 -6833 -7521 -8767 -8793 0
1000000 536 -7790 -964 0
1000000 3837 -7790 -964 0
1000000 769 -7807 -6958 -5481 -5112 -6683 -6996 -6369 0
1000000 3838 -7807 -6958 -5481 -5112 -6683 -6996 -6369 0
1000000 679 -5954 -7700 -7096 -6255 -5275 -8346 -5402 0
1000000 3839 -5954 -7700 -7096 -6255 -5275 -8346 -5402 0
1000000 1357 -9410 -5797 0
1000000 3840 -9410 -5797 0
1000000 652 -8624 -5594 -9358 0
1000000 3841 -8624 -5594 -9358 0
1000000 642 -5106 -5695 -5616 -8799 -8390 -1441 0
1000000 3842 -5106 -5695 -5616 -8799 -8390 -1441 0
1000000 564 -8393 -5647 -9515 0
1000000 3843 -8393 -5647 -9515 0
1000000 1245 -7096 -6140 -7205 -9250 -7234 0
1000000 3844 -7096 -6140 -7205 -9250 -7234 0
1000000 1307 -5311 -9040 -7781 -8969 -8048 -9057 -9168 0
1000000 3845 -5311 -9040 -7781 -8969 -8048 -9057 -9168 0
1000000 860 -6952 -9028 -6028 0
1000000 3846 -6952 -9028 -6028 0
1000000 1050 -6419 -6831 -1082 0
1000000 3847 -6419 -6831 -1082 0
1000000 875 -8696 -6179 -6101 -8098 -5402 -7760 -7913 0
1000000 3848 -8696 -6179 -6101 -8098 -5402 -7760 -7913 0
1000000 426 -8865 -5525 -5908 0
1000000 3849 -8865 -5525 -5908 0
1000000 1303 -7566 -7424 -5134 -1317 0
1000000 3850 -7566 -7424 -5134 -1317 0
1000000 901 -5595 -6326 -9074 -6455 -7873 -1486 0
1000000 3851 -5595 -6326 -9074 -6455 -7873 -1486 0
1000000 77 -6638 -6757 -6383 -5654 -1425 0
1000000 3852 -6638 -6757 -6383 -5654 -1425 0
1000000 595 -6498 -9515 -7389 -9518 -5831 -6169 -9600 0
1000000 3853 -6498 -9515 -7389 -9518 -5831 -6169 -9600 0
1000000 224 -6942 -9107 -5129 -5179 0
1000000 3854 -6942 -9107 -5129 -5179 0
1000000 440 -7624 -7754 -6301 -6002 -7741 -5577 -803 0
1000000 3855 -7624 -7754 -6301 -6002 -7741 -5577 -803 0
1000000 260 -5541 -6279 -5210 -7520 -8978 -6562 -5574 0
1000000 3856 -5541 -6279 -5210 -7520 -8978 -6562 -5574 0
1000000 968 -8493 -6399 -7714 -7567 -6676 0
1000000 3857 -8493 -6399 -7714 -7567 -6676 0
1000000 1022 -9004 -7546 -6135 -5662 0
1000000 3858 -9004 -7546 -6135 -5662 0
1000000 827 -6207 -7027 -8438 -6990 -7064 0
1000000 3859 -6207 -7027 -8438 -6990 -7064 0
1000000 883 -6233 -8915 0
1000000 3860 -6233 -8915 0
1000000 999 -8774 -8665 -8722 -6063 -1034 0
1000000 3861 -8774 -8665 -8722 -6063 -1034 0
1000000 410 -7553 -5771 -7977 -5966 -8657 -8765 -8100 0
1000000 3862 -7553 -5771 -7977 -5966 -8657 -8765 -8100 0
1000000 377 -7965 -8645 -9222 0
1000000 3863 -7965 -8645 -9222 0
1000000 827 -5674 -6562 -7069 -7861 -6966 -1319 0
1000000 3864 -5674 -6562 -7069 -7861 -6966 -1319 0
1000000 968 -7914 -6821 -7805 -8302 -9017 -7731 0
1000000 3865 -7914 -6821 -7805 -8302 -9017 -7731 0
1000000 208 -8464 -8763 -5601 -7414 -5972 -8016 0
1000000 3866 -8464 -8763 -5601 -7414 -5972 -8016 0
1000000 844 -7076 -5677 -8439 -6583 -8344 -1470 0
1000000 3867 -7076 -5677 -8439 -6583 -8344 -1470 0
1000000 375 -6936 -388 0
1000000 3868 -6936 -388 0
1000000 882 -7046 -9492 -7057 -7053 -5835 -5747 -8989 0
1000000 3869 -7046 -9492 -7057 -7053 -5835 -5747 -8989 0
1000000 1402 -9599 -9128 -7557 -9558 -8550 -6313 0
1000000 3870 -9599 -9128 -7557 -9558 -8550 -6313 0
1000000 1390 -6527 -5996 0
1000000 3871 -6527 -5996 0
1000000 112 -9554 -6988 -6845 -6675 -338 0
1000000 3872 -9554 -6988 -6845 -6675 -338 0
1000000 94 -7472 -9304 -9061 -8774 -7144 -8490 0
1000000 3873 -7472 -9304 -9061 -8774 -7144 -8490 0
1000000 523 -9443 -5118 0
1000000 3874 -9443 -5118 0
1000000 1395 -6543 -6456 0
1000000 3875 -6543 -6456 0
1000000 1434 -5577 -5182 -9496 -7584 -9589 -1496 0
1000000 3876 -5577 -5182 -9496 -7584 -9589 -1496 0
1000000 1202 -8723 -6505 -8557 0
1000000 3877 -8723 -6505 -8557 0
1000000 661 -6306 -9055 -702 0
1000000 3878 -6306 -9055 -702 0
1000000 927 -8785 -9080 -5519 -6296 -7700 -1026 0
1000000 3879 -8785 -9080 -5519 -6296 -7700 -1026 0
1000000 683 -8192 -8896 -6057 -8492 -6240 -6976 -9507 0
1000000 3880 -8192 -8896 -6057 -8492 -6240 -6976 -9507 0
1000000 1155 -5750 -9097 -8945 -6221 -9278 -9508 -7715 0
1000000 3881 -5750 -9097 -8945 -6221 -9278 -9508 -7715 0
1000000 576 -8806 -8522 0
1000000 3882 -8806 -8522 0
1000000 218 -5494 -7672 -7785 -8581 0
1000000 3883 -5494 -7672 -7785 -8581 0
1000000 1369 -6828 -7659 -5583 0
1000000 3884 -6828 -7659 -5583 0
1000000 95 -6464 -7251 -7119 -962 0
1000000 3885 -6464 -7251 -7119 -962 0
1000000 661 -6459 -8222 -8696 -5737 -6179 0
1000000 3886 -6459 -8222 -8696 -5737 -6179 0
1000000 570 -5230 -7241 -9390 -8300 0
1000000 3887 -5230 -7241 -9390 -8300 0
1000000 167 -6129 -8161 -5749 0
1000000 3888 -6129 -8161 -5749 0
1000000 687 -5110 -8000 0
1000000 3889 -5110 -8000 0
1000000 24 -9370 -9515 -7173 0
1000000 3890 -9370 -9515 -7173 0
1000000 1206 -6781 -9451 -5547 -8720 0
1000000 3891 -6781 -9451 -5547 -8720 0
1000000 269 -5381 -7741 -5771 -8477 0
1000000 3892 -5381 -7741 -5771 -8477 0
1000000 243 -8449 -8428 -6883 -9557 -8968 -7295 -1257 0
1000000 3893 -8449 -8428 -6883 -9557 -8968 -7295 -1257 0
1000000 1316 -9521 -8398 -8198 -7430 -7235 0
1000000 3894 -9521 -8398 -8198 -7430 -7235 0
1000000 161 -8085 -6256 -8186 -8970 -5425 0
1000000 3895 -8085 -6256 -8186 -8970 -5425 0
1000000 794 -6717 -7561 -5732 0
1000000 3896 -6717 -7561 -5732 0
1000000 556 -9246 -6926 -6613 -7815 -5819 -1005 0
1000000 3897 -9246 -6926 -6613 -7815 -5819 -1005 0
1000000 534 -7315 -6296 -6134 -9251 -8368 -6190 0
1000000 3898 -7315 -6296 -6134 -9251 -8368 -6190 0
1000000 1217 -8389 -7659 0
1000000 3899 -8389 -7659 0
1000000 426 -7483 -7503 0
1000000 3900 -7483 -7503 0
1000000 1239 -6935 -8681 -9091 -9241 -7374 -5694 0
1000000 3901 -6935 -8681 -9091 -9241 -7374 -5694 0
1000000 948 -7618 -5875 -7338 -6499 -1095 0
1000000 3902 -7618 -5875 -7338 -6499 -1095 0
1000000 504 -8700 -8309 -7353 -975 0
1000000 3903 -8700 -8309 -7353 -975 0
1000000 1480 -6047 -8478 -5176 -1485 0
1000000 3904 -6047 -8478 -5176 -1485 0
1000000 146 -6899 -7622 -7138 -8137 -8268 0
1000000 3905 -6899 -7622 -7138 -8137 -8268 0
1000000 49 -5463 -7554 -710 0
1000000 3906 -5463 -7554 -710 0
1000000 1073 -6955 -6582 -7290 -9413 -8037 0
1000000 3907 -6955 -6582 -7290 -9413 -8037 0
1000000 260 -9335 -7918 -5650 -7759 -9031 -9220 0
1000000 3908 -9335 -7918 -5650 -7759 -9031 -9220 0
1000000 113 -8633 -7904 -6127 -6601 -6999 -1461 0
1000000 3909 -8633 -7904 -6127 -6601 -6999 -1461 0
1000000 649 -7223 -5549 -8820 -8418 -6487 -8163 -9173 0
1000000 3910 -7223 -5549 -8820 -8418 -6487 -8163 -9173 0
1000000 1161 -5317 -5980 -6283 -7078 -8000 -7637 -1421 0
1000000 3911 -5317 -5980 -6283 -7078 -8000 -7637 -1421 0
1000000 1262 -8673 -6491 -8885 -9507 -1429 0
1000000 3912 -8673 -6491 -8885 -9507 -1429 0
1000000 972 -8142 -9215 -5881 0
1000000 3913 -8142 -9215 -5881 0
1000000 80 -5237 -5886 -9048 -7765 -8638 0
1000000 3914 -5237 -5886 -9048 -7765 -8638 0
1000000 314 -8971 -6615 -6087 -8295 -7808 0
1000000 3915 -8971 -6615 -6087 -8295 -7808 0
1000000 1003 -7993 -9138 -7701 -7811 -5680 0
1000000 3916 -7993 -9138 -7701 -7811 -5680 0
1000000 1177 -8368 -9049 0
1000000 3917 -8368 -9049 0
1000000 431 -7786 -9251 -5141 -7508 -6294 -1283 0
1000000 3918 -7786 -9251 -5141 -7508 -6294 -1283 0
1000000 1088 -8883 -9444 -9099 -6786 -8966 -9600 0
1000000 3919 -8883 -9444 -9099 -6786 -8966 -9600 0
1000000 61 -7053 -7539 -7670 -9365 -7413 -9106 -5494 0
1000000 3920 -7053 -7539 -7670 -9365 -7413 -9106 -5494 0
1000000 1399 -7248 -8639 -7060 -8970 -9344 -6128 -7768 0
1000000 3921 -7248 -8639 -7060 -8970 -9344 -6128 -7768 0
1000000 210 -8223 -8743 0
1000000 3922 -8223 -8743 0
1000000 1017 -5211 -8623 -7847 0
1000000 3923 -5211 -8623 -7847 0
1000000 891 -9382 -5398 -5278 -8773 -8589 0
1000000 3924 -9382 -5398 -5278 -8773 -8589 0
1000000 1016 -8104 -8740 -7252 0
1000000 3925 -8104 -8740 -7252 0
1000000 1488 -5767 -7092 -5688 -7531 -9551 -6924 0
1000000 3926 -5767 -7092 -5688 -7531 -9551 -6924 0
1000000 81 -5890 -8436 -7248 -5857 -9476 0
1000000 3927 -5890 -8436 -7248 -5857 -9476 0
1000000 1349 -6898 -9024 -5614 -7685 -5851 0
1000000 3928 -6898 -9024 -5614 -7685 -5851 0
1000000 1285 -9376 -7026 -7633 -8043 -8853 -7203 -1414 0
1000000 3929 -9376 -7026 -7633 -8043 -8853 -7203 -1414 0
1000000 156 -5971 -8562 -9334 -8003 -8935 -5984 -9507 0
1000000 3930 -5971 -8562 -9334 -8003 -8935 -5984 -9507 0
1000000 896 -8675 -7104 -7056 -7608 -913 0
1000000 3931 -8675 -7104 -7056 -7608 -913 0
1000000 1143 -6432 -1391 0
1000000 3932 -6432 -1391 0
1000000 78 -8520 -9052 -5657 -8050 -7184 0
1000000 3933 -8520 -9052 -5657 -8050 -7184 0
1000000 366 -5377 -6687 -9118 -538 0
1000000 3934 -5377 -6687 -9118 -538 0
1000000 1257 -7456 -5493 -5823 -8003 -7604 -6609 0
1000000 3935 -7456 -5493 -5823 -8003 -7604 -6609 0
1000000 151 -5557 -5989 -7081 -9357 -8359 -9312 -5987 0
1000000 3936 -5557 -5989 -7081 -9357 -8359 -9312 -5987 0
1000000 434 -7267 -9173 -5621 -8972 -6739 -1346 0
1000000 3937 -7267 -9173 -5621 -8972 -6739 -1346 0
1000000 835 -9554 -7047 -9264 -5476 -9579 -6969 0
1000000 3938 -9554 -7047 -9264 -5476 -9579 -6969 0
1000000 1469 -9334 -1481 0
1000000 3939 -9334 -1481 0
1000000 508 -7405 -6643 -9304 -6729 -7764 -5773 0
1000000 3940 -7405 -6643 -9304 -6729 -7764 -5773 0
1000000 797 -5687 -7697 -7200 -7409 -8985 0
1000000 3941 -5687 -7697 -7200 -7409 -8985 0
1000000 1376 -8852 -7224 0
1000000 3942 -8852 -7224 0
1000000 82 -9323 -5317 -8084 -680 0
1000000 3943 -9323 -5317 -8084 -680 0
1000000 418 -8565 -8698 -7068 -6084 -6161 -5531 0
1000000 3944 -8565 -8698 -7068 -6084 -6161 -5531 0
1000000 972 -8644 -6047 -6274 0
1000000 3945 -8644 -6047 -6274 0
1000000 769 -6943 -8530 -960 0
1000000 3946 -6943 -8530 -960 0
1000000 63 -9511 -7641 -8281 -8172 -8205 -586 0
1000000 3947 -9511 -7641 -8281 -8172 -8205 -586 0
1000000 611 -9213 -5370 -5218 -1345 0
1000000 3948 -9213 -5370 -5218 -1345 0
1000000 772 -5164 -6691 -5428 0
1000000 3949 -5164 -6691 -5428 0
1000000 111 -6559 -7757 -9127 -6026 -7317 -5792 -7245 0
1000000 3950 -6559 -7757 -9127 -6026 -7317 -5792 -7245 0
1000000 1119 -9558 -8835 -7802 -1317 0
1000000 3951 -9558 -8835 -7802 -1317 0
1000000 680 -9309 -6366 0
1000000 3952 -9309 -6366 0
1000000 41 -7924 -5407 -5730 -5894 -9210 0
1000000 3953 -7924 -5407 -5730 -5894 -9210 0
1000000 306 -6985 -9359 -8495 -8836 -8002 -5269 -1458 0
1000000 3954 -6985 -9359 -8495 -8836 -8002 -5269 -1458 0
1000000 1176 -9229 -6191 0
1000000 3955 -9229 -6191 0
1000000 479 -9010 -8636 -6442 -8231 -7897 -7852 -5147 0
1000000 3956 -9010 -8636 -6442 -8231 -7897 -7852 -5147 0
1000000 34 -7407 -8326 -9088 0
1000000 3957 -7407 -8326 -9088 0
1000000 926 -7843 -8528 -1463 0
1000000 3958 -7843 -8528 -1463 0
1000000 26 -9152 -6013 -8189 -7923 0
1000000 3959 -9152 -6013 -8189 -7923 0
1000000 1329 -6259 -6552 -6508 -5816 -5979 -5325 -7384 0
1000000 3960 -6259 -6552 -6508 -5816 -5979 -5325 -7384 0
1000000 920 -8929 -6552 -8603 -8186 -6571 0
1000000 3961 -8929 -6552 -8603 -8186 -6571 0
1000000 69 -8443 -6014 -8567 -6676 0
1000000 3962 -8443 -6014 -8567 -6676 0
1000000 927 -6862 -7736 -6951 0
1000000 3963 -6862 -7736 -6951 0
1000000 1468 -5728 -8221 -6830 0
1000000 3964 -5728 -8221 -6830 0
1000000 296 -7261 -7214 -8512 -8604 -8147 -6960 -7815 0
1000000 3965 -7261 -7214 -8512 -8604 -8147 -6960 -7815 0
1000000 1394 -9063 -5181 -7137 -7052 -8113 -7340 0
1000000 3966 -9063 -5181 -7137 -7052 -8113 -7340 0
1000000 494 -9395 -7017 -6019 -647 0
1000000 3967 -9395 -7017 -6019 -647 0
1000000 63 -8022 -8035 -8164 -7406 -6418 -5502 0
1000000 3968 -8022 -8035 -8164 -7406 -6418 -5502 0
1000000 415 -5135 -9447 0
1000000 3969 -5135 -9447 0
1000000 574 -7459 -9496 0
1000000 3970 -7459 -9496 0
1000000 918 -8274 -8975 -1411 0
1000000 3971 -8274 -8975 -1411 0
1000000 228 -5403 -5303 0
1000000 3972 -5403 -5303 0
1000000 704 -7851 -6178 -9435 0
1000000 3973 -7851 -6178 -9435 0
1000000 771 -5853 -6385 -6206 -9514 -6724 -817 0
1000000 3974 -5853 -6385 -6206 -9514 -6724 -817 0
1000000 756 -7303 -5465 -8938 -1482 0
1000000 3975 -7303 -5465 -8938 -1482 0
1000000 1084 -6217 -6638 -9056 -6301 -1250 0
1000000 3976 -6217 -6638 -9056 -6301 -1250 0
1000000 1193 -7983 -6020 -9053 -7911 -9432 -6448 -1256 0
1000000 3977 -7983 -6020 -9053 -7911 -9432 -6448 -1256 0
1000000 973 -6254 -7879 -9236 0
1000000 3978 -6254 -7879 -9236 0
1000000 308 -8212 -6851 -7015 -5242 0
1000000 3979 -8212 -6851 -7015 -5242 0
1000000 944 -9578 -8977 -5655 -5959 -5920 0
1000000 3980 -9578 -8977 -5655 -5959 -5920 0
1000000 1440 -9078 -7450 -6950 0
1000000 3981 -9078 -7450 -6950 0
1000000 1253 -7621 -7920 -8950 -5573 -6109 -9206 0
1000000 3982 -7621 -7920 -8950 -5573 -6109 -9206 0
1000000 816 -6194 -8058 -8467 -5407 -9375 -9270 0
1000000 3983 -6194 -8058 -8467 -5407 -9375 -9270 0
1000000 1400 -8784 -8850 -8329 -5329 -7780 -8065 0
1000000 3984 -8784 -8850 -8329 -5329 -7780 -8065 0
1000000 361 -6470 -9005 0
1000000 3985 -6470 -9005 0
1000000 1079 -6787 -7505 -1348 0
1000000 3986 -6787 -7505 -1348 0
1000000 29 -6232 -7005 -7912 0
1000000 3987 -6232 -7005 -7912 0
1000000 735 -6379 -6039 -5335 -7239 -5873 -7385 0
1000000 3988 -6379 -6039 -5335 -7239 -5873 -7385 0
1000000 1450 -5253 -9510 -6290 -8970 0
1000000 3989 -5253 -9510 -6290 -8970 0
1000000 859 -9461 -9219 -7389 -6831 -8819 0
1000000 3990 -9461 -9219 -7389 -6831 -8819 0
1000000 1229 -8412 -6961 -8479 -9504 -6550 -7209 -7007 0
1000000 3991 -8412 -6961 -8479 -9504 -6550 -7209 -7007 0
1000000 406 -5825 -6622 -7622 -6703 -1163 0
1000000 3992 -5825 -6622 -7622 -6703 -1163 0
1000000 822 -7661 -5707 0
1000000 3993 -7661 -5707 0
1000000 1071 -6754 -7287 -6206 -9366 -1084 0
1000000 3994 -6754 -7287 -6206 -9366 -1084 0
1000000 187 -7086 -7807 -6663 -8106 -5793 -6956 -5876 0
1000000 3995 -7086 -7807 -6663 -8106 -5793 -6956 -5876 0
1000000 89 -8632 -7177 -9429 -7396 -5694 -9227 0
1000000 3996 -8632 -7177 -9429 -7396 -5694 -9227 0
1000000 160 -9521 -5517 -8121 -6836 0
1000000 3997 -9521 -5517 -8121 -6836 0
1000000 706 -7984 -5620 -7400 0
1000000 3998 -7984 -5620 -7400 0
1000000 829 -9104 -7391 -1433 0
1000000 3999 -9104 -7391 -1433 0
1000000 525 -9022 -8335 -9475 -7001 -8981 0
1000000 4000 -9022 -8335 -9475 -7001 -8981 0
1000000 225 -6327 -7361 -5723 -6839 -7733 0
1000000 4001 -6327 -7361 -5723 -6839 -7733 0
1000000 693 -7592 -6514 -8009 -7497 -5445 -8499 0
1000000 4002 -7592 -6514 -8009 -7497 -5445 -8499 0
1000000 1323 -9331 -6189 0
1000000 4003 -9331 -6189 0
1000000 887 -8841 -9458 -8386 -7326 0
1000000 4004 -8841 -9458 -8386 -7326 0
1000000 1377 -6019 -5104 -6157 -8936 -5145 -8712 0
1000000 4005 -6019 -5104 -6157 -8936 -5145 -8712 0
1000000 791 -7882 -7459 0
1000000 4006 -7882 -7459 0
1000000 1140 -6788 -7680 0
1000000 4007 -6788 -7680 0
1000000 242 -8627 -9129 -8790 -7148 -8035 -7903 -667 0
1000000 4008 -8627 -9129 -8790 -7148 -8035 -7903 -667 0
1000000 598 -5994 -8681 -5728 -8419 0
1000000 4009 -5994 -8681 -5728 -8419 0
1000000 337 -6523 -9034 0
1000000 4010 -6523 -9034 0
1000000 1069 -7096 -7307 -6357 -6732 -5977 0
1000000 4011 -7096 -7307 -6357 -6732 -5977 0
1000000 304 -5730 -7864 -6017 -8463 -6664 -5473 -8406 0
1000000 4012 -5730 -7864 -6017 -8463 -6664 -5473 -8406 0
1000000 919 -8320 -7187 -6810 -1317 0
1000000 4013 -8320 -7187 -6810 -1317 0
1000000 341 -6429 -9275 -7210 0
1000000 4014 -6429 -9275 -7210 0
1000000 1088 -5567 -7021 0
1000000 4015 -5567 -7021 0
1000000 710 -6759 -5148 -7577 -6931 -6229 -7452 0
1000000 4016 -6759 -5148 -7577 -6931 -6229 -7452 0
1000000 791 -9287 -8516 -5657 0
1000000 4017 -9287 -8516 -5657 0
1000000 1267 -5912 -8636 -8526 -8184 -8144 0
1000000 4018 -5912 -8636 -8526 -8184 -8144 0
1000000 511 -5831 -5458 -8810 -7110 -672 0
1000000 4019 -5831 -5458 -8810 -7110 -672 0
1000000 432 -6898 -6125 -5975 -9440 -5944 -6225 0
1000000 4020 -6898 -6125 -5975 -9440 -5944 -6225 0
1000000 478 -8729 -9600 -7695 -7566 -6985 0
1000000 4021 -8729 -9600 -7695 -7566 -6985 0
1000000 412 -5324 -8185 -6529 -8100 -7226 -9004 0
1000000 4022 -5324 -8185 -6529 -8100 -7226 -9004 0
1000000 873 -6111 -9221 -8820 -7438 -1172 0
1000000 4023 -6111 -9221 -8820 -7438 -1172 0
1000000 1048 -6801 -6903 -6215 -6463 -8803 0
1000000 4024 -6801 -6903 -6215 -6463 -8803 0
1000000 958 -7004 -7599 -9004 -6125 0
1000000 4025 -7004 -7599 -9004 -6125 0
1000000 1324 -7903 -5239 -6300 -1432 0
1000000 4026 -7903 -5239 -6300 -1432 0
1000000 51 -7011 -8290 -8133 -6628 0
1000000 4027 -7011 -8290 -8133 -6628 0
1000000 464 -5500 -7471 -8997 -7272 -6493 0
1000000 4028 -5500 -7471 -8997 -7272 -6493 0
1000000 704 -6354 -6127 0
1000000 4029 -6354 -6127 0
1000000 1434 -8819 -6960 -7650 -5714 0
1000000 4030 -8819 -6960 -7650 -5714 0
1000000 440 -7367 -9521 -9088 -8077 -8701 -6899 0
1000000 4031 -7367 -9521 -9088 -8077 -8701 -6899 0
1000000 511 -6665 -5222 -5117 -6779 -645 0
1000000 4032 -6665 -5222 -5117 -6779 -645 0
1000000 1154 -8739 -6429 -6013 -7393 -7180 -5458 0
1000000 4033 -8739 -6429 -6013 -7393 -7180 -5458 0
1000000 351 -5469 -8739 -9144 -7373 -6513 -8404 -5182 0
1000000 4034 -5469 -8739 -9144 -7373 -6513 -8404 -5182 0
1000000 711 -8769 -8703 -9410 -5931 -8548 0
1000000 4035 -8769 -8703 -9410 -5931 -8548 0
1000000 750 -8428 -9422 -6875 0
1000000 4036 -8428 -9422 -6875 0
1000000 78 -5493 -6298 -8636 -6158 -6651 -7027 0
1000000 4037 -5493 -6298 -8636 -6158 -6651 -7027 0
1000000 191 -7650 -8359 -546 0
1000000 4038 -7650 -8359 -546 0
1000000 410 -6077 -7223 0
1000000 4039 -6077 -7223 0
1000000 998 -5362 -6812 0
1000000 4040 -5362 -6812 0
1000000 439 -8947 -8324 -5374 -5996 0
1000000 4041 -8947 -8324 -5374 -5996 0
1000000 212 -8219 -9479 0
1000000 4042 -8219 -9479 0
1000000 245 -8798 -5386 -7912 -8274 -6794 -7323 0
1000000 4043 -8798 -5386 -7912 -8274 -6794 -7323 0
1000000 265 -7386 -1447 0
1000000 4044 -7386 -1447 0
1000000 197 -7670 -5537 -5889 -8066 -7514 -8340 -708 0
1000000 4045 -7670 -5537 -5889 -8066 -7514 -8340 -708 0
1000000 46 -8993 -8178 -7224 -9499 0
1000000 4046 -8993 -8178 -7224 -9499 0
1000000 559 -8805 -5490 -5215 -5160 0
1000000 4047 -8805 -5490 -5215 -5160 0
1000000 129 -7787 -8486 -6038 -8918 -7475 -5897 -9305 0
1000000 4048 -7787 -8486 -6038 -8918 -7475 -5897 -9305 0
1000000 657 -9333 -9342 -8346 -7360 -6835 -6429 -8050 0
1000000 4049 -9333 -9342 -8346 -7360 -6835 -6429 -8050 0
1000000 568 -9109 -9153 -8853 0
1000000 4050 -9109 -9153 -8853 0
1000000 190 -7211 -612 0
1000000 4051 -7211 -612 0
1000000 1473 -8549 -8383 0
1000000 4052 -8549 -8383 0
1000000 1194 -6217 -6412 -6673 -6333 -7589 -9257 -8977 0
1000000 4053 -6217 -6412 -6673 -6333 -7589 -9257 -8977 0
1000000 850 -9041 -9158 -6989 -1053 0
1000000 4054 -9041 -9158 -6989 -1053 0
1000000 965 -5761 -7264 -7535 -5765 -7757 -9305 -8100 0
1000000 4055 -5761 -7264 -7535 -5765 -7757 -9305 -8100 0
1000000 828 -7223 -7487 -6254 -7652 0
1000000 4056 -7223 -7487 -6254 -7652 0
1000000 187 -6341 -6179 -8020 -5921 0
1000000 4057 -6341 -6179 -8020 -5921 0
1000000 334 -6856 -8909 -9543 -8870 -5704 -6508 -999 0
1000000 4058 -6856 -8909 -9543 -8870 -5704 -6508 -999 0
1000000 586 -7579 -8680 -8465 0
1000000 4059 -7579 -8680 -8465 0
1000000 292 -6898 -7285 -6008 -7581 -5723 -7960 -8037 0
1000000 4060 -6898 -7285 -6008 -7581 -5723 -7960 -8037 0
1000000 181 -6984 -6830 -5483 0
1000000 4061 -6984 -6830 -5483 0
1000000 22 -7072 -5719 -8796 -9282 -5529 -5907 -5288 0
1000000 4062 -7072 -5719 -8796 -9282 -5529 -5907 -5288 0
1000000 510 -5415 -6346 -5799 0
1000000 4063 -5415 -6346 -5799 0
1000000 1453 -8608 -1454 0
1000000 4064 -8608 -1454 0
1000000 104 -8535 -7893 -6882 -6182 -7614 -6607 0
1000000 4065 -8535 -7893 -6882 -6182 -7614 -6607 0
1000000 162 -9095 -6349 -7613 -7243 -182 0
1000000 4066 -9095 -6349 -7613 -7243 -182 0
1000000 767 -6296 -6933 -9087 -9437 0
1000000 4067 -6296 -6933 -9087 -9437 0
1000000 200 -5399 -5354 -9161 0
1000000 4068 -5399 -5354 -9161 0
1000000 516 -8629 -8451 -7689 -7403 0
1000000 4069 -8629 -8451 -7689 -7403 0
1000000 1426 -7271 -5150 -8616 -8901 -1478 0
1000000 4070 -7271 -5150 -8616 -8901 -1478 0
1000000 1070 -5184 -5401 -1322 0
1000000 4071 -5184 -5401 -1322 0
1000000 488 -7682 -7654 -7555 -7520 -5638 -9368 0
1000000 4072 -7682 -7654 -7555 -7520 -5638 -9368 0
1000000 1060 -9120 -5989 -1111 0
1000000 4073 -9120 -5989 -1111 0
1000000 232 -9025 -7669 -7433 -7427 -6725 -6407 -7026 0
1000000 4074 -9025 -7669 -7433 -7427 -6725 -6407 -7026 0
1000000 451 -5852 -8193 -5359 -6048 -8315 0
1000000 4075 -5852 -8193 -5359 -6048 -8315 0
1000000 1150 -5194 -7785 -6780 0
1000000 4076 -5194 -7785 -6780 0
1000000 1078 -6611 -7133 0
1000000 4077 -6611 -7133 0
1000000 543 -6588 -6028 -5679 -7323 -6581 -6133 0
1000000 4078 -6588 -6028 -5679 -7323 -6581 -6133 0
1000000 338 -7834 -7017 -9154 -7347 -8841 -8980 -7819 0
1000000 4079 -7834 -7017 -9154 -7347 -8841 -8980 -7819 0
1000000 9 -8074 -9102 -9338 -6706 -8833 0
1000000 4080 -8074 -9102 -9338 -6706 -8833 0
1000000 1124 -8465 -1478 0
1000000 4081 -8465 -1478 0
1000000 1446 -8040 -8882 -9123 -6650 -1492 0
1000000 4082 -8040 -8882 -9123 -6650 -1492 0
1000000 687 -7679 -5143 -7732 -8145 -9025 -6697 0
1000000 4083 -7679 -5143 -7732 -8145 -9025 -6697 0
1000000 266 -9381 -8839 -6582 -6450 -8244 -7828 0
1000000 4084 -9381 -8839 -6582 -6450 -8244 -7828 0
1000000 1354 -8386 -1481 0
1000000 4085 -8386 -1481 0
1000000 1161 -8143 -6181 -5461 -6227 -6203 0
1000000 4086 -8143 -6181 -5461 -6227 -6203 0
1000000 1301 -7145 -8387 -9212 -5156 -9066 -7082 0
1000000 4087 -7145 -8387 -9212 -5156 -9066 -7082 0
1000000 72 -5654 -7097 -7479 -8770 -7529 -9508 0
1000000 4088 -5654 -7097 -7479 -8770 -7529 -9508 0
1000000 656 -7925 -7106 -8861 -8402 -8769 -5686 0
1000000 4089 -7925 -7106 -8861 -8402 -8769 -5686 0
1000000 834 -7865 -9063 -8035 -9262 0
1000000 4090 -7865 -9063 -8035 -9262 0
1000000 700 -7775 -5152 -5319 -7810 -9191 -5645 -7184 0
1000000 4091 -7775 -5152 -5319 -7810 -9191 -5645 -7184 0
1000000 998 -6336 -9515 0
1000000 4092 -6336 -9515 0
1000000 1242 -7424 -5708 -8628 -5873 -5223 0
1000000 4093 -7424 -5708 -8628 -5873 -5223 0
1000000 558 -5551 -5401 -7330 -8697 -8972 -8634 0
1000000 4094 -5551 -5401 -7330 -8697 -8972 -8634 0
1000000 1121 -5743 -6055 -7537 -9203 0
1000000 4095 -5743 -6055 -7537 -9203 0
1000000 309 -7582 -9443 -5486 -6490 -6284 -7821 -5305 0
1000000 4096 -7582 -9443 -5486 -6490 -6284 -7821 -5305 0
1000000 1039 -8287 -8421 -8473 -5599 -5496 -6973 -7037 0
1000000 4097 -8287 -8421 -8473 -5599 -5496 -6973 -7037 0
1000000 679 -7224 -7483 -9262 -5177 -8401 -6555 -8951 0
1000000 4098 -7224 -7483 -9262 -5177 -8401 -6555 -8951 0
1000000 827 -9252 -5172 -7204 -8147 -5939 0
1000000 4099 -9252 -5172 -7204 -8147 -5939 0
1000000 1198 -8318 -6485 0
1000000 4100 -8318 -6485 0
1000000 501 -7672 -8901 0
1000000 4101 -7672 -8901 0
1000000 1247 -6030 -9090 -7021 -6560 -9470 0
1000000 4102 -6030 -9090 -7021 -6560 -9470 0
1000000 969 -7856 -5111 -5588 0
1000000 4103 -7856 -5111 -5588 0
1000000 530 -6158 -5987 -8834 -7465 -9560 -8326 -7740 0
1000000 4104 -6158 -5987 -8834 -7465 -9560 -8326 -7740 0
1000000 1357 -5715 -6973 -8253 -9206 -7873 0
1000000 4105 -5715 -6973 -8253 -9206 -7873 0
1000000 419 -5875 -8128 -7414 -7363 -5635 -6685 -544 0
1000000 4106 -5875 -8128 -7414 -7363 -5635 -6685 -544 0
1000000 20 -8805 -9273 0
1000000 4107 -8805 -9273 0
1000000 206 -7216 -7443 -9338 -9081 -9038 -6680 -5624 0
1000000 4108 -7216 -7443 -9338 -9081 -9038 -6680 -5624 0
1000000 549 -5761 -1060 0
1000000 4109 -5761 -1060 0
1000000 1067 -7410 -7956 0
1000000 4110 -7410 -7956 0
1000000 1122 -6742 -5480 -9095 -5215 -7419 -9291 -7732 0
1000000 4111 -6742 -5480 -9095 -5215 -7419 -9291 -7732 0
1000000 700 -7297 -5426 -7035 -8552 -8976 0
1000000 4112 -7297 -5426 -7035 -8552 -8976 0
1000000 1096 -9222 -9390 -9193 -8033 -6413 0
1000000 4113 -9222 -9390 -9193 -8033 -6413 0
1000000 1062 -9151 -9558 -8746 -8133 0
1000000 4114 -9151 -9558 -8746 -8133 0
1000000 956 -5492 -8571 -7863 0
1000000 4115 -5492 -8571 -7863 0
1000000 24 -7334 -6258 -5281 -6515 -7619 0
1000000 4116 -7334 -6258 -5281 -6515 -7619 0
1000000 406 -7204 -7183 0
1000000 4117 -7204 -7183 0
1000000 748 -9301 -7256 -6466 -9345 -7291 0
1000000 4118 -9301 -7256 -6466 -9345 -7291 0
1000000 898 -7564 -7442 -5996 0
1000000 4119 -7564 -7442 -5996 0
1000000 478 -5851 -7682 -5322 -8890 -5106 0
1000000 4120 -5851 -7682 -5322 -8890 -5106 0
1000000 922 -5733 -9271 -7106 -6957 -7579 -9477 -9518 0
1000000 4121 -5733 -9271 -7106 -6957 -7579 -9477 -9518 0
1000000 1387 -7631 -7485 0
1000000 4122 -7631 -7485 0
1000000 140 -6185 -9301 -5523 -6424 -6139 -8049 -8931 0
1000000 4123 -6185 -9301 -5523 -6424 -6139 -8049 -8931 0
1000000 330 -7244 -6622 -8508 -8674 -6958 -6480 0
1000000 4124 -7244 -6622 -8508 -8674 -6958 -6480 0
1000000 914 -5882 -8540 -6124 -7088 -8667 0
1000000 4125 -5882 -8540 -6124 -7088 -8667 0
1000000 737 -5444 -6424 -1042 0
1000000 4126 -5444 -6424 -1042 0
1000000 1366 -6936 -6414 -8695 -5637 -5960 -1424 0
1000000 4127 -6936 -6414 -8695 -5637 -5960 -1424 0
1000000 1047 -9484 -5214 -5530 -6817 -1137 0
1000000 4128 -9484 -5214 -5530 -6817 -1137 0
1000000 354 -5791 -6481 0
1000000 4129 -5791 -6481 0
1000000 1098 -6064 -8250 -7162 -7057 0
1000000 4130 -6064 -8250 -7162 -7057 0
1000000 1297 -8278 -8116 -5505 -7793 -1305 0
1000000 4131 -8278 -8116 -5505 -7793 -1305 0
1000000 342 -5252 -7421 -8131 -1126 0
1000000 4132 -5252 -7421 -8131 -1126 0
1000000 24 -5887 -9599 -6063 -7521 -8596 -7802 0
1000000 4133 -5887 -9599 -6063 -7521 -8596 -7802 0
1000000 1240 -5944 -6927 -8684 -7475 -5526 -9081 -1247 0
1000000 4134 -5944 -6927 -8684 -7475 -5526 -9081 -1247 0
1000000 294 -8482 -7572 -8662 -9068 -9321 -6966 -9438 0
1000000 4135 -8482 -7572 -8662 -9068 -9321 -6966 -9438 0
1000000 271 -9061 -8805 -5746 -9003 -8374 -7897 -5352 0
1000000 4136 -9061 -8805 -5746 -9003 -8374 -7897 -5352 0
1000000 860 -6594 -6354 -7266 -7439 -8697 -6999 -6926 0
1000000 4137 -6594 -6354 -7266 -7439 -8697 -6999 -6926 0
1000000 512 -9412 -7384 -5521 -6401 -9504 -5269 -5109 0
1000000 4138 -9412 -7384 -5521 -6401 -9504 -5269 -5109 0
1000000 1100 -6813 -6975 -6093 -8400 0
1000000 4139 -6813 -6975 -6093 -8400 0
1000000 652 -5134 -6441 -870 0
1000000 4140 -5134 -6441 -870 0
1000000 1437 -6989 -7073 -8183 0
1000000 4141 -6989 -7073 -8183 0
1000000 1245 -8586 -1364 0
1000000 4142 -8586 -1364 0
1000000 1164 -7704 -9082 -9298 -5775 -6234 -9227 -9580 0
1000000 4143 -7704 -9082 -9298 -5775 -6234 -9227 -9580 0
1000000 1374 -7730 -7951 0
1000000 4144 -7730 -7951 0
1000000 1476 -6647 -8404 -5719 -6505 -9046 -1478 0
1000000 4145 -6647 -8404 -5719 -6505 -9046 -1478 0
1000000 840 -8963 -6886 -1385 0
1000000 4146 -8963 -6886 -1385 0
1000000 398 -7927 -7082 -6337 -7382 -7933 -6440 -8823 0
1000000 4147 -7927 -7082 -6337 -7382 -7933 -6440 -8823 0
1000000 1202 -7783 -7341 -1487 0
1000000 4148 -7783 -7341 -1487 0
1000000 615 -8971 -9227 -5306 -8909 -5983 -6748 0
1000000 4149 -8971 -9227 -5306 -8909 -5983 -6748 0
1000000 474 -8033 -7795 -7773 -7812 -7305 -762 0
1000000 4150 -8033 -7795 -7773 -7812 -7305 -762 0
1000000 1398 -7619 -7205 -8691 -9292 -5260 -9007 -9112 0
1000000 4151 -7619 -7205 -8691 -9292 -5260 -9007 -9112 0
1000000 691 -9550 -5136 0
1000000 4152 -9550 -5136 0
1000000 702 -5642 -7366 -7959 0
1000000 4153 -5642 -7366 -7959 0
1000000 139 -6325 -6415 -5656 -7732 -7165 0
1000000 4154 -6325 -6415 -5656 -7732 -7165 0
1000000 1177 -9235 -9291 -6453 -9087 -9359 -7124 -5491 0
1000000 4155 -9235 -9291 -6453 -9087 -9359 -7124 -5491 0
1000000 85 -6849 -6931 -8593 -5492 -5191 0
1000000 4156 -6849 -6931 -8593 -5492 -5191 0
1000000 1067 -7176 -6745 -5940 -6622 -1464 0
1000000 4157 -7176 -6745 -5940 -6622 -1464 0
1000000 1365 -5539 -8836 -7878 -9047 -6534 0
1000000 4158 -5539 -8836 -7878 -9047 -6534 0
1000000 1462 -5223 -6183 -6881 -9028 -9135 0
1000000 4159 -5223 -6183 -6881 -9028 -9135 0
1000000 1289 -8437 -5824 -8988 -8769 -8656 -8444 0
1000000 4160 -8437 -5824 -8988 -8769 -8656 -8444 0
1000000 386 -7321 -9286 -9330 -5735 -8735 -5884 -7113 0
1000000 4161 -7321 -9286 -9330 -5735 -8735 -5884 -7113 0
1000000 1354 -5996 -7500 -7774 -5378 -1430 0
1000000 4162 -5996 -7500 -7774 -5378 -1430 0
1000000 1158 -5524 -9018 -6890 0
1000000 4163 -5524 -9018 -6890 0
1000000 1000 -5223 -5877 -7353 0
1000000 4164 -5223 -5877 -7353 0
1000000 195 -5632 -7035 -7486 -971 0
1000000 4165 -5632 -7035 -7486 -971 0
1000000 327 -6675 -7166 -5347 -7897 -574 0
1000000 4166 -6675 -7166 -5347 -7897 -574 0
1000000 1029 -8577 -5125 0
1000000 4167 -8577 -5125 0
1000000 775 -5180 -8724 -7448 0
1000000 4168 -5180 -8724 -7448 0
1000000 1015 -5172 -9264 -1149 0
1000000 4169 -5172 -9264 -1149 0
1000000 1181 -8706 -9519 -7416 0
1000000 4170 -8706 -9519 -7416 0
1000000 650 -8833 -8854 -8031 0
1000000 4171 -8833 -8854 -8031 0
1000000 290 -7352 -5521 -460 0
1000000 4172 -7352 -5521 -460 0
1000000 1057 -8240 -6395 -9118 -6112 -9091 0
1000000 4173 -8240 -6395 -9118 -6112 -9091 0
1000000 1133 -5854 -1483 0
1000000 4174 -5854 -1483 0
1000000 571 -7085 -8935 -8378 -6368 -7937 -9134 0
1000000 4175 -7085 -8935 -8378 -6368 -7937 -9134 0
1000000 77 -8612 -7933 -7667 -8651 0
1000000 4176 -8612 -7933 -7667 -8651 0
1000000 235 -8836 -8431 -5728 -8811 -7272 -5151 -8056 0
1000000 4177 -8836 -8431 -5728 -8811 -7272 -5151 -8056 0
1000000 1159 -7038 -5195 0
1000000 4178 -7038 -5195 0
1000000 233 -8392 -5940 0
1000000 4179 -8392 -5940 0
1000000 361 -9171 -9287 -9042 -5291 -8497 -6981 0
1000000 4180 -9171 -9287 -9042 -5291 -8497 -6981 0
1000000 741 -5268 -9498 -5690 -6792 0
1000000 4181 -5268 -9498 -5690 -6792 0
1000000 846 -7830 -6462 -8636 -6506 -992 0
1000000 4182 -7830 -6462 -8636 -6506 -992 0
1000000 478 -8245 -7756 -9279 -7927 -8476 -7006 0
1000000 4183 -8245 -7756 -9279 -7927 -8476 -7006 0
1000000 237 -5353 -1274 0
1000000 4184 -5353 -1274 0
1000000 286 -9381 -8709 0
1000000 4185 -9381 -8709 0
1000000 1353 -6244 -6395 -6957 -9361 -1464 0
1000000 4186 -6244 -6395 -6957 -9361 -1464 0
1000000 897 -8788 -5436 -8903 -5143 -8273 -1262 0
1000000 4187 -8788 -5436 -8903 -5143 -8273 -1262 0
1000000 1206 -7063 -7123 -8239 -8124 0
1000000 4188 -7063 -7123 -8239 -8124 0
1000000 524 -6105 -5710 0
1000000 4189 -6105 -5710 0
1000000 935 -5618 -7669 0
1000000 4190 -5618 -7669 0
1000000 187 -5475 -5280 -6419 -7748 -7089 -5917 -7892 0
1000000 4191 -5475 -5280 -6419 -7748 -7089 -5917 -7892 0
1000000 859 -7468 -6820 -8022 -9425 0
1000000 4192 -7468 -6820 -8022 -9425 0
1000000 941 -7355 -8958 0
1000000 4193 -7355 -8958 0
1000000 554 -6394 -7842 -1224 0
1000000 4194 -6394 -7842 -1224 0
1000000 1404 -8321 -5678 -6782 -6997 0
1000000 4195 -8321 -5678 -6782 -6997 0
1000000 395 -8279 -7210 -9183 0
1000000 4196 -8279 -7210 -9183 0
1000000 1333 -8613 -5310 -7617 0
1000000 4197 -8613 -5310 -7617 0
1000000 1379 -5385 -7700 -7036 -1435 0
1000000 4198 -5385 -7700 -7036 -1435 0
1000000 1248 -7637 -7651 -9463 -8337 -6637 -6968 -9002 0
1000000 4199 -7637 -7651 -9463 -8337 -6637 -6968 -9002 0
1000000 151 -7703 -6827 -5851 -6779 -9248 0
1000000 4200 -7703 -6827 -5851 -6779 -9248 0
1000000 949 -9372 -8931 -9365 -6915 -6467 0
1000000 4201 -9372 -8931 -9365 -6915 -6467 0
1000000 612 -6074 -8044 -8075 -8494 -9278 -615 0
1000000 4202 -6074 -8044 -8075 -8494 -9278 -615 0
1000000 1106 -9079 -7910 -8685 -8764 0
1000000 4203 -9079 -7910 -8685 -8764 0
1000000 854 -7554 -6000 -5602 0
1000000 4204 -7554 -6000 -5602 0
1000000 1116 -8226 -6000 -7614 -5982 -9547 -8437 0
1000000 4205 -8226 -6000 -7614 -5982 -9547 -8437 0
1000000 154 -8323 -6218 -6293 -5471 -8138 0
1000000 4206 -8323 -6218 -6293 -5471 -8138 0
1000000 303 -9600 -6124 -9346 -5750 -7529 -7143 0
1000000 4207 -9600 -6124 -9346 -5750 -7529 -7143 0
1000000 1097 -9342 -5343 0
1000000 4208 -9342 -5343 0
1000000 582 -6270 -6089 -6993 -7540 -9257 -6010 -5795 0
1000000 4209 -6270 -6089 -6993 -7540 -9257 -6010 -5795 0
1000000 820 -5399 -5301 -7648 -9530 -6286 -892 0
1000000 4210 -5399 -5301 -7648 -9530 -6286 -892 0
1000000 315 -8447 -6743 -5371 -990 0
1000000 4211 -8447 -6743 -5371 -990 0
1000000 618 -6937 -9085 -8228 -6862 -6226 -6216 -5899 0
1000000 4212 -6937 -9085 -8228 -6862 -6226 -6216 -5899 0
1000000 1483 -5537 -7508 -7490 -5826 -8456 -6031 0
1000000 4213 -5537 -7508 -7490 -5826 -8456 -6031 0
1000000 1125 -6124 -7293 -6905 -1211 0
1000000 4214 -6124 -7293 -6905 -1211 0
1000000 753 -7580 -7535 -6627 -9542 0
1000000 4215 -7580 -7535 -6627 -9542 0
1000000 1036 -6888 -8791 -7069 -1350 0
1000000 4216 -6888 -8791 -7069 -1350 0
1000000 508 -7347 -6046 -8564 -8897 0
1000000 4217 -7347 -6046 -8564 -8897 0
1000000 1273 -7817 -5978 0
1000000 4218 -7817 -5978 0
1000000 568 -7903 -6523 -7530 -5649 -5183 -8775 -7131 0
1000000 4219 -7903 -6523 -7530 -5649 -5183 -8775 -7131 0
1000000 660 -7613 -8322 -6631 -9108 -1454 0
1000000 4220 -7613 -8322 -6631 -9108 -1454 0
1000000 1367 -5960 -5388 -7390 -6329 -8990 -5591 -8403 0
1000000 4221 -5960 -5388 -7390 -6329 -8990 -5591 -8403 0
1000000 1142 -9364 -6760 -5246 -7322 -7416 -9433 0
1000000 4222 -9364 -6760 -5246 -7322 -7416 -9433 0
1000000 1427 -7417 -7290 -5499 -7178 -6072 0
1000000 4223 -7417 -7290 -5499 -7178 -6072 0
1000000 596 -6401 -6421 -7663 -8658 -8890 -8679 -6914 0
1000000 4224 -6401 -6421 -7663 -8658 -8890 -8679 -6914 0
1000000 1242 -6820 -7738 -7028 0
1000000 4225 -6820 -7738 -7028 0
1000000 830 -7831 -5856 -7048 -8448 -6120 -5442 0
1000000 4226 -7831 -5856 -7048 -8448 -6120 -5442 0
1000000 53 -7633 -6009 0
1000000 4227 -7633 -6009 0
1000000 206 -8648 -9535 -8544 -7566 -6926 0
1000000 4228 -8648 -9535 -8544 -7566 -6926 0
1000000 880 -8232 -5300 -8581 -6319 -8891 -8624 -7185 0
1000000 4229 -8232 -5300 -8581 -6319 -8891 -8624 -7185 0
1000000 447 -8971 -9379 -7955 -5751 0
1000000 4230 -8971 -9379 -7955 -5751 0
1000000 945 -5913 -8791 -6116 0
1000000 4231 -5913 -8791 -6116 0
1000000 1140 -8144 -7671 -5903 0
1000000 4232 -8144 -7671 -5903 0
1000000 636 -7962 -6979 -7510 -5518 0
1000000 4233 -7962 -6979 -7510 -5518 0
1000000 625 -8418 -7924 -1102 0
1000000 4234 -8418 -7924 -1102 0
1000000 220 -7858 -5121 -6996 -5415 -6317 -7016 -6891 0
1000000 4235 -7858 -5121 -6996 -5415 -6317 -7016 -6891 0
1000000 1399 -6417 -8160 -5946 -8724 -6013 -8345 0
1000000 4236 -6417 -8160 -5946 -8724 -6013 -8345 0
1000000 270 -7419 -8305 0
1000000 4237 -7419 -8305 0
1000000 1233 -7606 -7145 -8392 -6915 0
1000000 4238 -7606 -7145 -8392 -6915 0
1000000 18 -8465 -7712 -9151 0
1000000 4239 -8465 -7712 -9151 0
1000000 457 -5397 -7596 -6332 -1212 0
1000000 4240 -5397 -7596 -6332 -1212 0
1000000 206 -7364 -7988 0
1000000 4241 -7364 -7988 0
1000000 364 -6405 -825 0
1000000 4242 -6405 -825 0
1000000 843 -9540 -9559 -6551 -6908 -6879 -5395 -9043 0
1000000 4243 -9540 -9559 -6551 -6908 -6879 -5395 -9043 0
1000000 1441 -8976 -9583 -8558 -9234 -7046 -7000 0
1000000 4244 -8976 -9583 -8558 -9234 -7046 -7000 0
1000000 100 -8653 -7578 -7897 0
1000000 4245 -8653 -7578 -7897 0
1000000 1292 -5263 -5157 0
1000000 4246 -5263 -5157 0
1000000 586 -7432 -6489 -7099 -7766 0
1000000 4247 -7432 -6489 -7099 -7766 0
1000000 1216 -9485 -9286 0
1000000 4248 -9485 -9286 0
1000000 1150 -5791 -6196 -5690 0
1000000 4249 -5791 -6196 -5690 0
1000000 1271 -7504 -7825 -7564 -7379 -5989 -6102 -7229 0
1000000 4250 -7504 -7825 -7564 -7379 -5989 -6102 -7229 0
1000000 1478 -8441 -7169 0
1000000 4251 -8441 -7169 0
1000000 277 -7991 -6232 -6306 -6913 -6181 0
1000000 4252 -7991 -6232 -6306 -6913 -6181 0
1000000 1010 -6248 -6974 0
1000000 4253 -6248 -6974 0
1000000 1380 -9498 -5206 -6754 -6874 -1483 0
1000000 4254 -9498 -5206 -6754 -6874 -1483 0
1000000 943 -8543 -5762 -7671 -5701 0
1000000 4255 -8543 -5762 -7671 -5701 0
1000000 263 -7063 -8831 -6230 -9426 -7204 -8679 0
1000000 4256 -7063 -8831 -6230 -9426 -7204 -8679 0
1000000 1331 -6046 -8500 -5168 -8198 -7107 -7830 0
1000000 4257 -6046 -8500 -5168 -8198 -7107 -7830 0
1000000 884 -7988 -7776 -8909 -1419 0
1000000 4258 -7988 -7776 -8909 -1419 0
1000000 372 -5469 -7458 -8258 -9013 -5340 -6067 -6768 0
1000000 4259 -5469 -7458 -8258 -9013 -5340 -6067 -6768 0
1000000 1298 -8238 -8985 -9120 -8424 -8498 -6986 -7446 0
1000000 4260 -8238 -8985 -9120 -8424 -8498 -6986 -7446 0
1000000 344 -6878 -7630 0
1000000 4261 -6878 -7630 0
1000000 110 -5683 -7329 -7478 -8165 -8818 -8040 -8947 0
1000000 4262 -5683 -7329 -7478 -8165 -8818 -8040 -8947 0
1000000 1388 -6047 -6866 -8385 -7600 0
1000000 4263 -6047 -6866 -8385 -7600 0
1000000 89 -5341 -5773 -687 0
1000000 4264 -5341 -5773 -687 0
1000000 592 -8465 -6095 -7254 -9133 -7119 -7280 -5268 0
1000000 4265 -8465 -6095 -7254 -9133 -7119 -7280 -5268 0
1000000 467 -6806 -5568 -5437 0
1000000 4266 -6806 -5568 -5437 0
1000000 1070 -6585 -9571 -7875 -9200 0
1000000 4267 -6585 -9571 -7875 -9200 0
1000000 703 -7290 -8383 -7921 -8693 -5260 -7215 -9599 0
1000000 4268 -7290 -8383 -7921 -8693 -5260 -7215 -9599 0
1000000 408 -8421 -9012 -7152 0
1000000 4269 -8421 -9012 -7152 0
1000000 246 -7652 -9312 -9454 0
1000000 4270 -7652 -9312 -9454 0
1000000 71 -6886 -9008 -9124 -6699 -8967 -6751 0
1000000 4271 -6886 -9008 -9124 -6699 -8967 -6751 0
1000000 783 -7814 -7579 -8277 -7119 -7594 0
1000000 4272 -7814 -7579 -8277 -7119 -7594 0
1000000 1114 -7865 -6911 -5141 -6635 -8211 -7566 -6297 0
1000000 4273 -7865 -6911 -5141 -6635 -8211 -7566 -6297 0
1000000 1269 -5955 -7470 0
1000000 4274 -5955 -7470 0
1000000 1279 -8671 -5246 -8938 -5130 -9117 0
1000000 4275 -8671 -5246 -8938 -5130 -9117 0
1000000 1276 -6862 -6536 -7988 -9202 -5360 -5240 -1406 0
1000000 4276 -6862 -6536 -7988 -9202 -5360 -5240 -1406 0
1000000 150 -6121 -5541 -9119 -7474 -5200 -6195 0
1000000 4277 -6121 -5541 -9119 -7474 -5200 -6195 0
1000000 778 -9570 -5451 -7283 -5675 -964 0
1000000 4278 -9570 -5451 -7283 -5675 -964 0
1000000 1351 -5592 -5643 -5902 -5416 -8466 0
1000000 4279 -5592 -5643 -5902 -5416 -8466 0
1000000 214 -6441 -9593 -9408 -5202 0
1000000 4280 -6441 -9593 -9408 -5202 0
1000000 738 -5939 -9502 -8985 -857 0
1000000 4281 -5939 -9502 -8985 -857 0
1000000 1039 -7712 -7605 -8512 -8711 -6599 0
1000000 4282 -7712 -7605 -8512 -8711 -6599 0
1000000 1079 -6328 -8383 -5362 -6993 0
1000000 4283 -6328 -8383 -5362 -6993 0
1000000 1150 -8628 -6101 0
1000000 4284 -8628 -6101 0
1000000 319 -8168 -7173 -5954 -9204 -5158 -5823 0
1000000 4285 -8168 -7173 -5954 -9204 -5158 -5823 0
1000000 1360 -8237 -8047 -7686 -8340 -1413 0
1000000 4286 -8237 -8047 -7686 -8340 -1413 0
1000000 481 -7594 -7919 -9482 -5706 0
1000000 4287 -7594 -7919 -9482 -5706 0
1000000 665 -8241 -9033 -8689 -6262 -7779 -6134 0
1000000 4288 -8241 -9033 -8689 -6262 -7779 -6134 0
1000000 250 -6869 -6392 -6209 -6411 -8296 -7317 -6885 0
1000000 4289 -6869 -6392 -6209 -6411 -8296 -7317 -6885 0
1000000 1347 -8537 -6980 -8245 -9347 -7880 -7711 0
1000000 4290 -8537 -6980 -8245 -9347 -7880 -7711 0
1000000 962 -6584 -7632 0
1000000 4291 -6584 -7632 0
1000000 1291 -8725 -9025 -8679 -5107 -5720 0
1000000 4292 -8725 -9025 -8679 -5107 -5720 0
1000000 130 -8931 -8476 -8876 -6661 -755 0
1000000 4293 -8931 -8476 -8876 -6661 -755 0
1000000 267 -7980 -7158 -8556 -8880 0
1000000 4294 -7980 -7158 -8556 -8880 0
1000000 1300 -8552 -7682 -9253 -5503 0
1000000 4295 -8552 -7682 -9253 -5503 0
1000000 161 -8891 -5207 -7355 -7544 -8703 -424 0
1000000 4296 -8891 -5207 -7355 -7544 -8703 -424 0
1000000 1208 -6612 -8541 0
1000000 4297 -6612 -8541 0
1000000 729 -5815 -6540 -6306 -5660 -7861 -7042 -7814 0
1000000 4298 -5815 -6540 -6306 -5660 -7861 -7042 -7814 0
1000000 604 -6946 -8569 -5929 -9293 0
1000000 4299 -6946 -8569 -5929 -9293 0
1000000 1216 -7079 -6890 -5962 0
1000000 4300 -7079 -6890 -5962 0
1000000 726 -7854 -7486 0
1000000 4301 -7854 -7486 0
1000000 565 -8954 -8936 0
1000000 4302 -8954 -8936 0
1000000 1203 -5551 -6460 0
1000000 4303 -5551 -6460 0
1000000 355 -5312 -9340 -6735 0
1000000 4304 -5312 -9340 -6735 0
1000000 678 -5196 -9432 -9130 -7435 -9361 0
1000000 4305 -5196 -9432 -9130 -7435 -9361 0
1000000 1144 -5545 -5417 -5896 -8882 -9054 -5966 -6500 0
1000000 4306 -5545 -5417 -5896 -8882 -9054 -5966 -6500 0
1000000 759 -5298 -8176 -5911 -9328 -8591 -9414 -1343 0
1000000 4307 -5298 -8176 -5911 -9328 -8591 -9414 -1343 0
1000000 603 -7529 -6029 -7193 0
1000000 4308 -7529 -6029 -7193 0
1000000 208 -7298 -5325 -5776 -7821 -9309 -8575 -6188 0
1000000 4309 -7298 -5325 -5776 -7821 -9309 -8575 -6188 0
1000000 211 -6352 -8580 -9087 -5416 -1040 0
1000000 4310 -6352 -8580 -9087 -5416 -1040 0
1000000 1395 -8707 -6945 -6562 -8942 0
1000000 4311 -8707 -6945 -6562 -8942 0
1000000 200 -5199 -9309 0
1000000 4312 -5199 -9309 0
1000000 245 -6495 -9264 -9515 -5960 0
1000000 4313 -6495 -9264 -9515 -5960 0
1000000 27 -6474 -6066 -8366 -9051 -9442 -8038 -8932 0
1000000 4314 -6474 -6066 -8366 -9051 -9442 -8038 -8932 0
1000000 1356 -7206 -7028 -9198 -7904 0
1000000 4315 -7206 -7028 -9198 -7904 0
1000000 739 -8315 -9054 0
1000000 4316 -8315 -9054 0
1000000 1377 -5555 -8602 -8666 -6595 -8606 -8176 -6976 0
1000000 4317 -5555 -8602 -8666 -6595 -8606 -8176 -6976 0
1000000 185 -6888 -6253 -6376 -7147 -6718 -8927 -7328 0
1000000 4318 -6888 -6253 -6376 -7147 -6718 -8927 -7328 0
1000000 989 -6804 -9509 0
1000000 4319 -6804 -9509 0
1000000 892 -7467 -7049 -8054 -7656 -1348 0
1000000 4320 -7467 -7049 -8054 -7656 -1348 0
1000000 858 -7897 -5373 0
1000000 4321 -7897 -5373 0
1000000 194 -8661 -7379 -9454 -6172 -6712 0
1000000 4322 -8661 -7379 -9454 -6172 -6712 0
1000000 80 -6243 -6876 -8378 -1041 0
1000000 4323 -6243 -6876 -8378 -1041 0
1000000 70 -5354 -6214 0
1000000 4324 -5354 -6214 0
1000000 660 -9550 -8800 0
1000000 4325 -9550 -8800 0
1000000 915 -5279 -8157 -5352 -7741 -6613 -6561 -1246 0
1000000 4326 -5279 -8157 -5352 -7741 -6613 -6561 -1246 0
1000000 604 -7767 -7588 0
1000000 4327 -7767 -7588 0
1000000 1381 -5734 -5745 -5103 -6303 -9183 -5662 0
1000000 4328 -5734 -5745 -5103 -6303 -9183 -5662 0
1000000 126 -7136 -7280 -5462 -7006 -7998 -6219 -6927 0
1000000 4329 -7136 -7280 -5462 -7006 -7998 -6219 -6927 0
1000000 41 -8568 -6335 -5108 -8537 -6391 0
1000000 4330 -8568 -6335 -5108 -8537 -6391 0
1000000 1357 -6015 -6288 -8774 -9539 -8096 -9097 0
1000000 4331 -6015 -6288 -8774 -9539 -8096 -9097 0
1000000 930 -7818 -7745 0
1000000 4332 -7818 -7745 0
1000000 452 -7458 -6907 -7248 -8585 -1259 0
1000000 4333 -7458 -6907 -7248 -8585 -1259 0
1000000 1090 -9348 -5708 -6223 -9192 0
1000000 4334 -9348 -5708 -6223 -9192 0
1000000 1248 -8195 -8733 -5581 0
1000000 4335 -8195 -8733 -5581 0
1000000 633 -6264 -7424 -7693 0
1000000 4336 -6264 -7424 -7693 0
1000000 795 -5923 -8727 -6122 -6218 -6874 -6483 -9356 0
1000000 4337 -5923 -8727 -6122 -6218 -6874 -6483 -9356 0
1000000 791 -8558 -6356 -8015 -7476 0
1000000 4338 -8558 -6356 -8015 -7476 0
1000000 868 -7621 -6700 0
1000000 4339 -7621 -6700 0
1000000 606 -5109 -5317 -5720 -5472 -1419 0
1000000 4340 -5109 -5317 -5720 -5472 -1419 0
1000000 655 -7772 -5915 -9434 -5113 -8462 -8202 0
1000000 4341 -7772 -5915 -9434 -5113 -8462 -8202 0
1000000 762 -5906 -7847 -6979 0
1000000 4342 -5906 -7847 -6979 0
1000000 699 -5337 -6850 -8115 0
1000000 4343 -5337 -6850 -8115 0
1000000 393 -7177 -8284 -6620 0
1000000 4344 -7177 -8284 -6620 0
1000000 357 -6144 -5125 -6537 -8257 -8557 -5273 -7184 0
1000000 4345 -6144 -5125 -6537 -8257 -8557 -5273 -7184 0
1000000 1234 -6471 -5267 -7115 0
1000000 4346 -6471 -5267 -7115 0
1000000 658 -8171 -7206 -6832 -6463 -6352 0
1000000 4347 -8171 -7206 -6832 -6463 -6352 0
1000000 808 -7354 -5490 -7450 -7545 -9211 -6808 -8478 0
1000000 4348 -7354 -5490 -7450 -7545 -9211 -6808 -8478 0
1000000 74 -8844 -6088 -6043 -7598 -5944 -5282 -7261 0
1000000 4349 -8844 -6088 -6043 -7598 -5944 -5282 -7261 0
1000000 259 -5737 -5464 -5195 0
1000000 4350 -5737 -5464 -5195 0
1000000 1468 -8711 -5307 -6969 0
1000000 4351 -8711 -5307 -6969 0
1000000 771 -9137 -8387 -9480 -7534 0
1000000 4352 -9137 -8387 -9480 -7534 0
1000000 1033 -5993 -9426 -5721 -8058 0
1000000 4353 -5993 -9426 -5721 -8058 0
1000000 897 -8463 -5801 -7497 -9011 -7229 -7245 -9299 0
1000000 4354 -8463 -5801 -7497 -9011 -7229 -7245 -9299 0
1000000 1176 -7560 -7659 0
1000000 4355 -7560 -7659 0
1000000 1332 -7417 -8184 -1469 0
1000000 4356 -7417 -8184 -1469 0
1000000 1210 -9250 -1316 0
1000000 4357 -9250 -1316 0
1000000 127 -7967 -6258 -8541 0
1000000 4358 -7967 -6258 -8541 0
1000000 641 -6261 -9021 -7028 -6329 -7755 -9444 -1099 0
1000000 4359 -6261 -9021 -7028 -6329 -7755 -9444 -1099 0
1000000 862 -8128 -6052 0
1000000 4360 -8128 -6052 0
1000000 1212 -7536 -7560 -8911 0
1000000 4361 -7536 -7560 -8911 0
1000000 550 -8962 -5755 -8902 -7136 0
1000000 4362 -8962 -5755 -8902 -7136 0
1000000 555 -8436 -5625 -778 0
1000000 4363 -8436 -5625 -778 0
1000000 308 -6071 -9489 -9508 -8368 0
1000000 4364 -6071 -9489 -9508 -8368 0
1000000 1428 -5763 -6105 -6939 -7178 -7964 -7215 -6920 0
1000000 4365 -5763 -6105 -6939 -7178 -7964 -7215 -6920 0
1000000 231 -7992 -8365 -6437 -8186 0
1000000 4366 -7992 -8365 -6437 -8186 0
1000000 1376 -7400 -8881 -7427 -6665 -6564 -7054 -5461 0
1000000 4367 -7400 -8881 -7427 -6665 -6564 -7054 -5461 0
1000000 1086 -5924 -9485 -6450 -7332 -1142 0
1000000 4368 -5924 -9485 -6450 -7332 -1142 0
1000000 1346 -6827 -8789 -7223 -9320 -7572 0
1000000 4369 -6827 -8789 -7223 -9320 -7572 0
1000000 579 -8544 -5143 -7352 -6848 -5619 -8709 0
1000000 4370 -8544 -5143 -7352 -6848 -5619 -8709 0
1000000 1217 -5629 -1242 0
1000000 4371 -5629 -1242 0
1000000 383 -7561 -9068 -8157 -9078 -7318 -8979 -5746 0
1000000 4372 -7561 -9068 -8157 -9078 -7318 -8979 -5746 0
1000000 990 -6726 -8942 -5204 -6817 -9106 0
1000000 4373 -6726 -8942 -5204 -6817 -9106 0
1000000 337 -6758 -5495 0
1000000 4374 -6758 -5495 0
1000000 331 -5765 -1337 0
1000000 4375 -5765 -1337 0
1000000 809 -6229 -8057 -8468 -7756 -5112 -6889 -7407 0
1000000 4376 -6229 -8057 -8468 -7756 -5112 -6889 -7407 0
1000000 4 -7411 -8532 -6723 -7757 0
1000000 4377 -7411 -8532 -6723 -7757 0
1000000 685 -8207 -5217 -7109 -8260 -9343 0
1000000 4378 -8207 -5217 -7109 -8260 -9343 0
1000000 604 -6629 -6997 -8239 -8039 -8533 0
1000000 4379 -6629 -6997 -8239 -8039 -8533 0
1000000 88 -7544 -8824 -6917 -5492 -5286 -9360 0
1000000 4380 -7544 -8824 -6917 -5492 -5286 -9360 0
1000000 1484 -5946 -9536 -9156 -5602 -5297 -7324 -6933 0
1000000 4381 -5946 -9536 -9156 -5602 -5297 -7324 -6933 0
1000000 1107 -7591 -7695 -5287 -9001 -5578 0
1000000 4382 -7591 -7695 -5287 -9001 -5578 0
1000000 1415 -6413 -7151 0
1000000 4383 -6413 -7151 0
1000000 785 -6867 -7921 -8450 -6440 0
1000000 4384 -6867 -7921 -8450 -6440 0
1000000 189 -9337 -7258 -8558 -6234 -8055 -7582 -7748 0
1000000 4385 -9337 -7258 -8558 -6234 -8055 -7582 -7748 0
1000000 922 -8949 -5598 -5564 0
1000000 4386 -8949 -5598 -5564 0
1000000 662 -8340 -8382 -5433 -9521 -9260 0
1000000 4387 -8340 -8382 -5433 -9521 -9260 0
1000000 202 -8976 -8858 -8675 -8289 -9358 -7996 0
1000000 4388 -8976 -8858 -8675 -8289 -9358 -7996 0
1000000 1146 -5793 -9330 -5438 -5849 0
1000000 4389 -5793 -9330 -5438 -5849 0
1000000 1486 -6464 -5648 -6594 -8776 -6655 -7852 -8417 0
1000000 4390 -6464 -5648 -6594 -8776 -6655 -7852 -8417 0
1000000 150 -5899 -7164 -6042 -7055 0
1000000 4391 -5899 -7164 -6042 -7055 0
1000000 168 -9253 -6406 -7226 -7445 -7075 -8577 -6628 0
1000000 4392 -9253 -6406 -7226 -7445 -7075 -8577 -6628 0
1000000 1367 -6253 -7747 -5380 -8737 -8124 -6244 0
1000000 4393 -6253 -7747 -5380 -8737 -8124 -6244 0
1000000 1131 -7016 -6668 -8443 -7150 -5353 -1370 0
1000000 4394 -7016 -6668 -8443 -7150 -5353 -1370 0
1000000 1443 -8240 -5938 -7867 -5404 -8266 0
1000000 4395 -8240 -5938 -7867 -5404 -8266 0
1000000 1361 -7670 -5897 0
1000000 4396 -7670 -5897 0
1000000 866 -5190 -7397 -8430 -8472 -7855 -1452 0
1000000 4397 -5190 -7397 -8430 -8472 -7855 -1452 0
1000000 1073 -9042 -9499 0
1000000 4398 -9042 -9499 0
1000000 308 -6616 -5603 -7992 -5803 -5379 -602 0
1000000 4399 -6616 -5603 -7992 -5803 -5379 -602 0
1000000 628 -6673 -9411 -7770 -5543 0
1000000 4400 -6673 -9411 -7770 -5543 0
1000000 54 -6157 -7239 -5950 -5520 -5250 -1283 0
1000000 4401 -6157 -7239 -5950 -5520 -5250 -1283 0
1000000 957 -6609 -8725 -8154 -5593 -9431 -5967 -1016 0
1000000 4402 -6609 -8725 -8154 -5593 -9431 -5967 -1016 0
1000000 476 -5921 -1350 0
1000000 4403 -5921 -1350 0
1000000 298 -7520 -8002 -1329 0
1000000 4404 -7520 -8002 -1329 0
1000000 353 -8761 -8142 -9482 -6351 -7992 -640 0
1000000 4405 -8761 -8142 -9482 -6351 -7992 -640 0
1000000 1135 -5953 -8591 -6420 -6240 -6057 -6757 0
1000000 4406 -5953 -8591 -6420 -6240 -6057 -6757 0
1000000 791 -6996 -8750 -6368 0
1000000 4407 -6996 -8750 -6368 0
1000000 217 -6894 -8947 -9481 -7265 -8614 -7430 0
1000000 4408 -6894 -8947 -9481 -7265 -8614 -7430 0
1000000 1444 -6413 -7284 -7152 -1458 0
1000000 4409 -6413 -7284 -7152 -1458 0
1000000 649 -6200 -6122 -5471 -9508 0
1000000 4410 -6200 -6122 -5471 -9508 0
1000000 474 -8137 -8633 -9229 -8553 -1220 0
1000000 4411 -8137 -8633 -9229 -8553 -1220 0
1000000 1262 -5447 -6506 0
1000000 4412 -5447 -6506 0
1000000 779 -9415 -7774 -9146 -7834 -6603 -6854 0
1000000 4413 -9415 -7774 -9146 -7834 -6603 -6854 0
1000000 532 -6418 -5514 -7936 -8254 -8186 -5254 -9096 0
1000000 4414 -6418 -5514 -7936 -8254 -8186 -5254 -9096 0
1000000 1264 -5777 -9086 -5497 -6445 -8039 -8562 -6067 0
1000000 4415 -5777 -9086 -5497 -6445 -8039 -8562 -6067 0
1000000 947 -5739 -7997 -5121 0
1000000 4416 -5739 -7997 -5121 0
1000000 789 -8157 -9260 -9292 -8655 -6699 -1313 0
1000000 4417 -8157 -9260 -9292 -8655 -6699 -1313 0
1000000 1001 -9434 -8639 -5603 -7543 0
1000000 4418 -9434 -8639 -5603 -7543 0
1000000 1043 -5615 -6568 -6234 -5992 0
1000000 4419 -5615 -6568 -6234 -5992 0
1000000 23 -8472 -5244 -5716 -8345 -7956 -5261 -5635 0
1000000 4420 -8472 -5244 -5716 -8345 -7956 -5261 -5635 0
1000000 985 -9119 -5352 -7395 -7225 -5870 -5502 -5519 0
1000000 4421 -9119 -5352 -7395 -7225 -5870 -5502 -5519 0
1000000 287 -5855 -8477 -5794 0
1000000 4422 -5855 -8477 -5794 0
1000000 1181 -6099 -7587 -6406 -9425 -6290 -8377 -1465 0
1000000 4423 -6099 -7587 -6406 -9425 -6290 -8377 -1465 0
1000000 854 -6305 -8023 -5536 -9394 -5161 -8263 -6497 0
1000000 4424 -6305 -8023 -5536 -9394 -5161 -8263 -6497 0
1000000 913 -7637 -8234 -8719 0
1000000 4425 -7637 -8234 -8719 0
1000000 1092 -6682 -8999 -8687 -8799 -6831 -8747 -7581 0
1000000 4426 -6682 -8999 -8687 -8799 -6831 -8747 -7581 0
1000000 1128 -6553 -5497 -6119 -7396 -6431 0
1000000 4427 -6553 -5497 -6119 -7396 -6431 0
1000000 176 -7353 -8312 -9114 -7859 0
1000000 4428 -7353 -8312 -9114 -7859 0
1000000 597 -8128 -7085 -9312 -5364 -8543 -933 0
1000000 4429 -8128 -7085 -9312 -5364 -8543 -933 0
1000000 690 -8842 -9102 0
1000000 4430 -8842 -9102 0
1000000 154 -7551 -9255 -5806 -5259 -6755 -6737 -523 0
1000000 4431 -7551 -9255 -5806 -5259 -6755 -6737 -523 0
1000000 569 -9395 -8805 -7388 -9398 -9236 0
1000000 4432 -9395 -8805 -7388 -9398 -9236 0
1000000 268 -9016 -8607 -6682 -5214 -5183 -8395 0
1000000 4433 -9016 -8607 -6682 -5214 -5183 -8395 0
1000000 1102 -8693 -8967 -7383 -6771 -6524 -1278 0
1000000 4434 -8693 -8967 -7383 -6771 -6524 -1278 0
1000000 801 -8738 -5349 -7331 -6914 0
1000000 4435 -8738 -5349 -7331 -6914 0
1000000 1415 -5244 -5435 -1485 0
1000000 4436 -5244 -5435 -1485 0
1000000 805 -7176 -8806 -5170 -5652 -7334 -9289 -8376 0
1000000 4437 -7176 -8806 -5170 -5652 -7334 -9289 -8376 0
1000000 941 -7121 -7994 -7518 -5588 -7313 -7065 0
1000000 4438 -7121 -7994 -7518 -5588 -7313 -7065 0
1000000 374 -5311 -9152 -5155 0
1000000 4439 -5311 -9152 -5155 0
1000000 1267 -6302 -8556 -9546 -5199 -8253 -7766 0
1000000 4440 -6302 -8556 -9546 -5199 -8253 -7766 0
1000000 473 -9028 -5302 -5958 -539 0
1000000 4441 -9028 -5302 -5958 -539 0
1000000 826 -9253 -5130 -8140 -7249 0
1000000 4442 -9253 -5130 -8140 -7249 0
1000000 1406 -6902 -8124 -5472 -7481 0
1000000 4443 -6902 -8124 -5472 -7481 0
1000000 698 -8732 -5443 0
1000000 4444 -8732 -5443 0
1000000 290 -7573 -7898 -5614 -8667 -573 0
1000000 4445 -7573 -7898 -5614 -8667 -573 0
1000000 183 -9053 -7663 -7901 -9003 0
1000000 4446 -9053 -7663 -7901 -9003 0
1000000 866 -8265 -1007 0
1000000 4447 -8265 -1007 0
1000000 289 -6796 -7207 -5594 -604 0
1000000 4448 -6796 -7207 -5594 -604 0
1000000 237 -9599 -8643 0
1000000 4449 -9599 -8643 0
1000000 1288 -7088 -5534 0
1000000 4450 -7088 -5534 0
1000000 287 -9473 -5469 0
1000000 4451 -9473 -5469 0
1000000 669 -7238 -9151 -7776 -5397 0
1000000 4452 -7238 -9151 -7776 -5397 0
1000000 759 -7642 -7950 -7136 -5979 -7270 -6043 -1470 0
1000000 4453 -7642 -7950 -7136 -5979 -7270 -6043 -1470 0
1000000 951 -8732 -8378 -8931 -6347 -7692 -8662 0
1000000 4454 -8732 -8378 -8931 -6347 -7692 -8662 0
1000000 663 -7424 -5894 -755 0
1000000 4455 -7424 -5894 -755 0
1000000 331 -9176 -6002 -7217 0
1000000 4456 -9176 -6002 -7217 0
1000000 441 -8835 -5268 -9550 -8919 -5308 -8666 0
1000000 4457 -8835 -5268 -9550 -8919 -5308 -8666 0
1000000 916 -8491 -6056 -7585 -7989 -7266 -5824 0
1000000 4458 -8491 -6056 -7585 -7989 -7266 -5824 0
1000000 933 -7591 -8597 -5840 -6687 -5952 -6588 0
1000000 4459 -7591 -8597 -5840 -6687 -5952 -6588 0
1000000 1435 -5365 -8488 -8696 -8773 -5166 -5769 0
1000000 4460 -5365 -8488 -8696 -8773 -5166 -5769 0
1000000 579 -5214 -9536 -7230 -9332 -6270 0
1000000 4461 -5214 -9536 -7230 -9332 -6270 0
1000000 287 -6067 -7752 -7953 -7560 -643 0
1000000 4462 -6067 -7752 -7953 -7560 -643 0
1000000 734 -5475 -8039 -6286 -5476 -5895 0
1000000 4463 -5475 -8039 -6286 -5476 -5895 0
1000000 690 -8233 -6462 -8501 -7035 0
1000000 4464 -8233 -6462 -8501 -7035 0
1000000 950 -5472 -8065 -9402 -9553 -5320 0
1000000 4465 -5472 -8065 -9402 -9553 -5320 0
1000000 766 -9597 -9269 -5734 0
1000000 4466 -9597 -9269 -5734 0
1000000 268 -8476 -8398 -7564 -9523 -6374 -5971 -6266 0
1000000 4467 -8476 -8398 -7564 -9523 -6374 -5971 -6266 0
1000000 180 -8777 -7633 -5951 -6392 -7492 -6639 -6106 0
1000000 4468 -8777 -7633 -5951 -6392 -7492 -6639 -6106 0
1000000 720 -9368 -7014 -5289 -6572 -8122 0
1000000 4469 -9368 -7014 -5289 -6572 -8122 0
1000000 983 -7139 -8872 -8772 -6537 -9395 -8874 -9169 0
1000000 4470 -7139 -8872 -8772 -6537 -9395 -8874 -9169 0
1000000 16 -5203 -7918 -7243 -7203 -5346 0
1000000 4471 -5203 -7918 -7243 -7203 -5346 0
1000000 214 -5549 -8588 -6795 -5165 -6158 -9095 0
1000000 4472 -5549 -8588 -6795 -5165 -6158 -9095 0
1000000 47 -6692 -7241 -7620 -6194 -7409 -6483 -5502 0
1000000 4473 -6692 -7241 -7620 -6194 -7409 -6483 -5502 0
1000000 1451 -8701 -9289 -6521 -9047 -8043 -8255 -8492 0
1000000 4474 -8701 -9289 -6521 -9047 -8043 -8255 -8492 0
1000000 275 -7526 -8886 -9220 -5594 -1238 0
1000000 4475 -7526 -8886 -9220 -5594 -1238 0
1000000 13 -8680 -5816 -8327 -7071 -6758 -7558 0
1000000 4476 -8680 -5816 -8327 -7071 -6758 -7558 0
1000000 1438 -5680 -9557 -7367 0
1000000 4477 -5680 -9557 -7367 0
1000000 813 -8154 -7701 -8326 -6915 -8922 0
1000000 4478 -8154 -7701 -8326 -6915 -8922 0
1000000 1204 -7465 -8816 -7411 0
1000000 4479 -7465 -8816 -7411 0
1000000 999 -6738 -1457 0
1000000 4480 -6738 -1457 0
1000000 1104 -9083 -5873 -5904 -9000 -6223 -1114 0
1000000 4481 -9083 -5873 -5904 -9000 -6223 -1114 0
1000000 717 -5324 -6056 -8486 -7248 -5548 0
1000000 4482 -5324 -6056 -8486 -7248 -5548 0
1000000 377 -9539 -8446 -1465 0
1000000 4483 -9539 -8446 -1465 0
1000000 1386 -8896 -8650 -8835 -6143 -1399 0
1000000 4484 -8896 -8650 -8835 -6143 -1399 0
1000000 128 -7564 -9244 -7795 -7824 -9492 -8414 0
1000000 4485 -7564 -9244 -7795 -7824 -9492 -8414 0
1000000 1387 -9196 -6577 -5549 -7580 0
1000000 4486 -9196 -6577 -5549 -7580 0
1000000 1329 -6133 -6909 -7493 0
1000000 4487 -6133 -6909 -7493 0
1000000 343 -6044 -6408 -8937 -8232 -7348 -8677 0
1000000 4488 -6044 -6408 -8937 -8232 -7348 -8677 0
1000000 543 -8043 -6761 -9272 0
1000000 4489 -8043 -6761 -9272 0
1000000 737 -7478 -6341 -6949 -5801 -1068 0
1000000 4490 -7478 -6341 -6949 -5801 -1068 0
1000000 94 -6776 -5165 -9071 -9170 -6957 -7705 -506 0
1000000 4491 -6776 -5165 -9071 -9170 -6957 -7705 -506 0
1000000 938 -7405 -8062 -7568 -8608 -5752 -1082 0
1000000 4492 -7405 -8062 -7568 -8608 -5752 -1082 0
1000000 577 -7305 -8586 -7711 -5350 -9082 -6049 -7158 0
1000000 4493 -7305 -8586 -7711 -5350 -9082 -6049 -7158 0
1000000 728 -5914 -5333 -6324 -895 0
1000000 4494 -5914 -5333 -6324 -895 0
1000000 163 -8457 -7344 -7210 -6501 -6846 -8772 0
1000000 4495 -8457 -7344 -7210 -6501 -6846 -8772 0
1000000 433 -9229 -7507 -9234 -8433 -9033 -5355 -8837 0
1000000 4496 -9229 -7507 -9234 -8433 -9033 -5355 -8837 0
1000000 342 -5504 -8828 -5328 0
1000000 4497 -5504 -8828 -5328 0
1000000 1296 -6772 -8657 -6348 -1340 0
1000000 4498 -6772 -8657 -6348 -1340 0
1000000 104 -5288 -5225 -5525 -5741 0
1000000 4499 -5288 -5225 -5525 -5741 0
1000000 337 -6354 -8313 -5134 0
1000000 4500 -6354 -8313 -5134 0
1000000 842 -5109 -9009 -8817 -6997 -1157 0
1000000 4501 -5109 -9009 -8817 -6997 -1157 0
1000000 127 -5863 -8122 -8913 -7267 -9107 0
1000000 4502 -5863 -8122 -8913 -7267 -9107 0
1000000 1060 -6172 -5916 -1470 0
1000000 4503 -6172 -5916 -1470 0
1000000 1149 -5194 -8371 -7338 -8070 -7740 -1477 0
1000000 4504 -5194 -8371 -7338 -8070 -7740 -1477 0
1000000 441 -8684 -8161 -5285 -8706 -8423 0
1000000 4505 -8684 -8161 -5285 -8706 -8423 0
1000000 1195 -9131 -7336 -6625 -9174 -8031 -6152 -9212 0
1000000 4506 -9131 -7336 -6625 -9174 -8031 -6152 -9212 0
1000000 1119 -8826 -6104 -8591 -7243 -5805 0
1000000 4507 -8826 -6104 -8591 -7243 -5805 0
1000000 1453 -9023 -5503 -5148 -9456 -5191 -5668 -1457 0
1000000 4508 -9023 -5503 -5148 -9456 -5191 -5668 -1457 0
1000000 339 -8771 -7394 -6456 -9053 -7514 0
1000000 4509 -8771 -7394 -6456 -9053 -7514 0
1000000 643 -5455 -8846 -9017 -7385 -9201 -7992 0
1000000 4510 -5455 -8846 -9017 -7385 -9201 -7992 0
1000000 1120 -7781 -6443 -6445 -7178 -9597 -5924 -9447 0
1000000 4511 -7781 -6443 -6445 -7178 -9597 -5924 -9447 0
1000000 396 -6721 -454 0
1000000 4512 -6721 -454 0
1000000 951 -7823 -7218 0
1000000 4513 -7823 -7218 0
1000000 1200 -6077 -1305 0
1000000 4514 -6077 -1305 0
1000000 651 -7879 -6387 -7582 -6838 -5366 -1408 0
1000000 4515 -7879 -6387 -7582 -6838 -5366 -1408 0
1000000 1340 -8727 -6905 -5184 -7259 0
1000000 4516 -8727 -6905 -5184 -7259 0
1000000 1209 -7547 -5969 -7579 0
1000000 4517 -7547 -5969 -7579 0
1000000 504 -5994 -9263 0
1000000 4518 -5994 -9263 0
1000000 1187 -5330 -5319 -6763 -6537 -8202 -7296 -1295 0
1000000 4519 -5330 -5319 -6763 -6537 -8202 -7296 -1295 0
1000000 42 -5692 -7111 -8483 -8023 -6680 0
1000000 4520 -5692 -7111 -8483 -8023 -6680 0
1000000 37 -6827 -7000 -5343 -7359 -9415 -1003 0
1000000 4521 -6827 -7000 -5343 -7359 -9415 -1003 0
1000000 1116 -8832 -7950 0
1000000 4522 -8832 -7950 0
1000000 918 -8438 -7881 -7483 -7193 -9080 -7737 0
1000000 4523 -8438 -7881 -7483 -7193 -9080 -7737 0
1000000 373 -8177 -6501 -6668 -8669 0
1000000 4524 -8177 -6501 -6668 -8669 0
1000000 1066 -7285 -5958 -6089 -9507 -6095 -5922 -1231 0
1000000 4525 -7285 -5958 -6089 -9507 -6095 -5922 -1231 0
1000000 860 -5158 -7887 -9264 -9239 -8054 -8343 -1024 0
1000000 4526 -5158 -7887 -9264 -9239 -8054 -8343 -1024 0
1000000 1077 -9301 -5467 -7192 -6246 -8840 0
1000000 4527 -9301 -5467 -7192 -6246 -8840 0
1000000 1086 -8984 -1389 0
1000000 4528 -8984 -1389 0
1000000 1058 -8878 -7853 -1361 0
1000000 4529 -8878 -7853 -1361 0
1000000 1227 -9081 -8632 -5412 -6672 0
1000000 4530 -9081 -8632 -5412 -6672 0
1000000 1427 -8822 -8260 -7835 -8325 -5598 -5358 -7846 0
1000000 4531 -8822 -8260 -7835 -8325 -5598 -5358 -7846 0
1000000 587 -9238 -5362 -936 0
1000000 4532 -9238 -5362 -936 0
1000000 1429 -5635 -5695 -8063 -5528 -7235 -9207 -6562 0
1000000 4533 -5635 -5695 -8063 -5528 -7235 -9207 -6562 0
1000000 990 -8575 -1420 0
1000000 4534 -8575 -1420 0
1000000 191 -7997 -6366 -446 0
1000000 4535 -7997 -6366 -446 0
1000000 29 -8980 -9170 -8178 0
1000000 4536 -8980 -9170 -8178 0
1000000 1077 -7163 -5573 -7354 -5252 -7792 -5949 -6483 0
1000000 4537 -7163 -5573 -7354 -5252 -7792 -5949 -6483 0
1000000 276 -7949 -8565 -7105 -5485 -5131 -6772 0
1000000 4538 -7949 -8565 -7105 -5485 -5131 -6772 0
1000000 1363 -6515 -8397 -5330 0
1000000 4539 -6515 -8397 -5330 0
1000000 955 -9577 -6632 -7357 -7942 -8389 0
1000000 4540 -9577 -6632 -7357 -7942 -8389 0
1000000 1371 -5815 -8580 -5727 -7106 0
1000000 4541 -5815 -8580 -5727 -7106 0
1000000 487 -6396 -6119 -6551 -6573 -985 0
1000000 4542 -6396 -6119 -6551 -6573 -985 0
1000000 311 -5230 -7812 -5580 -9115 -527 0
1000000 4543 -5230 -7812 -5580 -9115 -527 0
1000000 694 -8826 -6189 -8618 -8106 -8797 0
1000000 4544 -8826 -6189 -8618 -8106 -8797 0
1000000 967 -8830 -6901 -7928 -9390 -5978 -6471 -6183 0
1000000 4545 -8830 -6901 -7928 -9390 -5978 -6471 -6183 0
1000000 799 -5460 -8357 -5210 -6167 -7794 0
1000000 4546 -5460 -8357 -5210 -6167 -7794 0
1000000 244 -9247 -8586 -6826 -6992 -436 0
1000000 4547 -9247 -8586 -6826 -6992 -436 0
1000000 551 -8586 -7279 -5851 -7544 -7440 -6133 -5531 0
1000000 4548 -8586 -7279 -5851 -7544 -7440 -6133 -5531 0
1000000 462 -6262 -6602 -9211 -6929 -532 0
1000000 4549 -6262 -6602 -9211 -6929 -532 0
1000000 323 -5138 -7850 -8542 -9389 -8317 -8304 0
1000000 4550 -5138 -7850 -8542 -9389 -8317 -8304 0
1000000 121 -6741 -9305 -6622 -6231 -7535 -6979 -5756 0
1000000 4551 -6741 -9305 -6622 -6231 -7535 -6979 -5756 0
1000000 1060 -6381 -6907 -9136 -5563 0
1000000 4552 -6381 -6907 -9136 -5563 0
1000000 247 -8429 -7428 -8014 -1131 0
1000000 4553 -8429 -7428 -8014 -1131 0
1000000 3 -8476 -9340 -5174 -154 0
1000000 4554 -8476 -9340 -5174 -154 0
1000000 1498 -9118 -6060 -8413 -7018 -5332 -7731 -7772 0
1000000 4555 -9118 -6060 -8413 -7018 -5332 -7731 -7772 0
1000000 668 -6794 -6414 -7234 -6312 -1053 0
1000000 4556 -6794 -6414 -7234 -6312 -1053 0
1000000 786 -6424 -5466 -8834 -8891 0
1000000 4557 -6424 -5466 -8834 -8891 0
1000000 796 -7144 -7948 -1463 0
1000000 4558 -7144 -7948 -1463 0
1000000 669 -7061 -6615 -6341 0
1000000 4559 -7061 -6615 -6341 0
1000000 1061 -8003 -6855 -5308 -1096 0
1000000 4560 -8003 -6855 -5308 -1096 0
1000000 1420 -7750 -5403 -5645 0
1000000 4561 -7750 -5403 -5645 0
1000000 964 -8617 -7703 -8842 -8941 0
1000000 4562 -8617 -7703 -8842 -8941 0
1000000 846 -7910 -5849 0
1000000 4563 -7910 -5849 0
1000000 1477 -7646 -7824 -6841 -8102 -7179 -7595 -7531 0
1000000 4564 -7646 -7824 -6841 -8102 -7179 -7595 -7531 0
1000000 898 -5788 -8140 -8858 -5151 -5637 -1484 0
1000000 4565 -5788 -8140 -8858 -5151 -5637 -1484 0
1000000 322 -8863 -9361 -8824 -8135 -6935 -887 0
1000000 4566 -8863 -9361 -8824 -8135 -6935 -887 0
1000000 158 -7827 -5837 -6352 -5422 -8354 -9188 -7597 0
1000000 4567 -7827 -5837 -6352 -5422 -8354 -9188 -7597 0
1000000 1341 -6348 -9234 -9305 0
1000000 4568 -6348 -9234 -9305 0
1000000 889 -8565 -9251 -6227 -5910 -7390 0
1000000 4569 -8565 -9251 -6227 -5910 -7390 0
1000000 1053 -5535 -7967 -8660 -1062 0
1000000 4570 -5535 -7967 -8660 -1062 0
1000000 1487 -7759 -9276 -7808 -8484 -7676 -1494 0
1000000 4571 -7759 -9276 -7808 -8484 -7676 -1494 0
1000000 375 -6947 -5896 -7578 -6871 -7220 -1041 0
1000000 4572 -6947 -5896 -7578 -6871 -7220 -1041 0
1000000 569 -8255 -7056 -6734 -9592 -6332 -9007 -5195 0
1000000 4573 -8255 -7056 -6734 -9592 -6332 -9007 -5195 0
1000000 338 -9494 -6987 -9064 -6136 -6546 -9600 0
1000000 4574 -9494 -6987 -9064 -6136 -6546 -9600 0
1000000 238 -6585 -8528 -9282 -8740 -6702 -9599 -8123 0
1000000 4575 -6585 -8528 -9282 -8740 -6702 -9599 -8123 0
1000000 1001 -6414 -7673 0
1000000 4576 -6414 -7673 0
1000000 675 -9586 -6386 -5841 -8114 -7483 -9480 -801 0
1000000 4577 -9586 -6386 -5841 -8114 -7483 -9480 -801 0
1000000 280 -5718 -8359 0
1000000 4578 -5718 -8359 0
1000000 413 -8019 -6748 -6583 -5714 -5347 -7303 -1203 0
1000000 4579 -8019 -6748 -6583 -5714 -5347 -7303 -1203 0
1000000 16 -9555 -1218 0
1000000 4580 -9555 -1218 0
1000000 653 -8364 -8923 -7922 0
1000000 4581 -8364 -8923 -7922 0
1000000 561 -8496 -8987 0
1000000 4582 -8496 -8987 0
1000000 1038 -5933 -9423 -6908 -8787 -7014 -6109 -6943 0
1000000 4583 -5933 -9423 -6908 -8787 -7014 -6109 -6943 0
1000000 1017 -7971 -6273 -8621 -9076 -1187 0
1000000 4584 -7971 -6273 -8621 -9076 -1187 0
1000000 115 -5418 -5176 -5735 -8369 -7432 0
1000000 4585 -5418 -5176 -5735 -8369 -7432 0
1000000 154 -8362 -5542 -7723 0
1000000 4586 -8362 -5542 -7723 0
1000000 765 -8301 -6339 -8668 -5714 0
1000000 4587 -8301 -6339 -8668 -5714 0
1000000 1422 -8509 -9215 -8165 -5705 -1434 0
1000000 4588 -8509 -9215 -8165 -5705 -1434 0
1000000 1439 -5739 -7280 -7178 -8484 -1462 0
1000000 4589 -5739 -7280 -7178 -8484 -1462 0
1000000 350 -6531 -6521 -6247 -6259 -5324 0
1000000 4590 -6531 -6521 -6247 -6259 -5324 0
1000000 613 -6493 -8707 -6563 -5301 -5792 -9563 0
1000000 4591 -6493 -8707 -6563 -5301 -5792 -9563 0
1000000 896 -7997 -5258 -8378 -8248 0
1000000 4592 -7997 -5258 -8378 -8248 0
1000000 847 -9440 -5599 -9016 -5678 -1273 0
1000000 4593 -9440 -5599 -9016 -5678 -1273 0
1000000 627 -5149 -767 0
1000000 4594 -5149 -767 0
1000000 583 -7504 -5394 -6526 -7980 0
1000000 4595 -7504 -5394 -6526 -7980 0
1000000 1188 -9253 -5289 -8591 -6001 -6749 -9001 0
1000000 4596 -9253 -5289 -8591 -6001 -6749 -9001 0
1000000 494 -5976 -6356 -8522 -5705 0
1000000 4597 -5976 -6356 -8522 -5705 0
1000000 1050 -5250 -1166 0
1000000 4598 -5250 -1166 0
1000000 256 -5211 -1066 0
1000000 4599 -5211 -1066 0
1000000 1213 -8446 -1219 0
1000000 4600 -8446 -1219 0
1000000 1120 -7250 -5181 -5782 -6156 -5808 0
1000000 4601 -7250 -5181 -5782 -6156 -5808 0
1000000 1008 -8045 -5371 -5779 -6806 -9232 -8357 -1176 0
1000000 4602 -8045 -5371 -5779 -6806 -9232 -8357 -1176 0
1000000 335 -7899 -6773 -7971 -5359 -6538 -9158 0
1000000 4603 -7899 -6773 -7971 -5359 -6538 -9158 0
1000000 912 -5588 -5956 -8137 -7737 -7042 0
1000000 4604 -5588 -5956 -8137 -7737 -7042 0
1000000 926 -5798 -8615 0
1000000 4605 -5798 -8615 0
1000000 1400 -7615 -8870 -1416 0
1000000 4606 -7615 -8870 -1416 0
1000000 1097 -5339 -8632 -6571 -8861 -6604 -9075 -5420 0
1000000 4607 -5339 -8632 -6571 -8861 -6604 -9075 -5420 0
1000000 95 -5362 -9483 -7120 -6117 -6648 -8071 0
1000000 4608 -5362 -9483 -7120 -6117 -6648 -8071 0
1000000 199 -8133 -7346 -9322 -8639 -7966 -7664 -422 0
1000000 4609 -8133 -7346 -9322 -8639 -7966 -7664 -422 0
1000000 206 -7223 -8246 -6590 0
1000000 4610 -7223 -8246 -6590 0
1000000 354 -7806 -6590 -7234 -8172 -5127 0
1000000 4611 -7806 -6590 -7234 -8172 -5127 0
1000000 1493 -8088 -6357 0
1000000 4612 -8088 -6357 0
1000000 429 -8972 -5884 -5707 -7797 -8192 0
1000000 4613 -8972 -5884 -5707 -7797 -8192 0
1000000 928 -6843 -8250 -7402 0
1000000 4614 -6843 -8250 -7402 0
1000000 905 -9282 -6594 -9349 0
1000000 4615 -9282 -6594 -9349 0
1000000 1493 -8156 -7391 -5196 -8888 -6422 -8025 -1499 0
1000000 4616 -8156 -7391 -5196 -8888 -6422 -8025 -1499 0
1000000 1102 -7087 -8513 -7714 -5456 -6458 -9398 -1404 0
1000000 4617 -7087 -8513 -7714 -5456 -6458 -9398 -1404 0
1000000 1472 -7956 -5642 -7271 -9448 -5862 -5298 0
1000000 4618 -7956 -5642 -7271 -9448 -5862 -5298 0
1000000 66 -6259 -9042 -5319 -5438 -5514 -7230 -6175 0
1000000 4619 -6259 -9042 -5319 -5438 -5514 -7230 -6175 0
1000000 793 -6697 -1277 0
1000000 4620 -6697 -1277 0
1000000 1405 -9128 -8112 -8489 -6477 -8787 -6325 0
1000000 4621 -9128 -8112 -8489 -6477 -8787 -6325 0
1000000 116 -5450 -5469 -6454 -6209 0
1000000 4622 -5450 -5469 -6454 -6209 0
1000000 1226 -5941 -6980 -8696 -5464 -7556 -6595 -1287 0
1000000 4623 -5941 -6980 -8696 -5464 -7556 -6595 -1287 0
1000000 276 -5911 -781 0
1000000 4624 -5911 -781 0
1000000 674 -9218 -6359 -6880 -5774 -5621 0
1000000 4625 -9218 -6359 -6880 -5774 -5621 0
1000000 1035 -7610 -6676 -5889 -6964 -7828 -7429 0
1000000 4626 -7610 -6676 -5889 -6964 -7828 -7429 0
1000000 749 -6133 -5812 -7837 -9565 -6082 0
1000000 4627 -6133 -5812 -7837 -9565 -6082 0
1000000 224 -9021 -6906 -7969 -6559 -5984 0
1000000 4628 -9021 -6906 -7969 -6559 -5984 0
1000000 1123 -6863 -6897 -8131 -1342 0
1000000 4629 -6863 -6897 -8131 -1342 0
1000000 805 -7389 -7959 -7011 -7963 -8069 -5508 0
1000000 4630 -7389 -7959 -7011 -7963 -8069 -5508 0
1000000 1033 -8811 -8019 -8043 -8446 -5712 -6855 -9194 0
1000000 4631 -8811 -8019 -8043 -8446 -5712 -6855 -9194 0
1000000 1094 -6219 -9391 -5317 -6102 -7329 -5189 -1238 0
1000000 4632 -6219 -9391 -5317 -6102 -7329 -5189 -1238 0
1000000 906 -5943 -5202 -5931 -8907 0
1000000 4633 -5943 -5202 -5931 -8907 0
1000000 1172 -5203 -8685 0
1000000 4634 -5203 -8685 0
1000000 365 -7175 -534 0
1000000 4635 -7175 -534 0
1000000 407 -7432 -5659 -5383 -9352 -5978 -6186 0
1000000 4636 -7432 -5659 -5383 -9352 -5978 -6186 0
1000000 1286 -9199 -5653 -8185 -7428 -1415 0
1000000 4637 -9199 -5653 -8185 -7428 -1415 0
1000000 711 -7137 -8968 -7108 -7177 0
1000000 4638 -7137 -8968 -7108 -7177 0
1000000 1029 -8209 -8546 -9573 -1077 0
1000000 4639 -8209 -8546 -9573 -1077 0
1000000 1167 -8080 -7897 -1282 0
1000000 4640 -8080 -7897 -1282 0
1000000 405 -6655 -8928 -7259 0
1000000 4641 -6655 -8928 -7259 0
1000000 1217 -8547 -1498 0
1000000 4642 -8547 -1498 0
1000000 45 -5837 -8049 -6743 -9039 -9351 -7283 -336 0
1000000 4643 -5837 -8049 -6743 -9039 -9351 -7283 -336 0
1000000 274 -8403 -6194 0
1000000 4644 -8403 -6194 0
1000000 1384 -7932 -7389 -8381 -5677 -5192 -6596 0
1000000 4645 -7932 -7389 -8381 -5677 -5192 -6596 0
1000000 9 -6453 -6551 -8548 -5347 -7306 -5657 0
1000000 4646 -6453 -6551 -8548 -5347 -7306 -5657 0
1000000 974 -6578 -7893 -7039 0
1000000 4647 -6578 -7893 -7039 0
1000000 1357 -6616 -8514 -1468 0
1000000 4648 -6616 -8514 -1468 0
1000000 83 -6542 -7778 -5846 -7271 -8760 -7676 -1215 0
1000000 4649 -6542 -7778 -5846 -7271 -8760 -7676 -1215 0
1000000 496 -6165 -8129 -7523 -5566 -5569 0
1000000 4650 -6165 -8129 -7523 -5566 -5569 0
1000000 1017 -9366 -8359 -5264 -9160 -7316 -8370 -1375 0
1000000 4651 -9366 -8359 -5264 -9160 -7316 -8370 -1375 0
1000000 314 -7999 -7343 -8869 -8714 -6435 0
1000000 4652 -7999 -7343 -8869 -8714 -6435 0
1000000 895 -5826 -7635 -6794 0
1000000 4653 -5826 -7635 -6794 0
1000000 1151 -8787 -8686 -8573 0
1000000 4654 -8787 -8686 -8573 0
1000000 767 -5358 -7898 -9505 -6332 -1346 0
1000000 4655 -5358 -7898 -9505 -6332 -1346 0
1000000 295 -8898 -7885 -9400 -7671 -5927 -6473 -5682 0
1000000 4656 -8898 -7885 -9400 -7671 -5927 -6473 -5682 0
1000000 405 -8309 -8002 -5218 -8478 -8778 -6701 -516 0
1000000 4657 -8309 -8002 -5218 -8478 -8778 -6701 -516 0
1000000 322 -5456 -9337 -9213 -6792 -7871 0
1000000 4658 -5456 -9337 -9213 -6792 -7871 0
1000000 447 -5687 -7417 -6345 -7038 -7861 0
1000000 4659 -5687 -7417 -6345 -7038 -7861 0
1000000 829 -5586 -7179 -9202 -9182 -9494 0
1000000 4660 -5586 -7179 -9202 -9182 -9494 0
1000000 421 -5493 -6322 -8529 0
1000000 4661 -5493 -6322 -8529 0
1000000 1230 -5517 -8309 -6066 -5253 0
1000000 4662 -5517 -8309 -6066 -5253 0
1000000 345 -5589 -5968 -8400 0
1000000 4663 -5589 -5968 -8400 0
1000000 408 -7730 -7069 -5211 -8294 -8957 -8769 0
1000000 4664 -7730 -7069 -5211 -8294 -8957 -8769 0
1000000 1483 -9561 -5974 -9419 -9443 -6880 -9132 -7267 0
1000000 4665 -9561 -5974 -9419 -9443 -6880 -9132 -7267 0
1000000 1390 -8014 -7154 -5684 -7087 -1433 0
1000000 4666 -8014 -7154 -5684 -7087 -1433 0
1000000 1495 -7617 -5481 -7832 -8360 -7101 -7217 -6514 0
1000000 4667 -7617 -5481 -7832 -8360 -7101 -7217 -6514 0
1000000 757 -7806 -6958 -8916 -6362 0
1000000 4668 -7806 -6958 -8916 -6362 0
1000000 375 -6002 -7180 -9316 -9405 -6871 -5269 -6249 0
1000000 4669 -6002 -7180 -9316 -9405 -6871 -5269 -6249 0
1000000 291 -7845 -8089 -6068 -7652 -818 0
1000000 4670 -7845 -8089 -6068 -7652 -818 0
1000000 965 -5111 -7595 -9377 -7147 -7959 0
1000000 4671 -5111 -7595 -9377 -7147 -7959 0
1000000 265 -9238 -9224 -8685 0
1000000 4672 -9238 -9224 -8685 0
1000000 1426 -9361 -8785 -6788 -5883 -5603 -5171 0
1000000 4673 -9361 -8785 -6788 -5883 -5603 -5171 0
1000000 127 -8151 -8534 0
1000000 4674 -8151 -8534 0
1000000 1342 -8362 -8148 -5202 0
1000000 4675 -8362 -8148 -5202 0
1000000 1093 -7961 -7282 0
1000000 4676 -7961 -7282 0
1000000 1454 -6921 -8775 -7999 -1458 0
1000000 4677 -6921 -8775 -7999 -1458 0
1000000 336 -8615 -5983 -7342 -9246 0
1000000 4678 -8615 -5983 -7342 -9246 0
1000000 244 -6707 -7120 -6397 -8410 -6935 0
1000000 4679 -6707 -7120 -6397 -8410 -6935 0
1000000 560 -7437 -5998 -7899 -8438 -8558 -7822 0
1000000 4680 -7437 -5998 -7899 -8438 -8558 -7822 0
1000000 313 -6489 -6675 -9223 0
1000000 4681 -6489 -6675 -9223 0
1000000 359 -7579 -9243 -8058 -938 0
1000000 4682 -7579 -9243 -8058 -938 0
1000000 1205 -5914 -6935 -1279 0
1000000 4683 -5914 -6935 -1279 0
1000000 204 -7268 -7794 -8924 -9268 -5825 -987 0
1000000 4684 -7268 -7794 -8924 -9268 -5825 -987 0
1000000 73 -7853 -9593 -5505 -9193 -6268 0
1000000 4685 -7853 -9593 -5505 -9193 -6268 0
1000000 467 -5176 -9096 0
1000000 4686 -5176 -9096 0
1000000 735 -7409 -7209 -8436 -8868 -7863 -7815 0
1000000 4687 -7409 -7209 -8436 -8868 -7863 -7815 0
1000000 130 -8626 -5551 -7214 -8765 -5185 -9233 0
1000000 4688 -8626 -5551 -7214 -8765 -5185 -9233 0
1000000 369 -8463 -7146 -6696 -9556 0
1000000 4689 -8463 -7146 -6696 -9556 0
1000000 459 -7860 -8681 0
1000000 4690 -7860 -8681 0
1000000 1236 -8393 -7522 -7316 -9347 -7782 0
1000000 4691 -8393 -7522 -7316 -9347 -7782 0
1000000 910 -5903 -6631 0
1000000 4692 -5903 -6631 0
1000000 689 -6789 -6354 -5759 -8550 -6376 -5411 -8199 0
1000000 4693 -6789 -6354 -5759 -8550 -6376 -5411 -8199 0
1000000 1284 -7915 -8663 -5738 -5830 0
1000000 4694 -7915 -8663 -5738 -5830 0
1000000 14 -5950 -5495 -5605 0
1000000 4695 -5950 -5495 -5605 0
1000000 394 -6212 -5210 -6782 -6014 0
1000000 4696 -6212 -5210 -6782 -6014 0
1000000 395 -6226 -497 0
1000000 4697 -6226 -497 0
1000000 623 -6328 -1182 0
1000000 4698 -6328 -1182 0
1000000 752 -6687 -5191 -5935 -6594 -6804 -7820 -6414 0
1000000 4699 -6687 -5191 -5935 -6594 -6804 -7820 -6414 0
1000000 1435 -5517 -9503 -5985 0
1000000 4700 -5517 -9503 -5985 0
1000000 1230 -8064 -7757 -5178 -8110 -6053 -1450 0
1000000 4701 -8064 -7757 -5178 -8110 -6053 -1450 0
1000000 1072 -9410 -6191 -9238 -6780 0
1000000 4702 -9410 -6191 -9238 -6780 0
1000000 825 -5910 -7420 -5501 -8196 -7895 0
1000000 4703 -5910 -7420 -5501 -8196 -7895 0
1000000 902 -5811 -9517 -6827 -6424 0
1000000 4704 -5811 -9517 -6827 -6424 0
1000000 299 -5462 -6821 0
1000000 4705 -5462 -6821 0
1000000 618 -6312 -8012 -9425 -9099 -7131 -7107 0
1000000 4706 -6312 -8012 -9425 -9099 -7131 -7107 0
1000000 261 -7805 -6771 -7174 -7772 -7639 0
1000000 4707 -7805 -6771 -7174 -7772 -7639 0
1000000 86 -9458 -8207 0
1000000 4708 -9458 -8207 0
1000000 178 -7314 -8022 -8953 0
1000000 4709 -7314 -8022 -8953 0
1000000 1317 -6723 -8291 -6903 -5640 0
1000000 4710 -6723 -8291 -6903 -5640 0
1000000 368 -6003 -5262 -6166 -9490 -5920 -9476 0
1000000 4711 -6003 -5262 -6166 -9490 -5920 -9476 0
1000000 971 -8736 -9370 0
1000000 4712 -8736 -9370 0
1000000 706 -6373 -7701 -9412 -6689 -5698 0
1000000 4713 -6373 -7701 -9412 -6689 -5698 0
1000000 406 -5404 -9303 -5825 -6603 -7338 -7705 0
1000000 4714 -5404 -9303 -5825 -6603 -7338 -7705 0
1000000 102 -5439 -6419 0
1000000 4715 -5439 -6419 0
1000000 64 -5433 -6834 -6506 -9131 -7511 -6423 -8870 0
1000000 4716 -5433 -6834 -6506 -9131 -7511 -6423 -8870 0
1000000 1442 -7944 -7473 -7201 -6542 -7685 0
1000000 4717 -7944 -7473 -7201 -6542 -7685 0
1000000 512 -7734 -879 0
1000000 4718 -7734 -879 0
1000000 839 -6564 -9459 -8950 -6657 -9304 -9461 -7078 0
1000000 4719 -6564 -9459 -8950 -6657 -9304 -9461 -7078 0
1000000 1324 -7646 -6681 -5489 -9452 0
1000000 4720 -7646 -6681 -5489 -9452 0
1000000 1491 -6040 -6182 0
1000000 4721 -6040 -6182 0
1000000 1142 -8120 -1335 0
1000000 4722 -8120 -1335 0
1000000 442 -8284 -8509 -9319 0
1000000 4723 -8284 -8509 -9319 0
1000000 454 -6746 -6038 -5757 -7534 -7909 -6105 0
1000000 4724 -6746 -6038 -5757 -7534 -7909 -6105 0
1000000 300 -7807 -8120 -5425 -6994 -8744 -5829 0
1000000 4725 -7807 -8120 -5425 -6994 -8744 -5829 0
1000000 412 -9213 -8800 -9184 -6382 -7064 -8655 -1028 0
1000000 4726 -9213 -8800 -9184 -6382 -7064 -8655 -1028 0
1000000 424 -5788 -6392 0
1000000 4727 -5788 -6392 0
1000000 1403 -9027 -1476 0
1000000 4728 -9027 -1476 0
1000000 623 -6518 -6050 -7141 -8749 -6921 0
1000000 4729 -6518 -6050 -7141 -8749 -6921 0
1000000 20 -6869 -5809 -6206 -9439 -7436 0
1000000 4730 -6869 -5809 -6206 -9439 -7436 0
1000000 818 -7340 -8145 -5478 -9438 -8176 0
1000000 4731 -7340 -8145 -5478 -9438 -8176 0
1000000 463 -6612 -5646 -7304 -6453 -5277 -6187 0
1000000 4732 -6612 -5646 -7304 -6453 -5277 -6187 0
1000000 492 -5185 -8375 -9567 -7548 0
1000000 4733 -5185 -8375 -9567 -7548 0
1000000 483 -9273 -7918 0
1000000 4734 -9273 -7918 0
1000000 1198 -5342 -5584 -8746 -9598 0
1000000 4735 -5342 -5584 -8746 -9598 0
1000000 453 -8225 -6893 -9363 0
1000000 4736 -8225 -6893 -9363 0
1000000 25 -5438 -6659 -5755 -7830 -5242 -5613 -9111 0
1000000 4737 -5438 -6659 -5755 -7830 -5242 -5613 -9111 0
1000000 1186 -7694 -7396 0
1000000 4738 -7694 -7396 0
1000000 6 -6963 -42 0
1000000 4739 -6963 -42 0
1000000 1244 -6988 -8436 -6864 -8378 0
1000000 4740 -6988 -8436 -6864 -8378 0
1000000 670 -6989 -5861 -6947 -9555 0
1000000 4741 -6989 -5861 -6947 -9555 0
1000000 133 -9422 -5475 -7932 0
1000000 4742 -9422 -5475 -7932 0
1000000 1500 -5470 -9493 -6137 -8047 -9481 0
1000000 4743 -5470 -9493 -6137 -8047 -9481 0
1000000 822 -9427 -7200 -6048 -8269 -6312 -8706 -7973 0
1000000 4744 -9427 -7200 -6048 -8269 -6312 -8706 -7973 0
1000000 213 -7887 -8457 0
1000000 4745 -7887 -8457 0
1000000 213 -5632 -9279 0
1000000 4746 -5632 -9279 0
1000000 682 -5591 -5983 0
1000000 4747 -5591 -5983 0
1000000 90 -8744 -9237 -8591 -915 0
1000000 4748 -8744 -9237 -8591 -915 0
1000000 716 -7603 -7832 -5210 -6352 -6063 -6350 0
1000000 4749 -7603 -7832 -5210 -6352 -6063 -6350 0
1000000 185 -8095 -7388 -8255 -8492 -7874 -8594 -6042 0
1000000 4750 -8095 -7388 -8255 -8492 -7874 -8594 -6042 0
1000000 1464 -8741 -6043 -6142 -5332 0
1000000 4751 -8741 -6043 -6142 -5332 0
1000000 118 -5169 -6007 0
1000000 4752 -5169 -6007 0
1000000 153 -8339 -5110 -5639 -8994 -7970 -5712 0
1000000 4753 -8339 -5110 -5639 -8994 -7970 -5712 0
1000000 1161 -7574 -9536 -6884 -1305 0
1000000 4754 -7574 -9536 -6884 -1305 0
1000000 815 -9071 -5866 -8831 -9149 -7878 -5713 -8019 0
1000000 4755 -9071 -5866 -8831 -9149 -7878 -5713 -8019 0
1000000 91 -6931 -5516 -5807 0
1000000 4756 -6931 -5516 -5807 0
1000000 826 -6993 -8583 -7106 0
1000000 4757 -6993 -8583 -7106 0
1000000 773 -5497 -6830 -7929 0
1000000 4758 -5497 -6830 -7929 0
1000000 763 -5710 -7790 -9527 -5286 0
1000000 4759 -5710 -7790 -9527 -5286 0
1000000 107 -7966 -7860 -5628 -7561 -5399 0
1000000 4760 -7966 -7860 -5628 -7561 -5399 0
1000000 630 -8028 -5334 -6509 -8158 0
1000000 4761 -8028 -5334 -6509 -8158 0
1000000 794 -5170 -6995 -6511 -7303 -6982 0
1000000 4762 -5170 -6995 -6511 -7303 -6982 0
1000000 953 -6132 -7599 -9413 -5774 -5215 -7572 0
1000000 4763 -6132 -7599 -9413 -5774 -5215 -7572 0
1000000 1476 -8306 -7945 -5864 -5950 -5572 -5316 -5636 0
1000000 4764 -8306 -7945 -5864 -5950 -5572 -5316 -5636 0
1000000 544 -5988 -8872 -6606 0
1000000 4765 -5988 -8872 -6606 0
1000000 1071 -7682 -8561 -5701 0
1000000 4766 -7682 -8561 -5701 0
1000000 499 -5305 -8237 -5558 0
1000000 4767 -5305 -8237 -5558 0
1000000 215 -7146 -6586 -8172 -7879 -8030 -452 0
1000000 4768 -7146 -6586 -8172 -7879 -8030 -452 0
1000000 1201 -6264 -6226 -7855 -5117 0
1000000 4769 -6264 -6226 -7855 -5117 0
1000000 617 -7309 -5586 -6891 -9200 -5355 -7890 -5907 0
1000000 4770 -7309 -5586 -6891 -9200 -5355 -7890 -5907 0
1000000 1495 -9310 -9207 -5664 0
1000000 4771 -9310 -9207 -5664 0
1000000 1394 -8070 -6020 -6264 -5684 -5124 -8960 -9435 0
1000000 4772 -8070 -6020 -6264 -5684 -5124 -8960 -9435 0
1000000 164 -9556 -6917 -8933 0
1000000 4773 -9556 -6917 -8933 0
1000000 1448 -6234 -6977 -5187 -6613 -9482 -6374 -5974 0
1000000 4774 -6234 -6977 -5187 -6613 -9482 -6374 -5974 0
1000000 414 -5814 -8200 -9419 -5298 -5527 0
1000000 4775 -5814 -8200 -9419 -5298 -5527 0
1000000 44 -6510 -8161 -8889 0
1000000 4776 -6510 -8161 -8889 0
1000000 459 -5664 -7652 -8031 -5834 -5513 -500 0
1000000 4777 -5664 -7652 -8031 -5834 -5513 -500 0
1000000 1326 -6235 -6371 -6427 -7677 0
1000000 4778 -6235 -6371 -6427 -7677 0
1000000 75 -7471 -8245 -5828 -8663 -9255 -8349 -8492 0
1000000 4779 -7471 -8245 -5828 -8663 -9255 -8349 -8492 0
1000000 292 -7946 -8750 -8452 0
1000000 4780 -7946 -8750 -8452 0
1000000 458 -7423 -6641 -6804 -6172 -6765 0
1000000 4781 -7423 -6641 -6804 -6172 -6765 0
1000000 552 -7318 -6326 -8207 -8368 -5367 -948 0
1000000 4782 -7318 -6326 -8207 -8368 -5367 -948 0
1000000 1291 -8210 -8470 -7449 -5187 -6296 0
1000000 4783 -8210 -8470 -7449 -5187 -6296 0
1000000 83 -5598 -6736 0
1000000 4784 -5598 -6736 0
1000000 79 -7117 -7254 -9263 0
1000000 4785 -7117 -7254 -9263 0
1000000 518 -5395 -8257 -8150 -598 0
1000000 4786 -5395 -8257 -8150 -598 0
1000000 162 -5944 -7797 -6801 -6812 -5867 -6043 0
1000000 4787 -5944 -7797 -6801 -6812 -5867 -6043 0
1000000 914 -8216 -9221 -1480 0
1000000 4788 -8216 -9221 -1480 0
1000000 1308 -8355 -9520 -8528 0
1000000 4789 -8355 -9520 -8528 0
1000000 973 -5557 -5593 -5658 -5508 -7346 -7488 0
1000000 4790 -5557 -5593 -5658 -5508 -7346 -7488 0
1000000 598 -7497 -6956 -5629 -6914 -7126 0
1000000 4791 -7497 -6956 -5629 -6914 -7126 0
1000000 283 -7677 -8729 -5728 -7017 -5273 -6046 -5625 0
1000000 4792 -7677 -8729 -5728 -7017 -5273 -6046 -5625 0
1000000 1028 -8406 -5746 -8148 -5248 -8057 0
1000000 4793 -8406 -5746 -8148 -5248 -8057 0
1000000 1496 -8126 -6503 -5765 -5267 -8635 -5202 0
1000000 4794 -8126 -6503 -5765 -5267 -8635 -5202 0
1000000 1280 -7475 -9041 -5614 -8854 -6584 0
1000000 4795 -7475 -9041 -5614 -8854 -6584 0
1000000 1100 -6235 -8511 -7257 -6180 -5537 0
1000000 4796 -6235 -8511 -7257 -6180 -5537 0
1000000 319 -7283 -8591 0
1000000 4797 -7283 -8591 0
1000000 384 -5968 -6573 -5840 0
1000000 4798 -5968 -6573 -5840 0
1000000 1027 -7656 -5526 -7741 -1491 0
1000000 4799 -7656 -5526 -7741 -1491 0
1000000 974 -9098 -8414 0
1000000 4800 -9098 -8414 0
1000000 1243 -6769 -9397 -7208 -6015 -5832 -9594 -5581 0
1000000 4801 -6769 -9397 -7208 -6015 -5832 -9594 -5581 0
1000000 434 -6102 -9481 -6849 -6082 -8097 0
1000000 4802 -6102 -9481 -6849 -6082 -8097 0
1000000 114 -8275 -6872 -9397 -7875 -5134 -6639 -8609 0
1000000 4803 -8275 -6872 -9397 -7875 -5134 -6639 -8609 0
1000000 517 -6909 -7024 -5192 -5314 -7475 -8952 0
1000000 4804 -6909 -7024 -5192 -5314 -7475 -8952 0
1000000 1132 -8042 -5439 0
1000000 4805 -8042 -5439 0
1000000 1488 -8606 -6169 -5328 -6444 -9002 -1493 0
1000000 4806 -8606 -6169 -5328 -6444 -9002 -1493 0
1000000 1493 -7252 -6043 -8684 -7328 0
1000000 4807 -7252 -6043 -8684 -7328 0
1000000 1196 -7402 -8776 0
1000000 4808 -7402 -8776 0
1000000 1485 -7666 -9251 -5389 0
1000000 4809 -7666 -9251 -5389 0
1000000 1040 -8827 -5553 -8893 -8094 0
1000000 4810 -8827 -5553 -8893 -8094 0
1000000 826 -8429 -9316 -8118 -7405 -7735 0
1000000 4811 -8429 -9316 -8118 -7405 -7735 0
1000000 811 -5693 -8561 -6055 -7319 -8920 -9556 -7568 0
1000000 4812 -5693 -8561 -6055 -7319 -8920 -9556 -7568 0
1000000 42 -9440 -7292 -9463 -6833 -6174 -7884 -5625 0
1000000 4813 -9440 -7292 -9463 -6833 -6174 -7884 -5625 0
1000000 720 -5439 -5780 -8948 -9564 -8221 -7468 0
1000000 4814 -5439 -5780 -8948 -9564 -8221 -7468 0
1000000 878 -8622 -9387 -6395 -7990 -8300 -917 0
1000000 4815 -8622 -9387 -6395 -7990 -8300 -917 0
1000000 1262 -8391 -9459 -8686 -7512 0
1000000 4816 -8391 -9459 -8686 -7512 0
1000000 540 -5212 -8059 -7520 -8136 -7918 -5763 -8527 0
1000000 4817 -5212 -8059 -7520 -8136 -7918 -5763 -8527 0
1000000 936 -6898 -8542 -7836 -7680 0
1000000 4818 -6898 -8542 -7836 -7680 0
1000000 165 -9193 -6766 -5413 -8282 -6132 -6818 0
1000000 4819 -9193 -6766 -5413 -8282 -6132 -6818 0
1000000 141 -5220 -9443 -7247 -1193 0
1000000 4820 -5220 -9443 -7247 -1193 0
1000000 119 -7685 -9265 -8602 -5935 -223 0
1000000 4821 -7685 -9265 -8602 -5935 -223 0
1000000 1014 -5155 -9538 -7763 -8514 0
1000000 4822 -5155 -9538 -7763 -8514 0
1000000 399 -6556 -9207 -9096 -8243 -9001 0
1000000 4823 -6556 -9207 -9096 -8243 -9001 0
1000000 1435 -8491 -5467 -6089 0
1000000 4824 -8491 -5467 -6089 0
1000000 333 -7247 -8839 -7185 -7355 -8219 -988 0
1000000 4825 -7247 -8839 -7185 -7355 -8219 -988 0
1000000 1212 -8657 -7153 -5642 -1293 0
1000000 4826 -8657 -7153 -5642 -1293 0
1000000 398 -7143 -7189 -8689 -7232 -9073 -5717 0
1000000 4827 -7143 -7189 -8689 -7232 -9073 -5717 0
1000000 238 -7504 -6447 -8759 -5570 -6361 0
1000000 4828 -7504 -6447 -8759 -5570 -6361 0
1000000 95 -8485 -6020 -9356 -7334 -9214 -6850 -6860 0
1000000 4829 -8485 -6020 -9356 -7334 -9214 -6850 -6860 0
1000000 1206 -5784 -5275 -9167 -7157 -8243 -6304 0
1000000 4830 -5784 -5275 -9167 -7157 -8243 -6304 0
1000000 637 -9153 -8684 -7793 -8297 -9276 -9258 -845 0
1000000 4831 -9153 -8684 -7793 -8297 -9276 -9258 -845 0
1000000 271 -7786 -6405 -5310 0
1000000 4832 -7786 -6405 -5310 0
1000000 317 -8923 -9060 -7963 -8235 -6463 -5779 -696 0
1000000 4833 -8923 -9060 -7963 -8235 -6463 -5779 -696 0
1000000 1201 -7634 -1267 0
1000000 4834 -7634 -1267 0
1000000 988 -5122 -9482 0
1000000 4835 -5122 -9482 0
1000000 1371 -7350 -9133 -5688 -5703 -6091 -6954 0
1000000 4836 -7350 -9133 -5688 -5703 -6091 -6954 0
1000000 356 -8910 -7137 0
1000000 4837 -8910 -7137 0
1000000 702 -5811 -6564 -9489 -8377 0
1000000 4838 -5811 -6564 -9489 -8377 0
1000000 864 -5853 -6143 0
1000000 4839 -5853 -6143 0
1000000 1353 -7412 -8131 -5178 -5696 -6198 -9408 0
1000000 4840 -7412 -8131 -5178 -5696 -6198 -9408 0
1000000 940 -8920 -6154 -7109 -6189 -6291 -1187 0
1000000 4841 -8920 -6154 -7109 -6189 -6291 -1187 0
1000000 580 -6101 -8529 0
1000000 4842 -6101 -8529 0
1000000 39 -8695 -7526 -7014 -9558 -6746 0
1000000 4843 -8695 -7526 -7014 -9558 -6746 0
1000000 17 -8577 -7402 -5743 -5729 0
1000000 4844 -8577 -7402 -5743 -5729 0
1000000 1290 -7297 -5562 0
1000000 4845 -7297 -5562 0
1000000 233 -5810 -9315 -8209 -6005 -7100 -7195 0
1000000 4846 -5810 -9315 -8209 -6005 -7100 -7195 0
1000000 544 -6144 -6174 -5908 -5581 -9208 -7318 0
1000000 4847 -6144 -6174 -5908 -5581 -9208 -7318 0
1000000 605 -6427 -6140 -5558 0
1000000 4848 -6427 -6140 -5558 0
1000000 652 -6482 -5796 0
1000000 4849 -6482 -5796 0
1000000 1395 -8708 -8716 -5979 -8897 -6525 -7584 -8784 0
1000000 4850 -8708 -8716 -5979 -8897 -6525 -7584 -8784 0
1000000 908 -7507 -5182 -5523 -8093 -8296 -7953 0
1000000 4851 -7507 -5182 -5523 -8093 -8296 -7953 0
1000000 115 -6370 -5865 0
1000000 4852 -6370 -5865 0
1000000 1378 -5456 -6183 -5101 -5359 0
1000000 4853 -5456 -6183 -5101 -5359 0
1000000 891 -6313 -8338 0
1000000 4854 -6313 -8338 0
1000000 634 -5971 -6026 -8231 -5721 0
1000000 4855 -5971 -6026 -8231 -5721 0
1000000 1234 -8759 -1451 0
1000000 4856 -8759 -1451 0
1000000 539 -6741 -9030 -5597 -9591 -8730 -9284 0
1000000 4857 -6741 -9030 -5597 -9591 -8730 -9284 0
1000000 439 -5574 -8092 0
1000000 4858 -5574 -8092 0
1000000 570 -7877 -6698 -5119 -8497 -8105 0
1000000 4859 -7877 -6698 -5119 -8497 -8105 0
1000000 1219 -6123 -1418 0
1000000 4860 -6123 -1418 0
1000000 1199 -7144 -8616 -8205 -7023 -1466 0
1000000 4861 -7144 -8616 -8205 -7023 -1466 0
1000000 1491 -8889 -6288 -9327 -8365 -7352 -1495 0
1000000 4862 -8889 -6288 -9327 -8365 -7352 -1495 0
1000000 1108 -7172 -8304 -9311 -1193 0
1000000 4863 -7172 -8304 -9311 -1193 0
1000000 1134 -8286 -1174 0
1000000 4864 -8286 -1174 0
1000000 450 -8319 -7869 -6900 0
1000000 4865 -8319 -7869 -6900 0
1000000 236 -7810 -9359 0
1000000 4866 -7810 -9359 0
1000000 744 -5269 -5440 -6278 -6431 -8903 -9532 -841 0
1000000 4867 -5269 -5440 -6278 -6431 -8903 -9532 -841 0
1000000 853 -9308 -8335 -8970 -5482 0
1000000 4868 -9308 -8335 -8970 -5482 0
1000000 731 -7437 -5796 0
1000000 4869 -7437 -5796 0
1000000 302 -5968 -8216 0
1000000 4870 -5968 -8216 0
1000000 517 -9160 -6694 -7544 -6353 -826 0
1000000 4871 -9160 -6694 -7544 -6353 -826 0
1000000 1410 -7562 -5693 -8090 -7549 0
1000000 4872 -7562 -5693 -8090 -7549 0
1000000 1409 -6576 -9001 -1431 0
1000000 4873 -6576 -9001 -1431 0
1000000 17 -6839 -1361 0
1000000 4874 -6839 -1361 0
1000000 395 -7233 -8005 -5414 0
1000000 4875 -7233 -8005 -5414 0
1000000 551 -5966 -5805 -6849 -7555 -5824 0
1000000 4876 -5966 -5805 -6849 -7555 -5824 0
1000000 1019 -8221 -8061 0
1000000 4877 -8221 -8061 0
1000000 1293 -8831 -8010 -9427 0
1000000 4878 -8831 -8010 -9427 0
1000000 1454 -8687 -9143 -7817 -5876 -6139 -5601 -7196 0
1000000 4879 -8687 -9143 -7817 -5876 -6139 -5601 -7196 0
1000000 637 -7344 -8357 -6956 -8293 -7493 -7564 0
1000000 4880 -7344 -8357 -6956 -8293 -7493 -7564 0
1000000 1005 -6370 -6806 -8377 -7032 -6946 0
1000000 4881 -6370 -6806 -8377 -7032 -6946 0
1000000 1072 -7758 -7671 -7663 -5338 -9060 -6954 -8231 0
1000000 4882 -7758 -7671 -7663 -5338 -9060 -6954 -8231 0
1000000 437 -7716 -680 0
1000000 4883 -7716 -680 0
1000000 589 -7098 -5669 -7669 -8267 -9259 0
1000000 4884 -7098 -5669 -7669 -8267 -9259 0
1000000 735 -6965 -8349 -7614 -5590 -8746 -8973 -759 0
1000000 4885 -6965 -8349 -7614 -5590 -8746 -8973 -759 0
1000000 276 -9294 -9309 -8327 -7865 -5316 -6119 -7850 0
1000000 4886 -9294 -9309 -8327 -7865 -5316 -6119 -7850 0
1000000 1326 -6286 -6745 0
1000000 4887 -6286 -6745 0
1000000 581 -5735 -6436 -9367 -7458 -8559 -6122 0
1000000 4888 -5735 -6436 -9367 -7458 -8559 -6122 0
1000000 1064 -6796 -9572 -9200 -6733 -8131 -9391 0
1000000 4889 -6796 -9572 -9200 -6733 -8131 -9391 0
1000000 451 -5499 -8918 -6390 0
1000000 4890 -5499 -8918 -6390 0
1000000 1013 -7422 -5945 -6661 -9061 -6541 -9053 -7412 0
1000000 4891 -7422 -5945 -6661 -9061 -6541 -9053 -7412 0
1000000 982 -9459 -6987 -5755 0
1000000 4892 -9459 -6987 -5755 0
1000000 1359 -9008 -8275 0
1000000 4893 -9008 -8275 0
1000000 756 -6714 -5227 0
1000000 4894 -6714 -5227 0
1000000 849 -6382 -8513 -5801 0
1000000 4895 -6382 -8513 -5801 0
1000000 1217 -6506 -5710 -8441 -5128 -8160 -6336 0
1000000 4896 -6506 -5710 -8441 -5128 -8160 -6336 0
1000000 679 -5499 -8835 -6197 -9151 -6596 -7182 0
1000000 4897 -5499 -8835 -6197 -9151 -6596 -7182 0
1000000 844 -9012 -877 0
1000000 4898 -9012 -877 0
1000000 966 -7446 -5491 0
1000000 4899 -7446 -5491 0
1000000 193 -8067 -5822 -9056 -1119 0
1000000 4900 -8067 -5822 -9056 -1119 0
1000000 815 -8114 -7911 0
1000000 4901 -8114 -7911 0
1000000 210 -7777 -5132 0
1000000 4902 -7777 -5132 0
1000000 281 -7638 -8334 -7513 -8164 -8708 -6439 0
1000000 4903 -7638 -8334 -7513 -8164 -8708 -6439 0
1000000 914 -8931 -8798 -5209 -6706 0
1000000 4904 -8931 -8798 -5209 -6706 0
1000000 598 -7956 -7402 -8245 -5441 0
1000000 4905 -7956 -7402 -8245 -5441 0
1000000 502 -9557 -7314 -6353 -9075 -8815 -5542 0
1000000 4906 -9557 -7314 -6353 -9075 -8815 -5542 0
1000000 915 -9091 -9560 -6515 -6826 -6896 0
1000000 4907 -9091 -9560 -6515 -6826 -6896 0
1000000 1030 -6991 -7444 -7800 -8942 -8931 -5725 -1408 0
1000000 4908 -6991 -7444 -7800 -8942 -8931 -5725 -1408 0
1000000 1436 -9187 -7332 -6518 -9057 -7132 -5165 -7603 0
1000000 4909 -9187 -7332 -6518 -9057 -7132 -5165 -7603 0
1000000 1056 -9392 -8017 -8230 0
1000000 4910 -9392 -8017 -8230 0
1000000 378 -7557 -8476 -7786 -5792 -8969 0
1000000 4911 -7557 -8476 -7786 -5792 -8969 0
1000000 956 -6115 -8605 -8353 -5932 -7412 -7621 -1158 0
1000000 4912 -6115 -8605 -8353 -5932 -7412 -7621 -1158 0
1000000 929 -7270 -6698 -6798 -5970 -8485 -6670 -1485 0
1000000 4913 -7270 -6698 -6798 -5970 -8485 -6670 -1485 0
1000000 262 -5905 -6947 0
1000000 4914 -5905 -6947 0
1000000 422 -7560 -8791 -8258 -8084 0
1000000 4915 -7560 -8791 -8258 -8084 0
1000000 1152 -7238 -7200 -7641 -8200 -8976 -5937 0
1000000 4916 -7238 -7200 -7641 -8200 -8976 -5937 0
1000000 342 -6274 -5765 0
1000000 4917 -6274 -5765 0
1000000 280 -8250 -5748 -7985 -7430 -8850 -5914 -5549 0
1000000 4918 -8250 -5748 -7985 -7430 -8850 -5914 -5549 0
1000000 888 -6389 -7584 -7693 -7176 0
1000000 4919 -6389 -7584 -7693 -7176 0
1000000 952 -8558 -1237 0
1000000 4920 -8558 -1237 0
1000000 778 -9503 -5201 -6342 -7624 -7653 0
1000000 4921 -9503 -5201 -6342 -7624 -7653 0
1000000 849 -8916 -5574 -7964 -8205 0
1000000 4922 -8916 -5574 -7964 -8205 0
1000000 1277 -8203 -7295 -9107 -5396 0
1000000 4923 -8203 -7295 -9107 -5396 0
1000000 1258 -7528 -6440 -7397 -7416 -8142 0
1000000 4924 -7528 -6440 -7397 -7416 -8142 0
1000000 235 -8755 -8945 -7570 -6636 -6005 -451 0
1000000 4925 -8755 -8945 -7570 -6636 -6005 -451 0
1000000 553 -6877 -8471 -9428 -8891 -9368 -7688 -8198 0
1000000 4926 -6877 -8471 -9428 -8891 -9368 -7688 -8198 0
1000000 1328 -8165 -7266 -7131 -8008 -8306 -6046 -7940 0
1000000 4927 -8165 -7266 -7131 -8008 -8306 -6046 -7940 0
1000000 886 -5892 -7073 -6500 0
1000000 4928 -5892 -7073 -6500 0
1000000 216 -5474 -8296 -7518 -8460 0
1000000 4929 -5474 -8296 -7518 -8460 0
1000000 191 -5340 -8611 -9286 -6452 -7159 -7082 -542 0
1000000 4930 -5340 -8611 -9286 -6452 -7159 -7082 -542 0
1000000 1253 -6330 -6215 -7437 -8205 -8664 -5918 -1269 0
1000000 4931 -6330 -6215 -7437 -8205 -8664 -5918 -1269 0
1000000 1315 -6488 -6586 0
1000000 4932 -6488 -6586 0
1000000 261 -7100 -8520 -6133 0
1000000 4933 -7100 -8520 -6133 0
1000000 78 -8696 -7099 -6729 -7870 -7576 0
1000000 4934 -8696 -7099 -6729 -7870 -7576 0
1000000 1082 -9054 -5972 -6059 -8001 -9034 -9262 -8039 0
1000000 4935 -9054 -5972 -6059 -8001 -9034 -9262 -8039 0
1000000 1221 -9470 -8027 -5159 -1417 0
1000000 4936 -9470 -8027 -5159 -1417 0
1000000 152 -8141 -8876 -5201 -8258 -7710 -8154 -7098 0
1000000 4937 -8141 -8876 -5201 -8258 -7710 -8154 -7098 0
1000000 576 -7114 -8194 -5430 -5428 -9579 0
1000000 4938 -7114 -8194 -5430 -5428 -9579 0
1000000 1029 -9590 -7444 -8512 -7230 -8311 -8416 -8419 0
1000000 4939 -9590 -7444 -8512 -7230 -8311 -8416 -8419 0
1000000 819 -8583 -5959 -7642 -6128 -8491 -8268 -1185 0
1000000 4940 -8583 -5959 -7642 -6128 -8491 -8268 -1185 0
1000000 732 -9160 -7388 -5122 -8764 0
1000000 4941 -9160 -7388 -5122 -8764 0
1000000 746 -9028 -9283 -5262 -7131 -5824 -6989 -9224 0
1000000 4942 -9028 -9283 -5262 -7131 -5824 -6989 -9224 0
1000000 1367 -6857 -6085 -5687 -6348 -5570 0
1000000 4943 -6857 -6085 -5687 -6348 -5570 0
1000000 1206 -8599 -6159 -5952 -5642 0
1000000 4944 -8599 -6159 -5952 -5642 0
1000000 39 -6225 -5516 -9017 -7184 -8511 -9172 0
1000000 4945 -6225 -5516 -9017 -7184 -8511 -9172 0
1000000 931 -8683 -5920 -8220 -5372 -6409 -7703 -5757 0
1000000 4946 -8683 -5920 -8220 -5372 -6409 -7703 -5757 0
1000000 941 -8434 -6226 -7415 -8645 -6437 -7478 -1258 0
1000000 4947 -8434 -6226 -7415 -8645 -6437 -7478 -1258 0
1000000 1354 -8281 -8477 -1366 0
1000000 4948 -8281 -8477 -1366 0
1000000 301 -5408 -8783 -9098 -5591 -5216 0
1000000 4949 -5408 -8783 -9098 -5591 -5216 0
1000000 49 -9485 -1044 0
1000000 4950 -9485 -1044 0
1000000 935 -7880 -7273 -7752 0
1000000 4951 -7880 -7273 -7752 0
1000000 905 -6286 -5511 -6656 -9547 -8139 -1224 0
1000000 4952 -6286 -5511 -6656 -9547 -8139 -1224 0
1000000 473 -7990 -9017 -5513 -5661 -1136 0
1000000 4953 -7990 -9017 -5513 -5661 -1136 0
1000000 1384 -5499 -6926 -5289 -5609 0
1000000 4954 -5499 -6926 -5289 -5609 0
1000000 1154 -8951 -6979 -5706 -8277 -8830 -5294 0
1000000 4955 -8951 -6979 -5706 -8277 -8830 -5294 0
1000000 2 -6332 -5441 -6086 -6046 -7576 0
1000000 4956 -6332 -5441 -6086 -6046 -7576 0
1000000 1236 -5625 -9170 -8638 -5130 -6844 0
1000000 4957 -5625 -9170 -8638 -5130 -6844 0
1000000 872 -7580 -6967 -9093 -8025 -8302 -6740 -8774 0
1000000 4958 -7580 -6967 -9093 -8025 -8302 -6740 -8774 0
1000000 1132 -7478 -7332 -8661 -8742 -8405 -8434 -9134 0
1000000 4959 -7478 -7332 -8661 -8742 -8405 -8434 -9134 0
1000000 1449 -6918 -5894 -7512 -7242 -8530 0
1000000 4960 -6918 -5894 -7512 -7242 -8530 0
1000000 1134 -6536 -6327 -7562 -8299 0
1000000 4961 -6536 -6327 -7562 -8299 0
1000000 479 -6229 -6103 -5870 -1008 0
1000000 4962 -6229 -6103 -5870 -1008 0
1000000 624 -5579 -8009 0
1000000 4963 -5579 -8009 0
1000000 131 -6187 -6506 -9172 -5408 0
1000000 4964 -6187 -6506 -9172 -5408 0
1000000 166 -8401 -6429 -9339 -7243 -6945 0
1000000 4965 -8401 -6429 -9339 -7243 -6945 0
1000000 707 -6227 -8599 -5428 -8360 -9083 -9589 -8036 0
1000000 4966 -6227 -8599 -5428 -8360 -9083 -9589 -8036 0
1000000 106 -9184 -9043 -7671 -7891 -6669 0
1000000 4967 -9184 -9043 -7671 -7891 -6669 0
1000000 371 -8053 -6485 -9024 -5735 -7557 -5996 0
1000000 4968 -8053 -6485 -9024 -5735 -7557 -5996 0
1000000 1466 -5225 -7062 -5471 -9417 -7780 -6424 0
1000000 4969 -5225 -7062 -5471 -9417 -7780 -6424 0
1000000 1188 -8408 -5991 -1202 0
1000000 4970 -8408 -5991 -1202 0
1000000 1284 -8172 -7047 -7515 -8602 -7138 -7578 -1294 0
1000000 4971 -8172 -7047 -7515 -8602 -7138 -7578 -1294 0
1000000 1224 -6396 -5876 0
1000000 4972 -6396 -5876 0
1000000 831 -5986 -8449 -6430 -7911 -6130 -9546 0
1000000 4973 -5986 -8449 -6430 -7911 -6130 -9546 0
1000000 223 -9009 -6603 -6383 -9479 -8014 -6073 0
1000000 4974 -9009 -6603 -6383 -9479 -8014 -6073 0
1000000 1356 -9190 -9252 0
1000000 4975 -9190 -9252 0
1000000 748 -8446 -5112 -7291 0
1000000 4976 -8446 -5112 -7291 0
1000000 134 -9183 -716 0
1000000 4977 -9183 -716 0
1000000 1292 -7708 -6204 -8068 -1472 0
1000000 4978 -7708 -6204 -8068 -1472 0
1000000 995 -5859 -7549 -6763 -7575 -6369 -6062 -5199 0
1000000 4979 -5859 -7549 -6763 -7575 -6369 -6062 -5199 0
1000000 1302 -8354 -5207 -8851 -8336 -1368 0
1000000 4980 -8354 -5207 -8851 -8336 -1368 0
1000000 584 -8036 -8566 0
1000000 4981 -8036 -8566 0
1000000 152 -6441 -6819 -7067 -7232 -5778 -6255 -7255 0
1000000 4982 -6441 -6819 -7067 -7232 -5778 -6255 -7255 0
1000000 809 -5284 -7402 -6642 -7532 -6532 -1057 0
1000000 4983 -5284 -7402 -6642 -7532 -6532 -1057 0
1000000 254 -8636 -5517 -5876 -8870 -7820 0
1000000 4984 -8636 -5517 -5876 -8870 -7820 0
1000000 942 -5932 -7992 -7634 -6259 0
1000000 4985 -5932 -7992 -7634 -6259 0
1000000 209 -9165 -7499 -7662 -6727 -9600 -6768 -248 0
1000000 4986 -9165 -7499 -7662 -6727 -9600 -6768 -248 0
1000000 264 -5484 -8204 0
1000000 4987 -5484 -8204 0
1000000 1452 -8092 -8525 -5686 -5202 0
1000000 4988 -8092 -8525 -5686 -5202 0
1000000 579 -7545 -5966 0
1000000 4989 -7545 -5966 0
1000000 292 -9558 -7789 -7773 -6298 -7085 -8575 -6688 0
1000000 4990 -9558 -7789 -7773 -6298 -7085 -8575 -6688 0
1000000 61 -8428 -6855 -8885 -5664 -7468 -8834 0
1000000 4991 -8428 -6855 -8885 -5664 -7468 -8834 0
1000000 1481 -5610 -1491 0
1000000 4992 -5610 -1491 0
1000000 1017 -7271 -5901 -5653 -8425 -7737 -1186 0
1000000 4993 -7271 -5901 -5653 -8425 -7737 -1186 0
1000000 990 -6192 -7396 -6776 -9453 -8817 0
1000000 4994 -6192 -7396 -6776 -9453 -8817 0
1000000 1162 -5876 -7821 -7047 -6135 0
1000000 4995 -5876 -7821 -7047 -6135 0
1000000 1007 -5715 -9475 -7642 -9011 -6887 -1402 0
1000000 4996 -5715 -9475 -7642 -9011 -6887 -1402 0
1000000 420 -6531 -5243 0
1000000 4997 -6531 -5243 0
1000000 207 -9229 -7077 -8707 -6135 -6563 -6801 0
1000000 4998 -9229 -7077 -8707 -6135 -6563 -6801 0
1000000 1224 -6646 -5649 -7161 -8344 0
1000000 4999 -6646 -5649 -7161 -8344 0
1000000 1300 -6107 -6895 -5998 -7330 -6771 -6938 -8959 0
1000000 5000 -6107 -6895 -5998 -7330 -6771 -6938 -8959 0
1000000 72 -5932 -8473 -5717 -6518 -7941 -6050 -8757 0
1000000 5001 -5932 -8473 -5717 -6518 -7941 -6050 -8757 0
1000000 655 -7085 -8667 -8101 -7860 0
1000000 5002 -7085 -8667 -8101 -7860 0
1000000 1317 -6275 -5345 -5792 -6780 -1351 0
1000000 5003 -6275 -5345 -5792 -6780 -1351 0
1000000 1308 -6026 -7897 -7889 -8095 0
1000000 5004 -6026 -7897 -7889 -8095 0
1000000 323 -6198 -7848 -9535 -5214 -6829 0
1000000 5005 -6198 -7848 -9535 -5214 -6829 0
1000000 760 -8647 -6213 -6470 -6818 -6468 -6999 0
1000000 5006 -8647 -6213 -6470 -6818 -6468 -6999 0
1000000 1375 -6598 -1387 0
1000000 5007 -6598 -1387 0
1000000 788 -6305 -6319 -8058 0
1000000 5008 -6305 -6319 -8058 0
1000000 178 -5821 -5647 -6505 0
1000000 5009 -5821 -5647 -6505 0
1000000 811 -8192 -9076 -5860 -6741 -6464 -7263 -8741 0
1000000 5010 -8192 -9076 -5860 -6741 -6464 -7263 -8741 0
1000000 754 -9373 -9377 -8022 -5515 -8378 -5877 -5932 0
1000000 5011 -9373 -9377 -8022 -5515 -8378 -5877 -5932 0
1000000 350 -7446 -7039 -9066 -9404 -8319 -7199 -8144 0
1000000 5012 -7446 -7039 -9066 -9404 -8319 -7199 -8144 0
1000000 1479 -5594 -8081 -8173 -8119 -8835 -5935 0
1000000 5013 -5594 -8081 -8173 -8119 -8835 -5935 0
1000000 519 -5496 -5405 0
1000000 5014 -5496 -5405 0
1000000 584 -6927 -5516 -6833 -6562 -5124 0
1000000 5015 -6927 -5516 -6833 -6562 -5124 0
1000000 1105 -5111 -6369 -5630 0
1000000 5016 -5111 -6369 -5630 0
1000000 921 -6121 -6446 -7315 -5534 -6603 -1154 0
1000000 5017 -6121 -6446 -7315 -5534 -6603 -1154 0
1000000 1451 -7131 -7549 -1488 0
1000000 5018 -7131 -7549 -1488 0
1000000 1265 -9173 -9597 -9533 0
1000000 5019 -9173 -9597 -9533 0
1000000 255 -5993 -8186 -6207 -5715 -9385 -6092 -6413 0
1000000 5020 -5993 -8186 -6207 -5715 -9385 -6092 -6413 0
1000000 1322 -9373 -9183 0
1000000 5021 -9373 -9183 0
1000000 284 -9447 -8899 -6005 -5749 -6630 0
1000000 5022 -9447 -8899 -6005 -5749 -6630 0
1000000 1072 -7687 -5558 -7307 -6678 -9501 -8958 0
1000000 5023 -7687 -5558 -7307 -6678 -9501 -8958 0
1000000 468 -6001 -8691 -7407 -6288 -6246 -8541 0
1000000 5024 -6001 -8691 -7407 -6288 -6246 -8541 0
1000000 1421 -5465 -1472 0
1000000 5025 -5465 -1472 0
1000000 1436 -7557 -9377 -8311 -7734 0
1000000 5026 -7557 -9377 -8311 -7734 0
1000000 1017 -7624 -7515 -6878 -5972 -1404 0
1000000 5027 -7624 -7515 -6878 -5972 -1404 0
1000000 768 -7746 -6064 0
1000000 5028 -7746 -6064 0
1000000 1461 -6954 -7869 -1488 0
1000000 5029 -6954 -7869 -1488 0
1000000 934 -5700 -8165 -6915 -8211 -8079 -5831 0
1000000 5030 -5700 -8165 -6915 -8211 -8079 -5831 0
1000000 458 -8216 -8198 -8251 -6358 -5667 -1164 0
1000000 5031 -8216 -8198 -8251 -6358 -5667 -1164 0
1000000 1357 -7974 -5124 -1401 0
1000000 5032 -7974 -5124 -1401 0
1000000 382 -6181 -6592 -6678 -7346 -7061 -7849 -5108 0
1000000 5033 -6181 -6592 -6678 -7346 -7061 -7849 -5108 0
1000000 1393 -8085 -1413 0
1000000 5034 -8085 -1413 0
1000000 1194 -7460 -9099 -6535 -8534 -8091 -5717 0
1000000 5035 -7460 -9099 -6535 -8534 -8091 -5717 0
1000000 533 -6360 -6818 -6238 -6174 -7772 -6563 -6452 0
1000000 5036 -6360 -6818 -6238 -6174 -7772 -6563 -6452 0
1000000 1443 -5706 -6303 -7518 -7668 -8493 -8144 0
1000000 5037 -5706 -6303 -7518 -7668 -8493 -8144 0
1000000 705 -6864 -7126 -9189 -7267 -8395 0
1000000 5038 -6864 -7126 -9189 -7267 -8395 0
1000000 917 -8724 -7598 0
1000000 5039 -8724 -7598 0
1000000 765 -7288 -7029 -9562 -8700 0
1000000 5040 -7288 -7029 -9562 -8700 0
1000000 970 -6496 -7584 -5902 -5578 -1146 0
1000000 5041 -6496 -7584 -5902 -5578 -1146 0
1000000 1190 -6479 -5383 -6010 -7513 -5821 -8197 -5675 0
1000000 5042 -6479 -5383 -6010 -7513 -5821 -8197 -5675 0
1000000 493 -7797 -6999 -8220 -5893 0
1000000 5043 -7797 -6999 -8220 -5893 0
1000000 782 -7435 -8461 -9094 -8321 -1187 0
1000000 5044 -7435 -8461 -9094 -8321 -1187 0
1000000 1473 -6170 -5255 -7704 -5480 -1487 0
1000000 5045 -6170 -5255 -7704 -5480 -1487 0
1000000 128 -9119 -7607 -7192 -9317 -6779 -8674 -5576 0
1000000 5046 -9119 -7607 -7192 -9317 -6779 -8674 -5576 0
1000000 658 -6349 -8401 -8339 0
1000000 5047 -6349 -8401 -8339 0
1000000 11 -7448 -6593 -9057 -6952 -9103 -690 0
1000000 5048 -7448 -6593 -9057 -6952 -9103 -690 0
1000000 833 -5736 -6244 -7075 0
1000000 5049 -5736 -6244 -7075 0
1000000 744 -6662 -5223 -7208 0
1000000 5050 -6662 -5223 -7208 0
1000000 1438 -7180 -9421 -7733 -5871 -7534 -8002 -7046 0
1000000 5051 -7180 -9421 -7733 -5871 -7534 -8002 -7046 0
1000000 1345 -9175 -8758 -6399 -8141 0
1000000 5052 -9175 -8758 -6399 -8141 0
1000000 342 -7229 -7135 -7367 -7782 -1491 0
1000000 5053 -7229 -7135 -7367 -7782 -1491 0
1000000 222 -8597 -9302 -7890 -8114 0
1000000 5054 -8597 -9302 -7890 -8114 0
1000000 19 -5608 -7829 -7933 -7567 -5442 0
1000000 5055 -5608 -7829 -7933 -7567 -5442 0
1000000 1061 -6829 -8765 -8684 0
1000000 5056 -6829 -8765 -8684 0
1000000 993 -8459 -1062 0
1000000 5057 -8459 -1062 0
1000000 487 -7839 -8537 -6559 -6524 0
1000000 5058 -7839 -8537 -6559 -6524 0
1000000 1365 -6658 -6505 -8848 -5680 -7130 0
1000000 5059 -6658 -6505 -8848 -5680 -7130 0
1000000 1293 -6360 -9270 0
1000000 5060 -6360 -9270 0
1000000 977 -8501 -8625 -6078 -7185 0
1000000 5061 -8501 -8625 -6078 -7185 0
1000000 464 -9448 -5243 -8798 -5780 -975 0
1000000 5062 -9448 -5243 -8798 -5780 -975 0
1000000 162 -5887 -5755 -5932 0
1000000 5063 -5887 -5755 -5932 0
1000000 881 -5871 -8051 -8490 -6026 -9223 0
1000000 5064 -5871 -8051 -8490 -6026 -9223 0
1000000 1122 -7512 -7679 -8132 -8967 -6693 -5792 0
1000000 5065 -7512 -7679 -8132 -8967 -6693 -5792 0
1000000 887 -8089 -5528 -7107 -7302 -7589 0
1000000 5066 -8089 -5528 -7107 -7302 -7589 0
1000000 87 -7577 -6988 -5897 -7013 -9342 -1328 0
1000000 5067 -7577 -6988 -5897 -7013 -9342 -1328 0
1000000 421 -9058 -5665 -8010 -5584 -7523 0
1000000 5068 -9058 -5665 -8010 -5584 -7523 0
1000000 314 -7506 -7255 -9071 -1182 0
1000000 5069 -7506 -7255 -9071 -1182 0
1000000 954 -7547 -8159 0
1000000 5070 -7547 -8159 0
1000000 661 -6066 -7748 -9225 0
1000000 5071 -6066 -7748 -9225 0
1000000 1455 -6974 -7536 -5395 -5465 -5576 0
1000000 5072 -6974 -7536 -5395 -5465 -5576 0
1000000 739 -6852 -8543 0
1000000 5073 -6852 -8543 0
1000000 701 -8006 -7866 0
1000000 5074 -8006 -7866 0
1000000 1048 -6917 -6820 0
1000000 5075 -6917 -6820 0
1000000 961 -6563 -6359 0
1000000 5076 -6563 -6359 0
1000000 226 -5893 -5134 0
1000000 5077 -5893 -5134 0
1000000 176 -8649 -6253 -5887 -6219 -8856 -6868 -1086 0
1000000 5078 -8649 -6253 -5887 -6219 -8856 -6868 -1086 0
1000000 468 -7541 -8457 -5313 0
1000000 5079 -7541 -8457 -5313 0
1000000 82 -8900 -9323 -5925 0
1000000 5080 -8900 -9323 -5925 0
1000000 1043 -5824 -6389 -5809 -8358 0
1000000 5081 -5824 -6389 -5809 -8358 0
1000000 172 -8657 -7334 -8358 -8927 -7554 -6505 -7841 0
1000000 5082 -8657 -7334 -8358 -8927 -7554 -6505 -7841 0
1000000 1304 -7531 -8993 -9528 -8343 -1427 0
1000000 5083 -7531 -8993 -9528 -8343 -1427 0
1000000 867 -8585 -6186 -6717 -7825 0
1000000 5084 -8585 -6186 -6717 -7825 0
1000000 625 -6544 -7626 -5852 -8344 -1177 0
1000000 5085 -6544 -7626 -5852 -8344 -1177 0
1000000 659 -6829 -7671 -7261 -8992 -8052 0
1000000 5086 -6829 -7671 -7261 -8992 -8052 0
1000000 1407 -7590 -8688 -6541 0
1000000 5087 -7590 -8688 -6541 0
1000000 786 -6231 -8690 -7984 0
1000000 5088 -6231 -8690 -7984 0
1000000 1096 -7574 -8144 -8387 -6513 -8653 0
1000000 5089 -7574 -8144 -8387 -6513 -8653 0
1000000 984 -6021 -6973 -6573 -1093 0
1000000 5090 -6021 -6973 -6573 -1093 0
1000000 387 -6136 -8137 -7115 -6614 -481 0
1000000 5091 -6136 -8137 -7115 -6614 -481 0
1000000 397 -5387 -9429 0
1000000 5092 -5387 -9429 0
1000000 725 -7232 -5725 -1494 0
1000000 5093 -7232 -5725 -1494 0
1000000 1026 -9251 -7258 -5664 -9343 0
1000000 5094 -9251 -7258 -5664 -9343 0
1000000 1185 -9322 -5856 -8305 -9501 -9232 -1272 0
1000000 5095 -9322 -5856 -8305 -9501 -9232 -1272 0
1000000 112 -5395 -6469 -6269 -5120 -6140 -1497 0
1000000 5096 -5395 -6469 -6269 -5120 -6140 -1497 0
1000000 186 -6586 -7632 -7607 0
1000000 5097 -6586 -7632 -7607 0
1000000 939 -6706 -9349 -6008 -8021 -6742 -7741 0
1000000 5098 -6706 -9349 -6008 -8021 -6742 -7741 0
1000000 301 -7077 -6866 -8103 0
1000000 5099 -7077 -6866 -8103 0
1000000 1290 -8061 -9503 -7952 -6323 -8756 -8286 -1382 0
1000000 5100 -8061 -9503 -7952 -6323 -8756 -8286 -1382 0
1000000 5101 9819 0
1000000 5102 10018 0
1000000 5103 10508 0
1000000 5104 11296 0
1000000 5105 10848 0
1000000 5106 9788 0
1000000 5107 10935 0
1000000 5108 9694 0
1000000 5109 11203 0
1000000 5110 10726 0
1000000 5111 9952 0
1000000 5112 11601 0
1000000 5113 11005 0
1000000 5114 9833 0
1000000 5115 11800 0
1000000 5116 10097 0
1000000 5117 11410 0
1000000 5118 9884 0
1000000 5119 9853 0
1000000 5120 11047 0
1000000 5121 9736 0
1000000 5122 10824 0
1000000 5123 11314 0
1000000 5124 10918 0
1000000 5125 11034 0
1000000 5126 10727 0
1000000 5127 10160 0
1000000 5128 11202 0
1000000 5129 11292 0
1000000 5130 11739 0
1000000 5131 9602 0
1000000 5132 9812 0
1000000 5133 10312 0
1000000 5134 10236 0
1000000 5135 10204 0
1000000 5136 11000 0
1000000 5137 10408 0
1000000 5138 9967 0
1000000 5139 10694 0
1000000 5140 9750 0
1000000 5141 9861 0
1000000 5142 11197 0
1000000 5143 10528 0
1000000 5144 11416 0
1000000 5145 11415 0
1000000 5146 11332 0
1000000 5147 11193 0
1000000 5148 10646 0
1000000 5149 11550 0
1000000 5150 11158 0
1000000 5151 10609 0
1000000 5152 11118 0
1000000 5153 9917 0
1000000 5154 10003 0
1000000 5155 9890 0
1000000 5156 11285 0
1000000 5157 11046 0
1000000 5158 11613 0
1000000 5159 10068 0
1000000 5160 10315 0
1000000 5161 9980 0
1000000 5162 10434 0
1000000 5163 10162 0
1000000 5164 10083 0
1000000 5165 11080 0
1000000 5166 10401 0
1000000 5167 10940 0
1000000 5168 11140 0
1000000 5169 9632 0
1000000 5170 10805 0
1000000 5171 10917 0
1000000 5172 11022 0
1000000 5173 10876 0
1000000 5174 11708 0
1000000 5175 10862 0
1000000 5176 11664 0
1000000 5177 11261 0
1000000 5178 10008 0
1000000 5179 10439 0
1000000 5180 11370 0
1000000 5181 10672 0
1000000 5182 11339 0
1000000 5183 11341 0
1000000 5184 10498 0
1000000 5185 10095 0
1000000 5186 10127 0
1000000 5187 9810 0
1000000 5188 10966 0
1000000 5189 11629 0
1000000 5190 10287 0
1000000 5191 9952 0
1000000 5192 10784 0
1000000 5193 11050 0
1000000 5194 11248 0
1000000 5195 11483 0
1000000 5196 9761 0
1000000 5197 11491 0
1000000 5198 10808 0
1000000 5199 10497 0
1000000 5200 10144 0
1000000 5201 10785 0
1000000 5202 10184 0
1000000 5203 10469 0
1000000 5204 10916 0
1000000 5205 10072 0
1000000 5206 11697 0
1000000 5207 11560 0
1000000 5208 9935 0
1000000 5209 11728 0
1000000 5210 10671 0
1000000 5211 11158 0
1000000 5212 11416 0
1000000 5213 9840 0
1000000 5214 10741 0
1000000 5215 10698 0
1000000 5216 11524 0
1000000 5217 11749 0
1000000 5218 10908 0
1000000 5219 10958 0
1000000 5220 10205 0
1000000 5221 11819 0
1000000 5222 10698 0
1000000 5223 9884 0
1000000 5224 11213 0
1000000 5225 11543 0
1000000 5226 10481 0
1000000 5227 11486 0
1000000 5228 10386 0
1000000 5229 10774 0
1000000 5230 9870 0
1000000 5231 11030 0
1000000 5232 10044 0
1000000 5233 11127 0
1000000 5234 10223 0
1000000 5235 10576 0
1000000 5236 11646 0
1000000 5237 10410 0
1000000 5238 11302 0
1000000 5239 10822 0
1000000 5240 10532 0
1000000 5241 10694 0
1000000 5242 11701 0
1000000 5243 9992 0
1000000 5244 10361 0
1000000 5245 11025 0
1000000 5246 9720 0
1000000 5247 11201 0
1000000 5248 11788 0
1000000 5249 9755 0
1000000 5250 10732 0
1000000 5251 9688 0
1000000 5252 10840 0
1000000 5253 9924 0
1000000 5254 11386 0
1000000 5255 10587 0
1000000 5256 10648 0
1000000 5257 9601 0
1000000 5258 10950 0
1000000 5259 9612 0
1000000 5260 10717 0
1000000 5261 9719 0
1000000 5262 11754 0
1000000 5263 10714 0
1000000 5264 9807 0
1000000 5265 11840 0
1000000 5266 10287 0
1000000 5267 10154 0
1000000 5268 11301 0
1000000 5269 10149 0
1000000 5270 9699 0
1000000 5271 11712 0
1000000 5272 10435 0
1000000 5273 11184 0
1000000 5274 10885 0
1000000 5275 10305 0
1000000 5276 10746 0
1000000 5277 11647 0
1000000 5278 11726 0
1000000 5279 11145 0
1000000 5280 11763 0
1000000 5281 11030 0
1000000 5282 11676 0
1000000 5283 9761 0
1000000 5284 9808 0
1000000 5285 11228 0
1000000 5286 11846 0
1000000 5287 11343 0
1000000 5288 11198 0
1000000 5289 11091 0
1000000 5290 10626 0
1000000 5291 10089 0
1000000 5292 11346 0
1000000 5293 10558 0
1000000 5294 11111 0
1000000 5295 10742 0
1000000 5296 9680 0
1000000 5297 11410 0
1000000 5298 11508 0
1000000 5299 10893 0
1000000 5300 10683 0
1000000 5301 11605 0
1000000 5302 11606 0
1000000 5303 10044 0
1000000 5304 9954 0
1000000 5305 10730 0
1000000 5306 11553 0
1000000 5307 11311 0
1000000 5308 10661 0
1000000 5309 10453 0
1000000 5310 10202 0
1000000 5311 9981 0
1000000 5312 11777 0
1000000 5313 10609 0
1000000 5314 10169 0
1000000 5315 10728 0
1000000 5316 10671 0
1000000 5317 9841 0
1000000 5318 9938 0
1000000 5319 11379 0
1000000 5320 10269 0
1000000 5321 10939 0
1000000 5322 9673 0
1000000 5323 9948 0
1000000 5324 10288 0
1000000 5325 10660 0
1000000 5326 11611 0
1000000 5327 11347 0
1000000 5328 11538 0
1000000 5329 11651 0
1000000 5330 10538 0
1000000 5331 9963 0
1000000 5332 10506 0
1000000 5333 11289 0
1000000 5334 10771 0
1000000 5335 11542 0
1000000 5336 10150 0
1000000 5337 11312 0
1000000 5338 11156 0
1000000 5339 10875 0
1000000 5340 10299 0
1000000 5341 11372 0
1000000 5342 9798 0
1000000 5343 10818 0
1000000 5344 11483 0
1000000 5345 11719 0
1000000 5346 11707 0
1000000 5347 10213 0
1000000 5348 11304 0
1000000 5349 10830 0
1000000 5350 10486 0
1000000 5351 10297 0
1000000 5352 11073 0
1000000 5353 11236 0
1000000 5354 10195 0
1000000 5355 9743 0
1000000 5356 11144 0
1000000 5357 11434 0
1000000 5358 9856 0
1000000 5359 11331 0
1000000 5360 9916 0
1000000 5361 10081 0
1000000 5362 9843 0
1000000 5363 9940 0
1000000 5364 10941 0
1000000 5365 10248 0
1000000 5366 11054 0
1000000 5367 9828 0
1000000 5368 10494 0
1000000 5369 10533 0
1000000 5370 11413 0
1000000 5371 10640 0
1000000 5372 10146 0
1000000 5373 10630 0
1000000 5374 10820 0
1000000 5375 11452 0
1000000 5376 10603 0
1000000 5377 11316 0
1000000 5378 10641 0
1000000 5379 10781 0
1000000 5380 10487 0
1000000 5381 10482 0
1000000 5382 11379 0
1000000 5383 9928 0
1000000 5384 9646 0
1000000 5385 9984 0
1000000 5386 10832 0
1000000 5387 10697 0
1000000 5388 11086 0
1000000 5389 10938 0
1000000 5390 11767 0
1000000 5391 11321 0
1000000 5392 9960 0
1000000 5393 10969 0
1000000 5394 11003 0
1000000 5395 11765 0
1000000 5396 11814 0
1000000 5397 10013 0
1000000 5398 10738 0
1000000 5399 9742 0
1000000 5400 10319 0
1000000 5401 10572 0
1000000 5402 10875 0
1000000 5403 11073 0
1000000 5404 11125 0
1000000 5405 11761 0
1000000 5406 10889 0
1000000 5407 10777 0
1000000 5408 10963 0
1000000 5409 11217 0
1000000 5410 11499 0
1000000 5411 11062 0
1000000 5412 10985 0
1000000 5413 10530 0
1000000 5414 10031 0
1000000 5415 11241 0
1000000 5416 11327 0
1000000 5417 11291 0
1000000 5418 9800 0
1000000 5419 9801 0
1000000 5420 11775 0
1000000 5421 11681 0
1000000 5422 10791 0
1000000 5423 10166 0
1000000 5424 9925 0
1000000 5425 11312 0
1000000 5426 10976 0
1000000 5427 9922 0
1000000 5428 11611 0
1000000 5429 10413 0
1000000 5430 10903 0
1000000 5431 11478 0
1000000 5432 11094 0
1000000 5433 11168 0
1000000 5434 11675 0
1000000 5435 11169 0
1000000 5436 9881 0
1000000 5437 10879 0
1000000 5438 10617 0
1000000 5439 11618 0
1000000 5440 10156 0
1000000 5441 9640 0
1000000 5442 11811 0
1000000 5443 9635 0
1000000 5444 11586 0
1000000 5445 9616 0
1000000 5446 9879 0
1000000 5447 10471 0
1000000 5448 11262 0
1000000 5449 11061 0
1000000 5450 10732 0
1000000 5451 9614 0
1000000 5452 11435 0
1000000 5453 11330 0
1000000 5454 11641 0
1000000 5455 11361 0
1000000 5456 10521 0
1000000 5457 10034 0
1000000 5458 11708 0
1000000 5459 10102 0
1000000 5460 11098 0
1000000 5461 11053 0
1000000 5462 11318 0
1000000 5463 11443 0
1000000 5464 11260 0
1000000 5465 11403 0
1000000 5466 11689 0
1000000 5467 10066 0
1000000 5468 10762 0
1000000 5469 10258 0
1000000 5470 11281 0
1000000 5471 10151 0
1000000 5472 9649 0
1000000 5473 11249 0
1000000 5474 9735 0
1000000 5475 11530 0
1000000 5476 11569 0
1000000 5477 10830 0
1000000 5478 10540 0
1000000 5479 10428 0
1000000 5480 9935 0
1000000 5481 10053 0
1000000 5482 11143 0
1000000 5483 11026 0
1000000 5484 11029 0
1000000 5485 10270 0
1000000 5486 11664 0
1000000 5487 10376 0
1000000 5488 11478 0
1000000 5489 10409 0
1000000 5490 11065 0
1000000 5491 11234 0
1000000 5492 9610 0
1000000 5493 11531 0
1000000 5494 11476 0
1000000 5495 10362 0
1000000 5496 10480 0
1000000 5497 9706 0
1000000 5498 10273 0
1000000 5499 9895 0
1000000 5500 10234 0
1000000 5501 9717 0
1000000 5502 9733 0
1000000 5503 11779 0
1000000 5504 9875 0
1000000 5505 10372 0
1000000 5506 10233 0
1000000 5507 10959 0
1000000 5508 9870 0
1000000 5509 11112 0
1000000 5510 10568 0
1000000 5511 11732 0
1000000 5512 9733 0
1000000 5513 10276 0
1000000 5514 10206 0
1000000 5515 9624 0
1000000 5516 10852 0
1000000 5517 11064 0
1000000 5518 10122 0
1000000 5519 10453 0
1000000 5520 10737 0
1000000 5521 10115 0
1000000 5522 10282 0
1000000 5523 11323 0
1000000 5524 9678 0
1000000 5525 10490 0
1000000 5526 10935 0
1000000 5527 11179 0
1000000 5528 10634 0
1000000 5529 10400 0
1000000 5530 9781 0
1000000 5531 10611 0
1000000 5532 11088 0
1000000 5533 10022 0
1000000 5534 11598 0
1000000 5535 9609 0
1000000 5536 9874 0
1000000 5537 10440 0
1000000 5538 10906 0
1000000 5539 11112 0
1000000 5540 10827 0
1000000 5541 10363 0
1000000 5542 9614 0
1000000 5543 9818 0
1000000 5544 9921 0
1000000 5545 10529 0
1000000 5546 9668 0
1000000 5547 11515 0
1000000 5548 10195 0
1000000 5549 11723 0
1000000 5550 11311 0
1000000 5551 10457 0
1000000 5552 9908 0
1000000 5553 9666 0
1000000 5554 10507 0
1000000 5555 10524 0
1000000 5556 11214 0
1000000 5557 9716 0
1000000 5558 10683 0
1000000 5559 11301 0
1000000 5560 10412 0
1000000 5561 10912 0
1000000 5562 10525 0
1000000 5563 10183 0
1000000 5564 11001 0
1000000 5565 9779 0
1000000 5566 10415 0
1000000 5567 10752 0
1000000 5568 11069 0
1000000 5569 11159 0
1000000 5570 11474 0
1000000 5571 9611 0
1000000 5572 11309 0
1000000 5573 10189 0
1000000 5574 9862 0
1000000 5575 10163 0
1000000 5576 10806 0
1000000 5577 10684 0
1000000 5578 11206 0
1000000 5579 9638 0
1000000 5580 10512 0
1000000 5581 10892 0
1000000 5582 11780 0
1000000 5583 11057 0
1000000 5584 9732 0
1000000 5585 9809 0
1000000 5586 10880 0
1000000 5587 10613 0
1000000 5588 11460 0
1000000 5589 10495 0
1000000 5590 10133 0
1000000 5591 11444 0
1000000 5592 9762 0
1000000 5593 10116 0
1000000 5594 10986 0
1000000 5595 10618 0
1000000 5596 10213 0
1000000 5597 11337 0
1000000 5598 11706 0
1000000 5599 10942 0
1000000 5600 9780 0
1000000 5601 11487 0
1000000 5602 9893 0
1000000 5603 11016 0
1000000 5604 10319 0
1000000 5605 11759 0
1000000 5606 10415 0
1000000 5607 11496 0
1000000 5608 10553 0
1000000 5609 10800 0
1000000 5610 10702 0
1000000 5611 11578 0
1000000 5612 10181 0
1000000 5613 10409 0
1000000 5614 11833 0
1000000 5615 10474 0
1000000 5616 11157 0
1000000 5617 10878 0
1000000 5618 11268 0
1000000 5619 9839 0
1000000 5620 11035 0
1000000 5621 10727 0
1000000 5622 9782 0
1000000 5623 10006 0
1000000 5624 10602 0
1000000 5625 10414 0
1000000 5626 10710 0
1000000 5627 11578 0
1000000 5628 10050 0
1000000 5629 11505 0
1000000 5630 10232 0
1000000 5631 10850 0
1000000 5632 11082 0
1000000 5633 10310 0
1000000 5634 11593 0
1000000 5635 11407 0
1000000 5636 10403 0
1000000 5637 11691 0
1000000 5638 11526 0
1000000 5639 11666 0
1000000 5640 10789 0
1000000 5641 11200 0
1000000 5642 11454 0
1000000 5643 11795 0
1000000 5644 9661 0
1000000 5645 10653 0
1000000 5646 10861 0
1000000 5647 11492 0
1000000 5648 10031 0
1000000 5649 11037 0
1000000 5650 11366 0
1000000 5651 11688 0
1000000 5652 11461 0
1000000 5653 10022 0
1000000 5654 9973 0
1000000 5655 10387 0
1000000 5656 10379 0
1000000 5657 9894 0
1000000 5658 10691 0
1000000 5659 11297 0
1000000 5660 10331 0
1000000 5661 11778 0
1000000 5662 10971 0
1000000 5663 9603 0
1000000 5664 11739 0
1000000 5665 11846 0
1000000 5666 10729 0
1000000 5667 10954 0
1000000 5668 10392 0
1000000 5669 10479 0
1000000 5670 10760 0
1000000 5671 11626 0
1000000 5672 11284 0
1000000 5673 9738 0
1000000 5674 10489 0
1000000 5675 11520 0
1000000 5676 10100 0
1000000 5677 10913 0
1000000 5678 10668 0
1000000 5679 10418 0
1000000 5680 10915 0
1000000 5681 10326 0
1000000 5682 11453 0
1000000 5683 9743 0
1000000 5684 9900 0
1000000 5685 11844 0
1000000 5686 10120 0
1000000 5687 9984 0
1000000 5688 10105 0
1000000 5689 11249 0
1000000 5690 10243 0
1000000 5691 10243 0
1000000 5692 10315 0
1000000 5693 11781 0
1000000 5694 11064 0
1000000 5695 9669 0
1000000 5696 10133 0
1000000 5697 11102 0
1000000 5698 10410 0
1000000 5699 11422 0
1000000 5700 11555 0
1000000 5701 10783 0
1000000 5702 11134 0
1000000 5703 9667 0
1000000 5704 11278 0
1000000 5705 10032 0
1000000 5706 11292 0
1000000 5707 10884 0
1000000 5708 10294 0
1000000 5709 10723 0
1000000 5710 9711 0
1000000 5711 11228 0
1000000 5712 9655 0
1000000 5713 11185 0
1000000 5714 11566 0
1000000 5715 10841 0
1000000 5716 11242 0
1000000 5717 11804 0
1000000 5718 10194 0
1000000 5719 10139 0
1000000 5720 11229 0
1000000 5721 10410 0
1000000 5722 10537 0
1000000 5723 10886 0
1000000 5724 10848 0
1000000 5725 10695 0
1000000 5726 10017 0
1000000 5727 11094 0
1000000 5728 10553 0
1000000 5729 11074 0
1000000 5730 11451 0
1000000 5731 9937 0
1000000 5732 9725 0
1000000 5733 11060 0
1000000 5734 11141 0
1000000 5735 10169 0
1000000 5736 10978 0
1000000 5737 10963 0
1000000 5738 9811 0
1000000 5739 9807 0
1000000 5740 11808 0
1000000 5741 10514 0
1000000 5742 11044 0
1000000 5743 11765 0
1000000 5744 9700 0
1000000 5745 11082 0
1000000 5746 10295 0
1000000 5747 11183 0
1000000 5748 9973 0
1000000 5749 10696 0
1000000 5750 11206 0
1000000 5751 10813 0
1000000 5752 11389 0
1000000 5753 9848 0
1000000 5754 11587 0
1000000 5755 11156 0
1000000 5756 10630 0
1000000 5757 10428 0
1000000 5758 11373 0
1000000 5759 11428 0
1000000 5760 9612 0
1000000 5761 11378 0
1000000 5762 10717 0
1000000 5763 10301 0
1000000 5764 10394 0
1000000 5765 9991 0
1000000 5766 9775 0
1000000 5767 11752 0
1000000 5768 10129 0
1000000 5769 10919 0
1000000 5770 10716 0
1000000 5771 10533 0
1000000 5772 10068 0
1000000 5773 9791 0
1000000 5774 10986 0
1000000 5775 10360 0
1000000 5776 11197 0
1000000 5777 9997 0
1000000 5778 11491 0
1000000 5779 11320 0
1000000 5780 11585 0
1000000 5781 11656 0
1000000 5782 11009 0
1000000 5783 11468 0
1000000 5784 10815 0
1000000 5785 11342 0
1000000 5786 11471 0
1000000 5787 11376 0
1000000 5788 10102 0
1000000 5789 11793 0
1000000 5790 10406 0
1000000 5791 11477 0
1000000 5792 11427 0
1000000 5793 11694 0
1000000 5794 11565 0
1000000 5795 11055 0
1000000 5796 10259 0
1000000 5797 10189 0
1000000 5798 11710 0
1000000 5799 10454 0
1000000 5800 11327 0
1000000 5801 11280 0
1000000 5802 10401 0
1000000 5803 11084 0
1000000 5804 10529 0
1000000 5805 10338 0
1000000 5806 10404 0
1000000 5807 9626 0
1000000 5808 10078 0
1000000 5809 10119 0
1000000 5810 11446 0
1000000 5811 11616 0
1000000 5812 10904 0
1000000 5813 10322 0
1000000 5814 10687 0
1000000 5815 9889 0
1000000 5816 10189 0
1000000 5817 10775 0
1000000 5818 10381 0
1000000 5819 11609 0
1000000 5820 10403 0
1000000 5821 10448 0
1000000 5822 9846 0
1000000 5823 11451 0
1000000 5824 10157 0
1000000 5825 10875 0
1000000 5826 10055 0
1000000 5827 10124 0
1000000 5828 11181 0
1000000 5829 9763 0
1000000 5830 10360 0
1000000 5831 10911 0
1000000 5832 10424 0
1000000 5833 11645 0
1000000 5834 10208 0
1000000 5835 10223 0
1000000 5836 10716 0
1000000 5837 10283 0
1000000 5838 10955 0
1000000 5839 11532 0
1000000 5840 10020 0
1000000 5841 11345 0
1000000 5842 11083 0
1000000 5843 11665 0
1000000 5844 10898 0
1000000 5845 11371 0
1000000 5846 10501 0
1000000 5847 11520 0
1000000 5848 10421 0
1000000 5849 11711 0
1000000 5850 10368 0
1000000 5851 11198 0
1000000 5852 9836 0
1000000 5853 10329 0
1000000 5854 10375 0
1000000 5855 10552 0
1000000 5856 9665 0
1000000 5857 11734 0
1000000 5858 11319 0
1000000 5859 10604 0
1000000 5860 10341 0
1000000 5861 11099 0
1000000 5862 11354 0
1000000 5863 10749 0
1000000 5864 11165 0
1000000 5865 10654 0
1000000 5866 10867 0
1000000 5867 11672 0
1000000 5868 10046 0
1000000 5869 10142 0
1000000 5870 10887 0
1000000 5871 11190 0
1000000 5872 10988 0
1000000 5873 10193 0
1000000 5874 11717 0
1000000 5875 10750 0
1000000 5876 9814 0
1000000 5877 10681 0
1000000 5878 9605 0
1000000 5879 9969 0
1000000 5880 10940 0
1000000 5881 11666 0
1000000 5882 9619 0
1000000 5883 10283 0
1000000 5884 10471 0
1000000 5885 11635 0
1000000 5886 10368 0
1000000 5887 11103 0
1000000 5888 10040 0
1000000 5889 10480 0
1000000 5890 10341 0
1000000 5891 11274 0
1000000 5892 10507 0
1000000 5893 9753 0
1000000 5894 11289 0
1000000 5895 11537 0
1000000 5896 10473 0
1000000 5897 9897 0
1000000 5898 11491 0
1000000 5899 10990 0
1000000 5900 10344 0
1000000 5901 10914 0
1000000 5902 9669 0
1000000 5903 10742 0
1000000 5904 9691 0
1000000 5905 11455 0
1000000 5906 11688 0
1000000 5907 11561 0
1000000 5908 11665 0
1000000 5909 11298 0
1000000 5910 10527 0
1000000 5911 10803 0
1000000 5912 10988 0
1000000 5913 10675 0
1000000 5914 9654 0
1000000 5915 11160 0
1000000 5916 10820 0
1000000 5917 9723 0
1000000 5918 11244 0
1000000 5919 11173 0
1000000 5920 11348 0
1000000 5921 9852 0
1000000 5922 11097 0
1000000 5923 11784 0
1000000 5924 11137 0
1000000 5925 11720 0
1000000 5926 10459 0
1000000 5927 11256 0
1000000 5928 11124 0
1000000 5929 11653 0
1000000 5930 11842 0
1000000 5931 11603 0
1000000 5932 11681 0
1000000 5933 11238 0
1000000 5934 11004 0
1000000 5935 11460 0
1000000 5936 11741 0
1000000 5937 11631 0
1000000 5938 11551 0
1000000 5939 11509 0
1000000 5940 10348 0
1000000 5941 9966 0
1000000 5942 10408 0
1000000 5943 11014 0
1000000 5944 9881 0
1000000 5945 10763 0
1000000 5946 10028 0
1000000 5947 10826 0
1000000 5948 11528 0
1000000 5949 9827 0
1000000 5950 10240 0
1000000 5951 11328 0
1000000 5952 11377 0
1000000 5953 10079 0
1000000 5954 10385 0
1000000 5955 11208 0
1000000 5956 11842 0
1000000 5957 10630 0
1000000 5958 9747 0
1000000 5959 11452 0
1000000 5960 11392 0
1000000 5961 10314 0
1000000 5962 10468 0
1000000 5963 11624 0
1000000 5964 9959 0
1000000 5965 10949 0
1000000 5966 11089 0
1000000 5967 11342 0
1000000 5968 10721 0
1000000 5969 10842 0
1000000 5970 10392 0
1000000 5971 9974 0
1000000 5972 10035 0
1000000 5973 10509 0
1000000 5974 11643 0
1000000 5975 9899 0
1000000 5976 11722 0
1000000 5977 10813 0
1000000 5978 10600 0
1000000 5979 10346 0
1000000 5980 10653 0
1000000 5981 9785 0
1000000 5982 11144 0
1000000 5983 11478 0
1000000 5984 10421 0
1000000 5985 11138 0
1000000 5986 11537 0
1000000 5987 9927 0
1000000 5988 9874 0
1000000 5989 9900 0
1000000 5990 10276 0
1000000 5991 10033 0
1000000 5992 11633 0
1000000 5993 11587 0
1000000 5994 9614 0
1000000 5995 10429 0
1000000 5996 10418 0
1000000 5997 10618 0
1000000 5998 10888 0
1000000 5999 10067 0
1000000 6000 9900 0
1000000 6001 11005 0
1000000 6002 10570 0
1000000 6003 11828 0
1000000 6004 10171 0
1000000 6005 11415 0
1000000 6006 11760 0
1000000 6007 11349 0
1000000 6008 10120 0
1000000 6009 9920 0
1000000 6010 11448 0
1000000 6011 11278 0
1000000 6012 11377 0
1000000 6013 10554 0
1000000 6014 10611 0
1000000 6015 10595 0
1000000 6016 9947 0
1000000 6017 10889 0
1000000 6018 10339 0
1000000 6019 11008 0
1000000 6020 10607 0
1000000 6021 9650 0
1000000 6022 9844 0
1000000 6023 11695 0
1000000 6024 11246 0
1000000 6025 9795 0
1000000 6026 9772 0
1000000 6027 9656 0
1000000 6028 9713 0
1000000 6029 11426 0
1000000 6030 9680 0
1000000 6031 11679 0
1000000 6032 9850 0
1000000 6033 11817 0
1000000 6034 10685 0
1000000 6035 11090 0
1000000 6036 11726 0
1000000 6037 10026 0
1000000 6038 11317 0
1000000 6039 10253 0
1000000 6040 10594 0
1000000 6041 9894 0
1000000 6042 10423 0
1000000 6043 11429 0
1000000 6044 10491 0
1000000 6045 9615 0
1000000 6046 10118 0
1000000 6047 10191 0
1000000 6048 10297 0
1000000 6049 11338 0
1000000 6050 10614 0
1000000 6051 11284 0
1000000 6052 9987 0
1000000 6053 11685 0
1000000 6054 10785 0
1000000 6055 10895 0
1000000 6056 10996 0
1000000 6057 10804 0
1000000 6058 10175 0
1000000 6059 11209 0
1000000 6060 11229 0
1000000 6061 9821 0
1000000 6062 10490 0
1000000 6063 11251 0
1000000 6064 9625 0
1000000 6065 10930 0
1000000 6066 11089 0
1000000 6067 10916 0
1000000 6068 10161 0
1000000 6069 9905 0
1000000 6070 11425 0
1000000 6071 10322 0
1000000 6072 9839 0
1000000 6073 10584 0
1000000 6074 11821 0
1000000 6075 11777 0
1000000 6076 9768 0
1000000 6077 11077 0
1000000 6078 9926 0
1000000 6079 9967 0
1000000 6080 9742 0
1000000 6081 10327 0
1000000 6082 10081 0
1000000 6083 10910 0
1000000 6084 11786 0
1000000 6085 10398 0
1000000 6086 10900 0
1000000 6087 11534 0
1000000 6088 10506 0
1000000 6089 9871 0
1000000 6090 11295 0
1000000 6091 11540 0
1000000 6092 9821 0
1000000 6093 10139 0
1000000 6094 10406 0
1000000 6095 9741 0
1000000 6096 10020 0
1000000 6097 10427 0
1000000 6098 11529 0
1000000 6099 10738 0
1000000 6100 10056 0
1000000 6101 11264 0
1000000 6102 10438 0
1000000 6103 11384 0
1000000 6104 10612 0
1000000 6105 11142 0
1000000 6106 10167 0
1000000 6107 10836 0
1000000 6108 10382 0
1000000 6109 10600 0
1000000 6110 10885 0
1000000 6111 11471 0
1000000 6112 9878 0
1000000 6113 11760 0
1000000 6114 11179 0
1000000 6115 11196 0
1000000 6116 11077 0
1000000 6117 9635 0
1000000 6118 10090 0
1000000 6119 11706 0
1000000 6120 9857 0
1000000 6121 11237 0
1000000 6122 10370 0
1000000 6123 11180 0
1000000 6124 10241 0
1000000 6125 10736 0
1000000 6126 10748 0
1000000 6127 11033 0
1000000 6128 10734 0
1000000 6129 10497 0
1000000 6130 10267 0
1000000 6131 10061 0
1000000 6132 9777 0
1000000 6133 9983 0
1000000 6134 9624 0
1000000 6135 10216 0
1000000 6136 11269 0
1000000 6137 9933 0
1000000 6138 11132 0
1000000 6139 9876 0
1000000 6140 10212 0
1000000 6141 10706 0
1000000 6142 10336 0
1000000 6143 10280 0
1000000 6144 10849 0
1000000 6145 10385 0
1000000 6146 11704 0
1000000 6147 10617 0
1000000 6148 9713 0
1000000 6149 11118 0
1000000 6150 10231 0
1000000 6151 10164 0
1000000 6152 11467 0
1000000 6153 11545 0
1000000 6154 11253 0
1000000 6155 9667 0
1000000 6156 10146 0
1000000 6157 10664 0
1000000 6158 10312 0
1000000 6159 11443 0
1000000 6160 10877 0
1000000 6161 9978 0
1000000 6162 10757 0
1000000 6163 10252 0
1000000 6164 10244 0
1000000 6165 11591 0
1000000 6166 10539 0
1000000 6167 9963 0
1000000 6168 10778 0
1000000 6169 11848 0
1000000 6170 10011 0
1000000 6171 11770 0
1000000 6172 10525 0
1000000 6173 10302 0
1000000 6174 11355 0
1000000 6175 11166 0
1000000 6176 11457 0
1000000 6177 11810 0
1000000 6178 10472 0
1000000 6179 11075 0
1000000 6180 11563 0
1000000 6181 11394 0
1000000 6182 10393 0
1000000 6183 10765 0
1000000 6184 10130 0
1000000 6185 10074 0
1000000 6186 10415 0
1000000 6187 11449 0
1000000 6188 11191 0
1000000 6189 10758 0
1000000 6190 9904 0
1000000 6191 10883 0
1000000 6192 9951 0
1000000 6193 11146 0
1000000 6194 11469 0
1000000 6195 9677 0
1000000 6196 11155 0
1000000 6197 11023 0
1000000 6198 11244 0
1000000 6199 9837 0
1000000 6200 11043 0
1000000 6201 10612 0
1000000 6202 10861 0
1000000 6203 10291 0
1000000 6204 10218 0
1000000 6205 11144 0
1000000 6206 10835 0
1000000 6207 11365 0
1000000 6208 11573 0
1000000 6209 11048 0
1000000 6210 11556 0
1000000 6211 10983 0
1000000 6212 9924 0
1000000 6213 11602 0
1000000 6214 11302 0
1000000 6215 10273 0
1000000 6216 10544 0
1000000 6217 10366 0
1000000 6218 10774 0
1000000 6219 9921 0
1000000 6220 10264 0
1000000 6221 10771 0
1000000 6222 10344 0
1000000 6223 11081 0
1000000 6224 10136 0
1000000 6225 10113 0
1000000 6226 9721 0
1000000 6227 11265 0
1000000 6228 11678 0
1000000 6229 11457 0
1000000 6230 10667 0
1000000 6231 11579 0
1000000 6232 10192 0
1000000 6233 10841 0
1000000 6234 11012 0
1000000 6235 10944 0
1000000 6236 11625 0
1000000 6237 10184 0
1000000 6238 10979 0
1000000 6239 10751 0
1000000 6240 11362 0
1000000 6241 11133 0
1000000 6242 10036 0
1000000 6243 10616 0
1000000 6244 11301 0
1000000 6245 10114 0
1000000 6246 9647 0
1000000 6247 11113 0
1000000 6248 10222 0
1000000 6249 10909 0
1000000 6250 10695 0
1000000 6251 11141 0
1000000 6252 11464 0
1000000 6253 10572 0
1000000 6254 10332 0
1000000 6255 10783 0
1000000 6256 11272 0
1000000 6257 10285 0
1000000 6258 10984 0
1000000 6259 10673 0
1000000 6260 11426 0
1000000 6261 11172 0
1000000 6262 11063 0
1000000 6263 11848 0
1000000 6264 10651 0
1000000 6265 9888 0
1000000 6266 9707 0
1000000 6267 10999 0
1000000 6268 10113 0
1000000 6269 9944 0
1000000 6270 11835 0
1000000 6271 9816 0
1000000 6272 11281 0
1000000 6273 11508 0
1000000 6274 10945 0
1000000 6275 11828 0
1000000 6276 10206 0
1000000 6277 9635 0
1000000 6278 11480 0
1000000 6279 11406 0
1000000 6280 10662 0
1000000 6281 9666 0
1000000 6282 11122 0
1000000 6283 11079 0
1000000 6284 9682 0
1000000 6285 11675 0
1000000 6286 10774 0
1000000 6287 11037 0
1000000 6288 10939 0
1000000 6289 9673 0
1000000 6290 11816 0
1000000 6291 11850 0
1000000 6292 10426 0
1000000 6293 10020 0
1000000 6294 10569 0
1000000 6295 9769 0
1000000 6296 11817 0
1000000 6297 11755 0
1000000 6298 9817 0
1000000 6299 10451 0
1000000 6300 10018 0
1000000 6301 10496 0
1000000 6302 9872 0
1000000 6303 10112 0
1000000 6304 9660 0
1000000 6305 11018 0
1000000 6306 9972 0
1000000 6307 10132 0
1000000 6308 10035 0
1000000 6309 10282 0
1000000 6310 10686 0
1000000 6311 9849 0
1000000 6312 11227 0
1000000 6313 9931 0
1000000 6314 10362 0
1000000 6315 10828 0
1000000 6316 10460 0
1000000 6317 11506 0
1000000 6318 9998 0
1000000 6319 10788 0
1000000 6320 10831 0
1000000 6321 10634 0
1000000 6322 10512 0
1000000 6323 11756 0
1000000 6324 11522 0
1000000 6325 10660 0
1000000 6326 9863 0
1000000 6327 10394 0
1000000 6328 9620 0
1000000 6329 10043 0
1000000 6330 11139 0
1000000 6331 10004 0
1000000 6332 10557 0
1000000 6333 10353 0
1000000 6334 11129 0
1000000 6335 10489 0
1000000 6336 11555 0
1000000 6337 9918 0
1000000 6338 11177 0
1000000 6339 10320 0
1000000 6340 11727 0
1000000 6341 9851 0
1000000 6342 10523 0
1000000 6343 10370 0
1000000 6344 9976 0
1000000 6345 10101 0
1000000 6346 11680 0
1000000 6347 9926 0
1000000 6348 11564 0
1000000 6349 9645 0
1000000 6350 10178 0
1000000 6351 10679 0
1000000 6352 11554 0
1000000 6353 9772 0
1000000 6354 9855 0
1000000 6355 10597 0
1000000 6356 10804 0
1000000 6357 10760 0
1000000 6358 10451 0
1000000 6359 10441 0
1000000 6360 9670 0
1000000 6361 11699 0
1000000 6362 10297 0
1000000 6363 11774 0
1000000 6364 11656 0
1000000 6365 11246 0
1000000 6366 11082 0
1000000 6367 11442 0
1000000 6368 11038 0
1000000 6369 9781 0
1000000 6370 11159 0
1000000 6371 11794 0
1000000 6372 11490 0
1000000 6373 10050 0
1000000 6374 11513 0
1000000 6375 10450 0
1000000 6376 10152 0
1000000 6377 10039 0
1000000 6378 9942 0
1000000 6379 10019 0
1000000 6380 11207 0
1000000 6381 10474 0
1000000 6382 10569 0
1000000 6383 11661 0
1000000 6384 10909 0
1000000 6385 10180 0
1000000 6386 10349 0
1000000 6387 11830 0
1000000 6388 10780 0
1000000 6389 10840 0
1000000 6390 9971 0
1000000 6391 9710 0
1000000 6392 11701 0
1000000 6393 9969 0
1000000 6394 11473 0
1000000 6395 10095 0
1000000 6396 9777 0
1000000 6397 10976 0
1000000 6398 10862 0
1000000 6399 11791 0
1000000 6400 11129 0
1000000 6401 10562 0
1000000 6402 10351 0
1000000 6403 10550 0
1000000 6404 9792 0
1000000 6405 10275 0
1000000 6406 11116 0
1000000 6407 11559 0
1000000 6408 10466 0
1000000 6409 10747 0
1000000 6410 9821 0
1000000 6411 10448 0
1000000 6412 11231 0
1000000 6413 11848 0
1000000 6414 11368 0
1000000 6415 10318 0
1000000 6416 9875 0
1000000 6417 11835 0
1000000 6418 11492 0
1000000 6419 11619 0
1000000 6420 10388 0
1000000 6421 11172 0
1000000 6422 9638 0
1000000 6423 10098 0
1000000 6424 10473 0
1000000 6425 9696 0
1000000 6426 10129 0
1000000 6427 9842 0
1000000 6428 10543 0
1000000 6429 10051 0
1000000 6430 10886 0
1000000 6431 9710 0
1000000 6432 9853 0
1000000 6433 11387 0
1000000 6434 11514 0
1000000 6435 11190 0
1000000 6436 11092 0
1000000 6437 10938 0
1000000 6438 10480 0
1000000 6439 11747 0
1000000 6440 10872 0
1000000 6441 11714 0
1000000 6442 11388 0
1000000 6443 10973 0
1000000 6444 10941 0
1000000 6445 10692 0
1000000 6446 10316 0
1000000 6447 10153 0
1000000 6448 10625 0
1000000 6449 11721 0
1000000 6450 10646 0
1000000 6451 10793 0
1000000 6452 11420 0
1000000 6453 11534 0
1000000 6454 9619 0
1000000 6455 10016 0
1000000 6456 10342 0
1000000 6457 10741 0
1000000 6458 11136 0
1000000 6459 10009 0
1000000 6460 11567 0
1000000 6461 10716 0
1000000 6462 10693 0
1000000 6463 11827 0
1000000 6464 11579 0
1000000 6465 11452 0
1000000 6466 11110 0
1000000 6467 9853 0
1000000 6468 11694 0
1000000 6469 10245 0
1000000 6470 11050 0
1000000 6471 10795 0
1000000 6472 11422 0
1000000 6473 10585 0
1000000 6474 11046 0
1000000 6475 10897 0
1000000 6476 9891 0
1000000 6477 11315 0
1000000 6478 11048 0
1000000 6479 10213 0
1000000 6480 11142 0
1000000 6481 11740 0
1000000 6482 10781 0
1000000 6483 9809 0
1000000 6484 11782 0
1000000 6485 10024 0
1000000 6486 11271 0
1000000 6487 10076 0
1000000 6488 11128 0
1000000 6489 11430 0
1000000 6490 10490 0
1000000 6491 10579 0
1000000 6492 10323 0
1000000 6493 10003 0
1000000 6494 10575 0
1000000 6495 9839 0
1000000 6496 10718 0
1000000 6497 11297 0
1000000 6498 10529 0
1000000 6499 11087 0
1000000 6500 11529 0
1000000 6501 10834 0
1000000 6502 10389 0
1000000 6503 11732 0
1000000 6504 11545 0
1000000 6505 10807 0
1000000 6506 11741 0
1000000 6507 11669 0
1000000 6508 9879 0
1000000 6509 10278 0
1000000 6510 9604 0
1000000 6511 10906 0
1000000 6512 11564 0
1000000 6513 10493 0
1000000 6514 10661 0
1000000 6515 11551 0
1000000 6516 11273 0
1000000 6517 10080 0
1000000 6518 10797 0
1000000 6519 10455 0
1000000 6520 10279 0
1000000 6521 9864 0
1000000 6522 10922 0
1000000 6523 10218 0
1000000 6524 9668 0
1000000 6525 11715 0
1000000 6526 10962 0
1000000 6527 10851 0
1000000 6528 10435 0
1000000 6529 11293 0
1000000 6530 11135 0
1000000 6531 10336 0
1000000 6532 11507 0
1000000 6533 11404 0
1000000 6534 10353 0
1000000 6535 11419 0
1000000 6536 9692 0
1000000 6537 10373 0
1000000 6538 10071 0
1000000 6539 10326 0
1000000 6540 9720 0
1000000 6541 11625 0
1000000 6542 9671 0
1000000 6543 11597 0
1000000 6544 11621 0
1000000 6545 10438 0
1000000 6546 11306 0
1000000 6547 11660 0
1000000 6548 10865 0
1000000 6549 10159 0
1000000 6550 11441 0
1000000 6551 11389 0
1000000 6552 9915 0
1000000 6553 10779 0
1000000 6554 11684 0
1000000 6555 11387 0
1000000 6556 10706 0
1000000 6557 10758 0
1000000 6558 10778 0
1000000 6559 10720 0
1000000 6560 11539 0
1000000 6561 10974 0
1000000 6562 9622 0
1000000 6563 11251 0
1000000 6564 9721 0
1000000 6565 11085 0
1000000 6566 11464 0
1000000 6567 9958 0
1000000 6568 10909 0
1000000 6569 9652 0
1000000 6570 11032 0
1000000 6571 11776 0
1000000 6572 11655 0
1000000 6573 10861 0
1000000 6574 11562 0
1000000 6575 9945 0
1000000 6576 10615 0
1000000 6577 11147 0
1000000 6578 10271 0
1000000 6579 11340 0
1000000 6580 10354 0
1000000 6581 9806 0
1000000 6582 10466 0
1000000 6583 11440 0
1000000 6584 11054 0
1000000 6585 9857 0
1000000 6586 11059 0
1000000 6587 9889 0
1000000 6588 10794 0
1000000 6589 10251 0
1000000 6590 9707 0
1000000 6591 11605 0
1000000 6592 11200 0
1000000 6593 11591 0
1000000 6594 9606 0
1000000 6595 10631 0
1000000 6596 10883 0
1000000 6597 9985 0
1000000 6598 10424 0
1000000 6599 10601 0
1000000 6600 10946 0
1000000 6601 11801 0
1000000 6602 10148 0
1000000 6603 11838 0
1000000 6604 10618 0
1000000 6605 11157 0
1000000 6606 11482 0
1000000 6607 10682 0
1000000 6608 9784 0
1000000 6609 10123 0
1000000 6610 10652 0
1000000 6611 9705 0
1000000 6612 11668 0
1000000 6613 10227 0
1000000 6614 11276 0
1000000 6615 10485 0
1000000 6616 10925 0
1000000 6617 11063 0
1000000 6618 11208 0
1000000 6619 9787 0
1000000 6620 9705 0
1000000 6621 11797 0
1000000 6622 9872 0
1000000 6623 11690 0
1000000 6624 10254 0
1000000 6625 11003 0
1000000 6626 11034 0
1000000 6627 10093 0
1000000 6628 10892 0
1000000 6629 11574 0
1000000 6630 10963 0
1000000 6631 11525 0
1000000 6632 11175 0
1000000 6633 10725 0
1000000 6634 10144 0
1000000 6635 11462 0
1000000 6636 9896 0
1000000 6637 10023 0
1000000 6638 10551 0
1000000 6639 11262 0
1000000 6640 10209 0
1000000 6641 10599 0
1000000 6642 9609 0
1000000 6643 11310 0
1000000 6644 10781 0
1000000 6645 10915 0
1000000 6646 10422 0
1000000 6647 10766 0
1000000 6648 11564 0
1000000 6649 10096 0
1000000 6650 10787 0
1000000 6651 11844 0
1000000 6652 11510 0
1000000 6653 9897 0
1000000 6654 9947 0
1000000 6655 11749 0
1000000 6656 10236 0
1000000 6657 10789 0
1000000 6658 10294 0
1000000 6659 9652 0
1000000 6660 11004 0
1000000 6661 9765 0
1000000 6662 11056 0
1000000 6663 11441 0
1000000 6664 10713 0
1000000 6665 11002 0
1000000 6666 11329 0
1000000 6667 11341 0
1000000 6668 9627 0
1000000 6669 9920 0
1000000 6670 10812 0
1000000 6671 9767 0
1000000 6672 10407 0
1000000 6673 10149 0
1000000 6674 11536 0
1000000 6675 11137 0
1000000 6676 10085 0
1000000 6677 10451 0
1000000 6678 11497 0
1000000 6679 10588 0
1000000 6680 9613 0
1000000 6681 11527 0
1000000 6682 11136 0
1000000 6683 10165 0
1000000 6684 11394 0
1000000 6685 11521 0
1000000 6686 11417 0
1000000 6687 11836 0
1000000 6688 10407 0
1000000 6689 9961 0
1000000 6690 10269 0
1000000 6691 10438 0
1000000 6692 9968 0
1000000 6693 11041 0
1000000 6694 10078 0
1000000 6695 11649 0
1000000 6696 9658 0
1000000 6697 11544 0
1000000 6698 10933 0
1000000 6699 10911 0
1000000 6700 10754 0
1000000 6701 10641 0
1000000 6702 11324 0
1000000 6703 11781 0
1000000 6704 10745 0
1000000 6705 10477 0
1000000 6706 10160 0
1000000 6707 10134 0
1000000 6708 11603 0
1000000 6709 10743 0
1000000 6710 10471 0
1000000 6711 10300 0
1000000 6712 9611 0
1000000 6713 11085 0
1000000 6714 10759 0
1000000 6715 10970 0
1000000 6716 11627 0
1000000 6717 11042 0
1000000 6718 10426 0
1000000 6719 11725 0
1000000 6720 11778 0
1000000 6721 9795 0
1000000 6722 10948 0
1000000 6723 10943 0
1000000 6724 11641 0
1000000 6725 9646 0
1000000 6726 10421 0
1000000 6727 11486 0
1000000 6728 11683 0
1000000 6729 11805 0
1000000 6730 9659 0
1000000 6731 10065 0
1000000 6732 11442 0
1000000 6733 11829 0
1000000 6734 11049 0
1000000 6735 9914 0
1000000 6736 10664 0
1000000 6737 11470 0
1000000 6738 9788 0
1000000 6739 11789 0
1000000 6740 11230 0
1000000 6741 10142 0
1000000 6742 10005 0
1000000 6743 10165 0
1000000 6744 11267 0
1000000 6745 9697 0
1000000 6746 11583 0
1000000 6747 10760 0
1000000 6748 9691 0
1000000 6749 11830 0
1000000 6750 11490 0
1000000 6751 11717 0
1000000 6752 9623 0
1000000 6753 11393 0
1000000 6754 9911 0
1000000 6755 11714 0
1000000 6756 10960 0
1000000 6757 10816 0
1000000 6758 9780 0
1000000 6759 10638 0
1000000 6760 11357 0
1000000 6761 11454 0
1000000 6762 10487 0
1000000 6763 11543 0
1000000 6764 10680 0
1000000 6765 9718 0
1000000 6766 10804 0
1000000 6767 10154 0
1000000 6768 11319 0
1000000 6769 9812 0
1000000 6770 11311 0
1000000 6771 10642 0
1000000 6772 10953 0
1000000 6773 10526 0
1000000 6774 11659 0
1000000 6775 10580 0
1000000 6776 10652 0
1000000 6777 10485 0
1000000 6778 10992 0
1000000 6779 10461 0
1000000 6780 11510 0
1000000 6781 11414 0
1000000 6782 9946 0
1000000 6783 11151 0
1000000 6784 10322 0
1000000 6785 10688 0
1000000 6786 10537 0
1000000 6787 11742 0
1000000 6788 11767 0
1000000 6789 11716 0
1000000 6790 11477 0
1000000 6791 9686 0
1000000 6792 10049 0
1000000 6793 10967 0
1000000 6794 10367 0
1000000 6795 10053 0
1000000 6796 10640 0
1000000 6797 10084 0
1000000 6798 9843 0
1000000 6799 10138 0
1000000 6800 10578 0
1000000 6801 10446 0
1000000 6802 9964 0
1000000 6803 10563 0
1000000 6804 9826 0
1000000 6805 10057 0
1000000 6806 10183 0
1000000 6807 10718 0
1000000 6808 10537 0
1000000 6809 11207 0
1000000 6810 11313 0
1000000 6811 9825 0
1000000 6812 11027 0
1000000 6813 9860 0
1000000 6814 10891 0
1000000 6815 9985 0
1000000 6816 9774 0
1000000 6817 11344 0
1000000 6818 9789 0
1000000 6819 9783 0
1000000 6820 11582 0
1000000 6821 11228 0
1000000 6822 10355 0
1000000 6823 9813 0
1000000 6824 11146 0
1000000 6825 10296 0
1000000 6826 11664 0
1000000 6827 11142 0
1000000 6828 10625 0
1000000 6829 9615 0
1000000 6830 9804 0
1000000 6831 10129 0
1000000 6832 11574 0
1000000 6833 11220 0
1000000 6834 9860 0
1000000 6835 10989 0
1000000 6836 11606 0
1000000 6837 11395 0
1000000 6838 9835 0
1000000 6839 11333 0
1000000 6840 9836 0
1000000 6841 9765 0
1000000 6842 10947 0
1000000 6843 10038 0
1000000 6844 10197 0
1000000 6845 11744 0
1000000 6846 10886 0
1000000 6847 10659 0
1000000 6848 10441 0
1000000 6849 10503 0
1000000 6850 10971 0
1000000 6851 10201 0
1000000 6852 10499 0
1000000 6853 10931 0
1000000 6854 9808 0
1000000 6855 10890 0
1000000 6856 10154 0
1000000 6857 10075 0
1000000 6858 10983 0
1000000 6859 10432 0
1000000 6860 10873 0
1000000 6861 11360 0
1000000 6862 11240 0
1000000 6863 10578 0
1000000 6864 10021 0
1000000 6865 11519 0
1000000 6866 11534 0
1000000 6867 10151 0
1000000 6868 10860 0
1000000 6869 10863 0
1000000 6870 11172 0
1000000 6871 9751 0
1000000 6872 9938 0
1000000 6873 11458 0
1000000 6874 10515 0
1000000 6875 11795 0
1000000 6876 11757 0
1000000 6877 10715 0
1000000 6878 11122 0
1000000 6879 9722 0
1000000 6880 9859 0
1000000 6881 9898 0
1000000 6882 10911 0
1000000 6883 10228 0
1000000 6884 10054 0
1000000 6885 11513 0
1000000 6886 10866 0
1000000 6887 10557 0
1000000 6888 11617 0
1000000 6889 10347 0
1000000 6890 9844 0
1000000 6891 10115 0
1000000 6892 11768 0
1000000 6893 11678 0
1000000 6894 9745 0
1000000 6895 10088 0
1000000 6896 10134 0
1000000 6897 11556 0
1000000 6898 11822 0
1000000 6899 10591 0
1000000 6900 11761 0
1000000 6901 11502 0
1000000 6902 10328 0
1000000 6903 11470 0
1000000 6904 10132 0
1000000 6905 11294 0
1000000 6906 10628 0
1000000 6907 9675 0
1000000 6908 9867 0
1000000 6909 11469 0
1000000 6910 9906 0
1000000 6911 10562 0
1000000 6912 10744 0
1000000 6913 11197 0
1000000 6914 10174 0
1000000 6915 11108 0
1000000 6916 9684 0
1000000 6917 10672 0
1000000 6918 11772 0
1000000 6919 11814 0
1000000 6920 10838 0
1000000 6921 11031 0
1000000 6922 10562 0
1000000 6923 11114 0
1000000 6924 11348 0
1000000 6925 9932 0
1000000 6926 11178 0
1000000 6927 10316 0
1000000 6928 10547 0
1000000 6929 9789 0
1000000 6930 11786 0
1000000 6931 10514 0
1000000 6932 10539 0
1000000 6933 10833 0
1000000 6934 10298 0
1000000 6935 11356 0
1000000 6936 11020 0
1000000 6937 10063 0
1000000 6938 10524 0
1000000 6939 10333 0
1000000 6940 11676 0
1000000 6941 10901 0
1000000 6942 10394 0
1000000 6943 11083 0
1000000 6944 10078 0
1000000 6945 9904 0
1000000 6946 10090 0
1000000 6947 9962 0
1000000 6948 11381 0
1000000 6949 10312 0
1000000 6950 11450 0
1000000 6951 9916 0
1000000 6952 10443 0
1000000 6953 10876 0
1000000 6954 10531 0
1000000 6955 9837 0
1000000 6956 9854 0
1000000 6957 10619 0
1000000 6958 11093 0
1000000 6959 11800 0
1000000 6960 9643 0
1000000 6961 10844 0
1000000 6962 10292 0
1000000 6963 11299 0
1000000 6964 10608 0
1000000 6965 10397 0
1000000 6966 11248 0
1000000 6967 11108 0
1000000 6968 10444 0
1000000 6969 10721 0
1000000 6970 10682 0
1000000 6971 11418 0
1000000 6972 10989 0
1000000 6973 9699 0
1000000 6974 10696 0
1000000 6975 9968 0
1000000 6976 10042 0
1000000 6977 10671 0
1000000 6978 10773 0
1000000 6979 9665 0
1000000 6980 11775 0
1000000 6981 11021 0
1000000 6982 10686 0
1000000 6983 11139 0
1000000 6984 10995 0
1000000 6985 11836 0
1000000 6986 10525 0
1000000 6987 11727 0
1000000 6988 10255 0
1000000 6989 10866 0
1000000 6990 9936 0
1000000 6991 10556 0
1000000 6992 10796 0
1000000 6993 10984 0
1000000 6994 10612 0
1000000 6995 11367 0
1000000 6996 11287 0
1000000 6997 11009 0
1000000 6998 11475 0
1000000 6999 11253 0
1000000 7000 11437 0
1000000 7001 9841 0
1000000 7002 9735 0
1000000 7003 10268 0
1000000 7004 10121 0
1000000 7005 10662 0
1000000 7006 11381 0
1000000 7007 10345 0
1000000 7008 11592 0
1000000 7009 10552 0
1000000 7010 10080 0
1000000 7011 11705 0
1000000 7012 11104 0
1000000 7013 10459 0
1000000 7014 10034 0
1000000 7015 11689 0
1000000 7016 11438 0
1000000 7017 10235 0
1000000 7018 11234 0
1000000 7019 11841 0
1000000 7020 11660 0
1000000 7021 9970 0
1000000 7022 9746 0
1000000 7023 9779 0
1000000 7024 11443 0
1000000 7025 10364 0
1000000 7026 11730 0
1000000 7027 9695 0
1000000 7028 9970 0
1000000 7029 10274 0
1000000 7030 10908 0
1000000 7031 11723 0
1000000 7032 11663 0
1000000 7033 10725 0
1000000 7034 11847 0
1000000 7035 11714 0
1000000 7036 9942 0
1000000 7037 10759 0
1000000 7038 10500 0
1000000 7039 10615 0
1000000 7040 10481 0
1000000 7041 11359 0
1000000 7042 10125 0
1000000 7043 10181 0
1000000 7044 9793 0
1000000 7045 11850 0
1000000 7046 11547 0
1000000 7047 10519 0
1000000 7048 10727 0
1000000 7049 11758 0
1000000 7050 10443 0
1000000 7051 10194 0
1000000 7052 9620 0
1000000 7053 10845 0
1000000 7054 11321 0
1000000 7055 9850 0
1000000 7056 11385 0
1000000 7057 10331 0
1000000 7058 10148 0
1000000 7059 11728 0
1000000 7060 11847 0
1000000 7061 11123 0
1000000 7062 10429 0
1000000 7063 10526 0
1000000 7064 11039 0
1000000 7065 9823 0
1000000 7066 10985 0
1000000 7067 9908 0
1000000 7068 11335 0
1000000 7069 11573 0
1000000 7070 9956 0
1000000 7071 10925 0
1000000 7072 9629 0
1000000 7073 9805 0
1000000 7074 11359 0
1000000 7075 9941 0
1000000 7076 9745 0
1000000 7077 11626 0
1000000 7078 11792 0
1000000 7079 10476 0
1000000 7080 11052 0
1000000 7081 9856 0
1000000 7082 10607 0
1000000 7083 11577 0
1000000 7084 10284 0
1000000 7085 9857 0
1000000 7086 9946 0
1000000 7087 11232 0
1000000 7088 11160 0
1000000 7089 10028 0
1000000 7090 10516 0
1000000 7091 11166 0
1000000 7092 11019 0
1000000 7093 10478 0
1000000 7094 11816 0
1000000 7095 10422 0
1000000 7096 10077 0
1000000 7097 11623 0
1000000 7098 11137 0
1000000 7099 11454 0
1000000 7100 11684 0
1000000 7101 11431 0
1000000 7102 10023 0
1000000 7103 11001 0
1000000 7104 9849 0
1000000 7105 10519 0
1000000 7106 10522 0
1000000 7107 10871 0
1000000 7108 11458 0
1000000 7109 10810 0
1000000 7110 11295 0
1000000 7111 9678 0
1000000 7112 10596 0
1000000 7113 10433 0
1000000 7114 11425 0
1000000 7115 11768 0
1000000 7116 9883 0
1000000 7117 9653 0
1000000 7118 9727 0
1000000 7119 11101 0
1000000 7120 10837 0
1000000 7121 11204 0
1000000 7122 11390 0
1000000 7123 11809 0
1000000 7124 10064 0
1000000 7125 9789 0
1000000 7126 11746 0
1000000 7127 10168 0
1000000 7128 9763 0
1000000 7129 11010 0
1000000 7130 11652 0
1000000 7131 11445 0
1000000 7132 11004 0
1000000 7133 9714 0
1000000 7134 11101 0
1000000 7135 10870 0
1000000 7136 10200 0
1000000 7137 10350 0
1000000 7138 10021 0
1000000 7139 9798 0
1000000 7140 10907 0
1000000 7141 11248 0
1000000 7142 10665 0
1000000 7143 10255 0
1000000 7144 9961 0
1000000 7145 11205 0
1000000 7146 11750 0
1000000 7147 10770 0
1000000 7148 9707 0
1000000 7149 9936 0
1000000 7150 11000 0
1000000 7151 10816 0
1000000 7152 9999 0
1000000 7153 10354 0
1000000 7154 11173 0
1000000 7155 11015 0
1000000 7156 11009 0
1000000 7157 10442 0
1000000 7158 10855 0
1000000 7159 11362 0
1000000 7160 10334 0
1000000 7161 11226 0
1000000 7162 10605 0
1000000 7163 10187 0
1000000 7164 11068 0
1000000 7165 11059 0
1000000 7166 10593 0
1000000 7167 10798 0
1000000 7168 9619 0
1000000 7169 10502 0
1000000 7170 10985 0
1000000 7171 11608 0
1000000 7172 10110 0
1000000 7173 11800 0
1000000 7174 11489 0
1000000 7175 11833 0
1000000 7176 11667 0
1000000 7177 11379 0
1000000 7178 10067 0
1000000 7179 10141 0
1000000 7180 10590 0
1000000 7181 9681 0
1000000 7182 11694 0
1000000 7183 11533 0
1000000 7184 10168 0
1000000 7185 10847 0
1000000 7186 10159 0
1000000 7187 10282 0
1000000 7188 11785 0
1000000 7189 10332 0
1000000 7190 10859 0
1000000 7191 11699 0
1000000 7192 10428 0
1000000 7193 10270 0
1000000 7194 11037 0
1000000 7195 11632 0
1000000 7196 10582 0
1000000 7197 11375 0
1000000 7198 10301 0
1000000 7199 11277 0
1000000 7200 10975 0
1000000 7201 10906 0
1000000 7202 11763 0
1000000 7203 10250 0
1000000 7204 10136 0
1000000 7205 11194 0
1000000 7206 11134 0
1000000 7207 10176 0
1000000 7208 10543 0
1000000 7209 11024 0
1000000 7210 10868 0
1000000 7211 10936 0
1000000 7212 10111 0
1000000 7213 11436 0
1000000 7214 11830 0
1000000 7215 9794 0
1000000 7216 10099 0
1000000 7217 10287 0
1000000 7218 10262 0
1000000 7219 11839 0
1000000 7220 10956 0
1000000 7221 11120 0
1000000 7222 9670 0
1000000 7223 11724 0
1000000 7224 10592 0
1000000 7225 10204 0
1000000 7226 11692 0
1000000 7227 10816 0
1000000 7228 9838 0
1000000 7229 11084 0
1000000 7230 11421 0
1000000 7231 11231 0
1000000 7232 9754 0
1000000 7233 11535 0
1000000 7234 10453 0
1000000 7235 11843 0
1000000 7236 11447 0
1000000 7237 11625 0
1000000 7238 11242 0
1000000 7239 10096 0
1000000 7240 9874 0
1000000 7241 11381 0
1000000 7242 11746 0
1000000 7243 10258 0
1000000 7244 9675 0
1000000 7245 10576 0
1000000 7246 10704 0
1000000 7247 10235 0
1000000 7248 10984 0
1000000 7249 10281 0
1000000 7250 9831 0
1000000 7251 11028 0
1000000 7252 11383 0
1000000 7253 9924 0
1000000 7254 9926 0
1000000 7255 11174 0
1000000 7256 11657 0
1000000 7257 11096 0
1000000 7258 10878 0
1000000 7259 11325 0
1000000 7260 10092 0
1000000 7261 10310 0
1000000 7262 10488 0
1000000 7263 9975 0
1000000 7264 10026 0
1000000 7265 9751 0
1000000 7266 9735 0
1000000 7267 10194 0
1000000 7268 10308 0
1000000 7269 11184 0
1000000 7270 10937 0
1000000 7271 10837 0
1000000 7272 9778 0
1000000 7273 10726 0
1000000 7274 10931 0
1000000 7275 10903 0
1000000 7276 10225 0
1000000 7277 10522 0
1000000 7278 11509 0
1000000 7279 9627 0
1000000 7280 10528 0
1000000 7281 10720 0
1000000 7282 11436 0
1000000 7283 10493 0
1000000 7284 11237 0
1000000 7285 10402 0
1000000 7286 10183 0
1000000 7287 10829 0
1000000 7288 9902 0
1000000 7289 10296 0
1000000 7290 9734 0
1000000 7291 10153 0
1000000 7292 10359 0
1000000 7293 10303 0
1000000 7294 10510 0
1000000 7295 10422 0
1000000 7296 11799 0
1000000 7297 11654 0
1000000 7298 10657 0
1000000 7299 10531 0
1000000 7300 11650 0
1000000 7301 9722 0
1000000 7302 10755 0
1000000 7303 9913 0
1000000 7304 10599 0
1000000 7305 10633 0
1000000 7306 9656 0
1000000 7307 11823 0
1000000 7308 10566 0
1000000 7309 9912 0
1000000 7310 11396 0
1000000 7311 10839 0
1000000 7312 11252 0
1000000 7313 11122 0
1000000 7314 11733 0
1000000 7315 10563 0
1000000 7316 10290 0
1000000 7317 10416 0
1000000 7318 9802 0
1000000 7319 11360 0
1000000 7320 9712 0
1000000 7321 10761 0
1000000 7322 10138 0
1000000 7323 10907 0
1000000 7324 10135 0
1000000 7325 11820 0
1000000 7326 10709 0
1000000 7327 11283 0
1000000 7328 10412 0
1000000 7329 10221 0
1000000 7330 11507 0
1000000 7331 10818 0
1000000 7332 10100 0
1000000 7333 11686 0
1000000 7334 10197 0
1000000 7335 9738 0
1000000 7336 10030 0
1000000 7337 9636 0
1000000 7338 10459 0
1000000 7339 11224 0
1000000 7340 9910 0
1000000 7341 10802 0
1000000 7342 11123 0
1000000 7343 10339 0
1000000 7344 11212 0
1000000 7345 10688 0
1000000 7346 10801 0
1000000 7347 10370 0
1000000 7348 10411 0
1000000 7349 11439 0
1000000 7350 9685 0
1000000 7351 9706 0
1000000 7352 10242 0
1000000 7353 10728 0
1000000 7354 10636 0
1000000 7355 11807 0
1000000 7356 9634 0
1000000 7357 9820 0
1000000 7358 10214 0
1000000 7359 11583 0
1000000 7360 11621 0
1000000 7361 11806 0
1000000 7362 11088 0
1000000 7363 11358 0
1000000 7364 9633 0
1000000 7365 10127 0
1000000 7366 11845 0
1000000 7367 11641 0
1000000 7368 10277 0
1000000 7369 11702 0
1000000 7370 10331 0
1000000 7371 11788 0
1000000 7372 10586 0
1000000 7373 10179 0
1000000 7374 10018 0
1000000 7375 10769 0
1000000 7376 11488 0
1000000 7377 10606 0
1000000 7378 11385 0
1000000 7379 10901 0
1000000 7380 10430 0
1000000 7381 11697 0
1000000 7382 9686 0
1000000 7383 10676 0
1000000 7384 11479 0
1000000 7385 9743 0
1000000 7386 10431 0
1000000 7387 11640 0
1000000 7388 10619 0
1000000 7389 10547 0
1000000 7390 10553 0
1000000 7391 10306 0
1000000 7392 10866 0
1000000 7393 10492 0
1000000 7394 10029 0
1000000 7395 9846 0
1000000 7396 10056 0
1000000 7397 11676 0
1000000 7398 10114 0
1000000 7399 9652 0
1000000 7400 11216 0
1000000 7401 10012 0
1000000 7402 9810 0
1000000 7403 11432 0
1000000 7404 11067 0
1000000 7405 10377 0
1000000 7406 11051 0
1000000 7407 11365 0
1000000 7408 11039 0
1000000 7409 10173 0
1000000 7410 10597 0
1000000 7411 9791 0
1000000 7412 9880 0
1000000 7413 11271 0
1000000 7414 11558 0
1000000 7415 10555 0
1000000 7416 11288 0
1000000 7417 10085 0
1000000 7418 9685 0
1000000 7419 10712 0
1000000 7420 10660 0
1000000 7421 10245 0
1000000 7422 9890 0
1000000 7423 9658 0
1000000 7424 10650 0
1000000 7425 10173 0
1000000 7426 11254 0
1000000 7427 11645 0
1000000 7428 10058 0
1000000 7429 10024 0
1000000 7430 10123 0
1000000 7431 10742 0
1000000 7432 10651 0
1000000 7433 11731 0
1000000 7434 10186 0
1000000 7435 11073 0
1000000 7436 9939 0
1000000 7437 10635 0
1000000 7438 9671 0
1000000 7439 9907 0
1000000 7440 10384 0
1000000 7441 11829 0
1000000 7442 10034 0
1000000 7443 10186 0
1000000 7444 11449 0
1000000 7445 11817 0
1000000 7446 9998 0
1000000 7447 10936 0
1000000 7448 10545 0
1000000 7449 10776 0
1000000 7450 11136 0
1000000 7451 10177 0
1000000 7452 10784 0
1000000 7453 10442 0
1000000 7454 10824 0
1000000 7455 11643 0
1000000 7456 10892 0
1000000 7457 11595 0
1000000 7458 11821 0
1000000 7459 11550 0
1000000 7460 9701 0
1000000 7461 10874 0
1000000 7462 9624 0
1000000 7463 10940 0
1000000 7464 9835 0
1000000 7465 11215 0
1000000 7466 10026 0
1000000 7467 9953 0
1000000 7468 11162 0
1000000 7469 9886 0
1000000 7470 9997 0
1000000 7471 10730 0
1000000 7472 11236 0
1000000 7473 9825 0
1000000 7474 10359 0
1000000 7475 10329 0
1000000 7476 11538 0
1000000 7477 9984 0
1000000 7478 11164 0
1000000 7479 9631 0
1000000 7480 9733 0
1000000 7481 9739 0
1000000 7482 11536 0
1000000 7483 11485 0
1000000 7484 10143 0
1000000 7485 10827 0
1000000 7486 11517 0
1000000 7487 10378 0
1000000 7488 11533 0
1000000 7489 10243 0
1000000 7490 10326 0
1000000 7491 11238 0
1000000 7492 10587 0
1000000 7493 11713 0
1000000 7494 11094 0
1000000 7495 10526 0
1000000 7496 10158 0
1000000 7497 10260 0
1000000 7498 10903 0
1000000 7499 10957 0
1000000 7500 10794 0
1000000 7501 11695 0
1000000 7502 11557 0
1000000 7503 9928 0
1000000 7504 10955 0
1000000 7505 10383 0
1000000 7506 11364 0
1000000 7507 10314 0
1000000 7508 11504 0
1000000 7509 10542 0
1000000 7510 9993 0
1000000 7511 10677 0
1000000 7512 9930 0
1000000 7513 10143 0
1000000 7514 10265 0
1000000 7515 10905 0
1000000 7516 9613 0
1000000 7517 11683 0
1000000 7518 10465 0
1000000 7519 9948 0
1000000 7520 11730 0
1000000 7521 10491 0
1000000 7522 10111 0
1000000 7523 11222 0
1000000 7524 11093 0
1000000 7525 10722 0
1000000 7526 11519 0
1000000 7527 9908 0
1000000 7528 11794 0
1000000 7529 11408 0
1000000 7530 11801 0
1000000 7531 11575 0
1000000 7532 9648 0
1000000 7533 11022 0
1000000 7534 10166 0
1000000 7535 10333 0
1000000 7536 10314 0
1000000 7537 10723 0
1000000 7538 10945 0
1000000 7539 11510 0
1000000 7540 11350 0
1000000 7541 10351 0
1000000 7542 10369 0
1000000 7543 9656 0
1000000 7544 11501 0
1000000 7545 11322 0
1000000 7546 10250 0
1000000 7547 10590 0
1000000 7548 10005 0
1000000 7549 11476 0
1000000 7550 10366 0
1000000 7551 10015 0
1000000 7552 11168 0
1000000 7553 11671 0
1000000 7554 11340 0
1000000 7555 11576 0
1000000 7556 11389 0
1000000 7557 11846 0
1000000 7558 11698 0
1000000 7559 11102 0
1000000 7560 11453 0
1000000 7561 10677 0
1000000 7562 11742 0
1000000 7563 9676 0
1000000 7564 11764 0
1000000 7565 10321 0
1000000 7566 11061 0
1000000 7567 10645 0
1000000 7568 11401 0
1000000 7569 11560 0
1000000 7570 9681 0
1000000 7571 11179 0
1000000 7572 10981 0
1000000 7573 9858 0
1000000 7574 11031 0
1000000 7575 11407 0
1000000 7576 10520 0
1000000 7577 9818 0
1000000 7578 10091 0
1000000 7579 11231 0
1000000 7580 11439 0
1000000 7581 11611 0
1000000 7582 10656 0
1000000 7583 9797 0
1000000 7584 11150 0
1000000 7585 9827 0
1000000 7586 10333 0
1000000 7587 10517 0
1000000 7588 9719 0
1000000 7589 10430 0
1000000 7590 10131 0
1000000 7591 10951 0
1000000 7592 11053 0
1000000 7593 10847 0
1000000 7594 10916 0
1000000 7595 11176 0
1000000 7596 11494 0
1000000 7597 9730 0
1000000 7598 10396 0
1000000 7599 11458 0
1000000 7600 11577 0
1000000 7601 10367 0
1000000 7602 10755 0
1000000 7603 9960 0
1000000 7604 10431 0
1000000 7605 11189 0
1000000 7606 11066 0
1000000 7607 10994 0
1000000 7608 11786 0
1000000 7609 10880 0
1000000 7610 11473 0
1000000 7611 10244 0
1000000 7612 9682 0
1000000 7613 11344 0
1000000 7614 10192 0
1000000 7615 10351 0
1000000 7616 11048 0
1000000 7617 10025 0
1000000 7618 9709 0
1000000 7619 11039 0
1000000 7620 11281 0
1000000 7621 9690 0
1000000 7622 10215 0
1000000 7623 10000 0
1000000 7624 11377 0
1000000 7625 11614 0
1000000 7626 10064 0
1000000 7627 11350 0
1000000 7628 9976 0
1000000 7629 9835 0
1000000 7630 11113 0
1000000 7631 11570 0
1000000 7632 10303 0
1000000 7633 11097 0
1000000 7634 11687 0
1000000 7635 11304 0
1000000 7636 11334 0
1000000 7637 11455 0
1000000 7638 10626 0
1000000 7639 9688 0
1000000 7640 10238 0
1000000 7641 10573 0
1000000 7642 10912 0
1000000 7643 10147 0
1000000 7644 10592 0
1000000 7645 11520 0
1000000 7646 11716 0
1000000 7647 9828 0
1000000 7648 10517 0
1000000 7649 9799 0
1000000 7650 10442 0
1000000 7651 9899 0
1000000 7652 11568 0
1000000 7653 11290 0
1000000 7654 9691 0
1000000 7655 10316 0
1000000 7656 9914 0
1000000 7657 10518 0
1000000 7658 11416 0
1000000 7659 11691 0
1000000 7660 9774 0
1000000 7661 10518 0
1000000 7662 11233 0
1000000 7663 11490 0
1000000 7664 10172 0
1000000 7665 9979 0
1000000 7666 10966 0
1000000 7667 10352 0
1000000 7668 11628 0
1000000 7669 9897 0
1000000 7670 11322 0
1000000 7671 10249 0
1000000 7672 10705 0
1000000 7673 11247 0
1000000 7674 9860 0
1000000 7675 11310 0
1000000 7676 11803 0
1000000 7677 11441 0
1000000 7678 10574 0
1000000 7679 10734 0
1000000 7680 9765 0
1000000 7681 11239 0
1000000 7682 11561 0
1000000 7683 11363 0
1000000 7684 10747 0
1000000 7685 10921 0
1000000 7686 10037 0
1000000 7687 11013 0
1000000 7688 11741 0
1000000 7689 10500 0
1000000 7690 11744 0
1000000 7691 9915 0
1000000 7692 11832 0
1000000 7693 10052 0
1000000 7694 11619 0
1000000 7695 11465 0
1000000 7696 9715 0
1000000 7697 11391 0
1000000 7698 9702 0
1000000 7699 9822 0
1000000 7700 10513 0
1000000 7701 11693 0
1000000 7702 11184 0
1000000 7703 11494 0
1000000 7704 11020 0
1000000 7705 9748 0
1000000 7706 10273 0
1000000 7707 10196 0
1000000 7708 9907 0
1000000 7709 9604 0
1000000 7710 11718 0
1000000 7711 10581 0
1000000 7712 11280 0
1000000 7713 10699 0
1000000 7714 10207 0
1000000 7715 10033 0
1000000 7716 9690 0
1000000 7717 9747 0
1000000 7718 10047 0
1000000 7719 10240 0
1000000 7720 11329 0
1000000 7721 11760 0
1000000 7722 11539 0
1000000 7723 9721 0
1000000 7724 10520 0
1000000 7725 11459 0
1000000 7726 10238 0
1000000 7727 10545 0
1000000 7728 10993 0
1000000 7729 10659 0
1000000 7730 10501 0
1000000 7731 10551 0
1000000 7732 9971 0
1000000 7733 9996 0
1000000 7734 10465 0
1000000 7735 10691 0
1000000 7736 10321 0
1000000 7737 11370 0
1000000 7738 9873 0
1000000 7739 11318 0
1000000 7740 11036 0
1000000 7741 11466 0
1000000 7742 9829 0
1000000 7743 10964 0
1000000 7744 9617 0
1000000 7745 10464 0
1000000 7746 10178 0
1000000 7747 9674 0
1000000 7748 10528 0
1000000 7749 11824 0
1000000 7750 11547 0
1000000 7751 10126 0
1000000 7752 11767 0
1000000 7753 9937 0
1000000 7754 10668 0
1000000 7755 9872 0
1000000 7756 10073 0
1000000 7757 10141 0
1000000 7758 11161 0
1000000 7759 11247 0
1000000 7760 9925 0
1000000 7761 10621 0
1000000 7762 10689 0
1000000 7763 11538 0
1000000 7764 10224 0
1000000 7765 11636 0
1000000 7766 10729 0
1000000 7767 10059 0
1000000 7768 9622 0
1000000 7769 11187 0
1000000 7770 10234 0
1000000 7771 9709 0
1000000 7772 11484 0
1000000 7773 9760 0
1000000 7774 9628 0
1000000 7775 10764 0
1000000 7776 10595 0
1000000 7777 11358 0
1000000 7778 10819 0
1000000 7779 11673 0
1000000 7780 11147 0
1000000 7781 10766 0
1000000 7782 10098 0
1000000 7783 10126 0
1000000 7784 9980 0
1000000 7785 10307 0
1000000 7786 11813 0
1000000 7787 11396 0
1000000 7788 10701 0
1000000 7789 10414 0
1000000 7790 10954 0
1000000 7791 9644 0
1000000 7792 10175 0
1000000 7793 10226 0
1000000 7794 10792 0
1000000 7795 9689 0
1000000 7796 11167 0
1000000 7797 11328 0
1000000 7798 10470 0
1000000 7799 10259 0
1000000 7800 10376 0
1000000 7801 9608 0
1000000 7802 10406 0
1000000 7803 10072 0
1000000 7804 9669 0
1000000 7805 9758 0
1000000 7806 10179 0
1000000 7807 11422 0
1000000 7808 9868 0
1000000 7809 11456 0
1000000 7810 10395 0
1000000 7811 11514 0
1000000 7812 11849 0
1000000 7813 11236 0
1000000 7814 11430 0
1000000 7815 9907 0
1000000 7816 11701 0
1000000 7817 11746 0
1000000 7818 11633 0
1000000 7819 11444 0
1000000 7820 10391 0
1000000 7821 11737 0
1000000 7822 10794 0
1000000 7823 10854 0
1000000 7824 10388 0
1000000 7825 10829 0
1000000 7826 9607 0
1000000 7827 11840 0
1000000 7828 11726 0
1000000 7829 10558 0
1000000 7830 11519 0
1000000 7831 10475 0
1000000 7832 9793 0
1000000 7833 11029 0
1000000 7834 11463 0
1000000 7835 10330 0
1000000 7836 10610 0
1000000 7837 10094 0
1000000 7838 9823 0
1000000 7839 10180 0
1000000 7840 11496 0
1000000 7841 9805 0
1000000 7842 10445 0
1000000 7843 11455 0
1000000 7844 11431 0
1000000 7845 11178 0
1000000 7846 11588 0
1000000 7847 11068 0
1000000 7848 10755 0
1000000 7849 10811 0
1000000 7850 11125 0
1000000 7851 10441 0
1000000 7852 11182 0
1000000 7853 10012 0
1000000 7854 11239 0
1000000 7855 11640 0
1000000 7856 10217 0
1000000 7857 10338 0
1000000 7858 10070 0
1000000 7859 10158 0
1000000 7860 11651 0
1000000 7861 11148 0
1000000 7862 10884 0
1000000 7863 11754 0
1000000 7864 11020 0
1000000 7865 11735 0
1000000 7866 10807 0
1000000 7867 11353 0
1000000 7868 9999 0
1000000 7869 10853 0
1000000 7870 10389 0
1000000 7871 10448 0
1000000 7872 11615 0
1000000 7873 10941 0
1000000 7874 10121 0
1000000 7875 10335 0
1000000 7876 9786 0
1000000 7877 11431 0
1000000 7878 11607 0
1000000 7879 10389 0
1000000 7880 9767 0
1000000 7881 10567 0
1000000 7882 11337 0
1000000 7883 9796 0
1000000 7884 10311 0
1000000 7885 11820 0
1000000 7886 10511 0
1000000 7887 10155 0
1000000 7888 10597 0
1000000 7889 10239 0
1000000 7890 11043 0
1000000 7891 11743 0
1000000 7892 10269 0
1000000 7893 10340 0
1000000 7894 9963 0
1000000 7895 11495 0
1000000 7896 11152 0
1000000 7897 11706 0
1000000 7898 10839 0
1000000 7899 11266 0
1000000 7900 9679 0
1000000 7901 11195 0
1000000 7902 9622 0
1000000 7903 10667 0
1000000 7904 11394 0
1000000 7905 11042 0
1000000 7906 11513 0
1000000 7907 11666 0
1000000 7908 10262 0
1000000 7909 10634 0
1000000 7910 11514 0
1000000 7911 10538 0
1000000 7912 10054 0
1000000 7913 10724 0
1000000 7914 10112 0
1000000 7915 10065 0
1000000 7916 10845 0
1000000 7917 9763 0
1000000 7918 11081 0
1000000 7919 11221 0
1000000 7920 11186 0
1000000 7921 9769 0
1000000 7922 10711 0
1000000 7923 11823 0
1000000 7924 9659 0
1000000 7925 9613 0
1000000 7926 11745 0
1000000 7927 10648 0
1000000 7928 11192 0
1000000 7929 10414 0
1000000 7930 11515 0
1000000 7931 11033 0
1000000 7932 10062 0
1000000 7933 11645 0
1000000 7934 9781 0
1000000 7935 10499 0
1000000 7936 9944 0
1000000 7937 10467 0
1000000 7938 10474 0
1000000 7939 11201 0
1000000 7940 9665 0
1000000 7941 11662 0
1000000 7942 11326 0
1000000 7943 11040 0
1000000 7944 11668 0
1000000 7945 9969 0
1000000 7946 9873 0
1000000 7947 10795 0
1000000 7948 9943 0
1000000 7949 10202 0
1000000 7950 10429 0
1000000 7951 10033 0
1000000 7952 9823 0
1000000 7953 9833 0
1000000 7954 10366 0
1000000 7955 9987 0
1000000 7956 11269 0
1000000 7957 10934 0
1000000 7958 10405 0
1000000 7959 11592 0
1000000 7960 10589 0
1000000 7961 10577 0
1000000 7962 10952 0
1000000 7963 11509 0
1000000 7964 9918 0
1000000 7965 10041 0
1000000 7966 11189 0
1000000 7967 10328 0
1000000 7968 11191 0
1000000 7969 10288 0
1000000 7970 11802 0
1000000 7971 10368 0
1000000 7972 10147 0
1000000 7973 11130 0
1000000 7974 11776 0
1000000 7975 10858 0
1000000 7976 11058 0
1000000 7977 11135 0
1000000 7978 9803 0
1000000 7979 10865 0
1000000 7980 9770 0
1000000 7981 10463 0
1000000 7982 11658 0
1000000 7983 11616 0
1000000 7984 10405 0
1000000 7985 9749 0
1000000 7986 10352 0
1000000 7987 10649 0
1000000 7988 10825 0
1000000 7989 10907 0
1000000 7990 10772 0
1000000 7991 10759 0
1000000 7992 11648 0
1000000 7993 11176 0
1000000 7994 10087 0
1000000 7995 11715 0
1000000 7996 10434 0
1000000 7997 11693 0
1000000 7998 10659 0
1000000 7999 10164 0
1000000 8000 9640 0
1000000 8001 11725 0
1000000 8002 10349 0
1000000 8003 10627 0
1000000 8004 11155 0
1000000 8005 10662 0
1000000 8006 9967 0
1000000 8007 10894 0
1000000 8008 11169 0
1000000 8009 11164 0
1000000 8010 11473 0
1000000 8011 10334 0
1000000 8012 9913 0
1000000 8013 11119 0
1000000 8014 11732 0
1000000 8015 10352 0
1000000 8016 10116 0
1000000 8017 11631 0
1000000 8018 11743 0
1000000 8019 11070 0
1000000 8020 10900 0
1000000 8021 11143 0
1000000 8022 10449 0
1000000 8023 11382 0
1000000 8024 11345 0
1000000 8025 10739 0
1000000 8026 11348 0
1000000 8027 10643 0
1000000 8028 11045 0
1000000 8029 10458 0
1000000 8030 11653 0
1000000 8031 10769 0
1000000 8032 11166 0
1000000 8033 11586 0
1000000 8034 10968 0
1000000 8035 11444 0
1000000 8036 10172 0
1000000 8037 11414 0
1000000 8038 11075 0
1000000 8039 10931 0
1000000 8040 10895 0
1000000 8041 10666 0
1000000 8042 11352 0
1000000 8043 11627 0
1000000 8044 10140 0
1000000 8045 11613 0
1000000 8046 10309 0
1000000 8047 9633 0
1000000 8048 9914 0
1000000 8049 11282 0
1000000 8050 11571 0
1000000 8051 10478 0
1000000 8052 11824 0
1000000 8053 10149 0
1000000 8054 10001 0
1000000 8055 11306 0
1000000 8056 10306 0
1000000 8057 10416 0
1000000 8058 10879 0
1000000 8059 10751 0
1000000 8060 10302 0
1000000 8061 11801 0
1000000 8062 11087 0
1000000 8063 11298 0
1000000 8064 10127 0
1000000 8065 11335 0
1000000 8066 10039 0
1000000 8067 11031 0
1000000 8068 11827 0
1000000 8069 11555 0
1000000 8070 11342 0
1000000 8071 11202 0
1000000 8072 10991 0
1000000 8073 11050 0
1000000 8074 10797 0
1000000 8075 11026 0
1000000 8076 11237 0
1000000 8077 10996 0
1000000 8078 10165 0
1000000 8079 11397 0
1000000 8080 9774 0
1000000 8081 11836 0
1000000 8082 11297 0
1000000 8083 11017 0
1000000 8084 10447 0
1000000 8085 10589 0
1000000 8086 11662 0
1000000 8087 11837 0
1000000 8088 11324 0
1000000 8089 9870 0
1000000 8090 10065 0
1000000 8091 11355 0
1000000 8092 10731 0
1000000 8093 9787 0
1000000 8094 11176 0
1000000 8095 11672 0
1000000 8096 10559 0
1000000 8097 9785 0
1000000 8098 9769 0
1000000 8099 10644 0
1000000 8100 10910 0
1000000 8101 9830 0
1000000 8102 9625 0
1000000 8103 10347 0
1000000 8104 10780 0
1000000 8105 11799 0
1000000 8106 10799 0
1000000 8107 10524 0
1000000 8108 10833 0
1000000 8109 11797 0
1000000 8110 11154 0
1000000 8111 11007 0
1000000 8112 11076 0
1000000 8113 10964 0
1000000 8114 11604 0
1000000 8115 11492 0
1000000 8116 11782 0
1000000 8117 9808 0
1000000 8118 11824 0
1000000 8119 9641 0
1000000 8120 11484 0
1000000 8121 11226 0
1000000 8122 10073 0
1000000 8123 11202 0
1000000 8124 10484 0
1000000 8125 11546 0
1000000 8126 11541 0
1000000 8127 10898 0
1000000 8128 9617 0
1000000 8129 11225 0
1000000 8130 11832 0
1000000 8131 11464 0
1000000 8132 10057 0
1000000 8133 9977 0
1000000 8134 11109 0
1000000 8135 10924 0
1000000 8136 9959 0
1000000 8137 10343 0
1000000 8138 10117 0
1000000 8139 11472 0
1000000 8140 11170 0
1000000 8141 11822 0
1000000 8142 10589 0
1000000 8143 11351 0
1000000 8144 10540 0
1000000 8145 9644 0
1000000 8146 11215 0
1000000 8147 11531 0
1000000 8148 10676 0
1000000 8149 9749 0
1000000 8150 11149 0
1000000 8151 10022 0
1000000 8152 10227 0
1000000 8153 10765 0
1000000 8154 10167 0
1000000 8155 10120 0
1000000 8156 9642 0
1000000 8157 10372 0
1000000 8158 11553 0
1000000 8159 11808 0
1000000 8160 10293 0
1000000 8161 9844 0
1000000 8162 9757 0
1000000 8163 10808 0
1000000 8164 11138 0
1000000 8165 11699 0
1000000 8166 11275 0
1000000 8167 10295 0
1000000 8168 10457 0
1000000 8169 10872 0
1000000 8170 10896 0
1000000 8171 10231 0
1000000 8172 10658 0
1000000 8173 10052 0
1000000 8174 11113 0
1000000 8175 10225 0
1000000 8176 10178 0
1000000 8177 11187 0
1000000 8178 9777 0
1000000 8179 11748 0
1000000 8180 11806 0
1000000 8181 10709 0
1000000 8182 10567 0
1000000 8183 10048 0
1000000 8184 9655 0
1000000 8185 11307 0
1000000 8186 11434 0
1000000 8187 10256 0
1000000 8188 9832 0
1000000 8189 10870 0
1000000 8190 11060 0
1000000 8191 9824 0
1000000 8192 9864 0
1000000 8193 11787 0
1000000 8194 9941 0
1000000 8195 11474 0
1000000 8196 10796 0
1000000 8197 10718 0
1000000 8198 10291 0
1000000 8199 11032 0
1000000 8200 9764 0
1000000 8201 11642 0
1000000 8202 10220 0
1000000 8203 10867 0
1000000 8204 9779 0
1000000 8205 10954 0
1000000 8206 11802 0
1000000 8207 11709 0
1000000 8208 10212 0
1000000 8209 10888 0
1000000 8210 11643 0
1000000 8211 9925 0
1000000 8212 11275 0
1000000 8213 11321 0
1000000 8214 11735 0
1000000 8215 10616 0
1000000 8216 11278 0
1000000 8217 11580 0
1000000 8218 11363 0
1000000 8219 9988 0
1000000 8220 11235 0
1000000 8221 9845 0
1000000 8222 10823 0
1000000 8223 10797 0
1000000 8224 10694 0
1000000 8225 9632 0
1000000 8226 11669 0
1000000 8227 11374 0
1000000 8228 11507 0
1000000 8229 10010 0
1000000 8230 9976 0
1000000 8231 10201 0
1000000 8232 11041 0
1000000 8233 11128 0
1000000 8234 9883 0
1000000 8235 10492 0
1000000 8236 11612 0
1000000 8237 11462 0
1000000 8238 10108 0
1000000 8239 11307 0
1000000 8240 10095 0
1000000 8241 10318 0
1000000 8242 10669 0
1000000 8243 9712 0
1000000 8244 10136 0
1000000 8245 11392 0
1000000 8246 11638 0
1000000 8247 11239 0
1000000 8248 11568 0
1000000 8249 11779 0
1000000 8250 11214 0
1000000 8251 9663 0
1000000 8252 10309 0
1000000 8253 11796 0
1000000 8254 10965 0
1000000 8255 11842 0
1000000 8256 10775 0
1000000 8257 11796 0
1000000 8258 10719 0
1000000 8259 11703 0
1000000 8260 11613 0
1000000 8261 11512 0
1000000 8262 10945 0
1000000 8263 11661 0
1000000 8264 10552 0
1000000 8265 10398 0
1000000 8266 10369 0
1000000 8267 11659 0
1000000 8268 10639 0
1000000 8269 11344 0
1000000 8270 11453 0
1000000 8271 11096 0
1000000 8272 9663 0
1000000 8273 9894 0
1000000 8274 11784 0
1000000 8275 10551 0
1000000 8276 11644 0
1000000 8277 10199 0
1000000 8278 9731 0
1000000 8279 11140 0
1000000 8280 11834 0
1000000 8281 9672 0
1000000 8282 10142 0
1000000 8283 9992 0
1000000 8284 11709 0
1000000 8285 10464 0
1000000 8286 10637 0
1000000 8287 10543 0
1000000 8288 9990 0
1000000 8289 10440 0
1000000 8290 11171 0
1000000 8291 10584 0
1000000 8292 10390 0
1000000 8293 10274 0
1000000 8294 9662 0
1000000 8295 10560 0
1000000 8296 9843 0
1000000 8297 10975 0
1000000 8298 9831 0
1000000 8299 10258 0
1000000 8300 10640 0
1000000 8301 11780 0
1000000 8302 10445 0
1000000 8303 10596 0
1000000 8304 9618 0
1000000 8305 10277 0
1000000 8306 10054 0
1000000 8307 11249 0
1000000 8308 10237 0
1000000 8309 11695 0
1000000 8310 11071 0
1000000 8311 11259 0
1000000 8312 9708 0
1000000 8313 11092 0
1000000 8314 11427 0
1000000 8315 10121 0
1000000 8316 10012 0
1000000 8317 9755 0
1000000 8318 11233 0
1000000 8319 10228 0
1000000 8320 11771 0
1000000 8321 10857 0
1000000 8322 9828 0
1000000 8323 11673 0
1000000 8324 11211 0
1000000 8325 10795 0
1000000 8326 10145 0
1000000 8327 11296 0
1000000 8328 10557 0
1000000 8329 10961 0
1000000 8330 11019 0
1000000 8331 11266 0
1000000 8332 11592 0
1000000 8333 10882 0
1000000 8334 9899 0
1000000 8335 9981 0
1000000 8336 11305 0
1000000 8337 11300 0
1000000 8338 9945 0
1000000 8339 10122 0
1000000 8340 11423 0
1000000 8341 11649 0
1000000 8342 10365 0
1000000 8343 11831 0
1000000 8344 10374 0
1000000 8345 9744 0
1000000 8346 10692 0
1000000 8347 9752 0
1000000 8348 10655 0
1000000 8349 11576 0
1000000 8350 11149 0
1000000 8351 10943 0
1000000 8352 11798 0
1000000 8353 10514 0
1000000 8354 10397 0
1000000 8355 9626 0
1000000 8356 10688 0
1000000 8357 10077 0
1000000 8358 10403 0
1000000 8359 10628 0
1000000 8360 11584 0
1000000 8361 10266 0
1000000 8362 10622 0
1000000 8363 10196 0
1000000 8364 10937 0
1000000 8365 11299 0
1000000 8366 11277 0
1000000 8367 10515 0
1000000 8368 10198 0
1000000 8369 11175 0
1000000 8370 10691 0
1000000 8371 10106 0
1000000 8372 11819 0
1000000 8373 11651 0
1000000 8374 9629 0
1000000 8375 11107 0
1000000 8376 10492 0
1000000 8377 9975 0
1000000 8378 11681 0
1000000 8379 10035 0
1000000 8380 11738 0
1000000 8381 10190 0
1000000 8382 9938 0
1000000 8383 10977 0
1000000 8384 11605 0
1000000 8385 11539 0
1000000 8386 9841 0
1000000 8387 10385 0
1000000 8388 10228 0
1000000 8389 10176 0
1000000 8390 10128 0
1000000 8391 10541 0
1000000 8392 11013 0
1000000 8393 11603 0
1000000 8394 11642 0
1000000 8395 11133 0
1000000 8396 10104 0
1000000 8397 9922 0
1000000 8398 11607 0
1000000 8399 9610 0
1000000 8400 9816 0
1000000 8401 10587 0
1000000 8402 10284 0
1000000 8403 11351 0
1000000 8404 10585 0
1000000 8405 10248 0
1000000 8406 11218 0
1000000 8407 11398 0
1000000 8408 10768 0
1000000 8409 11655 0
1000000 8410 11300 0
1000000 8411 11501 0
1000000 8412 10959 0
1000000 8413 11511 0
1000000 8414 10897 0
1000000 8415 11024 0
1000000 8416 11812 0
1000000 8417 10785 0
1000000 8418 11686 0
1000000 8419 11738 0
1000000 8420 10096 0
1000000 8421 9803 0
1000000 8422 10700 0
1000000 8423 11765 0
1000000 8424 10570 0
1000000 8425 9766 0
1000000 8426 11150 0
1000000 8427 11471 0
1000000 8428 9661 0
1000000 8429 10840 0
1000000 8430 10835 0
1000000 8431 10993 0
1000000 8432 10126 0
1000000 8433 11363 0
1000000 8434 9764 0
1000000 8435 10413 0
1000000 8436 10193 0
1000000 8437 10216 0
1000000 8438 10356 0
1000000 8439 11030 0
1000000 8440 11562 0
1000000 8441 9683 0
1000000 8442 10849 0
1000000 8443 11756 0
1000000 8444 10373 0
1000000 8445 11783 0
1000000 8446 11306 0
1000000 8447 10855 0
1000000 8448 11188 0
1000000 8449 10603 0
1000000 8450 10290 0
1000000 8451 11739 0
1000000 8452 10256 0
1000000 8453 11232 0
1000000 8454 10458 0
1000000 8455 11687 0
1000000 8456 11070 0
1000000 8457 10090 0
1000000 8458 11640 0
1000000 8459 11134 0
1000000 8460 11554 0
1000000 8461 9901 0
1000000 8462 11006 0
1000000 8463 10919 0
1000000 8464 9957 0
1000000 8465 10734 0
1000000 8466 9892 0
1000000 8467 11832 0
1000000 8468 9988 0
1000000 8469 11840 0
1000000 8470 10503 0
1000000 8471 9863 0
1000000 8472 11219 0
1000000 8473 10315 0
1000000 8474 9694 0
1000000 8475 11095 0
1000000 8476 10009 0
1000000 8477 10045 0
1000000 8478 10623 0
1000000 8479 11594 0
1000000 8480 11481 0
1000000 8481 10199 0
1000000 8482 10001 0
1000000 8483 9653 0
1000000 8484 11735 0
1000000 8485 10057 0
1000000 8486 11762 0
1000000 8487 10513 0
1000000 8488 11088 0
1000000 8489 11648 0
1000000 8490 10927 0
1000000 8491 9677 0
1000000 8492 10220 0
1000000 8493 11634 0
1000000 8494 10162 0
1000000 8495 10505 0
1000000 8496 11670 0
1000000 8497 11518 0
1000000 8498 9804 0
1000000 8499 10998 0
1000000 8500 11533 0
1000000 8501 11404 0
1000000 8502 11399 0
1000000 8503 10112 0
1000000 8504 9771 0
1000000 8505 9773 0
1000000 8506 11182 0
1000000 8507 10871 0
1000000 8508 10585 0
1000000 8509 11318 0
1000000 8510 11503 0
1000000 8511 11405 0
1000000 8512 10305 0
1000000 8513 9776 0
1000000 8514 10790 0
1000000 8515 10646 0
1000000 8516 9955 0
1000000 8517 11346 0
1000000 8518 9742 0
1000000 8519 10071 0
1000000 8520 10856 0
1000000 8521 10247 0
1000000 8522 10637 0
1000000 8523 11751 0
1000000 8524 11016 0
1000000 8525 11074 0
1000000 8526 11610 0
1000000 8527 10681 0
1000000 8528 10522 0
1000000 8529 11835 0
1000000 8530 11162 0
1000000 8531 10371 0
1000000 8532 11059 0
1000000 8533 11489 0
1000000 8534 10280 0
1000000 8535 10064 0
1000000 8536 11024 0
1000000 8537 11626 0
1000000 8538 10970 0
1000000 8539 10733 0
1000000 8540 10002 0
1000000 8541 9674 0
1000000 8542 10995 0
1000000 8543 9885 0
1000000 8544 10021 0
1000000 8545 9949 0
1000000 8546 11740 0
1000000 8547 10381 0
1000000 8548 10418 0
1000000 8549 10177 0
1000000 8550 10855 0
1000000 8551 10070 0
1000000 8552 11089 0
1000000 8553 10295 0
1000000 8554 11108 0
1000000 8555 10648 0
1000000 8556 9949 0
1000000 8557 10924 0
1000000 8558 10103 0
1000000 8559 10061 0
1000000 8560 9638 0
1000000 8561 11255 0
1000000 8562 9865 0
1000000 8563 11614 0
1000000 8564 10629 0
1000000 8565 11038 0
1000000 8566 10708 0
1000000 8567 11011 0
1000000 8568 10311 0
1000000 8569 11841 0
1000000 8570 10564 0
1000000 8571 9630 0
1000000 8572 10371 0
1000000 8573 10211 0
1000000 8574 10255 0
1000000 8575 10865 0
1000000 8576 10146 0
1000000 8577 11103 0
1000000 8578 11121 0
1000000 8579 11731 0
1000000 8580 11074 0
1000000 8581 11199 0
1000000 8582 10982 0
1000000 8583 10923 0
1000000 8584 9643 0
1000000 8585 10405 0
1000000 8586 10944 0
1000000 8587 9970 0
1000000 8588 11257 0
1000000 8589 9686 0
1000000 8590 9994 0
1000000 8591 9971 0
1000000 8592 11729 0
1000000 8593 11158 0
1000000 8594 11751 0
1000000 8595 10209 0
1000000 8596 11240 0
1000000 8597 9782 0
1000000 8598 11036 0
1000000 8599 10380 0
1000000 8600 10826 0
1000000 8601 9759 0
1000000 8602 10147 0
1000000 8603 11072 0
1000000 8604 10218 0
1000000 8605 9813 0
1000000 8606 9989 0
1000000 8607 9965 0
1000000 8608 10101 0
1000000 8609 11199 0
1000000 8610 9886 0
1000000 8611 10502 0
1000000 8612 10831 0
1000000 8613 11474 0
1000000 8614 9782 0
1000000 8615 9854 0
1000000 8616 11814 0
1000000 8617 9766 0
1000000 8618 10707 0
1000000 8619 9826 0
1000000 8620 10666 0
1000000 8621 10430 0
1000000 8622 10632 0
1000000 8623 10930 0
1000000 8624 10859 0
1000000 8625 9834 0
1000000 8626 10681 0
1000000 8627 10569 0
1000000 8628 11772 0
1000000 8629 10768 0
1000000 8630 9699 0
1000000 8631 11038 0
1000000 8632 11649 0
1000000 8633 10177 0
1000000 8634 10869 0
1000000 8635 9657 0
1000000 8636 10568 0
1000000 8637 11604 0
1000000 8638 9981 0
1000000 8639 10108 0
1000000 8640 11115 0
1000000 8641 10637 0
1000000 8642 11482 0
1000000 8643 10821 0
1000000 8644 10702 0
1000000 8645 9939 0
1000000 8646 11456 0
1000000 8647 11585 0
1000000 8648 10185 0
1000000 8649 10639 0
1000000 8650 11333 0
1000000 8651 10059 0
1000000 8652 10947 0
1000000 8653 10811 0
1000000 8654 11731 0
1000000 8655 11669 0
1000000 8656 11312 0
1000000 8657 11196 0
1000000 8658 9753 0
1000000 8659 9706 0
1000000 8660 9995 0
1000000 8661 10567 0
1000000 8662 9662 0
1000000 8663 10311 0
1000000 8664 10565 0
1000000 8665 9676 0
1000000 8666 11787 0
1000000 8667 9869 0
1000000 8668 9993 0
1000000 8669 10067 0
1000000 8670 9727 0
1000000 8671 11587 0
1000000 8672 9977 0
1000000 8673 10852 0
1000000 8674 10748 0
1000000 8675 11336 0
1000000 8676 9795 0
1000000 8677 10732 0
1000000 8678 11674 0
1000000 8679 11305 0
1000000 8680 9672 0
1000000 8681 11205 0
1000000 8682 10947 0
1000000 8683 11380 0
1000000 8684 11412 0
1000000 8685 10497 0
1000000 8686 10798 0
1000000 8687 10196 0
1000000 8688 11602 0
1000000 8689 11201 0
1000000 8690 9959 0
1000000 8691 11121 0
1000000 8692 9950 0
1000000 8693 10635 0
1000000 8694 10379 0
1000000 8695 11007 0
1000000 8696 9793 0
1000000 8697 11583 0
1000000 8698 9617 0
1000000 8699 11845 0
1000000 8700 10007 0
1000000 8701 10860 0
1000000 8702 10304 0
1000000 8703 10974 0
1000000 8704 11572 0
1000000 8705 10205 0
1000000 8706 11117 0
1000000 8707 11579 0
1000000 8708 10014 0
1000000 8709 10192 0
1000000 8710 10707 0
1000000 8711 9640 0
1000000 8712 11487 0
1000000 8713 10193 0
1000000 8714 10624 0
1000000 8715 11423 0
1000000 8716 9825 0
1000000 8717 10115 0
1000000 8718 10584 0
1000000 8719 10466 0
1000000 8720 9778 0
1000000 8721 11683 0
1000000 8722 10848 0
1000000 8723 11190 0
1000000 8724 9704 0
1000000 8725 9639 0
1000000 8726 11153 0
1000000 8727 10467 0
1000000 8728 10409 0
1000000 8729 10627 0
1000000 8730 10763 0
1000000 8731 9623 0
1000000 8732 11494 0
1000000 8733 11530 0
1000000 8734 10449 0
1000000 8735 11243 0
1000000 8736 11763 0
1000000 8737 10399 0
1000000 8738 11133 0
1000000 8739 10486 0
1000000 8740 11788 0
1000000 8741 10714 0
1000000 8742 10644 0
1000000 8743 11051 0
1000000 8744 10170 0
1000000 8745 11500 0
1000000 8746 10435 0
1000000 8747 10234 0
1000000 8748 11698 0
1000000 8749 10507 0
1000000 8750 10684 0
1000000 8751 11523 0
1000000 8752 9786 0
1000000 8753 10644 0
1000000 8754 11599 0
1000000 8755 11532 0
1000000 8756 11131 0
1000000 8757 10786 0
1000000 8758 9790 0
1000000 8759 9962 0
1000000 8760 10766 0
1000000 8761 11356 0
1000000 8762 9633 0
1000000 8763 11070 0
1000000 8764 11302 0
1000000 8765 10908 0
1000000 8766 10872 0
1000000 8767 10425 0
1000000 8768 11329 0
1000000 8769 11755 0
1000000 8770 11501 0
1000000 8771 10207 0
1000000 8772 9711 0
1000000 8773 11751 0
1000000 8774 11185 0
1000000 8775 10000 0
1000000 8776 11430 0
1000000 8777 9862 0
1000000 8778 11648 0
1000000 8779 10461 0
1000000 8780 9960 0
1000000 8781 9618 0
1000000 8782 10272 0
1000000 8783 10040 0
1000000 8784 9698 0
1000000 8785 11743 0
1000000 8786 9728 0
1000000 8787 9845 0
1000000 8788 11271 0
1000000 8789 9642 0
1000000 8790 10745 0
1000000 8791 11111 0
1000000 8792 11354 0
1000000 8793 10869 0
1000000 8794 10286 0
1000000 8795 10303 0
1000000 8796 10411 0
1000000 8797 9815 0
1000000 8798 10348 0
1000000 8799 11420 0
1000000 8800 10195 0
1000000 8801 11687 0
1000000 8802 11213 0
1000000 8803 9993 0
1000000 8804 11590 0
1000000 8805 10680 0
1000000 8806 10919 0
1000000 8807 11364 0
1000000 8808 10761 0
1000000 8809 11100 0
1000000 8810 11685 0
1000000 8811 11361 0
1000000 8812 11242 0
1000000 8813 10594 0
1000000 8814 9666 0
1000000 8815 10800 0
1000000 8816 10350 0
1000000 8817 11461 0
1000000 8818 10929 0
1000000 8819 10275 0
1000000 8820 11222 0
1000000 8821 11736 0
1000000 8822 11449 0
1000000 8823 10878 0
1000000 8824 11826 0
1000000 8825 10989 0
1000000 8826 10443 0
1000000 8827 11650 0
1000000 8828 10155 0
1000000 8829 11355 0
1000000 8830 10416 0
1000000 8831 10845 0
1000000 8832 10817 0
1000000 8833 11837 0
1000000 8834 10642 0
1000000 8835 11316 0
1000000 8836 11710 0
1000000 8837 11595 0
1000000 8838 9919 0
1000000 8839 10289 0
1000000 8840 10328 0
1000000 8841 11146 0
1000000 8842 10728 0
1000000 8843 11382 0
1000000 8844 10968 0
1000000 8845 11368 0
1000000 8846 10347 0
1000000 8847 11303 0
1000000 8848 11563 0
1000000 8849 10162 0
1000000 8850 10319 0
1000000 8851 10205 0
1000000 8852 11466 0
1000000 8853 9873 0
1000000 8854 10386 0
1000000 8855 10253 0
1000000 8856 10846 0
1000000 8857 9919 0
1000000 8858 11632 0
1000000 8859 9714 0
1000000 8860 10820 0
1000000 8861 9982 0
1000000 8862 10458 0
1000000 8863 9756 0
1000000 8864 10477 0
1000000 8865 10143 0
1000000 8866 11446 0
1000000 8867 10955 0
1000000 8868 11183 0
1000000 8869 11014 0
1000000 8870 9916 0
1000000 8871 11722 0
1000000 8872 10577 0
1000000 8873 10561 0
1000000 8874 10768 0
1000000 8875 11829 0
1000000 8876 11647 0
1000000 8877 11622 0
1000000 8878 10503 0
1000000 8879 10724 0
1000000 8880 9958 0
1000000 8881 10937 0
1000000 8882 10176 0
1000000 8883 9883 0
1000000 8884 9986 0
1000000 8885 11005 0
1000000 8886 10484 0
1000000 8887 10450 0
1000000 8888 11719 0
1000000 8889 9846 0
1000000 8890 10469 0
1000000 8891 10452 0
1000000 8892 9996 0
1000000 8893 10483 0
1000000 8894 9809 0
1000000 8895 10752 0
1000000 8896 10719 0
1000000 8897 9803 0
1000000 8898 9701 0
1000000 8899 10746 0
1000000 8900 10864 0
1000000 8901 11480 0
1000000 8902 11759 0
1000000 8903 10485 0
1000000 8904 10433 0
1000000 8905 11062 0
1000000 8906 11112 0
1000000 8907 10733 0
1000000 8908 10841 0
1000000 8909 11308 0
1000000 8910 10419 0
1000000 8911 10725 0
1000000 8912 9767 0
1000000 8913 10027 0
1000000 8914 10546 0
1000000 8915 10536 0
1000000 8916 9687 0
1000000 8917 10885 0
1000000 8918 11589 0
1000000 8919 10871 0
1000000 8920 10580 0
1000000 8921 11734 0
1000000 8922 11369 0
1000000 8923 10139 0
1000000 8924 10889 0
1000000 8925 10212 0
1000000 8926 10252 0
1000000 8927 10701 0
1000000 8928 11596 0
1000000 8929 10747 0
1000000 8930 11304 0
1000000 8931 11317 0
1000000 8932 11058 0
1000000 8933 10252 0
1000000 8934 11655 0
1000000 8935 11216 0
1000000 8936 11833 0
1000000 8937 10239 0
1000000 8938 10144 0
1000000 8939 11769 0
1000000 8940 9799 0
1000000 8941 11173 0
1000000 8942 9829 0
1000000 8943 11294 0
1000000 8944 11123 0
1000000 8945 11400 0
1000000 8946 11549 0
1000000 8947 11475 0
1000000 8948 11827 0
1000000 8949 10576 0
1000000 8950 11700 0
1000000 8951 9930 0
1000000 8952 10289 0
1000000 8953 10413 0
1000000 8954 11838 0
1000000 8955 10332 0
1000000 8956 10223 0
1000000 8957 11285 0
1000000 8958 10628 0
1000000 8959 9902 0
1000000 8960 9879 0
1000000 8961 10135 0
1000000 8962 11595 0
1000000 8963 11078 0
1000000 8964 11771 0
1000000 8965 11642 0
1000000 8966 11480 0
1000000 8967 11349 0
1000000 8968 11077 0
1000000 8969 10983 0
1000000 8970 10329 0
1000000 8971 10763 0
1000000 8972 10534 0
1000000 8973 10511 0
1000000 8974 10014 0
1000000 8975 10663 0
1000000 8976 9788 0
1000000 8977 9759 0
1000000 8978 9693 0
1000000 8979 11685 0
1000000 8980 10151 0
1000000 8981 11785 0
1000000 8982 11511 0
1000000 8983 11060 0
1000000 8984 10736 0
1000000 8985 10011 0
1000000 8986 11783 0
1000000 8987 10621 0
1000000 8988 10076 0
1000000 8989 11114 0
1000000 8990 10927 0
1000000 8991 10455 0
1000000 8992 11618 0
1000000 8993 10083 0
1000000 8994 10074 0
1000000 8995 10419 0
1000000 8996 11332 0
1000000 8997 11361 0
1000000 8998 10731 0
1000000 8999 10974 0
1000000 9000 9709 0
1000000 9001 11415 0
1000000 9002 10337 0
1000000 9003 10611 0
1000000 9004 11288 0
1000000 9005 10767 0
1000000 9006 11774 0
1000000 9007 10257 0
1000000 9008 11396 0
1000000 9009 10818 0
1000000 9010 10341 0
1000000 9011 10772 0
1000000 9012 10166 0
1000000 9013 10150 0
1000000 9014 11364 0
1000000 9015 10076 0
1000000 9016 11623 0
1000000 9017 10417 0
1000000 9018 11139 0
1000000 9019 10832 0
1000000 9020 10122 0
1000000 9021 11802 0
1000000 9022 10063 0
1000000 9023 10420 0
1000000 9024 10994 0
1000000 9025 10313 0
1000000 9026 11677 0
1000000 9027 10462 0
1000000 9028 10873 0
1000000 9029 9784 0
1000000 9030 11135 0
1000000 9031 11608 0
1000000 9032 10276 0
1000000 9033 10876 0
1000000 9034 9933 0
1000000 9035 11386 0
1000000 9036 10757 0
1000000 9037 10602 0
1000000 9038 10321 0
1000000 9039 10899 0
1000000 9040 9842 0
1000000 9041 10025 0
1000000 9042 11696 0
1000000 9043 11809 0
1000000 9044 10703 0
1000000 9045 11233 0
1000000 9046 9999 0
1000000 9047 11250 0
1000000 9048 10261 0
1000000 9049 10069 0
1000000 9050 11787 0
1000000 9051 10092 0
1000000 9052 10382 0
1000000 9053 11581 0
1000000 9054 10105 0
1000000 9055 10920 0
1000000 9056 10214 0
1000000 9057 9802 0
1000000 9058 11182 0
1000000 9059 10549 0
1000000 9060 11104 0
1000000 9061 9866 0
1000000 9062 11042 0
1000000 9063 11383 0
1000000 9064 11593 0
1000000 9065 10639 0
1000000 9066 9934 0
1000000 9067 11459 0
1000000 9068 10548 0
1000000 9069 10997 0
1000000 9070 10210 0
1000000 9071 10358 0
1000000 9072 11516 0
1000000 9073 10000 0
1000000 9074 10986 0
1000000 9075 9904 0
1000000 9076 11591 0
1000000 9077 11289 0
1000000 9078 10527 0
1000000 9079 11718 0
1000000 9080 10617 0
1000000 9081 10854 0
1000000 9082 10619 0
1000000 9083 10902 0
1000000 9084 10805 0
1000000 9085 10486 0
1000000 9086 10869 0
1000000 9087 10357 0
1000000 9088 10592 0
1000000 9089 10131 0
1000000 9090 10186 0
1000000 9091 10233 0
1000000 9092 11495 0
1000000 9093 9867 0
1000000 9094 9978 0
1000000 9095 11493 0
1000000 9096 10411 0
1000000 9097 10729 0
1000000 9098 10633 0
1000000 9099 10156 0
1000000 9100 10499 0
1000000 9101 10881 0
1000000 9102 10009 0
1000000 9103 9859 0
1000000 9104 11334 0
1000000 9105 11504 0
1000000 9106 11338 0
1000000 9107 9720 0
1000000 9108 10838 0
1000000 9109 11409 0
1000000 9110 11596 0
1000000 9111 10251 0
1000000 9112 10926 0
1000000 9113 9672 0
1000000 9114 10327 0
1000000 9115 9723 0
1000000 9116 11450 0
1000000 9117 9737 0
1000000 9118 11270 0
1000000 9119 9794 0
1000000 9120 10504 0
1000000 9121 10904 0
1000000 9122 10959 0
1000000 9123 10203 0
1000000 9124 11056 0
1000000 9125 11668 0
1000000 9126 10782 0
1000000 9127 10583 0
1000000 9128 11799 0
1000000 9129 10733 0
1000000 9130 11433 0
1000000 9131 10574 0
1000000 9132 9766 0
1000000 9133 11287 0
1000000 9134 11161 0
1000000 9135 10756 0
1000000 9136 10913 0
1000000 9137 10224 0
1000000 9138 9651 0
1000000 9139 11712 0
1000000 9140 11630 0
1000000 9141 11850 0
1000000 9142 11682 0
1000000 9143 10542 0
1000000 9144 10957 0
1000000 9145 10210 0
1000000 9146 10423 0
1000000 9147 9754 0
1000000 9148 10324 0
1000000 9149 10980 0
1000000 9150 10167 0
1000000 9151 10164 0
1000000 9152 11536 0
1000000 9153 10048 0
1000000 9154 9683 0
1000000 9155 9956 0
1000000 9156 9688 0
1000000 9157 11086 0
1000000 9158 9744 0
1000000 9159 10086 0
1000000 9160 11635 0
1000000 9161 10809 0
1000000 9162 9877 0
1000000 9163 11815 0
1000000 9164 11818 0
1000000 9165 10655 0
1000000 9166 10412 0
1000000 9167 11637 0
1000000 9168 9906 0
1000000 9169 10599 0
1000000 9170 10999 0
1000000 9171 11653 0
1000000 9172 10932 0
1000000 9173 10137 0
1000000 9174 9606 0
1000000 9175 10856 0
1000000 9176 10346 0
1000000 9177 10667 0
1000000 9178 11354 0
1000000 9179 11773 0
1000000 9180 11498 0
1000000 9181 10456 0
1000000 9182 9909 0
1000000 9183 11820 0
1000000 9184 11704 0
1000000 9185 11551 0
1000000 9186 10817 0
1000000 9187 9727 0
1000000 9188 11296 0
1000000 9189 10513 0
1000000 9190 10062 0
1000000 9191 10571 0
1000000 9192 9865 0
1000000 9193 10283 0
1000000 9194 10130 0
1000000 9195 11819 0
1000000 9196 11140 0
1000000 9197 10735 0
1000000 9198 10730 0
1000000 9199 10620 0
1000000 9200 10107 0
1000000 9201 10542 0
1000000 9202 10339 0
1000000 9203 9718 0
1000000 9204 11479 0
1000000 9205 11282 0
1000000 9206 11331 0
1000000 9207 11157 0
1000000 9208 9830 0
1000000 9209 10700 0
1000000 9210 10579 0
1000000 9211 11567 0
1000000 9212 11270 0
1000000 9213 10928 0
1000000 9214 10123 0
1000000 9215 10647 0
1000000 9216 11098 0
1000000 9217 11107 0
1000000 9218 11327 0
1000000 9219 9847 0
1000000 9220 9940 0
1000000 9221 11737 0
1000000 9222 10670 0
1000000 9223 9786 0
1000000 9224 11104 0
1000000 9225 10156 0
1000000 9226 10261 0
1000000 9227 10665 0
1000000 9228 10631 0
1000000 9229 11092 0
1000000 9230 10063 0
1000000 9231 11700 0
1000000 9232 9724 0
1000000 9233 9683 0
1000000 9234 10753 0
1000000 9235 11126 0
1000000 9236 10259 0
1000000 9237 11792 0
1000000 9238 11599 0
1000000 9239 10946 0
1000000 9240 9852 0
1000000 9241 9919 0
1000000 9242 11131 0
1000000 9243 10843 0
1000000 9244 11684 0
1000000 9245 9714 0
1000000 9246 10260 0
1000000 9247 10813 0
1000000 9248 10140 0
1000000 9249 9745 0
1000000 9250 9922 0
1000000 9251 11437 0
1000000 9252 9732 0
1000000 9253 11652 0
1000000 9254 10762 0
1000000 9255 10771 0
1000000 9256 10159 0
1000000 9257 11241 0
1000000 9258 9616 0
1000000 9259 10469 0
1000000 9260 9776 0
1000000 9261 11028 0
1000000 9262 11210 0
1000000 9263 11303 0
1000000 9264 10307 0
1000000 9265 10222 0
1000000 9266 11630 0
1000000 9267 10038 0
1000000 9268 10539 0
1000000 9269 10477 0
1000000 9270 10140 0
1000000 9271 9889 0
1000000 9272 10230 0
1000000 9273 9747 0
1000000 9274 10263 0
1000000 9275 9731 0
1000000 9276 11279 0
1000000 9277 10690 0
1000000 9278 11121 0
1000000 9279 10927 0
1000000 9280 10968 0
1000000 9281 11093 0
1000000 9282 11816 0
1000000 9283 10933 0
1000000 9284 10544 0
1000000 9285 10966 0
1000000 9286 9849 0
1000000 9287 11540 0
1000000 9288 10204 0
1000000 9289 11055 0
1000000 9290 10635 0
1000000 9291 11008 0
1000000 9292 10719 0
1000000 9293 10238 0
1000000 9294 9882 0
1000000 9295 10230 0
1000000 9296 11632 0
1000000 9297 11639 0
1000000 9298 9807 0
1000000 9299 11126 0
1000000 9300 10857 0
1000000 9301 11825 0
1000000 9302 11721 0
1000000 9303 9744 0
1000000 9304 11232 0
1000000 9305 11433 0
1000000 9306 11341 0
1000000 9307 9891 0
1000000 9308 10433 0
1000000 9309 11103 0
1000000 9310 11411 0
1000000 9311 11466 0
1000000 9312 9953 0
1000000 9313 9736 0
1000000 9314 11243 0
1000000 9315 11528 0
1000000 9316 11217 0
1000000 9317 11187 0
1000000 9318 10274 0
1000000 9319 10444 0
1000000 9320 10447 0
1000000 9321 11264 0
1000000 9322 11069 0
1000000 9323 10752 0
1000000 9324 9804 0
1000000 9325 9851 0
1000000 9326 10700 0
1000000 9327 11096 0
1000000 9328 10246 0
1000000 9329 10317 0
1000000 9330 10197 0
1000000 9331 10109 0
1000000 9332 10740 0
1000000 9333 10324 0
1000000 9334 11332 0
1000000 9335 11262 0
1000000 9336 11620 0
1000000 9337 10449 0
1000000 9338 10809 0
1000000 9339 11730 0
1000000 9340 10152 0
1000000 9341 10978 0
1000000 9342 10214 0
1000000 9343 10967 0
1000000 9344 11368 0
1000000 9345 9704 0
1000000 9346 11046 0
1000000 9347 10203 0
1000000 9348 11602 0
1000000 9349 11374 0
1000000 9350 10977 0
1000000 9351 11305 0
1000000 9352 10987 0
1000000 9353 10831 0
1000000 9354 10593 0
1000000 9355 9888 0
1000000 9356 10598 0
1000000 9357 11531 0
1000000 9358 11419 0
1000000 9359 10928 0
1000000 9360 11064 0
1000000 9361 9813 0
1000000 9362 10847 0
1000000 9363 10893 0
1000000 9364 11000 0
1000000 9365 11570 0
1000000 9366 10808 0
1000000 9367 9859 0
1000000 9368 10679 0
1000000 9369 10363 0
1000000 9370 10601 0
1000000 9371 11398 0
1000000 9372 10838 0
1000000 9373 11051 0
1000000 9374 10073 0
1000000 9375 10564 0
1000000 9376 9867 0
1000000 9377 11266 0
1000000 9378 10036 0
1000000 9379 10679 0
1000000 9380 10336 0
1000000 9381 11435 0
1000000 9382 9896 0
1000000 9383 11582 0
1000000 9384 10284 0
1000000 9385 10864 0
1000000 9386 10560 0
1000000 9387 11099 0
1000000 9388 10436 0
1000000 9389 11705 0
1000000 9390 10296 0
1000000 9391 11170 0
1000000 9392 10791 0
1000000 9393 11485 0
1000000 9394 10867 0
1000000 9395 10614 0
1000000 9396 9847 0
1000000 9397 10145 0
1000000 9398 11293 0
1000000 9399 10802 0
1000000 9400 10182 0
1000000 9401 9679 0
1000000 9402 11043 0
1000000 9403 10217 0
1000000 9404 10953 0
1000000 9405 11678 0
1000000 9406 11115 0
1000000 9407 10070 0
1000000 9408 10188 0
1000000 9409 9740 0
1000000 9410 11258 0
1000000 9411 10726 0
1000000 9412 11674 0
1000000 9413 10664 0
1000000 9414 10244 0
1000000 9415 11552 0
1000000 9416 11753 0
1000000 9417 9711 0
1000000 9418 9929 0
1000000 9419 9732 0
1000000 9420 11326 0
1000000 9421 9933 0
1000000 9422 10362 0
1000000 9423 11665 0
1000000 9424 10286 0
1000000 9425 9923 0
1000000 9426 10620 0
1000000 9427 9653 0
1000000 9428 11461 0
1000000 9429 9703 0
1000000 9430 9741 0
1000000 9431 11742 0
1000000 9432 11286 0
1000000 9433 9650 0
1000000 9434 10452 0
1000000 9435 11402 0
1000000 9436 9937 0
1000000 9437 11052 0
1000000 9438 10211 0
1000000 9439 10577 0
1000000 9440 9637 0
1000000 9441 11600 0
1000000 9442 9654 0
1000000 9443 9949 0
1000000 9444 9995 0
1000000 9445 10549 0
1000000 9446 11337 0
1000000 9447 10905 0
1000000 9448 11672 0
1000000 9449 9704 0
1000000 9450 10647 0
1000000 9451 9671 0
1000000 9452 9651 0
1000000 9453 11548 0
1000000 9454 9739 0
1000000 9455 11815 0
1000000 9456 10856 0
1000000 9457 11194 0
1000000 9458 10678 0
1000000 9459 9903 0
1000000 9460 9708 0
1000000 9461 10998 0
1000000 9462 10765 0
1000000 9463 10060 0
1000000 9464 10825 0
1000000 9465 9623 0
1000000 9466 11630 0
1000000 9467 11403 0
1000000 9468 11041 0
1000000 9469 11446 0
1000000 9470 10972 0
1000000 9471 11069 0
1000000 9472 10873 0
1000000 9473 11017 0
1000000 9474 11183 0
1000000 9475 10709 0
1000000 9476 11553 0
1000000 9477 10656 0
1000000 9478 9695 0
1000000 9479 9700 0
1000000 9480 11040 0
1000000 9481 10928 0
1000000 9482 10600 0
1000000 9483 10858 0
1000000 9484 11715 0
1000000 9485 9997 0
1000000 9486 9928 0
1000000 9487 11573 0
1000000 9488 9734 0
1000000 9489 10737 0
1000000 9490 11036 0
1000000 9491 9834 0
1000000 9492 10900 0
1000000 9493 10455 0
1000000 9494 11766 0
1000000 9495 9972 0
1000000 9496 10952 0
1000000 9497 10973 0
1000000 9498 10363 0
1000000 9499 9664 0
1000000 9500 11198 0
1000000 9501 11790 0
1000000 9502 10969 0
1000000 9503 11324 0
1000000 9504 10110 0
1000000 9505 10083 0
1000000 9506 11682 0
1000000 9507 10350 0
1000000 9508 11794 0
1000000 9509 11079 0
1000000 9510 11105 0
1000000 9511 11682 0
1000000 9512 11186 0
1000000 9513 9920 0
1000000 9514 10995 0
1000000 9515 10118 0
1000000 9516 10247 0
1000000 9517 11145 0
1000000 9518 11374 0
1000000 9519 11804 0
1000000 9520 9797 0
1000000 9521 11488 0
1000000 9522 9785 0
1000000 9523 10535 0
1000000 9524 10148 0
1000000 9525 11230 0
1000000 9526 10810 0
1000000 9527 9972 0
1000000 9528 10707 0
1000000 9529 10097 0
1000000 9530 9855 0
1000000 9531 11723 0
1000000 9532 11163 0
1000000 9533 9887 0
1000000 9534 11018 0
1000000 9535 10757 0
1000000 9536 10502 0
1000000 9537 10439 0
1000000 9538 10138 0
1000000 9539 11106 0
1000000 9540 9716 0
1000000 9541 9778 0
1000000 9542 9739 0
1000000 9543 11052 0
1000000 9544 10229 0
1000000 9545 11432 0
1000000 9546 9912 0
1000000 9547 11407 0
1000000 9548 11804 0
1000000 9549 10504 0
1000000 9550 10179 0
1000000 9551 10868 0
1000000 9552 9649 0
1000000 9553 11526 0
1000000 9554 11406 0
1000000 9555 10082 0
1000000 9556 11169 0
1000000 9557 11388 0
1000000 9558 11549 0
1000000 9559 10209 0
1000000 9560 11400 0
1000000 9561 10835 0
1000000 9562 11105 0
1000000 9563 10334 0
1000000 9564 9602 0
1000000 9565 10609 0
1000000 9566 9749 0
1000000 9567 11061 0
1000000 9568 9760 0
1000000 9569 11578 0
1000000 9570 11223 0
1000000 9571 10075 0
1000000 9572 9730 0
1000000 9573 11749 0
1000000 9574 9726 0
1000000 9575 10219 0
1000000 9576 11028 0
1000000 9577 11639 0
1000000 9578 11012 0
1000000 9579 9621 0
1000000 9580 10814 0
1000000 9581 9618 0
1000000 9582 9729 0
1000000 9583 10512 0
1000000 9584 10325 0
1000000 9585 9625 0
1000000 9586 11263 0
1000000 9587 11245 0
1000000 9588 10674 0
1000000 9589 10437 0
1000000 9590 10672 0
1000000 9591 9830 0
1000000 9592 11013 0
1000000 9593 11424 0
1000000 9594 11660 0
1000000 9595 11831 0
1000000 9596 10859 0
1000000 9597 10508 0
1000000 9598 9627 0
1000000 9599 11499 0
1000000 9600 10653 0
1000000 -5101 -9819 0
1000000 -5102 -10018 0
1000000 -5103 -10508 0
1000000 -5104 -11296 0
1000000 -5105 -10848 0
1000000 -5106 -9788 0
1000000 -5107 -10935 0
1000000 -5108 -9694 0
1000000 -5109 -11203 0
1000000 -5110 -10726 0
1000000 -5111 -9952 0
1000000 -5112 -11601 0
1000000 -5113 -11005 0
1000000 -5114 -9833 0
1000000 -5115 -11800 0
1000000 -5116 -10097 0
1000000 -5117 -11410 0
1000000 -5118 -9884 0
1000000 -5119 -9853 0
1000000 -5120 -11047 0
1000000 -5121 -9736 0
1000000 -5122 -10824 0
1000000 -5123 -11314 0
1000000 -5124 -10918 0
1000000 -5125 -11034 0
1000000 -5126 -10727 0
1000000 -5127 -10160 0
1000000 -5128 -11202 0
1000000 -5129 -11292 0
1000000 -5130 -11739 0
1000000 -5131 -9602 0
1000000 -5132 -9812 0
1000000 -5133 -10312 0
1000000 -5134 -10236 0
1000000 -5135 -10204 0
1000000 -5136 -11000 0
1000000 -5137 -10408 0
1000000 -5138 -9967 0
1000000 -5139 -10694 0
1000000 -5140 -9750 0
1000000 -5141 -9861 0
1000000 -5142 -11197 0
1000000 -5143 -10528 0
1000000 -5144 -11416 0
1000000 -5145 -11415 0
1000000 -5146 -11332 0
1000000 -5147 -11193 0
1000000 -5148 -10646 0
1000000 -5149 -11550 0
1000000 -5150 -11158 0
1000000 -5151 -10609 0
1000000 -5152 -11118 0
1000000 -5153 -9917 0
1000000 -5154 -10003 0
1000000 -5155 -9890 0
1000000 -5156 -11285 0
1000000 -5157 -11046 0
1000000 -5158 -11613 0
1000000 -5159 -10068 0
1000000 -5160 -10315 0
1000000 -5161 -9980 0
1000000 -5162 -10434 0
1000000 -5163 -10162 0
1000000 -5164 -10083 0
1000000 -5165 -11080 0
1000000 -5166 -10401 0
1000000 -5167 -10940 0
1000000 -5168 -11140 0
1000000 -5169 -9632 0
1000000 -5170 -10805 0
1000000 -5171 -10917 0
1000000 -5172 -11022 0
1000000 -5173 -10876 0
1000000 -5174 -11708 0
1000000 -5175 -10862 0
1000000 -5176 -11664 0
1000000 -5177 -11261 0
1000000 -5178 -10008 0
1000000 -5179 -10439 0
1000000 -5180 -11370 0
1000000 -5181 -10672 0
1000000 -5182 -11339 0
1000000 -5183 -11341 0
1000000 -5184 -10498 0
1000000 -5185 -10095 0
1000000 -5186 -10127 0
1000000 -5187 -9810 0
1000000 -5188 -10966 0
1000000 -5189 -11629 0
1000000 -5190 -10287 0
1000000 -5191 -9952 0
1000000 -5192 -10784 0
1000000 -5193 -11050 0
1000000 -5194 -11248 0
1000000 -5195 -11483 0
1000000 -5196 -9761 0
1000000 -5197 -11491 0
1000000 -5198 -10808 0
1000000 -5199 -10497 0
1000000 -5200 -10144 0
1000000 -5201 -10785 0
1000000 -5202 -10184 0
1000000 -5203 -10469 0
1000000 -5204 -10916 0
1000000 -5205 -10072 0
1000000 -5206 -11697 0
1000000 -5207 -11560 0
1000000 -5208 -9935 0
1000000 -5209 -11728 0
1000000 -5210 -10671 0
1000000 -5211 -11158 0
1000000 -5212 -11416 0
1000000 -5213 -9840 0
1000000 -5214 -10741 0
1000000 -5215 -10698 0
1000000 -5216 -11524 0
1000000 -5217 -11749 0
1000000 -5218 -10908 0
1000000 -5219 -10958 0
1000000 -5220 -10205 0
1000000 -5221 -11819 0
1000000 -5222 -10698 0
1000000 -5223 -9884 0
1000000 -5224 -11213 0
1000000 -5225 -11543 0
1000000 -5226 -10481 0
1000000 -5227 -11486 0
1000000 -5228 -10386 0
1000000 -5229 -10774 0
1000000 -5230 -9870 0
1000000 -5231 -11030 0
1000000 -5232 -10044 0
1000000 -5233 -11127 0
1000000 -5234 -10223 0
1000000 -5235 -10576 0
1000000 -5236 -11646 0
1000000 -5237 -10410 0
1000000 -5238 -11302 0
1000000 -5239 -10822 0
1000000 -5240 -10532 0
1000000 -5241 -10694 0
1000000 -5242 -11701 0
1000000 -5243 -9992 0
1000000 -5244 -10361 0
1000000 -5245 -11025 0
1000000 -5246 -9720 0
1000000 -5247 -11201 0
1000000 -5248 -11788 0
1000000 -5249 -9755 0
1000000 -5250 -10732 0
1000000 -5251 -9688 0
1000000 -5252 -10840 0
1000000 -5253 -9924 0
1000000 -5254 -11386 0
1000000 -5255 -10587 0
1000000 -5256 -10648 0
1000000 -5257 -9601 0
1000000 -5258 -10950 0
1000000 -5259 -9612 0
1000000 -5260 -10717 0
1000000 -5261 -9719 0
1000000 -5262 -11754 0
1000000 -5263 -10714 0
1000000 -5264 -9807 0
1000000 -5265 -11840 0
1000000 -5266 -10287 0
1000000 -5267 -10154 0
1000000 -5268 -11301 0
1000000 -5269 -10149 0
1000000 -5270 -9699 0
1000000 -5271 -11712 0
1000000 -5272 -10435 0
1000000 -5273 -11184 0
1000000 -5274 -10885 0
1000000 -5275 -10305 0
1000000 -5276 -10746 0
1000000 -5277 -11647 0
1000000 -5278 -11726 0
1000000 -5279 -11145 0
1000000 -5280 -11763 0
1000000 -5281 -11030 0
1000000 -5282 -11676 0
1000000 -5283 -9761 0
1000000 -5284 -9808 0
1000000 -5285 -11228 0
1000000 -5286 -11846 0
1000000 -5287 -11343 0
1000000 -5288 -11198 0
1000000 -5289 -11091 0
1000000 -5290 -10626 0
1000000 -5291 -10089 0
1000000 -5292 -11346 0
1000000 -5293 -10558 0
1000000 -5294 -11111 0
1000000 -5295 -10742 0
1000000 -5296 -9680 0
1000000 -5297 -11410 0
1000000 -5298 -11508 0
1000000 -5299 -10893 0
1000000 -5300 -10683 0
1000000 -5301 -11605 0
1000000 -5302 -11606 0
1000000 -5303 -10044 0
1000000 -5304 -9954 0
1000000 -5305 -10730 0
1000000 -5306 -11553 0
1000000 -5307 -11311 0
1000000 -5308 -10661 0
1000000 -5309 -10453 0
1000000 -5310 -10202 0
1000000 -5311 -9981 0
1000000 -5312 -11777 0
1000000 -5313 -10609 0
1000000 -5314 -10169 0
1000000 -5315 -10728 0
1000000 -5316 -10671 0
1000000 -5317 -9841 0
1000000 -5318 -9938 0
1000000 -5319 -11379 0
1000000 -5320 -10269 0
1000000 -5321 -10939 0
1000000 -5322 -9673 0
1000000 -5323 -9948 0
1000000 -5324 -10288 0
1000000 -5325 -10660 0
1000000 -5326 -11611 0
1000000 -5327 -11347 0
1000000 -5328 -11538 0
1000000 -5329 -11651 0
1000000 -5330 -10538 0
1000000 -5331 -9963 0
1000000 -5332 -10506 0
1000000 -5333 -11289 0
1000000 -5334 -10771 0
1000000 -5335 -11542 0
1000000 -5336 -10150 0
1000000 -5337 -11312 0
1000000 -5338 -11156 0
1000000 -5339 -10875 0
1000000 -5340 -10299 0
1000000 -5341 -11372 0
1000000 -5342 -9798 0
1000000 -5343 -10818 0
1000000 -5344 -11483 0
1000000 -5345 -11719 0
1000000 -5346 -11707 0
1000000 -5347 -10213 0
1000000 -5348 -11304 0
1000000 -5349 -10830 0
1000000 -5350 -10486 0
1000000 -5351 -10297 0
1000000 -5352 -11073 0
1000000 -5353 -11236 0
1000000 -5354 -10195 0
1000000 -5355 -9743 0
1000000 -5356 -11144 0
1000000 -5357 -11434 0
1000000 -5358 -9856 0
1000000 -5359 -11331 0
1000000 -5360 -9916 0
1000000 -5361 -10081 0
1000000 -5362 -9843 0
1000000 -5363 -9940 0
1000000 -5364 -10941 0
1000000 -5365 -10248 0
1000000 -5366 -11054 0
1000000 -5367 -9828 0
1000000 -5368 -10494 0
1000000 -5369 -10533 0
1000000 -5370 -11413 0
1000000 -5371 -10640 0
1000000 -5372 -10146 0
1000000 -5373 -10630 0
1000000 -5374 -10820 0
1000000 -5375 -11452 0
1000000 -5376 -10603 0
1000000 -5377 -11316 0
1000000 -5378 -10641 0
1000000 -5379 -10781 0
1000000 -5380 -10487 0
1000000 -5381 -10482 0
1000000 -5382 -11379 0
1000000 -5383 -9928 0
1000000 -5384 -9646 0
1000000 -5385 -9984 0
1000000 -5386 -10832 0
1000000 -5387 -10697 0
1000000 -5388 -11086 0
1000000 -5389 -10938 0
1000000 -5390 -11767 0
1000000 -5391 -11321 0
1000000 -5392 -9960 0
1000000 -5393 -10969 0
1000000 -5394 -11003 0
1000000 -5395 -11765 0
1000000 -5396 -11814 0
1000000 -5397 -10013 0
1000000 -5398 -10738 0
1000000 -5399 -9742 0
1000000 -5400 -10319 0
1000000 -5401 -10572 0
1000000 -5402 -10875 0
1000000 -5403 -11073 0
1000000 -5404 -11125 0
1000000 -5405 -11761 0
1000000 -5406 -10889 0
1000000 -5407 -10777 0
1000000 -5408 -10963 0
1000000 -5409 -11217 0
1000000 -5410 -11499 0
1000000 -5411 -11062 0
1000000 -5412 -10985 0
1000000 -5413 -10530 0
1000000 -5414 -10031 0
1000000 -5415 -11241 0
1000000 -5416 -11327 0
1000000 -5417 -11291 0
1000000 -5418 -9800 0
1000000 -5419 -9801 0
1000000 -5420 -11775 0
1000000 -5421 -11681 0
1000000 -5422 -10791 0
1000000 -5423 -10166 0
1000000 -5424 -9925 0
1000000 -5425 -11312 0
1000000 -5426 -10976 0
1000000 -5427 -9922 0
1000000 -5428 -11611 0
1000000 -5429 -10413 0
1000000 -5430 -10903 0
1000000 -5431 -11478 0
1000000 -5432 -11094 0
1000000 -5433 -11168 0
1000000 -5434 -11675 0
1000000 -5435 -11169 0
1000000 -5436 -9881 0
1000000 -5437 -10879 0
1000000 -5438 -10617 0
1000000 -5439 -11618 0
1000000 -5440 -10156 0
1000000 -5441 -9640 0
1000000 -5442 -11811 0
1000000 -5443 -9635 0
1000000 -5444 -11586 0
1000000 -5445 -9616 0
1000000 -5446 -9879 0
1000000 -5447 -10471 0
1000000 -5448 -11262 0
1000000 -5449 -11061 0
1000000 -5450 -10732 0
1000000 -5451 -9614 0
1000000 -5452 -11435 0
1000000 -5453 -11330 0
1000000 -5454 -11641 0
1000000 -5455 -11361 0
1000000 -5456 -10521 0
1000000 -5457 -10034 0
1000000 -5458 -11708 0
1000000 -5459 -10102 0
1000000 -5460 -11098 0
1000000 -5461 -11053 0
1000000 -5462 -11318 0
1000000 -5463 -11443 0
1000000 -5464 -11260 0
1000000 -5465 -11403 0
1000000 -5466 -11689 0
1000000 -5467 -10066 0
1000000 -5468 -10762 0
1000000 -5469 -10258 0
1000000 -5470 -11281 0
1000000 -5471 -10151 0
1000000 -5472 -9649 0
1000000 -5473 -11249 0
1000000 -5474 -9735 0
1000000 -5475 -11530 0
1000000 -5476 -11569 0
1000000 -5477 -10830 0
1000000 -5478 -10540 0
1000000 -5479 -10428 0
1000000 -5480 -9935 0
1000000 -5481 -10053 0
1000000 -5482 -11143 0
1000000 -5483 -11026 0
1000000 -5484 -11029 0
1000000 -5485 -10270 0
1000000 -5486 -11664 0
1000000 -5487 -10376 0
1000000 -5488 -11478 0
1000000 -5489 -10409 0
1000000 -5490 -11065 0
1000000 -5491 -11234 0
1000000 -5492 -9610 0
1000000 -5493 -11531 0
1000000 -5494 -11476 0
1000000 -5495 -10362 0
1000000 -5496 -10480 0
1000000 -5497 -9706 0
1000000 -5498 -10273 0
1000000 -5499 -9895 0
1000000 -5500 -10234 0
1000000 -5501 -9717 0
1000000 -5502 -9733 0
1000000 -5503 -11779 0
1000000 -5504 -9875 0
1000000 -5505 -10372 0
1000000 -5506 -10233 0
1000000 -5507 -10959 0
1000000 -5508 -9870 0
1000000 -5509 -11112 0
1000000 -5510 -10568 0
1000000 -5511 -11732 0
1000000 -5512 -9733 0
1000000 -5513 -10276 0
1000000 -5514 -10206 0
1000000 -5515 -9624 0
1000000 -5516 -10852 0
1000000 -5517 -11064 0
1000000 -5518 -10122 0
1000000 -5519 -10453 0
1000000 -5520 -10737 0
1000000 -5521 -10115 0
1000000 -5522 -10282 0
1000000 -5523 -11323 0
1000000 -5524 -9678 0
1000000 -5525 -10490 0
1000000 -5526 -10935 0
1000000 -5527 -11179 0
1000000 -5528 -10634 0
1000000 -5529 -10400 0
1000000 -5530 -9781 0
1000000 -5531 -10611 0
1000000 -5532 -11088 0
1000000 -5533 -10022 0
1000000 -5534 -11598 0
1000000 -5535 -9609 0
1000000 -5536 -9874 0
1000000 -5537 -10440 0
1000000 -5538 -10906 0
1000000 -5539 -11112 0
1000000 -5540 -10827 0
1000000 -5541 -10363 0
1000000 -5542 -9614 0
1000000 -5543 -9818 0
1000000 -5544 -9921 0
1000000 -5545 -10529 0
1000000 -5546 -9668 0
1000000 -5547 -11515 0
1000000 -5548 -10195 0
1000000 -5549 -11723 0
1000000 -5550 -11311 0
1000000 -5551 -10457 0
1000000 -5552 -9908 0
1000000 -5553 -9666 0
1000000 -5554 -10507 0
1000000 -5555 -10524 0
1000000 -5556 -11214 0
1000000 -5557 -9716 0
1000000 -5558 -10683 0
1000000 -5559 -11301 0
1000000 -5560 -10412 0
1000000 -5561 -10912 0
1000000 -5562 -10525 0
1000000 -5563 -10183 0
1000000 -5564 -11001 0
1000000 -5565 -9779 0
1000000 -5566 -10415 0
1000000 -5567 -10752 0
1000000 -5568 -11069 0
1000000 -5569 -11159 0
1000000 -5570 -11474 0
1000000 -5571 -9611 0
1000000 -5572 -11309 0
1000000 -5573 -10189 0
1000000 -5574 -9862 0
1000000 -5575 -10163 0
1000000 -5576 -10806 0
1000000 -5577 -10684 0
1000000 -5578 -11206 0
1000000 -5579 -9638 0
1000000 -5580 -10512 0
1000000 -5581 -10892 0
1000000 -5582 -11780 0
1000000 -5583 -11057 0
1000000 -5584 -9732 0
1000000 -5585 -9809 0
1000000 -5586 -10880 0
1000000 -5587 -10613 0
1000000 -5588 -11460 0
1000000 -5589 -10495 0
1000000 -5590 -10133 0
1000000 -5591 -11444 0
1000000 -5592 -9762 0
1000000 -5593 -10116 0
1000000 -5594 -10986 0
1000000 -5595 -10618 0
1000000 -5596 -10213 0
1000000 -5597 -11337 0
1000000 -5598 -11706 0
1000000 -5599 -10942 0
1000000 -5600 -9780 0
1000000 -5601 -11487 0
1000000 -5602 -9893 0
1000000 -5603 -11016 0
1000000 -5604 -10319 0
1000000 -5605 -11759 0
1000000 -5606 -10415 0
1000000 -5607 -11496 0
1000000 -5608 -10553 0
1000000 -5609 -10800 0
1000000 -5610 -10702 0
1000000 -5611 -11578 0
1000000 -5612 -10181 0
1000000 -5613 -10409 0
1000000 -5614 -11833 0
1000000 -5615 -10474 0
1000000 -5616 -11157 0
1000000 -5617 -10878 0
1000000 -5618 -11268 0
1000000 -5619 -9839 0
1000000 -5620 -11035 0
1000000 -5621 -10727 0
1000000 -5622 -9782 0
1000000 -5623 -10006 0
1000000 -5624 -10602 0
1000000 -5625 -10414 0
1000000 -5626 -10710 0
1000000 -5627 -11578 0
1000000 -5628 -10050 0
1000000 -5629 -11505 0
1000000 -5630 -10232 0
1000000 -5631 -10850 0
1000000 -5632 -11082 0
1000000 -5633 -10310 0
1000000 -5634 -11593 0
1000000 -5635 -11407 0
1000000 -5636 -10403 0
1000000 -5637 -11691 0
1000000 -5638 -11526 0
1000000 -5639 -11666 0
1000000 -5640 -10789 0
1000000 -5641 -11200 0
1000000 -5642 -11454 0
1000000 -5643 -11795 0
1000000 -5644 -9661 0
1000000 -5645 -10653 0
1000000 -5646 -10861 0
1000000 -5647 -11492 0
1000000 -5648 -10031 0
1000000 -5649 -11037 0
1000000 -5650 -11366 0
1000000 -5651 -11688 0
1000000 -5652 -11461 0
1000000 -5653 -10022 0
1000000 -5654 -9973 0
1000000 -5655 -10387 0
1000000 -5656 -10379 0
1000000 -5657 -9894 0
1000000 -5658 -10691 0
1000000 -5659 -11297 0
1000000 -5660 -10331 0
1000000 -5661 -11778 0
1000000 -5662 -10971 0
1000000 -5663 -9603 0
1000000 -5664 -11739 0
1000000 -5665 -11846 0
1000000 -5666 -10729 0
1000000 -5667 -10954 0
1000000 -5668 -10392 0
1000000 -5669 -10479 0
1000000 -5670 -10760 0
1000000 -5671 -11626 0
1000000 -5672 -11284 0
1000000 -5673 -9738 0
1000000 -5674 -10489 0
1000000 -5675 -11520 0
1000000 -5676 -10100 0
1000000 -5677 -10913 0
1000000 -5678 -10668 0
1000000 -5679 -10418 0
1000000 -5680 -10915 0
1000000 -5681 -10326 0
1000000 -5682 -11453 0
1000000 -5683 -9743 0
1000000 -5684 -9900 0
1000000 -5685 -11844 0
1000000 -5686 -10120 0
1000000 -5687 -9984 0
1000000 -5688 -10105 0
1000000 -5689 -11249 0
1000000 -5690 -10243 0
1000000 -5691 -10243 0
1000000 -5692 -10315 0
1000000 -5693 -11781 0
1000000 -5694 -11064 0
1000000 -5695 -9669 0
1000000 -5696 -10133 0
1000000 -5697 -11102 0
1000000 -5698 -10410 0
1000000 -5699 -11422 0
1000000 -5700 -11555 0
1000000 -5701 -10783 0
1000000 -5702 -11134 0
1000000 -5703 -9667 0
1000000 -5704 -11278 0
1000000 -5705 -10032 0
1000000 -5706 -11292 0
1000000 -5707 -10884 0
1000000 -5708 -10294 0
1000000 -5709 -10723 0
1000000 -5710 -9711 0
1000000 -5711 -11228 0
1000000 -5712 -9655 0
1000000 -5713 -11185 0
1000000 -5714 -11566 0
1000000 -5715 -10841 0
1000000 -5716 -11242 0
1000000 -5717 -11804 0
1000000 -5718 -10194 0
1000000 -5719 -10139 0
1000000 -5720 -11229 0
1000000 -5721 -10410 0
1000000 -5722 -10537 0
1000000 -5723 -10886 0
1000000 -5724 -10848 0
1000000 -5725 -10695 0
1000000 -5726 -10017 0
1000000 -5727 -11094 0
1000000 -5728 -10553 0
1000000 -5729 -11074 0
1000000 -5730 -11451 0
1000000 -5731 -9937 0
1000000 -5732 -9725 0
1000000 -5733 -11060 0
1000000 -5734 -11141 0
1000000 -5735 -10169 0
1000000 -5736 -10978 0
1000000 -5737 -10963 0
1000000 -5738 -9811 0
1000000 -5739 -9807 0
1000000 -5740 -11808 0
1000000 -5741 -10514 0
1000000 -5742 -11044 0
1000000 -5743 -11765 0
1000000 -5744 -9700 0
1000000 -5745 -11082 0
1000000 -5746 -10295 0
1000000 -5747 -11183 0
1000000 -5748 -9973 0
1000000 -5749 -10696 0
1000000 -5750 -11206 0
1000000 -5751 -10813 0
1000000 -5752 -11389 0
1000000 -5753 -9848 0
1000000 -5754 -11587 0
1000000 -5755 -11156 0
1000000 -5756 -10630 0
1000000 -5757 -10428 0
1000000 -5758 -11373 0
1000000 -5759 -11428 0
1000000 -5760 -9612 0
1000000 -5761 -11378 0
1000000 -5762 -10717 0
1000000 -5763 -10301 0
1000000 -5764 -10394 0
1000000 -5765 -9991 0
1000000 -5766 -9775 0
1000000 -5767 -11752 0
1000000 -5768 -10129 0
1000000 -5769 -10919 0
1000000 -5770 -10716 0
1000000 -5771 -10533 0
1000000 -5772 -10068 0
1000000 -5773 -9791 0
1000000 -5774 -10986 0
1000000 -5775 -10360 0
1000000 -5776 -11197 0
1000000 -5777 -9997 0
1000000 -5778 -11491 0
1000000 -5779 -11320 0
1000000 -5780 -11585 0
1000000 -5781 -11656 0
1000000 -5782 -11009 0
1000000 -5783 -11468 0
1000000 -5784 -10815 0
1000000 -5785 -11342 0
1000000 -5786 -11471 0
1000000 -5787 -11376 0
1000000 -5788 -10102 0
1000000 -5789 -11793 0
1000000 -5790 -10406 0
1000000 -5791 -11477 0
1000000 -5792 -11427 0
1000000 -5793 -11694 0
1000000 -5794 -11565 0
1000000 -5795 -11055 0
1000000 -5796 -10259 0
1000000 -5797 -10189 0
1000000 -5798 -11710 0
1000000 -5799 -10454 0
1000000 -5800 -11327 0
1000000 -5801 -11280 0
1000000 -5802 -10401 0
1000000 -5803 -11084 0
1000000 -5804 -10529 0
1000000 -5805 -10338 0
1000000 -5806 -10404 0
1000000 -5807 -9626 0
1000000 -5808 -10078 0
1000000 -5809 -10119 0
1000000 -5810 -11446 0
1000000 -5811 -11616 0
1000000 -5812 -10904 0
1000000 -5813 -10322 0
1000000 -5814 -10687 0
1000000 -5815 -9889 0
1000000 -5816 -10189 0
1000000 -5817 -10775 0
1000000 -5818 -10381 0
1000000 -5819 -11609 0
1000000 -5820 -10403 0
1000000 -5821 -10448 0
1000000 -5822 -9846 0
1000000 -5823 -11451 0
1000000 -5824 -10157 0
1000000 -5825 -10875 0
1000000 -5826 -10055 0
1000000 -5827 -10124 0
1000000 -5828 -11181 0
1000000 -5829 -9763 0
1000000 -5830 -10360 0
1000000 -5831 -10911 0
1000000 -5832 -10424 0
1000000 -5833 -11645 0
1000000 -5834 -10208 0
1000000 -5835 -10223 0
1000000 -5836 -10716 0
1000000 -5837 -10283 0
1000000 -5838 -10955 0
1000000 -5839 -11532 0
1000000 -5840 -10020 0
1000000 -5841 -11345 0
1000000 -5842 -11083 0
1000000 -5843 -11665 0
1000000 -5844 -10898 0
1000000 -5845 -11371 0
1000000 -5846 -10501 0
1000000 -5847 -11520 0
1000000 -5848 -10421 0
1000000 -5849 -11711 0
1000000 -5850 -10368 0
1000000 -5851 -11198 0
1000000 -5852 -9836 0
1000000 -5853 -10329 0
1000000 -5854 -10375 0
1000000 -5855 -10552 0
1000000 -5856 -9665 0
1000000 -5857 -11734 0
1000000 -5858 -11319 0
1000000 -5859 -10604 0
1000000 -5860 -10341 0
1000000 -5861 -11099 0
1000000 -5862 -11354 0
1000000 -5863 -10749 0
1000000 -5864 -11165 0
1000000 -5865 -10654 0
1000000 -5866 -10867 0
1000000 -5867 -11672 0
1000000 -5868 -10046 0
1000000 -5869 -10142 0
1000000 -5870 -10887 0
1000000 -5871 -11190 0
1000000 -5872 -10988 0
1000000 -5873 -10193 0
1000000 -5874 -11717 0
1000000 -5875 -10750 0
1000000 -5876 -9814 0
1000000 -5877 -10681 0
1000000 -5878 -9605 0
1000000 -5879 -9969 0
1000000 -5880 -10940 0
1000000 -5881 -11666 0
1000000 -5882 -9619 0
1000000 -5883 -10283 0
1000000 -5884 -10471 0
1000000 -5885 -11635 0
1000000 -5886 -10368 0
1000000 -5887 -11103 0
1000000 -5888 -10040 0
1000000 -5889 -10480 0
1000000 -5890 -10341 0
1000000 -5891 -11274 0
1000000 -5892 -10507 0
1000000 -5893 -9753 0
1000000 -5894 -11289 0
1000000 -5895 -11537 0
1000000 -5896 -10473 0
1000000 -5897 -9897 0
1000000 -5898 -11491 0
1000000 -5899 -10990 0
1000000 -5900 -10344 0
1000000 -5901 -10914 0
1000000 -5902 -9669 0
1000000 -5903 -10742 0
1000000 -5904 -9691 0
1000000 -5905 -11455 0
1000000 -5906 -11688 0
1000000 -5907 -11561 0
1000000 -5908 -11665 0
1000000 -5909 -11298 0
1000000 -5910 -10527 0
1000000 -5911 -10803 0
1000000 -5912 -10988 0
1000000 -5913 -10675 0
1000000 -5914 -9654 0
1000000 -5915 -11160 0
1000000 -5916 -10820 0
1000000 -5917 -9723 0
1000000 -5918 -11244 0
1000000 -5919 -11173 0
1000000 -5920 -11348 0
1000000 -5921 -9852 0
1000000 -5922 -11097 0
1000000 -5923 -11784 0
1000000 -5924 -11137 0
1000000 -5925 -11720 0
1000000 -5926 -10459 0
1000000 -5927 -11256 0
1000000 -5928 -11124 0
1000000 -5929 -11653 0
1000000 -5930 -11842 0
1000000 -5931 -11603 0
1000000 -5932 -11681 0
1000000 -5933 -11238 0
1000000 -5934 -11004 0
1000000 -5935 -11460 0
1000000 -5936 -11741 0
1000000 -5937 -11631 0
1000000 -5938 -11551 0
1000000 -5939 -11509 0
1000000 -5940 -10348 0
1000000 -5941 -9966 0
1000000 -5942 -10408 0
1000000 -5943 -11014 0
1000000 -5944 -9881 0
1000000 -5945 -10763 0
1000000 -5946 -10028 0
1000000 -5947 -10826 0
1000000 -5948 -11528 0
1000000 -5949 -9827 0
1000000 -5950 -10240 0
1000000 -5951 -11328 0
1000000 -5952 -11377 0
1000000 -5953 -10079 0
1000000 -5954 -10385 0
1000000 -5955 -11208 0
1000000 -5956 -11842 0
1000000 -5957 -10630 0
1000000 -5958 -9747 0
1000000 -5959 -11452 0
1000000 -5960 -11392 0
1000000 -5961 -10314 0
1000000 -5962 -10468 0
1000000 -5963 -11624 0
1000000 -5964 -9959 0
1000000 -5965 -10949 0
1000000 -5966 -11089 0
1000000 -5967 -11342 0
1000000 -5968 -10721 0
1000000 -5969 -10842 0
1000000 -5970 -10392 0
1000000 -5971 -9974 0
1000000 -5972 -10035 0
1000000 -5973 -10509 0
1000000 -5974 -11643 0
1000000 -5975 -9899 0
1000000 -5976 -11722 0
1000000 -5977 -10813 0
1000000 -5978 -10600 0
1000000 -5979 -10346 0
1000000 -5980 -10653 0
1000000 -5981 -9785 0
1000000 -5982 -11144 0
1000000 -5983 -11478 0
1000000 -5984 -10421 0
1000000 -5985 -11138 0
1000000 -5986 -11537 0
1000000 -5987 -9927 0
1000000 -5988 -9874 0
1000000 -5989 -9900 0
1000000 -5990 -10276 0
1000000 -5991 -10033 0
1000000 -5992 -11633 0
1000000 -5993 -11587 0
1000000 -5994 -9614 0
1000000 -5995 -10429 0
1000000 -5996 -10418 0
1000000 -5997 -10618 0
1000000 -5998 -10888 0
1000000 -5999 -10067 0
1000000 -6000 -9900 0
1000000 -6001 -11005 0
1000000 -6002 -10570 0
1000000 -6003 -11828 0
1000000 -6004 -10171 0
1000000 -6005 -11415 0
1000000 -6006 -11760 0
1000000 -6007 -11349 0
1000000 -6008 -10120 0
1000000 -6009 -9920 0
1000000 -6010 -11448 0
1000000 -6011 -11278 0
1000000 -6012 -11377 0
1000000 -6013 -10554 0
1000000 -6014 -10611 0
1000000 -6015 -10595 0
1000000 -6016 -9947 0
1000000 -6017 -10889 0
1000000 -6018 -10339 0
1000000 -6019 -11008 0
1000000 -6020 -10607 0
1000000 -6021 -9650 0
1000000 -6022 -9844 0
1000000 -6023 -11695 0
1000000 -6024 -11246 0
1000000 -6025 -9795 0
1000000 -6026 -9772 0
1000000 -6027 -9656 0
1000000 -6028 -9713 0
1000000 -6029 -11426 0
1000000 -6030 -9680 0
1000000 -6031 -11679 0
1000000 -6032 -9850 0
1000000 -6033 -11817 0
1000000 -6034 -10685 0
1000000 -6035 -11090 0
1000000 -6036 -11726 0
1000000 -6037 -10026 0
1000000 -6038 -11317 0
1000000 -6039 -10253 0
1000000 -6040 -10594 0
1000000 -6041 -9894 0
1000000 -6042 -10423 0
1000000 -6043 -11429 0
1000000 -6044 -10491 0
1000000 -6045 -9615 0
1000000 -6046 -10118 0
1000000 -6047 -10191 0
1000000 -6048 -10297 0
1000000 -6049 -11338 0
1000000 -6050 -10614 0
1000000 -6051 -11284 0
1000000 -6052 -9987 0
1000000 -6053 -11685 0
1000000 -6054 -10785 0
1000000 -6055 -10895 0
1000000 -6056 -10996 0
1000000 -6057 -10804 0
1000000 -6058 -10175 0
1000000 -6059 -11209 0
1000000 -6060 -11229 0
1000000 -6061 -9821 0
1000000 -6062 -10490 0
1000000 -6063 -11251 0
1000000 -6064 -9625 0
1000000 -6065 -10930 0
1000000 -6066 -11089 0
1000000 -6067 -10916 0
1000000 -6068 -10161 0
1000000 -6069 -9905 0
1000000 -6070 -11425 0
1000000 -6071 -10322 0
1000000 -6072 -9839 0
1000000 -6073 -10584 0
1000000 -6074 -11821 0
1000000 -6075 -11777 0
1000000 -6076 -9768 0
1000000 -6077 -11077 0
1000000 -6078 -9926 0
1000000 -6079 -9967 0
1000000 -6080 -9742 0
1000000 -6081 -10327 0
1000000 -6082 -10081 0
1000000 -6083 -10910 0
1000000 -6084 -11786 0
1000000 -6085 -10398 0
1000000 -6086 -10900 0
1000000 -6087 -11534 0
1000000 -6088 -10506 0
1000000 -6089 -9871 0
1000000 -6090 -11295 0
1000000 -6091 -11540 0
1000000 -6092 -9821 0
1000000 -6093 -10139 0
1000000 -6094 -10406 0
1000000 -6095 -9741 0
1000000 -6096 -10020 0
1000000 -6097 -10427 0
1000000 -6098 -11529 0
1000000 -6099 -10738 0
1000000 -6100 -10056 0
1000000 -6101 -11264 0
1000000 -6102 -10438 0
1000000 -6103 -11384 0
1000000 -6104 -10612 0
1000000 -6105 -11142 0
1000000 -6106 -10167 0
1000000 -6107 -10836 0
1000000 -6108 -10382 0
1000000 -6109 -10600 0
1000000 -6110 -10885 0
1000000 -6111 -11471 0
1000000 -6112 -9878 0
1000000 -6113 -11760 0
1000000 -6114 -11179 0
1000000 -6115 -11196 0
1000000 -6116 -11077 0
1000000 -6117 -9635 0
1000000 -6118 -10090 0
1000000 -6119 -11706 0
1000000 -6120 -9857 0
1000000 -6121 -11237 0
1000000 -6122 -10370 0
1000000 -6123 -11180 0
1000000 -6124 -10241 0
1000000 -6125 -10736 0
1000000 -6126 -10748 0
1000000 -6127 -11033 0
1000000 -6128 -10734 0
1000000 -6129 -10497 0
1000000 -6130 -10267 0
1000000 -6131 -10061 0
1000000 -6132 -9777 0
1000000 -6133 -9983 0
1000000 -6134 -9624 0
1000000 -6135 -10216 0
1000000 -6136 -11269 0
1000000 -6137 -9933 0
1000000 -6138 -11132 0
1000000 -6139 -9876 0
1000000 -6140 -10212 0
1000000 -6141 -10706 0
1000000 -6142 -10336 0
1000000 -6143 -10280 0
1000000 -6144 -10849 0
1000000 -6145 -10385 0
1000000 -6146 -11704 0
1000000 -6147 -10617 0
1000000 -6148 -9713 0
1000000 -6149 -11118 0
1000000 -6150 -10231 0
1000000 -6151 -10164 0
1000000 -6152 -11467 0
1000000 -6153 -11545 0
1000000 -6154 -11253 0
1000000 -6155 -9667 0
1000000 -6156 -10146 0
1000000 -6157 -10664 0
1000000 -6158 -10312 0
1000000 -6159 -11443 0
1000000 -6160 -10877 0
1000000 -6161 -9978 0
1000000 -6162 -10757 0
1000000 -6163 -10252 0
1000000 -6164 -10244 0
1000000 -6165 -11591 0
1000000 -6166 -10539 0
1000000 -6167 -9963 0
1000000 -6168 -10778 0
1000000 -6169 -11848 0
1000000 -6170 -10011 0
1000000 -6171 -11770 0
1000000 -6172 -10525 0
1000000 -6173 -10302 0
1000000 -6174 -11355 0
1000000 -6175 -11166 0
1000000 -6176 -11457 0
1000000 -6177 -11810 0
1000000 -6178 -10472 0
1000000 -6179 -11075 0
1000000 -6180 -11563 0
1000000 -6181 -11394 0
1000000 -6182 -10393 0
1000000 -6183 -10765 0
1000000 -6184 -10130 0
1000000 -6185 -10074 0
1000000 -6186 -10415 0
1000000 -6187 -11449 0
1000000 -6188 -11191 0
1000000 -6189 -10758 0
1000000 -6190 -9904 0
1000000 -6191 -10883 0
1000000 -6192 -9951 0
1000000 -6193 -11146 0
1000000 -6194 -11469 0
1000000 -6195 -9677 0
1000000 -6196 -11155 0
1000000 -6197 -11023 0
1000000 -6198 -11244 0
1000000 -6199 -9837 0
1000000 -6200 -11043 0
1000000 -6201 -10612 0
1000000 -6202 -10861 0
1000000 -6203 -10291 0
1000000 -6204 -10218 0
1000000 -6205 -11144 0
1000000 -6206 -10835 0
1000000 -6207 -11365 0
1000000 -6208 -11573 0
1000000 -6209 -11048 0
1000000 -6210 -11556 0
1000000 -6211 -10983 0
1000000 -6212 -9924 0
1000000 -6213 -11602 0
1000000 -6214 -11302 0
1000000 -6215 -10273 0
1000000 -6216 -10544 0
1000000 -6217 -10366 0
1000000 -6218 -10774 0
1000000 -6219 -9921 0
1000000 -6220 -10264 0
1000000 -6221 -10771 0
1000000 -6222 -10344 0
1000000 -6223 -11081 0
1000000 -6224 -10136 0
1000000 -6225 -10113 0
1000000 -6226 -9721 0
1000000 -6227 -11265 0
1000000 -6228 -11678 0
1000000 -6229 -11457 0
1000000 -6230 -10667 0
1000000 -6231 -11579 0
1000000 -6232 -10192 0
1000000 -6233 -10841 0
1000000 -6234 -11012 0
1000000 -6235 -10944 0
1000000 -6236 -11625 0
1000000 -6237 -10184 0
1000000 -6238 -10979 0
1000000 -6239 -10751 0
1000000 -6240 -11362 0
1000000 -6241 -11133 0
1000000 -6242 -10036 0
1000000 -6243 -10616 0
1000000 -6244 -11301 0
1000000 -6245 -10114 0
1000000 -6246 -9647 0
1000000 -6247 -11113 0
1000000 -6248 -10222 0
1000000 -6249 -10909 0
1000000 -6250 -10695 0
1000000 -6251 -11141 0
1000000 -6252 -11464 0
1000000 -6253 -10572 0
1000000 -6254 -10332 0
1000000 -6255 -10783 0
1000000 -6256 -11272 0
1000000 -6257 -10285 0
1000000 -6258 -10984 0
1000000 -6259 -10673 0
1000000 -6260 -11426 0
1000000 -6261 -11172 0
1000000 -6262 -11063 0
1000000 -6263 -11848 0
1000000 -6264 -10651 0
1000000 -6265 -9888 0
1000000 -6266 -9707 0
1000000 -6267 -10999 0
1000000 -6268 -10113 0
1000000 -6269 -9944 0
1000000 -6270 -11835 0
1000000 -6271 -9816 0
1000000 -6272 -11281 0
1000000 -6273 -11508 0
1000000 -6274 -10945 0
1000000 -6275 -11828 0
1000000 -6276 -10206 0
1000000 -6277 -9635 0
1000000 -6278 -11480 0
1000000 -6279 -11406 0
1000000 -6280 -10662 0
1000000 -6281 -9666 0
1000000 -6282 -11122 0
1000000 -6283 -11079 0
1000000 -6284 -9682 0
1000000 -6285 -11675 0
1000000 -6286 -10774 0
1000000 -6287 -11037 0
1000000 -6288 -10939 0
1000000 -6289 -9673 0
1000000 -6290 -11816 0
1000000 -6291 -11850 0
1000000 -6292 -10426 0
1000000 -6293 -10020 0
1000000 -6294 -10569 0
1000000 -6295 -9769 0
1000000 -6296 -11817 0
1000000 -6297 -11755 0
1000000 -6298 -9817 0
1000000 -6299 -10451 0
1000000 -6300 -10018 0
1000000 -6301 -10496 0
1000000 -6302 -9872 0
1000000 -6303 -10112 0
1000000 -6304 -9660 0
1000000 -6305 -11018 0
1000000 -6306 -9972 0
1000000 -6307 -10132 0
1000000 -6308 -10035 0
1000000 -6309 -10282 0
1000000 -6310 -10686 0
1000000 -6311 -9849 0
1000000 -6312 -11227 0
1000000 -6313 -9931 0
1000000 -6314 -10362 0
1000000 -6315 -10828 0
1000000 -6316 -10460 0
1000000 -6317 -11506 0
1000000 -6318 -9998 0
1000000 -6319 -10788 0
1000000 -6320 -10831 0
1000000 -6321 -10634 0
1000000 -6322 -10512 0
1000000 -6323 -11756 0
1000000 -6324 -11522 0
1000000 -6325 -10660 0
1000000 -6326 -9863 0
1000000 -6327 -10394 0
1000000 -6328 -9620 0
1000000 -6329 -10043 0
1000000 -6330 -11139 0
1000000 -6331 -10004 0
1000000 -6332 -10557 0
1000000 -6333 -10353 0
1000000 -6334 -11129 0
1000000 -6335 -10489 0
1000000 -6336 -11555 0
1000000 -6337 -9918 0
1000000 -6338 -11177 0
1000000 -6339 -10320 0
1000000 -6340 -11727 0
1000000 -6341 -9851 0
1000000 -6342 -10523 0
1000000 -6343 -10370 0
1000000 -6344 -9976 0
1000000 -6345 -10101 0
1000000 -6346 -11680 0
1000000 -6347 -9926 0
1000000 -6348 -11564 0
1000000 -6349 -9645 0
1000000 -6350 -10178 0
1000000 -6351 -10679 0
1000000 -6352 -11554 0
1000000 -6353 -9772 0
1000000 -6354 -9855 0
1000000 -6355 -10597 0
1000000 -6356 -10804 0
1000000 -6357 -10760 0
1000000 -6358 -10451 0
1000000 -6359 -10441 0
1000000 -6360 -9670 0
1000000 -6361 -11699 0
1000000 -6362 -10297 0
1000000 -6363 -11774 0
1000000 -6364 -11656 0
1000000 -6365 -11246 0
1000000 -6366 -11082 0
1000000 -6367 -11442 0
1000000 -6368 -11038 0
1000000 -6369 -9781 0
1000000 -6370 -11159 0
1000000 -6371 -11794 0
1000000 -6372 -11490 0
1000000 -6373 -10050 0
1000000 -6374 -11513 0
1000000 -6375 -10450 0
1000000 -6376 -10152 0
1000000 -6377 -10039 0
1000000 -6378 -9942 0
1000000 -6379 -10019 0
1000000 -6380 -11207 0
1000000 -6381 -10474 0
1000000 -6382 -10569 0
1000000 -6383 -11661 0
1000000 -6384 -10909 0
1000000 -6385 -10180 0
1000000 -6386 -10349 0
1000000 -6387 -11830 0
1000000 -6388 -10780 0
1000000 -6389 -10840 0
1000000 -6390 -9971 0
1000000 -6391 -9710 0
1000000 -6392 -11701 0
1000000 -6393 -9969 0
1000000 -6394 -11473 0
1000000 -6395 -10095 0
1000000 -6396 -9777 0
1000000 -6397 -10976 0
1000000 -6398 -10862 0
1000000 -6399 -11791 0
1000000 -6400 -11129 0
1000000 -6401 -10562 0
1000000 -6402 -10351 0
1000000 -6403 -10550 0
1000000 -6404 -9792 0
1000000 -6405 -10275 0
1000000 -6406 -11116 0
1000000 -6407 -11559 0
1000000 -6408 -10466 0
1000000 -6409 -10747 0
1000000 -6410 -9821 0
1000000 -6411 -10448 0
1000000 -6412 -11231 0
1000000 -6413 -11848 0
1000000 -6414 -11368 0
1000000 -6415 -10318 0
1000000 -6416 -9875 0
1000000 -6417 -11835 0
1000000 -6418 -11492 0
1000000 -6419 -11619 0
1000000 -6420 -10388 0
1000000 -6421 -11172 0
1000000 -6422 -9638 0
1000000 -6423 -10098 0
1000000 -6424 -10473 0
1000000 -6425 -9696 0
1000000 -6426 -10129 0
1000000 -6427 -9842 0
1000000 -6428 -10543 0
1000000 -6429 -10051 0
1000000 -6430 -10886 0
1000000 -6431 -9710 0
1000000 -6432 -9853 0
1000000 -6433 -11387 0
1000000 -6434 -11514 0
1000000 -6435 -11190 0
1000000 -6436 -11092 0
1000000 -6437 -10938 0
1000000 -6438 -10480 0
1000000 -6439 -11747 0
1000000 -6440 -10872 0
1000000 -6441 -11714 0
1000000 -6442 -11388 0
1000000 -6443 -10973 0
1000000 -6444 -10941 0
1000000 -6445 -10692 0
1000000 -6446 -10316 0
1000000 -6447 -10153 0
1000000 -6448 -10625 0
1000000 -6449 -11721 0
1000000 -6450 -10646 0
1000000 -6451 -10793 0
1000000 -6452 -11420 0
1000000 -6453 -11534 0
1000000 -6454 -9619 0
1000000 -6455 -10016 0
1000000 -6456 -10342 0
1000000 -6457 -10741 0
1000000 -6458 -11136 0
1000000 -6459 -10009 0
1000000 -6460 -11567 0
1000000 -6461 -10716 0
1000000 -6462 -10693 0
1000000 -6463 -11827 0
1000000 -6464 -11579 0
1000000 -6465 -11452 0
1000000 -6466 -11110 0
1000000 -6467 -9853 0
1000000 -6468 -11694 0
1000000 -6469 -10245 0
1000000 -6470 -11050 0
1000000 -6471 -10795 0
1000000 -6472 -11422 0
1000000 -6473 -10585 0
1000000 -6474 -11046 0
1000000 -6475 -10897 0
1000000 -6476 -9891 0
1000000 -6477 -11315 0
1000000 -6478 -11048 0
1000000 -6479 -10213 0
1000000 -6480 -11142 0
1000000 -6481 -11740 0
1000000 -6482 -10781 0
1000000 -6483 -9809 0
1000000 -6484 -11782 0
1000000 -6485 -10024 0
1000000 -6486 -11271 0
1000000 -6487 -10076 0
1000000 -6488 -11128 0
1000000 -6489 -11430 0
1000000 -6490 -10490 0
1000000 -6491 -10579 0
1000000 -6492 -10323 0
1000000 -6493 -10003 0
1000000 -6494 -10575 0
1000000 -6495 -9839 0
1000000 -6496 -10718 0
1000000 -6497 -11297 0
1000000 -6498 -10529 0
1000000 -6499 -11087 0
1000000 -6500 -11529 0
1000000 -6501 -10834 0
1000000 -6502 -10389 0
1000000 -6503 -11732 0
1000000 -6504 -11545 0
1000000 -6505 -10807 0
1000000 -6506 -11741 0
1000000 -6507 -11669 0
1000000 -6508 -9879 0
1000000 -6509 -10278 0
1000000 -6510 -9604 0
1000000 -6511 -10906 0
1000000 -6512 -11564 0
1000000 -6513 -10493 0
1000000 -6514 -10661 0
1000000 -6515 -11551 0
1000000 -6516 -11273 0
1000000 -6517 -10080 0
1000000 -6518 -10797 0
1000000 -6519 -10455 0
1000000 -6520 -10279 0
1000000 -6521 -9864 0
1000000 -6522 -10922 0
1000000 -6523 -10218 0
1000000 -6524 -9668 0
1000000 -6525 -11715 0
1000000 -6526 -10962 0
1000000 -6527 -10851 0
1000000 -6528 -10435 0
1000000 -6529 -11293 0
1000000 -6530 -11135 0
1000000 -6531 -10336 0
1000000 -6532 -11507 0
1000000 -6533 -11404 0
1000000 -6534 -10353 0
1000000 -6535 -11419 0
1000000 -6536 -9692 0
1000000 -6537 -10373 0
1000000 -6538 -10071 0
1000000 -6539 -10326 0
1000000 -6540 -9720 0
1000000 -6541 -11625 0
1000000 -6542 -9671 0
1000000 -6543 -11597 0
1000000 -6544 -11621 0
1000000 -6545 -10438 0
1000000 -6546 -11306 0
1000000 -6547 -11660 0
1000000 -6548 -10865 0
1000000 -6549 -10159 0
1000000 -6550 -11441 0
1000000 -6551 -11389 0
1000000 -6552 -9915 0
1000000 -6553 -10779 0
1000000 -6554 -11684 0
1000000 -6555 -11387 0
1000000 -6556 -10706 0
1000000 -6557 -10758 0
1000000 -6558 -10778 0
1000000 -6559 -10720 0
1000000 -6560 -11539 0
1000000 -6561 -10974 0
1000000 -6562 -9622 0
1000000 -6563 -11251 0
1000000 -6564 -9721 0
1000000 -6565 -11085 0
1000000 -6566 -11464 0
1000000 -6567 -9958 0
1000000 -6568 -10909 0
1000000 -6569 -9652 0
1000000 -6570 -11032 0
1000000 -6571 -11776 0
1000000 -6572 -11655 0
1000000 -6573 -10861 0
1000000 -6574 -11562 0
1000000 -6575 -9945 0
1000000 -6576 -10615 0
1000000 -6577 -11147 0
1000000 -6578 -10271 0
1000000 -6579 -11340 0
1000000 -6580 -10354 0
1000000 -6581 -9806 0
1000000 -6582 -10466 0
1000000 -6583 -11440 0
1000000 -6584 -11054 0
1000000 -6585 -9857 0
1000000 -6586 -11059 0
1000000 -6587 -9889 0
1000000 -6588 -10794 0
1000000 -6589 -10251 0
1000000 -6590 -9707 0
1000000 -6591 -11605 0
1000000 -6592 -11200 0
1000000 -6593 -11591 0
1000000 -6594 -9606 0
1000000 -6595 -10631 0
1000000 -6596 -10883 0
1000000 -6597 -9985 0
1000000 -6598 -10424 0
1000000 -6599 -10601 0
1000000 -6600 -10946 0
1000000 -6601 -11801 0
1000000 -6602 -10148 0
1000000 -6603 -11838 0
1000000 -6604 -10618 0
1000000 -6605 -11157 0
1000000 -6606 -11482 0
1000000 -6607 -10682 0
1000000 -6608 -9784 0
1000000 -6609 -10123 0
1000000 -6610 -10652 0
1000000 -6611 -9705 0
1000000 -6612 -11668 0
1000000 -6613 -10227 0
1000000 -6614 -11276 0
1000000 -6615 -10485 0
1000000 -6616 -10925 0
1000000 -6617 -11063 0
1000000 -6618 -11208 0
1000000 -6619 -9787 0
1000000 -6620 -9705 0
1000000 -6621 -11797 0
1000000 -6622 -9872 0
1000000 -6623 -11690 0
1000000 -6624 -10254 0
1000000 -6625 -11003 0
1000000 -6626 -11034 0
1000000 -6627 -10093 0
1000000 -6628 -10892 0
1000000 -6629 -11574 0
1000000 -6630 -10963 0
1000000 -6631 -11525 0
1000000 -6632 -11175 0
1000000 -6633 -10725 0
1000000 -6634 -10144 0
1000000 -6635 -11462 0
1000000 -6636 -9896 0
1000000 -6637 -10023 0
1000000 -6638 -10551 0
1000000 -6639 -11262 0
1000000 -6640 -10209 0
1000000 -6641 -10599 0
1000000 -6642 -9609 0
1000000 -6643 -11310 0
1000000 -6644 -10781 0
1000000 -6645 -10915 0
1000000 -6646 -10422 0
1000000 -6647 -10766 0
1000000 -6648 -11564 0
1000000 -6649 -10096 0
1000000 -6650 -10787 0
1000000 -6651 -11844 0
1000000 -6652 -11510 0
1000000 -6653 -9897 0
1000000 -6654 -9947 0
1000000 -6655 -11749 0
1000000 -6656 -10236 0
1000000 -6657 -10789 0
1000000 -6658 -10294 0
1000000 -6659 -9652 0
1000000 -6660 -11004 0
1000000 -6661 -9765 0
1000000 -6662 -11056 0
1000000 -6663 -11441 0
1000000 -6664 -10713 0
1000000 -6665 -11002 0
1000000 -6666 -11329 0
1000000 -6667 -11341 0
1000000 -6668 -9627 0
1000000 -6669 -9920 0
1000000 -6670 -10812 0
1000000 -6671 -9767 0
1000000 -6672 -10407 0
1000000 -6673 -10149 0
1000000 -6674 -11536 0
1000000 -6675 -11137 0
1000000 -6676 -10085 0
1000000 -6677 -10451 0
1000000 -6678 -11497 0
1000000 -6679 -10588 0
1000000 -6680 -9613 0
1000000 -6681 -11527 0
1000000 -6682 -11136 0
1000000 -6683 -10165 0
1000000 -6684 -11394 0
1000000 -6685 -11521 0
1000000 -6686 -11417 0
1000000 -6687 -11836 0
1000000 -6688 -10407 0
1000000 -6689 -9961 0
1000000 -6690 -10269 0
1000000 -6691 -10438 0
1000000 -6692 -9968 0
1000000 -6693 -11041 0
1000000 -6694 -10078 0
1000000 -6695 -11649 0
1000000 -6696 -9658 0
1000000 -6697 -11544 0
1000000 -6698 -10933 0
1000000 -6699 -10911 0
1000000 -6700 -10754 0
1000000 -6701 -10641 0
1000000 -6702 -11324 0
1000000 -6703 -11781 0
1000000 -6704 -10745 0
1000000 -6705 -10477 0
1000000 -6706 -10160 0
1000000 -6707 -10134 0
1000000 -6708 -11603 0
1000000 -6709 -10743 0
1000000 -6710 -10471 0
1000000 -6711 -10300 0
1000000 -6712 -9611 0
1000000 -6713 -11085 0
1000000 -6714 -10759 0
1000000 -6715 -10970 0
1000000 -6716 -11627 0
1000000 -6717 -11042 0
1000000 -6718 -10426 0
1000000 -6719 -11725 0
1000000 -6720 -11778 0
1000000 -6721 -9795 0
1000000 -6722 -10948 0
1000000 -6723 -10943 0
1000000 -6724 -11641 0
1000000 -6725 -9646 0
1000000 -6726 -10421 0
1000000 -6727 -11486 0
1000000 -6728 -11683 0
1000000 -6729 -11805 0
1000000 -6730 -9659 0
1000000 -6731 -10065 0
1000000 -6732 -11442 0
1000000 -6733 -11829 0
1000000 -6734 -11049 0
1000000 -6735 -9914 0
1000000 -6736 -10664 0
1000000 -6737 -11470 0
1000000 -6738 -9788 0
1000000 -6739 -11789 0
1000000 -6740 -11230 0
1000000 -6741 -10142 0
1000000 -6742 -10005 0
1000000 -6743 -10165 0
1000000 -6744 -11267 0
1000000 -6745 -9697 0
1000000 -6746 -11583 0
1000000 -6747 -10760 0
1000000 -6748 -9691 0
1000000 -6749 -11830 0
1000000 -6750 -11490 0
1000000 -6751 -11717 0
1000000 -6752 -9623 0
1000000 -6753 -11393 0
1000000 -6754 -9911 0
1000000 -6755 -11714 0
1000000 -6756 -10960 0
1000000 -6757 -10816 0
1000000 -6758 -9780 0
1000000 -6759 -10638 0
1000000 -6760 -11357 0
1000000 -6761 -11454 0
1000000 -6762 -10487 0
1000000 -6763 -11543 0
1000000 -6764 -10680 0
1000000 -6765 -9718 0
1000000 -6766 -10804 0
1000000 -6767 -10154 0
1000000 -6768 -11319 0
1000000 -6769 -9812 0
1000000 -6770 -11311 0
1000000 -6771 -10642 0
1000000 -6772 -10953 0
1000000 -6773 -10526 0
1000000 -6774 -11659 0
1000000 -6775 -10580 0
1000000 -6776 -10652 0
1000000 -6777 -10485 0
1000000 -6778 -10992 0
1000000 -6779 -10461 0
1000000 -6780 -11510 0
1000000 -6781 -11414 0
1000000 -6782 -9946 0
1000000 -6783 -11151 0
1000000 -6784 -10322 0
1000000 -6785 -10688 0
1000000 -6786 -10537 0
1000000 -6787 -11742 0
1000000 -6788 -11767 0
1000000 -6789 -11716 0
1000000 -6790 -11477 0
1000000 -6791 -9686 0
1000000 -6792 -10049 0
1000000 -6793 -10967 0
1000000 -6794 -10367 0
1000000 -6795 -10053 0
1000000 -6796 -10640 0
1000000 -6797 -10084 0
1000000 -6798 -9843 0
1000000 -6799 -10138 0
1000000 -6800 -10578 0
1000000 -6801 -10446 0
1000000 -6802 -9964 0
1000000 -6803 -10563 0
1000000 -6804 -9826 0
1000000 -6805 -10057 0
1000000 -6806 -10183 0
1000000 -6807 -10718 0
1000000 -6808 -10537 0
1000000 -6809 -11207 0
1000000 -6810 -11313 0
1000000 -6811 -9825 0
1000000 -6812 -11027 0
1000000 -6813 -9860 0
1000000 -6814 -10891 0
1000000 -6815 -9985 0
1000000 -6816 -9774 0
1000000 -6817 -11344 0
1000000 -6818 -9789 0
1000000 -6819 -9783 0
1000000 -6820 -11582 0
1000000 -6821 -11228 0
1000000 -6822 -10355 0
1000000 -6823 -9813 0
1000000 -6824 -11146 0
1000000 -6825 -10296 0
1000000 -6826 -11664 0
1000000 -6827 -11142 0
1000000 -6828 -10625 0
1000000 -6829 -9615 0
1000000 -6830 -9804 0
1000000 -6831 -10129 0
1000000 -6832 -11574 0
1000000 -6833 -11220 0
1000000 -6834 -9860 0
1000000 -6835 -10989 0
1000000 -6836 -11606 0
1000000 -6837 -11395 0
1000000 -6838 -9835 0
1000000 -6839 -11333 0
1000000 -6840 -9836 0
1000000 -6841 -9765 0
1000000 -6842 -10947 0
1000000 -6843 -10038 0
1000000 -6844 -10197 0
1000000 -6845 -11744 0
1000000 -6846 -10886 0
1000000 -6847 -10659 0
1000000 -6848 -10441 0
1000000 -6849 -10503 0
1000000 -6850 -10971 0
1000000 -6851 -10201 0
1000000 -6852 -10499 0
1000000 -6853 -10931 0
1000000 -6854 -9808 0
1000000 -6855 -10890 0
1000000 -6856 -10154 0
1000000 -6857 -10075 0
1000000 -6858 -10983 0
1000000 -6859 -10432 0
1000000 -6860 -10873 0
1000000 -6861 -11360 0
1000000 -6862 -11240 0
1000000 -6863 -10578 0
1000000 -6864 -10021 0
1000000 -6865 -11519 0
1000000 -6866 -11534 0
1000000 -6867 -10151 0
1000000 -6868 -10860 0
1000000 -6869 -10863 0
1000000 -6870 -11172 0
1000000 -6871 -9751 0
1000000 -6872 -9938 0
1000000 -6873 -11458 0
1000000 -6874 -10515 0
1000000 -6875 -11795 0
1000000 -6876 -11757 0
1000000 -6877 -10715 0
1000000 -6878 -11122 0
1000000 -6879 -9722 0
1000000 -6880 -9859 0
1000000 -6881 -9898 0
1000000 -6882 -10911 0
1000000 -6883 -10228 0
1000000 -6884 -10054 0
1000000 -6885 -11513 0
1000000 -6886 -10866 0
1000000 -6887 -10557 0
1000000 -6888 -11617 0
1000000 -6889 -10347 0
1000000 -6890 -9844 0
1000000 -6891 -10115 0
1000000 -6892 -11768 0
1000000 -6893 -11678 0
1000000 -6894 -9745 0
1000000 -6895 -10088 0
1000000 -6896 -10134 0
1000000 -6897 -11556 0
1000000 -6898 -11822 0
1000000 -6899 -10591 0
1000000 -6900 -11761 0
1000000 -6901 -11502 0
1000000 -6902 -10328 0
1000000 -6903 -11470 0
1000000 -6904 -10132 0
1000000 -6905 -11294 0
1000000 -6906 -10628 0
1000000 -6907 -9675 0
1000000 -6908 -9867 0
1000000 -6909 -11469 0
1000000 -6910 -9906 0
1000000 -6911 -10562 0
1000000 -6912 -10744 0
1000000 -6913 -11197 0
1000000 -6914 -10174 0
1000000 -6915 -11108 0
1000000 -6916 -9684 0
1000000 -6917 -10672 0
1000000 -6918 -11772 0
1000000 -6919 -11814 0
1000000 -6920 -10838 0
1000000 -6921 -11031 0
1000000 -6922 -10562 0
1000000 -6923 -11114 0
1000000 -6924 -11348 0
1000000 -6925 -9932 0
1000000 -6926 -11178 0
1000000 -6927 -10316 0
1000000 -6928 -10547 0
1000000 -6929 -9789 0
1000000 -6930 -11786 0
1000000 -6931 -10514 0
1000000 -6932 -10539 0
1000000 -6933 -10833 0
1000000 -6934 -10298 0
1000000 -6935 -11356 0
1000000 -6936 -11020 0
1000000 -6937 -10063 0
1000000 -6938 -10524 0
1000000 -6939 -10333 0
1000000 -6940 -11676 0
1000000 -6941 -10901 0
1000000 -6942 -10394 0
1000000 -6943 -11083 0
1000000 -6944 -10078 0
1000000 -6945 -9904 0
1000000 -6946 -10090 0
1000000 -6947 -9962 0
1000000 -6948 -11381 0
1000000 -6949 -10312 0
1000000 -6950 -11450 0
1000000 -6951 -9916 0
1000000 -6952 -10443 0
1000000 -6953 -10876 0
1000000 -6954 -10531 0
1000000 -6955 -9837 0
1000000 -6956 -9854 0
1000000 -6957 -10619 0
1000000 -6958 -11093 0
1000000 -6959 -11800 0
1000000 -6960 -9643 0
1000000 -6961 -10844 0
1000000 -6962 -10292 0
1000000 -6963 -11299 0
1000000 -6964 -10608 0
1000000 -6965 -10397 0
1000000 -6966 -11248 0
1000000 -6967 -11108 0
1000000 -6968 -10444 0
1000000 -6969 -10721 0
1000000 -6970 -10682 0
1000000 -6971 -11418 0
1000000 -6972 -10989 0
1000000 -6973 -9699 0
1000000 -6974 -10696 0
1000000 -6975 -9968 0
1000000 -6976 -10042 0
1000000 -6977 -10671 0
1000000 -6978 -10773 0
1000000 -6979 -9665 0
1000000 -6980 -11775 0
1000000 -6981 -11021 0
1000000 -6982 -10686 0
1000000 -6983 -11139 0
1000000 -6984 -10995 0
1000000 -6985 -11836 0
1000000 -6986 -10525 0
1000000 -6987 -11727 0
1000000 -6988 -10255 0
1000000 -6989 -10866 0
1000000 -6990 -9936 0
1000000 -6991 -10556 0
1000000 -6992 -10796 0
1000000 -6993 -10984 0
1000000 -6994 -10612 0
1000000 -6995 -11367 0
1000000 -6996 -11287 0
1000000 -6997 -11009 0
1000000 -6998 -11475 0
1000000 -6999 -11253 0
1000000 -7000 -11437 0
1000000 -7001 -9841 0
1000000 -7002 -9735 0
1000000 -7003 -10268 0
1000000 -7004 -10121 0
1000000 -7005 -10662 0
1000000 -7006 -11381 0
1000000 -7007 -10345 0
1000000 -7008 -11592 0
1000000 -7009 -10552 0
1000000 -7010 -10080 0
1000000 -7011 -11705 0
1000000 -7012 -11104 0
1000000 -7013 -10459 0
1000000 -7014 -10034 0
1000000 -7015 -11689 0
1000000 -7016 -11438 0
1000000 -7017 -10235 0
1000000 -7018 -11234 0
1000000 -7019 -11841 0
1000000 -7020 -11660 0
1000000 -7021 -9970 0
1000000 -7022 -9746 0
1000000 -7023 -9779 0
1000000 -7024 -11443 0
1000000 -7025 -10364 0
1000000 -7026 -11730 0
1000000 -7027 -9695 0
1000000 -7028 -9970 0
1000000 -7029 -10274 0
1000000 -7030 -10908 0
1000000 -7031 -11723 0
1000000 -7032 -11663 0
1000000 -7033 -10725 0
1000000 -7034 -11847 0
1000000 -7035 -11714 0
1000000 -7036 -9942 0
1000000 -7037 -10759 0
1000000 -7038 -10500 0
1000000 -7039 -10615 0
1000000 -7040 -10481 0
1000000 -7041 -11359 0
1000000 -7042 -10125 0
1000000 -7043 -10181 0
1000000 -7044 -9793 0
1000000 -7045 -11850 0
1000000 -7046 -11547 0
1000000 -7047 -10519 0
1000000 -7048 -10727 0
1000000 -7049 -11758 0
1000000 -7050 -10443 0
1000000 -7051 -10194 0
1000000 -7052 -9620 0
1000000 -7053 -10845 0
1000000 -7054 -11321 0
1000000 -7055 -9850 0
1000000 -7056 -11385 0
1000000 -7057 -10331 0
1000000 -7058 -10148 0
1000000 -7059 -11728 0
1000000 -7060 -11847 0
1000000 -7061 -11123 0
1000000 -7062 -10429 0
1000000 -7063 -10526 0
1000000 -7064 -11039 0
1000000 -7065 -9823 0
1000000 -7066 -10985 0
1000000 -7067 -9908 0
1000000 -7068 -11335 0
1000000 -7069 -11573 0
1000000 -7070 -9956 0
1000000 -7071 -10925 0
1000000 -7072 -9629 0
1000000 -7073 -9805 0
1000000 -7074 -11359 0
1000000 -7075 -9941 0
1000000 -7076 -9745 0
1000000 -7077 -11626 0
1000000 -7078 -11792 0
1000000 -7079 -10476 0
1000000 -7080 -11052 0
1000000 -7081 -9856 0
1000000 -7082 -10607 0
1000000 -7083 -11577 0
1000000 -7084 -10284 0
1000000 -7085 -9857 0
1000000 -7086 -9946 0
1000000 -7087 -11232 0
1000000 -7088 -11160 0
1000000 -7089 -10028 0
1000000 -7090 -10516 0
1000000 -7091 -11166 0
1000000 -7092 -11019 0
1000000 -7093 -10478 0
1000000 -7094 -11816 0
1000000 -7095 -10422 0
1000000 -7096 -10077 0
1000000 -7097 -11623 0
1000000 -7098 -11137 0
1000000 -7099 -11454 0
1000000 -7100 -11684 0
1000000 -7101 -11431 0
1000000 -7102 -10023 0
1000000 -7103 -11001 0
1000000 -7104 -9849 0
1000000 -7105 -10519 0
1000000 -7106 -10522 0
1000000 -7107 -10871 0
1000000 -7108 -11458 0
1000000 -7109 -10810 0
1000000 -7110 -11295 0
1000000 -7111 -9678 0
1000000 -7112 -10596 0
1000000 -7113 -10433 0
1000000 -7114 -11425 0
1000000 -7115 -11768 0
1000000 -7116 -9883 0
1000000 -7117 -9653 0
1000000 -7118 -9727 0
1000000 -7119 -11101 0
1000000 -7120 -10837 0
1000000 -7121 -11204 0
1000000 -7122 -11390 0
1000000 -7123 -11809 0
1000000 -7124 -10064 0
1000000 -7125 -9789 0
1000000 -7126 -11746 0
1000000 -7127 -10168 0
1000000 -7128 -9763 0
1000000 -7129 -11010 0
1000000 -7130 -11652 0
1000000 -7131 -11445 0
1000000 -7132 -11004 0
1000000 -7133 -9714 0
1000000 -7134 -11101 0
1000000 -7135 -10870 0
1000000 -7136 -10200 0
1000000 -7137 -10350 0
1000000 -7138 -10021 0
1000000 -7139 -9798 0
1000000 -7140 -10907 0
1000000 -7141 -11248 0
1000000 -7142 -10665 0
1000000 -7143 -10255 0
1000000 -7144 -9961 0
1000000 -7145 -11205 0
1000000 -7146 -11750 0
1000000 -7147 -10770 0
1000000 -7148 -9707 0
1000000 -7149 -9936 0
1000000 -7150 -11000 0
1000000 -7151 -10816 0
1000000 -7152 -9999 0
1000000 -7153 -10354 0
1000000 -7154 -11173 0
1000000 -7155 -11015 0
1000000 -7156 -11009 0
1000000 -7157 -10442 0
1000000 -7158 -10855 0
1000000 -7159 -11362 0
1000000 -7160 -10334 0
1000000 -7161 -11226 0
1000000 -7162 -10605 0
1000000 -7163 -10187 0
1000000 -7164 -11068 0
1000000 -7165 -11059 0
1000000 -7166 -10593 0
1000000 -7167 -10798 0
1000000 -7168 -9619 0
1000000 -7169 -10502 0
1000000 -7170 -10985 0
1000000 -7171 -11608 0
1000000 -7172 -10110 0
1000000 -7173 -11800 0
1000000 -7174 -11489 0
1000000 -7175 -11833 0
1000000 -7176 -11667 0
1000000 -7177 -11379 0
1000000 -7178 -10067 0
1000000 -7179 -10141 0
1000000 -7180 -10590 0
1000000 -7181 -9681 0
1000000 -7182 -11694 0
1000000 -7183 -11533 0
1000000 -7184 -10168 0
1000000 -7185 -10847 0
1000000 -7186 -10159 0
1000000 -7187 -10282 0
1000000 -7188 -11785 0
1000000 -7189 -10332 0
1000000 -7190 -10859 0
1000000 -7191 -11699 0
1000000 -7192 -10428 0
1000000 -7193 -10270 0
1000000 -7194 -11037 0
1000000 -7195 -11632 0
1000000 -7196 -10582 0
1000000 -7197 -11375 0
1000000 -7198 -10301 0
1000000 -7199 -11277 0
1000000 -7200 -10975 0
1000000 -7201 -10906 0
1000000 -7202 -11763 0
1000000 -7203 -10250 0
1000000 -7204 -10136 0
1000000 -7205 -11194 0
1000000 -7206 -11134 0
1000000 -7207 -10176 0
1000000 -7208 -10543 0
1000000 -7209 -11024 0
1000000 -7210 -10868 0
1000000 -7211 -10936 0
1000000 -7212 -10111 0
1000000 -7213 -11436 0
1000000 -7214 -11830 0
1000000 -7215 -9794 0
1000000 -7216 -10099 0
1000000 -7217 -10287 0
1000000 -7218 -10262 0
1000000 -7219 -11839 0
1000000 -7220 -10956 0
1000000 -7221 -11120 0
1000000 -7222 -9670 0
1000000 -7223 -11724 0
1000000 -7224 -10592 0
1000000 -7225 -10204 0
1000000 -7226 -11692 0
1000000 -7227 -10816 0
1000000 -7228 -9838 0
1000000 -7229 -11084 0
1000000 -7230 -11421 0
1000000 -7231 -11231 0
1000000 -7232 -9754 0
1000000 -7233 -11535 0
1000000 -7234 -10453 0
1000000 -7235 -11843 0
1000000 -7236 -11447 0
1000000 -7237 -11625 0
1000000 -7238 -11242 0
1000000 -7239 -10096 0
1000000 -7240 -9874 0
1000000 -7241 -11381 0
1000000 -7242 -11746 0
1000000 -7243 -10258 0
1000000 -7244 -9675 0
1000000 -7245 -10576 0
1000000 -7246 -10704 0
1000000 -7247 -10235 0
1000000 -7248 -10984 0
1000000 -7249 -10281 0
1000000 -7250 -9831 0
1000000 -7251 -11028 0
1000000 -7252 -11383 0
1000000 -7253 -9924 0
1000000 -7254 -9926 0
1000000 -7255 -11174 0
1000000 -7256 -11657 0
1000000 -7257 -11096 0
1000000 -7258 -10878 0
1000000 -7259 -11325 0
1000000 -7260 -10092 0
1000000 -7261 -10310 0
1000000 -7262 -10488 0
1000000 -7263 -9975 0
1000000 -7264 -10026 0
1000000 -7265 -9751 0
1000000 -7266 -9735 0
1000000 -7267 -10194 0
1000000 -7268 -10308 0
1000000 -7269 -11184 0
1000000 -7270 -10937 0
1000000 -7271 -10837 0
1000000 -7272 -9778 0
1000000 -7273 -10726 0
1000000 -7274 -10931 0
1000000 -7275 -10903 0
1000000 -7276 -10225 0
1000000 -7277 -10522 0
1000000 -7278 -11509 0
1000000 -7279 -9627 0
1000000 -7280 -10528 0
1000000 -7281 -10720 0
1000000 -7282 -11436 0
1000000 -7283 -10493 0
1000000 -7284 -11237 0
1000000 -7285 -10402 0
1000000 -7286 -10183 0
1000000 -7287 -10829 0
1000000 -7288 -9902 0
1000000 -7289 -10296 0
1000000 -7290 -9734 0
1000000 -7291 -10153 0
1000000 -7292 -10359 0
1000000 -7293 -10303 0
1000000 -7294 -10510 0
1000000 -7295 -10422 0
1000000 -7296 -11799 0
1000000 -7297 -11654 0
1000000 -7298 -10657 0
1000000 -7299 -10531 0
1000000 -7300 -11650 0
1000000 -7301 -9722 0
1000000 -7302 -10755 0
1000000 -7303 -9913 0
1000000 -7304 -10599 0
1000000 -7305 -10633 0
1000000 -7306 -9656 0
1000000 -7307 -11823 0
1000000 -7308 -10566 0
1000000 -7309 -9912 0
1000000 -7310 -11396 0
1000000 -7311 -10839 0
1000000 -7312 -11252 0
1000000 -7313 -11122 0
1000000 -7314 -11733 0
1000000 -7315 -10563 0
1000000 -7316 -10290 0
1000000 -7317 -10416 0
1000000 -7318 -9802 0
1000000 -7319 -11360 0
1000000 -7320 -9712 0
1000000 -7321 -10761 0
1000000 -7322 -10138 0
1000000 -7323 -10907 0
1000000 -7324 -10135 0
1000000 -7325 -11820 0
1000000 -7326 -10709 0
1000000 -7327 -11283 0
1000000 -7328 -10412 0
1000000 -7329 -10221 0
1000000 -7330 -11507 0
1000000 -7331 -10818 0
1000000 -7332 -10100 0
1000000 -7333 -11686 0
1000000 -7334 -10197 0
1000000 -7335 -9738 0
1000000 -7336 -10030 0
1000000 -7337 -9636 0
1000000 -7338 -10459 0
1000000 -7339 -11224 0
1000000 -7340 -9910 0
1000000 -7341 -10802 0
1000000 -7342 -11123 0
1000000 -7343 -10339 0
1000000 -7344 -11212 0
1000000 -7345 -10688 0
1000000 -7346 -10801 0
1000000 -7347 -10370 0
1000000 -7348 -10411 0
1000000 -7349 -11439 0
1000000 -7350 -9685 0
1000000 -7351 -9706 0
1000000 -7352 -10242 0
1000000 -7353 -10728 0
1000000 -7354 -10636 0
1000000 -7355 -11807 0
1000000 -7356 -9634 0
1000000 -7357 -9820 0
1000000 -7358 -10214 0
1000000 -7359 -11583 0
1000000 -7360 -11621 0
1000000 -7361 -11806 0
1000000 -7362 -11088 0
1000000 -7363 -11358 0
1000000 -7364 -9633 0
1000000 -7365 -10127 0
1000000 -7366 -11845 0
1000000 -7367 -11641 0
1000000 -7368 -10277 0
1000000 -7369 -11702 0
1000000 -7370 -10331 0
1000000 -7371 -11788 0
1000000 -7372 -10586 0
1000000 -7373 -10179 0
1000000 -7374 -10018 0
1000000 -7375 -10769 0
1000000 -7376 -11488 0
1000000 -7377 -10606 0
1000000 -7378 -11385 0
1000000 -7379 -10901 0
1000000 -7380 -10430 0
1000000 -7381 -11697 0
1000000 -7382 -9686 0
1000000 -7383 -10676 0
1000000 -7384 -11479 0
1000000 -7385 -9743 0
1000000 -7386 -10431 0
1000000 -7387 -11640 0
1000000 -7388 -10619 0
1000000 -7389 -10547 0
1000000 -7390 -10553 0
1000000 -7391 -10306 0
1000000 -7392 -10866 0
1000000 -7393 -10492 0
1000000 -7394 -10029 0
1000000 -7395 -9846 0
1000000 -7396 -10056 0
1000000 -7397 -11676 0
1000000 -7398 -10114 0
1000000 -7399 -9652 0
1000000 -7400 -11216 0
1000000 -7401 -10012 0
1000000 -7402 -9810 0
1000000 -7403 -11432 0
1000000 -7404 -11067 0
1000000 -7405 -10377 0
1000000 -7406 -11051 0
1000000 -7407 -11365 0
1000000 -7408 -11039 0
1000000 -7409 -10173 0
1000000 -7410 -10597 0
1000000 -7411 -9791 0
1000000 -7412 -9880 0
1000000 -7413 -11271 0
1000000 -7414 -11558 0
1000000 -7415 -10555 0
1000000 -7416 -11288 0
1000000 -7417 -10085 0
1000000 -7418 -9685 0
1000000 -7419 -10712 0
1000000 -7420 -10660 0
1000000 -7421 -10245 0
1000000 -7422 -9890 0
1000000 -7423 -9658 0
1000000 -7424 -10650 0
1000000 -7425 -10173 0
1000000 -7426 -11254 0
1000000 -7427 -11645 0
1000000 -7428 -10058 0
1000000 -7429 -10024 0
1000000 -7430 -10123 0
1000000 -7431 -10742 0
1000000 -7432 -10651 0
1000000 -7433 -11731 0
1000000 -7434 -10186 0
1000000 -7435 -11073 0
1000000 -7436 -9939 0
1000000 -7437 -10635 0
1000000 -7438 -9671 0
1000000 -7439 -9907 0
1000000 -7440 -10384 0
1000000 -7441 -11829 0
1000000 -7442 -10034 0
1000000 -7443 -10186 0
1000000 -7444 -11449 0
1000000 -7445 -11817 0
1000000 -7446 -9998 0
1000000 -7447 -10936 0
1000000 -7448 -10545 0
1000000 -7449 -10776 0
1000000 -7450 -11136 0
1000000 -7451 -10177 0
1000000 -7452 -10784 0
1000000 -7453 -10442 0
1000000 -7454 -10824 0
1000000 -7455 -11643 0
1000000 -7456 -10892 0
1000000 -7457 -11595 0
1000000 -7458 -11821 0
1000000 -7459 -11550 0
1000000 -7460 -9701 0
1000000 -7461 -10874 0
1000000 -7462 -9624 0
1000000 -7463 -10940 0
1000000 -7464 -9835 0
1000000 -7465 -11215 0
1000000 -7466 -10026 0
1000000 -7467 -9953 0
1000000 -7468 -11162 0
1000000 -7469 -9886 0
1000000 -7470 -9997 0
1000000 -7471 -10730 0
1000000 -7472 -11236 0
1000000 -7473 -9825 0
1000000 -7474 -10359 0
1000000 -7475 -10329 0
1000000 -7476 -11538 0
1000000 -7477 -9984 0
1000000 -7478 -11164 0
1000000 -7479 -9631 0
1000000 -7480 -9733 0
1000000 -7481 -9739 0
1000000 -7482 -11536 0
1000000 -7483 -11485 0
1000000 -7484 -10143 0
1000000 -7485 -10827 0
1000000 -7486 -11517 0
1000000 -7487 -10378 0
1000000 -7488 -11533 0
1000000 -7489 -10243 0
1000000 -7490 -10326 0
1000000 -7491 -11238 0
1000000 -7492 -10587 0
1000000 -7493 -11713 0
1000000 -7494 -11094 0
1000000 -7495 -10526 0
1000000 -7496 -10158 0
1000000 -7497 -10260 0
1000000 -7498 -10903 0
1000000 -7499 -10957 0
1000000 -7500 -10794 0
1000000 -7501 -11695 0
1000000 -7502 -11557 0
1000000 -7503 -9928 0
1000000 -7504 -10955 0
1000000 -7505 -10383 0
1000000 -7506 -11364 0
1000000 -7507 -10314 0
1000000 -7508 -11504 0
1000000 -7509 -10542 0
1000000 -7510 -9993 0
1000000 -7511 -10677 0
1000000 -7512 -9930 0
1000000 -7513 -10143 0
1000000 -7514 -10265 0
1000000 -7515 -10905 0
1000000 -7516 -9613 0
1000000 -7517 -11683 0
1000000 -7518 -10465 0
1000000 -7519 -9948 0
1000000 -7520 -11730 0
1000000 -7521 -10491 0
1000000 -7522 -10111 0
1000000 -7523 -11222 0
1000000 -7524 -11093 0
1000000 -7525 -10722 0
1000000 -7526 -11519 0
1000000 -7527 -9908 0
1000000 -7528 -11794 0
1000000 -7529 -11408 0
1000000 -7530 -11801 0
1000000 -7531 -11575 0
1000000 -7532 -9648 0
1000000 -7533 -11022 0
1000000 -7534 -10166 0
1000000 -7535 -10333 0
1000000 -7536 -10314 0
1000000 -7537 -10723 0
1000000 -7538 -10945 0
1000000 -7539 -11510 0
1000000 -7540 -11350 0
1000000 -7541 -10351 0
1000000 -7542 -10369 0
1000000 -7543 -9656 0
1000000 -7544 -11501 0
1000000 -7545 -11322 0
1000000 -7546 -10250 0
1000000 -7547 -10590 0
1000000 -7548 -10005 0
1000000 -7549 -11476 0
1000000 -7550 -10366 0
1000000 -7551 -10015 0
1000000 -7552 -11168 0
1000000 -7553 -11671 0
1000000 -7554 -11340 0
1000000 -7555 -11576 0
1000000 -7556 -11389 0
1000000 -7557 -11846 0
1000000 -7558 -11698 0
1000000 -7559 -11102 0
1000000 -7560 -11453 0
1000000 -7561 -10677 0
1000000 -7562 -11742 0
1000000 -7563 -9676 0
1000000 -7564 -11764 0
1000000 -7565 -10321 0
1000000 -7566 -11061 0
1000000 -7567 -10645 0
1000000 -7568 -11401 0
1000000 -7569 -11560 0
1000000 -7570 -9681 0
1000000 -7571 -11179 0
1000000 -7572 -10981 0
1000000 -7573 -9858 0
1000000 -7574 -11031 0
1000000 -7575 -11407 0
1000000 -7576 -10520 0
1000000 -7577 -9818 0
1000000 -7578 -10091 0
1000000 -7579 -11231 0
1000000 -7580 -11439 0
1000000 -7581 -11611 0
1000000 -7582 -10656 0
1000000 -7583 -9797 0
1000000 -7584 -11150 0
1000000 -7585 -9827 0
1000000 -7586 -10333 0
1000000 -7587 -10517 0
1000000 -7588 -9719 0
1000000 -7589 -10430 0
1000000 -7590 -10131 0
1000000 -7591 -10951 0
1000000 -7592 -11053 0
1000000 -7593 -10847 0
1000000 -7594 -10916 0
1000000 -7595 -11176 0
1000000 -7596 -11494 0
1000000 -7597 -9730 0
1000000 -7598 -10396 0
1000000 -7599 -11458 0
1000000 -7600 -11577 0
1000000 -7601 -10367 0
1000000 -7602 -10755 0
1000000 -7603 -9960 0
1000000 -7604 -10431 0
1000000 -7605 -11189 0
1000000 -7606 -11066 0
1000000 -7607 -10994 0
1000000 -7608 -11786 0
1000000 -7609 -10880 0
1000000 -7610 -11473 0
1000000 -7611 -10244 0
1000000 -7612 -9682 0
1000000 -7613 -11344 0
1000000 -7614 -10192 0
1000000 -7615 -10351 0
1000000 -7616 -11048 0
1000000 -7617 -10025 0
1000000 -7618 -9709 0
1000000 -7619 -11039 0
1000000 -7620 -11281 0
1000000 -7621 -9690 0
1000000 -7622 -10215 0
1000000 -7623 -10000 0
1000000 -7624 -11377 0
1000000 -7625 -11614 0
1000000 -7626 -10064 0
1000000 -7627 -11350 0
1000000 -7628 -9976 0
1000000 -7629 -9835 0
1000000 -7630 -11113 0
1000000 -7631 -11570 0
1000000 -7632 -10303 0
1000000 -7633 -11097 0
1000000 -7634 -11687 0
1000000 -7635 -11304 0
1000000 -7636 -11334 0
1000000 -7637 -11455 0
1000000 -7638 -10626 0
1000000 -7639 -9688 0
1000000 -7640 -10238 0
1000000 -7641 -10573 0
1000000 -7642 -10912 0
1000000 -7643 -10147 0
1000000 -7644 -10592 0
1000000 -7645 -11520 0
1000000 -7646 -11716 0
1000000 -7647 -9828 0
1000000 -7648 -10517 0
1000000 -7649 -9799 0
1000000 -7650 -10442 0
1000000 -7651 -9899 0
1000000 -7652 -11568 0
1000000 -7653 -11290 0
1000000 -7654 -9691 0
1000000 -7655 -10316 0
1000000 -7656 -9914 0
1000000 -7657 -10518 0
1000000 -7658 -11416 0
1000000 -7659 -11691 0
1000000 -7660 -9774 0
1000000 -7661 -10518 0
1000000 -7662 -11233 0
1000000 -7663 -11490 0
1000000 -7664 -10172 0
1000000 -7665 -9979 0
1000000 -7666 -10966 0
1000000 -7667 -10352 0
1000000 -7668 -11628 0
1000000 -7669 -9897 0
1000000 -7670 -11322 0
1000000 -7671 -10249 0
1000000 -7672 -10705 0
1000000 -7673 -11247 0
1000000 -7674 -9860 0
1000000 -7675 -11310 0
1000000 -7676 -11803 0
1000000 -7677 -11441 0
1000000 -7678 -10574 0
1000000 -7679 -10734 0
1000000 -7680 -9765 0
1000000 -7681 -11239 0
1000000 -7682 -11561 0
1000000 -7683 -11363 0
1000000 -7684 -10747 0
1000000 -7685 -10921 0
1000000 -7686 -10037 0
1000000 -7687 -11013 0
1000000 -7688 -11741 0
1000000 -7689 -10500 0
1000000 -7690 -11744 0
1000000 -7691 -9915 0
1000000 -7692 -11832 0
1000000 -7693 -10052 0
1000000 -7694 -11619 0
1000000 -7695 -11465 0
1000000 -7696 -9715 0
1000000 -7697 -11391 0
1000000 -7698 -9702 0
1000000 -7699 -9822 0
1000000 -7700 -10513 0
1000000 -7701 -11693 0
1000000 -7702 -11184 0
1000000 -7703 -11494 0
1000000 -7704 -11020 0
1000000 -7705 -9748 0
1000000 -7706 -10273 0
1000000 -7707 -10196 0
1000000 -7708 -9907 0
1000000 -7709 -9604 0
1000000 -7710 -11718 0
1000000 -7711 -10581 0
1000000 -7712 -11280 0
1000000 -7713 -10699 0
1000000 -7714 -10207 0
1000000 -7715 -10033 0
1000000 -7716 -9690 0
1000000 -7717 -9747 0
1000000 -7718 -10047 0
1000000 -7719 -10240 0
1000000 -7720 -11329 0
1000000 -7721 -11760 0
1000000 -7722 -11539 0
1000000 -7723 -9721 0
1000000 -7724 -10520 0
1000000 -7725 -11459 0
1000000 -7726 -10238 0
1000000 -7727 -10545 0
1000000 -7728 -10993 0
1000000 -7729 -10659 0
1000000 -7730 -10501 0
1000000 -7731 -10551 0
1000000 -7732 -9971 0
1000000 -7733 -9996 0
1000000 -7734 -10465 0
1000000 -7735 -10691 0
1000000 -7736 -10321 0
1000000 -7737 -11370 0
1000000 -7738 -9873 0
1000000 -7739 -11318 0
1000000 -7740 -11036 0
1000000 -7741 -11466 0
1000000 -7742 -9829 0
1000000 -7743 -10964 0
1000000 -7744 -9617 0
1000000 -7745 -10464 0
1000000 -7746 -10178 0
1000000 -7747 -9674 0
1000000 -7748 -10528 0
1000000 -7749 -11824 0
1000000 -7750 -11547 0
1000000 -7751 -10126 0
1000000 -7752 -11767 0
1000000 -7753 -9937 0
1000000 -7754 -10668 0
1000000 -7755 -9872 0
1000000 -7756 -10073 0
1000000 -7757 -10141 0
1000000 -7758 -11161 0
1000000 -7759 -11247 0
1000000 -7760 -9925 0
1000000 -7761 -10621 0
1000000 -7762 -10689 0
1000000 -7763 -11538 0
1000000 -7764 -10224 0
1000000 -7765 -11636 0
1000000 -7766 -10729 0
1000000 -7767 -10059 0
1000000 -7768 -9622 0
1000000 -7769 -11187 0
1000000 -7770 -10234 0
1000000 -7771 -9709 0
1000000 -7772 -11484 0
1000000 -7773 -9760 0
1000000 -7774 -9628 0
1000000 -7775 -10764 0
1000000 -7776 -10595 0
1000000 -7777 -11358 0
1000000 -7778 -10819 0
1000000 -7779 -11673 0
1000000 -7780 -11147 0
1000000 -7781 -10766 0
1000000 -7782 -10098 0
1000000 -7783 -10126 0
1000000 -7784 -9980 0
1000000 -7785 -10307 0
1000000 -7786 -11813 0
1000000 -7787 -11396 0
1000000 -7788 -10701 0
1000000 -7789 -10414 0
1000000 -7790 -10954 0
1000000 -7791 -9644 0
1000000 -7792 -10175 0
1000000 -7793 -10226 0
1000000 -7794 -10792 0
1000000 -7795 -9689 0
1000000 -7796 -11167 0
1000000 -7797 -11328 0
1000000 -7798 -10470 0
1000000 -7799 -10259 0
1000000 -7800 -10376 0
1000000 -7801 -9608 0
1000000 -7802 -10406 0
1000000 -7803 -10072 0
1000000 -7804 -9669 0
1000000 -7805 -9758 0
1000000 -7806 -10179 0
1000000 -7807 -11422 0
1000000 -7808 -9868 0
1000000 -7809 -11456 0
1000000 -7810 -10395 0
1000000 -7811 -11514 0
1000000 -7812 -11849 0
1000000 -7813 -11236 0
1000000 -7814 -11430 0
1000000 -7815 -9907 0
1000000 -7816 -11701 0
1000000 -7817 -11746 0
1000000 -7818 -11633 0
1000000 -7819 -11444 0
1000000 -7820 -10391 0
1000000 -7821 -11737 0
1000000 -7822 -10794 0
1000000 -7823 -10854 0
1000000 -7824 -10388 0
1000000 -7825 -10829 0
1000000 -7826 -9607 0
1000000 -7827 -11840 0
1000000 -7828 -11726 0
1000000 -7829 -10558 0
1000000 -7830 -11519 0
1000000 -7831 -10475 0
1000000 -7832 -9793 0
1000000 -7833 -11029 0
1000000 -7834 -11463 0
1000000 -7835 -10330 0
1000000 -7836 -10610 0
1000000 -7837 -10094 0
1000000 -7838 -9823 0
1000000 -7839 -10180 0
1000000 -7840 -11496 0
1000000 -7841 -9805 0
1000000 -7842 -10445 0
1000000 -7843 -11455 0
1000000 -7844 -11431 0
1000000 -7845 -11178 0
1000000 -7846 -11588 0
1000000 -7847 -11068 0
1000000 -7848 -10755 0
1000000 -7849 -10811 0
1000000 -7850 -11125 0
1000000 -7851 -10441 0
1000000 -7852 -11182 0
1000000 -7853 -10012 0
1000000 -7854 -11239 0
1000000 -7855 -11640 0
1000000 -7856 -10217 0
1000000 -7857 -10338 0
1000000 -7858 -10070 0
1000000 -7859 -10158 0
1000000 -7860 -11651 0
1000000 -7861 -11148 0
1000000 -7862 -10884 0
1000000 -7863 -11754 0
1000000 -7864 -11020 0
1000000 -7865 -11735 0
1000000 -7866 -10807 0
1000000 -7867 -11353 0
1000000 -7868 -9999 0
1000000 -7869 -10853 0
1000000 -7870 -10389 0
1000000 -7871 -10448 0
1000000 -7872 -11615 0
1000000 -7873 -10941 0
1000000 -7874 -10121 0
1000000 -7875 -10335 0
1000000 -7876 -9786 0
1000000 -7877 -11431 0
1000000 -7878 -11607 0
1000000 -7879 -10389 0
1000000 -7880 -9767 0
1000000 -7881 -10567 0
1000000 -7882 -11337 0
1000000 -7883 -9796 0
1000000 -7884 -10311 0
1000000 -7885 -11820 0
1000000 -7886 -10511 0
1000000 -7887 -10155 0
1000000 -7888 -10597 0
1000000 -7889 -10239 0
1000000 -7890 -11043 0
1000000 -7891 -11743 0
1000000 -7892 -10269 0
1000000 -7893 -10340 0
1000000 -7894 -9963 0
1000000 -7895 -11495 0
1000000 -7896 -11152 0
1000000 -7897 -11706 0
1000000 -7898 -10839 0
1000000 -7899 -11266 0
1000000 -7900 -9679 0
1000000 -7901 -11195 0
1000000 -7902 -9622 0
1000000 -7903 -10667 0
1000000 -7904 -11394 0
1000000 -7905 -11042 0
1000000 -7906 -11513 0
1000000 -7907 -11666 0
1000000 -7908 -10262 0
1000000 -7909 -10634 0
1000000 -7910 -11514 0
1000000 -7911 -10538 0
1000000 -7912 -10054 0
1000000 -7913 -10724 0
1000000 -7914 -10112 0
1000000 -7915 -10065 0
1000000 -7916 -10845 0
1000000 -7917 -9763 0
1000000 -7918 -11081 0
1000000 -7919 -11221 0
1000000 -7920 -11186 0
1000000 -7921 -9769 0
1000000 -7922 -10711 0
1000000 -7923 -11823 0
1000000 -7924 -9659 0
1000000 -7925 -9613 0
1000000 -7926 -11745 0
1000000 -7927 -10648 0
1000000 -7928 -11192 0
1000000 -7929 -10414 0
1000000 -7930 -11515 0
1000000 -7931 -11033 0
1000000 -7932 -10062 0
1000000 -7933 -11645 0
1000000 -7934 -9781 0
1000000 -7935 -10499 0
1000000 -7936 -9944 0
1000000 -7937 -10467 0
1000000 -7938 -10474 0
1000000 -7939 -11201 0
1000000 -7940 -9665 0
1000000 -7941 -11662 0
1000000 -7942 -11326 0
1000000 -7943 -11040 0
1000000 -7944 -11668 0
1000000 -7945 -9969 0
1000000 -7946 -9873 0
1000000 -7947 -10795 0
1000000 -7948 -9943 0
1000000 -7949 -10202 0
1000000 -7950 -10429 0
1000000 -7951 -10033 0
1000000 -7952 -9823 0
1000000 -7953 -9833 0
1000000 -7954 -10366 0
1000000 -7955 -9987 0
1000000 -7956 -11269 0
1000000 -7957 -10934 0
1000000 -7958 -10405 0
1000000 -7959 -11592 0
1000000 -7960 -10589 0
1000000 -7961 -10577 0
1000000 -7962 -10952 0
1000000 -7963 -11509 0
1000000 -7964 -9918 0
1000000 -7965 -10041 0
1000000 -7966 -11189 0
1000000 -7967 -10328 0
1000000 -7968 -11191 0
1000000 -7969 -10288 0
1000000 -7970 -11802 0
1000000 -7971 -10368 0
1000000 -7972 -10147 0
1000000 -7973 -11130 0
1000000 -7974 -11776 0
1000000 -7975 -10858 0
1000000 -7976 -11058 0
1000000 -7977 -11135 0
1000000 -7978 -9803 0
1000000 -7979 -10865 0
1000000 -7980 -9770 0
1000000 -7981 -10463 0
1000000 -7982 -11658 0
1000000 -7983 -11616 0
1000000 -7984 -10405 0
1000000 -7985 -9749 0
1000000 -7986 -10352 0
1000000 -7987 -10649 0
1000000 -7988 -10825 0
1000000 -7989 -10907 0
1000000 -7990 -10772 0
1000000 -7991 -10759 0
1000000 -7992 -11648 0
1000000 -7993 -11176 0
1000000 -7994 -10087 0
1000000 -7995 -11715 0
1000000 -7996 -10434 0
1000000 -7997 -11693 0
1000000 -7998 -10659 0
1000000 -7999 -10164 0
1000000 -8000 -9640 0
1000000 -8001 -11725 0
1000000 -8002 -10349 0
1000000 -8003 -10627 0
1000000 -8004 -11155 0
1000000 -8005 -10662 0
1000000 -8006 -9967 0
1000000 -8007 -10894 0
1000000 -8008 -11169 0
1000000 -8009 -11164 0
1000000 -8010 -11473 0
1000000 -8011 -10334 0
1000000 -8012 -9913 0
1000000 -8013 -11119 0
1000000 -8014 -11732 0
1000000 -8015 -10352 0
1000000 -8016 -10116 0
1000000 -8017 -11631 0
1000000 -8018 -11743 0
1000000 -8019 -11070 0
1000000 -8020 -10900 0
1000000 -8021 -11143 0
1000000 -8022 -10449 0
1000000 -8023 -11382 0
1000000 -8024 -11345 0
1000000 -8025 -10739 0
1000000 -8026 -11348 0
1000000 -8027 -10643 0
1000000 -8028 -11045 0
1000000 -8029 -10458 0
1000000 -8030 -11653 0
1000000 -8031 -10769 0
1000000 -8032 -11166 0
1000000 -8033 -11586 0
1000000 -8034 -10968 0
1000000 -8035 -11444 0
1000000 -8036 -10172 0
1000000 -8037 -11414 0
1000000 -8038 -11075 0
1000000 -8039 -10931 0
1000000 -8040 -10895 0
1000000 -8041 -10666 0
1000000 -8042 -11352 0
1000000 -8043 -11627 0
1000000 -8044 -10140 0
1000000 -8045 -11613 0
1000000 -8046 -10309 0
1000000 -8047 -9633 0
1000000 -8048 -9914 0
1000000 -8049 -11282 0
1000000 -8050 -11571 0
1000000 -8051 -10478 0
1000000 -8052 -11824 0
1000000 -8053 -10149 0
1000000 -8054 -10001 0
1000000 -8055 -11306 0
1000000 -8056 -10306 0
1000000 -8057 -10416 0
1000000 -8058 -10879 0
1000000 -8059 -10751 0
1000000 -8060 -10302 0
1000000 -8061 -11801 0
1000000 -8062 -11087 0
1000000 -8063 -11298 0
1000000 -8064 -10127 0
1000000 -8065 -11335 0
1000000 -8066 -10039 0
1000000 -8067 -11031 0
1000000 -8068 -11827 0
1000000 -8069 -11555 0
1000000 -8070 -11342 0
1000000 -8071 -11202 0
1000000 -8072 -10991 0
1000000 -8073 -11050 0
1000000 -8074 -10797 0
1000000 -8075 -11026 0
1000000 -8076 -11237 0
1000000 -8077 -10996 0
1000000 -8078 -10165 0
1000000 -8079 -11397 0
1000000 -8080 -9774 0
1000000 -8081 -11836 0
1000000 -8082 -11297 0
1000000 -8083 -11017 0
1000000 -8084 -10447 0
1000000 -8085 -10589 0
1000000 -8086 -11662 0
1000000 -8087 -11837 0
1000000 -8088 -11324 0
1000000 -8089 -9870 0
1000000 -8090 -10065 0
1000000 -8091 -11355 0
1000000 -8092 -10731 0
1000000 -8093 -9787 0
1000000 -8094 -11176 0
1000000 -8095 -11672 0
1000000 -8096 -10559 0
1000000 -8097 -9785 0
1000000 -8098 -9769 0
1000000 -8099 -10644 0
1000000 -8100 -10910 0
1000000 -8101 -9830 0
1000000 -8102 -9625 0
1000000 -8103 -10347 0
1000000 -8104 -10780 0
1000000 -8105 -11799 0
1000000 -8106 -10799 0
1000000 -8107 -10524 0
1000000 -8108 -10833 0
1000000 -8109 -11797 0
1000000 -8110 -11154 0
1000000 -8111 -11007 0
1000000 -8112 -11076 0
1000000 -8113 -10964 0
1000000 -8114 -11604 0
1000000 -8115 -11492 0
1000000 -8116 -11782 0
1000000 -8117 -9808 0
1000000 -8118 -11824 0
1000000 -8119 -9641 0
1000000 -8120 -11484 0
1000000 -8121 -11226 0
1000000 -8122 -10073 0
1000000 -8123 -11202 0
1000000 -8124 -10484 0
1000000 -8125 -11546 0
1000000 -8126 -11541 0
1000000 -8127 -10898 0
1000000 -8128 -9617 0
1000000 -8129 -11225 0
1000000 -8130 -11832 0
1000000 -8131 -11464 0
1000000 -8132 -10057 0
1000000 -8133 -9977 0
1000000 -8134 -11109 0
1000000 -8135 -10924 0
1000000 -8136 -9959 0
1000000 -8137 -10343 0
1000000 -8138 -10117 0
1000000 -8139 -11472 0
1000000 -8140 -11170 0
1000000 -8141 -11822 0
1000000 -8142 -10589 0
1000000 -8143 -11351 0
1000000 -8144 -10540 0
1000000 -8145 -9644 0
1000000 -8146 -11215 0
1000000 -8147 -11531 0
1000000 -8148 -10676 0
1000000 -8149 -9749 0
1000000 -8150 -11149 0
1000000 -8151 -10022 0
1000000 -8152 -10227 0
1000000 -8153 -10765 0
1000000 -8154 -10167 0
1000000 -8155 -10120 0
1000000 -8156 -9642 0
1000000 -8157 -10372 0
1000000 -8158 -11553 0
1000000 -8159 -11808 0
1000000 -8160 -10293 0
1000000 -8161 -9844 0
1000000 -8162 -9757 0
1000000 -8163 -10808 0
1000000 -8164 -11138 0
1000000 -8165 -11699 0
1000000 -8166 -11275 0
1000000 -8167 -10295 0
1000000 -8168 -10457 0
1000000 -8169 -10872 0
1000000 -8170 -10896 0
1000000 -8171 -10231 0
1000000 -8172 -10658 0
1000000 -8173 -10052 0
1000000 -8174 -11113 0
1000000 -8175 -10225 0
1000000 -8176 -10178 0
1000000 -8177 -11187 0
1000000 -8178 -9777 0
1000000 -8179 -11748 0
1000000 -8180 -11806 0
1000000 -8181 -10709 0
1000000 -8182 -10567 0
1000000 -8183 -10048 0
1000000 -8184 -9655 0
1000000 -8185 -11307 0
1000000 -8186 -11434 0
1000000 -8187 -10256 0
1000000 -8188 -9832 0
1000000 -8189 -10870 0
1000000 -8190 -11060 0
1000000 -8191 -9824 0
1000000 -8192 -9864 0
1000000 -8193 -11787 0
1000000 -8194 -9941 0
1000000 -8195 -11474 0
1000000 -8196 -10796 0
1000000 -8197 -10718 0
1000000 -8198 -10291 0
1000000 -8199 -11032 0
1000000 -8200 -9764 0
1000000 -8201 -11642 0
1000000 -8202 -10220 0
1000000 -8203 -10867 0
1000000 -8204 -9779 0
1000000 -8205 -10954 0
1000000 -8206 -11802 0
1000000 -8207 -11709 0
1000000 -8208 -10212 0
1000000 -8209 -10888 0
1000000 -8210 -11643 0
1000000 -8211 -9925 0
1000000 -8212 -11275 0
1000000 -8213 -11321 0
1000000 -8214 -11735 0
1000000 -8215 -10616 0
1000000 -8216 -11278 0
1000000 -8217 -11580 0
1000000 -8218 -11363 0
1000000 -8219 -9988 0
1000000 -8220 -11235 0
1000000 -8221 -9845 0
1000000 -8222 -10823 0
1000000 -8223 -10797 0
1000000 -8224 -10694 0
1000000 -8225 -9632 0
1000000 -8226 -11669 0
1000000 -8227 -11374 0
1000000 -8228 -11507 0
1000000 -8229 -10010 0
1000000 -8230 -9976 0
1000000 -8231 -10201 0
1000000 -8232 -11041 0
1000000 -8233 -11128 0
1000000 -8234 -9883 0
1000000 -8235 -10492 0
1000000 -8236 -11612 0
1000000 -8237 -11462 0
1000000 -8238 -10108 0
1000000 -8239 -11307 0
1000000 -8240 -10095 0
1000000 -8241 -10318 0
1000000 -8242 -10669 0
1000000 -8243 -9712 0
1000000 -8244 -10136 0
1000000 -8245 -11392 0
1000000 -8246 -11638 0
1000000 -8247 -11239 0
1000000 -8248 -11568 0
1000000 -8249 -11779 0
1000000 -8250 -11214 0
1000000 -8251 -9663 0
1000000 -8252 -10309 0
1000000 -8253 -11796 0
1000000 -8254 -10965 0
1000000 -8255 -11842 0
1000000 -8256 -10775 0
1000000 -8257 -11796 0
1000000 -8258 -10719 0
1000000 -8259 -11703 0
1000000 -8260 -11613 0
1000000 -8261 -11512 0
1000000 -8262 -10945 0
1000000 -8263 -11661 0
1000000 -8264 -10552 0
1000000 -8265 -10398 0
1000000 -8266 -10369 0
1000000 -8267 -11659 0
1000000 -8268 -10639 0
1000000 -8269 -11344 0
1000000 -8270 -11453 0
1000000 -8271 -11096 0
1000000 -8272 -9663 0
1000000 -8273 -9894 0
1000000 -8274 -11784 0
1000000 -8275 -10551 0
1000000 -8276 -11644 0
1000000 -8277 -10199 0
1000000 -8278 -9731 0
1000000 -8279 -11140 0
1000000 -8280 -11834 0
1000000 -8281 -9672 0
1000000 -8282 -10142 0
1000000 -8283 -9992 0
1000000 -8284 -11709 0
1000000 -8285 -10464 0
1000000 -8286 -10637 0
1000000 -8287 -10543 0
1000000 -8288 -9990 0
1000000 -8289 -10440 0
1000000 -8290 -11171 0
1000000 -8291 -10584 0
1000000 -8292 -10390 0
1000000 -8293 -10274 0
1000000 -8294 -9662 0
1000000 -8295 -10560 0
1000000 -8296 -9843 0
1000000 -8297 -10975 0
1000000 -8298 -9831 0
1000000 -8299 -10258 0
1000000 -8300 -10640 0
1000000 -8301 -11780 0
1000000 -8302 -10445 0
1000000 -8303 -10596 0
1000000 -8304 -9618 0
1000000 -8305 -10277 0
1000000 -8306 -10054 0
1000000 -8307 -11249 0
1000000 -8308 -10237 0
1000000 -8309 -11695 0
1000000 -8310 -11071 0
1000000 -8311 -11259 0
1000000 -8312 -9708 0
1000000 -8313 -11092 0
1000000 -8314 -11427 0
1000000 -8315 -10121 0
1000000 -8316 -10012 0
1000000 -8317 -9755 0
1000000 -8318 -11233 0
1000000 -8319 -10228 0
1000000 -8320 -11771 0
1000000 -8321 -10857 0
1000000 -8322 -9828 0
1000000 -8323 -11673 0
1000000 -8324 -11211 0
1000000 -8325 -10795 0
1000000 -8326 -10145 0
1000000 -8327 -11296 0
1000000 -8328 -10557 0
1000000 -8329 -10961 0
1000000 -8330 -11019 0
1000000 -8331 -11266 0
1000000 -8332 -11592 0
1000000 -8333 -10882 0
1000000 -8334 -9899 0
1000000 -8335 -9981 0
1000000 -8336 -11305 0
1000000 -8337 -11300 0
1000000 -8338 -9945 0
1000000 -8339 -10122 0
1000000 -8340 -11423 0
1000000 -8341 -11649 0
1000000 -8342 -10365 0
1000000 -8343 -11831 0
1000000 -8344 -10374 0
1000000 -8345 -9744 0
1000000 -8346 -10692 0
1000000 -8347 -9752 0
1000000 -8348 -10655 0
1000000 -8349 -11576 0
1000000 -8350 -11149 0
1000000 -8351 -10943 0
1000000 -8352 -11798 0
1000000 -8353 -10514 0
1000000 -8354 -10397 0
1000000 -8355 -9626 0
1000000 -8356 -10688 0
1000000 -8357 -10077 0
1000000 -8358 -10403 0
1000000 -8359 -10628 0
1000000 -8360 -11584 0
1000000 -8361 -10266 0
1000000 -8362 -10622 0
1000000 -8363 -10196 0
1000000 -8364 -10937 0
1000000 -8365 -11299 0
1000000 -8366 -11277 0
1000000 -8367 -10515 0
1000000 -8368 -10198 0
1000000 -8369 -11175 0
1000000 -8370 -10691 0
1000000 -8371 -10106 0
1000000 -8372 -11819 0
1000000 -8373 -11651 0
1000000 -8374 -9629 0
1000000 -8375 -11107 0
1000000 -8376 -10492 0
1000000 -8377 -9975 0
1000000 -8378 -11681 0
1000000 -8379 -10035 0
1000000 -8380 -11738 0
1000000 -8381 -10190 0
1000000 -8382 -9938 0
1000000 -8383 -10977 0
1000000 -8384 -11605 0
1000000 -8385 -11539 0
1000000 -8386 -9841 0
1000000 -8387 -10385 0
1000000 -8388 -10228 0
1000000 -8389 -10176 0
1000000 -8390 -10128 0
1000000 -8391 -10541 0
1000000 -8392 -11013 0
1000000 -8393 -11603 0
1000000 -8394 -11642 0
1000000 -8395 -11133 0
1000000 -8396 -10104 0
1000000 -8397 -9922 0
1000000 -8398 -11607 0
1000000 -8399 -9610 0
1000000 -8400 -9816 0
1000000 -8401 -10587 0
1000000 -8402 -10284 0
1000000 -8403 -11351 0
1000000 -8404 -10585 0
1000000 -8405 -10248 0
1000000 -8406 -11218 0
1000000 -8407 -11398 0
1000000 -8408 -10768 0
1000000 -8409 -11655 0
1000000 -8410 -11300 0
1000000 -8411 -11501 0
1000000 -8412 -10959 0
1000000 -8413 -11511 0
1000000 -8414 -10897 0
1000000 -8415 -11024 0
1000000 -8416 -11812 0
1000000 -8417 -10785 0
1000000 -8418 -11686 0
1000000 -8419 -11738 0
1000000 -8420 -10096 0
1000000 -8421 -9803 0
1000000 -8422 -10700 0
1000000 -8423 -11765 0
1000000 -8424 -10570 0
1000000 -8425 -9766 0
1000000 -8426 -11150 0
1000000 -8427 -11471 0
1000000 -8428 -9661 0
1000000 -8429 -10840 0
1000000 -8430 -10835 0
1000000 -8431 -10993 0
1000000 -8432 -10126 0
1000000 -8433 -11363 0
1000000 -8434 -9764 0
1000000 -8435 -10413 0
1000000 -8436 -10193 0
1000000 -8437 -10216 0
1000000 -8438 -10356 0
1000000 -8439 -11030 0
1000000 -8440 -11562 0
1000000 -8441 -9683 0
1000000 -8442 -10849 0
1000000 -8443 -11756 0
1000000 -8444 -10373 0
1000000 -8445 -11783 0
1000000 -8446 -11306 0
1000000 -8447 -10855 0
1000000 -8448 -11188 0
1000000 -8449 -10603 0
1000000 -8450 -10290 0
1000000 -8451 -11739 0
1000000 -8452 -10256 0
1000000 -8453 -11232 0
1000000 -8454 -10458 0
1000000 -8455 -11687 0
1000000 -8456 -11070 0
1000000 -8457 -10090 0
1000000 -8458 -11640 0
1000000 -8459 -11134 0
1000000 -8460 -11554 0
1000000 -8461 -9901 0
1000000 -8462 -11006 0
1000000 -8463 -10919 0
1000000 -8464 -9957 0
1000000 -8465 -10734 0
1000000 -8466 -9892 0
1000000 -8467 -11832 0
1000000 -8468 -9988 0
1000000 -8469 -11840 0
1000000 -8470 -10503 0
1000000 -8471 -9863 0
1000000 -8472 -11219 0
1000000 -8473 -10315 0
1000000 -8474 -9694 0
1000000 -8475 -11095 0
1000000 -8476 -10009 0
1000000 -8477 -10045 0
1000000 -8478 -10623 0
1000000 -8479 -11594 0
1000000 -8480 -11481 0
1000000 -8481 -10199 0
1000000 -8482 -10001 0
1000000 -8483 -9653 0
1000000 -8484 -11735 0
1000000 -8485 -10057 0
1000000 -8486 -11762 0
1000000 -8487 -10513 0
1000000 -8488 -11088 0
1000000 -8489 -11648 0
1000000 -8490 -10927 0
1000000 -8491 -9677 0
1000000 -8492 -10220 0
1000000 -8493 -11634 0
1000000 -8494 -10162 0
1000000 -8495 -10505 0
1000000 -8496 -11670 0
1000000 -8497 -11518 0
1000000 -8498 -9804 0
1000000 -8499 -10998 0
1000000 -8500 -11533 0
1000000 -8501 -11404 0
1000000 -8502 -11399 0
1000000 -8503 -10112 0
1000000 -8504 -9771 0
1000000 -8505 -9773 0
1000000 -8506 -11182 0
1000000 -8507 -10871 0
1000000 -8508 -10585 0
1000000 -8509 -11318 0
1000000 -8510 -11503 0
1000000 -8511 -11405 0
1000000 -8512 -10305 0
1000000 -8513 -9776 0
1000000 -8514 -10790 0
1000000 -8515 -10646 0
1000000 -8516 -9955 0
1000000 -8517 -11346 0
1000000 -8518 -9742 0
1000000 -8519 -10071 0
1000000 -8520 -10856 0
1000000 -8521 -10247 0
1000000 -8522 -10637 0
1000000 -8523 -11751 0
1000000 -8524 -11016 0
1000000 -8525 -11074 0
1000000 -8526 -11610 0
1000000 -8527 -10681 0
1000000 -8528 -10522 0
1000000 -8529 -11835 0
1000000 -8530 -11162 0
1000000 -8531 -10371 0
1000000 -8532 -11059 0
1000000 -8533 -11489 0
1000000 -8534 -10280 0
1000000 -8535 -10064 0
1000000 -8536 -11024 0
1000000 -8537 -11626 0
1000000 -8538 -10970 0
1000000 -8539 -10733 0
1000000 -8540 -10002 0
1000000 -8541 -9674 0
1000000 -8542 -10995 0
1000000 -8543 -9885 0
1000000 -8544 -10021 0
1000000 -8545 -9949 0
1000000 -8546 -11740 0
1000000 -8547 -10381 0
1000000 -8548 -10418 0
1000000 -8549 -10177 0
1000000 -8550 -10855 0
1000000 -8551 -10070 0
1000000 -8552 -11089 0
1000000 -8553 -10295 0
1000000 -8554 -11108 0
1000000 -8555 -10648 0
1000000 -8556 -9949 0
1000000 -8557 -10924 0
1000000 -8558 -10103 0
1000000 -8559 -10061 0
1000000 -8560 -9638 0
1000000 -8561 -11255 0
1000000 -8562 -9865 0
1000000 -8563 -11614 0
1000000 -8564 -10629 0
1000000 -8565 -11038 0
1000000 -8566 -10708 0
1000000 -8567 -11011 0
1000000 -8568 -10311 0
1000000 -8569 -11841 0
1000000 -8570 -10564 0
1000000 -8571 -9630 0
1000000 -8572 -10371 0
1000000 -8573 -10211 0
1000000 -8574 -10255 0
1000000 -8575 -10865 0
1000000 -8576 -10146 0
1000000 -8577 -11103 0
1000000 -8578 -11121 0
1000000 -8579 -11731 0
1000000 -8580 -11074 0
1000000 -8581 -11199 0
1000000 -8582 -10982 0
1000000 -8583 -10923 0
1000000 -8584 -9643 0
1000000 -8585 -10405 0
1000000 -8586 -10944 0
1000000 -8587 -9970 0
1000000 -8588 -11257 0
1000000 -8589 -9686 0
1000000 -8590 -9994 0
1000000 -8591 -9971 0
1000000 -8592 -11729 0
1000000 -8593 -11158 0
1000000 -8594 -11751 0
1000000 -8595 -10209 0
1000000 -8596 -11240 0
1000000 -8597 -9782 0
1000000 -8598 -11036 0
1000000 -8599 -10380 0
1000000 -8600 -10826 0
1000000 -8601 -9759 0
1000000 -8602 -10147 0
1000000 -8603 -11072 0
1000000 -8604 -10218 0
1000000 -8605 -9813 0
1000000 -8606 -9989 0
1000000 -8607 -9965 0
1000000 -8608 -10101 0
1000000 -8609 -11199 0
1000000 -8610 -9886 0
1000000 -8611 -10502 0
1000000 -8612 -10831 0
1000000 -8613 -11474 0
1000000 -8614 -9782 0
1000000 -8615 -9854 0
1000000 -8616 -11814 0
1000000 -8617 -9766 0
1000000 -8618 -10707 0
1000000 -8619 -9826 0
1000000 -8620 -10666 0
1000000 -8621 -10430 0
1000000 -8622 -10632 0
1000000 -8623 -10930 0
1000000 -8624 -10859 0
1000000 -8625 -9834 0
1000000 -8626 -10681 0
1000000 -8627 -10569 0
1000000 -8628 -11772 0
1000000 -8629 -10768 0
1000000 -8630 -9699 0
1000000 -8631 -11038 0
1000000 -8632 -11649 0
1000000 -8633 -10177 0
1000000 -8634 -10869 0
1000000 -8635 -9657 0
1000000 -8636 -10568 0
1000000 -8637 -11604 0
1000000 -8638 -9981 0
1000000 -8639 -10108 0
1000000 -8640 -11115 0
1000000 -8641 -10637 0
1000000 -8642 -11482 0
1000000 -8643 -10821 0
1000000 -8644 -10702 0
1000000 -8645 -9939 0
1000000 -8646 -11456 0
1000000 -8647 -11585 0
1000000 -8648 -10185 0
1000000 -8649 -10639 0
1000000 -8650 -11333 0
1000000 -8651 -10059 0
1000000 -8652 -10947 0
1000000 -8653 -10811 0
1000000 -8654 -11731 0
1000000 -8655 -11669 0
1000000 -8656 -11312 0
1000000 -8657 -11196 0
1000000 -8658 -9753 0
1000000 -8659 -9706 0
1000000 -8660 -9995 0
1000000 -8661 -10567 0
1000000 -8662 -9662 0
1000000 -8663 -10311 0
1000000 -8664 -10565 0
1000000 -8665 -9676 0
1000000 -8666 -11787 0
1000000 -8667 -9869 0
1000000 -8668 -9993 0
1000000 -8669 -10067 0
1000000 -8670 -9727 0
1000000 -8671 -11587 0
1000000 -8672 -9977 0
1000000 -8673 -10852 0
1000000 -8674 -10748 0
1000000 -8675 -11336 0
1000000 -8676 -9795 0
1000000 -8677 -10732 0
1000000 -8678 -11674 0
1000000 -8679 -11305 0
1000000 -8680 -9672 0
1000000 -8681 -11205 0
1000000 -8682 -10947 0
1000000 -8683 -11380 0
1000000 -8684 -11412 0
1000000 -8685 -10497 0
1000000 -8686 -10798 0
1000000 -8687 -10196 0
1000000 -8688 -11602 0
1000000 -8689 -11201 0
1000000 -8690 -9959 0
1000000 -8691 -11121 0
1000000 -8692 -9950 0
1000000 -8693 -10635 0
1000000 -8694 -10379 0
1000000 -8695 -11007 0
1000000 -8696 -9793 0
1000000 -8697 -11583 0
1000000 -8698 -9617 0
1000000 -8699 -11845 0
1000000 -8700 -10007 0
1000000 -8701 -10860 0
1000000 -8702 -10304 0
1000000 -8703 -10974 0
1000000 -8704 -11572 0
1000000 -8705 -10205 0
1000000 -8706 -11117 0
1000000 -8707 -11579 0
1000000 -8708 -10014 0
1000000 -8709 -10192 0
1000000 -8710 -10707 0
1000000 -8711 -9640 0
1000000 -8712 -11487 0
1000000 -8713 -10193 0
1000000 -8714 -10624 0
1000000 -8715 -11423 0
1000000 -8716 -9825 0
1000000 -8717 -10115 0
1000000 -8718 -10584 0
1000000 -8719 -10466 0
1000000 -8720 -9778 0
1000000 -8721 -11683 0
1000000 -8722 -10848 0
1000000 -8723 -11190 0
1000000 -8724 -9704 0
1000000 -8725 -9639 0
1000000 -8726 -11153 0
1000000 -8727 -10467 0
1000000 -8728 -10409 0
1000000 -8729 -10627 0
1000000 -8730 -10763 0
1000000 -8731 -9623 0
1000000 -8732 -11494 0
1000000 -8733 -11530 0
1000000 -8734 -10449 0
1000000 -8735 -11243 0
1000000 -8736 -11763 0
1000000 -8737 -10399 0
1000000 -8738 -11133 0
1000000 -8739 -10486 0
1000000 -8740 -11788 0
1000000 -8741 -10714 0
1000000 -8742 -10644 0
1000000 -8743 -11051 0
1000000 -8744 -10170 0
1000000 -8745 -11500 0
1000000 -8746 -10435 0
1000000 -8747 -10234 0
1000000 -8748 -11698 0
1000000 -8749 -10507 0
1000000 -8750 -10684 0
1000000 -8751 -11523 0
1000000 -8752 -9786 0
1000000 -8753 -10644 0
1000000 -8754 -11599 0
1000000 -8755 -11532 0
1000000 -8756 -11131 0
1000000 -8757 -10786 0
1000000 -8758 -9790 0
1000000 -8759 -9962 0
1000000 -8760 -10766 0
1000000 -8761 -11356 0
1000000 -8762 -9633 0
1000000 -8763 -11070 0
1000000 -8764 -11302 0
1000000 -8765 -10908 0
1000000 -8766 -10872 0
1000000 -8767 -10425 0
1000000 -8768 -11329 0
1000000 -8769 -11755 0
1000000 -8770 -11501 0
1000000 -8771 -10207 0
1000000 -8772 -9711 0
1000000 -8773 -11751 0
1000000 -8774 -11185 0
1000000 -8775 -10000 0
1000000 -8776 -11430 0
1000000 -8777 -9862 0
1000000 -8778 -11648 0
1000000 -8779 -10461 0
1000000 -8780 -9960 0
1000000 -8781 -9618 0
1000000 -8782 -10272 0
1000000 -8783 -10040 0
1000000 -8784 -9698 0
1000000 -8785 -11743 0
1000000 -8786 -9728 0
1000000 -8787 -9845 0
1000000 -8788 -11271 0
1000000 -8789 -9642 0
1000000 -8790 -10745 0
1000000 -8791 -11111 0
1000000 -8792 -11354 0
1000000 -8793 -10869 0
1000000 -8794 -10286 0
1000000 -8795 -10303 0
1000000 -8796 -10411 0
1000000 -8797 -9815 0
1000000 -8798 -10348 0
1000000 -8799 -11420 0
1000000 -8800 -10195 0
1000000 -8801 -11687 0
1000000 -8802 -11213 0
1000000 -8803 -9993 0
1000000 -8804 -11590 0
1000000 -8805 -10680 0
1000000 -8806 -10919 0
1000000 -8807 -11364 0
1000000 -8808 -10761 0
1000000 -8809 -11100 0
1000000 -8810 -11685 0
1000000 -8811 -11361 0
1000000 -8812 -11242 0
1000000 -8813 -10594 0
1000000 -8814 -9666 0
1000000 -8815 -10800 0
1000000 -8816 -10350 0
1000000 -8817 -11461 0
1000000 -8818 -10929 0
1000000 -8819 -10275 0
1000000 -8820 -11222 0
1000000 -8821 -11736 0
1000000 -8822 -11449 0
1000000 -8823 -10878 0
1000000 -8824 -11826 0
1000000 -8825 -10989 0
1000000 -8826 -10443 0
1000000 -8827 -11650 0
1000000 -8828 -10155 0
1000000 -8829 -11355 0
1000000 -8830 -10416 0
1000000 -8831 -10845 0
1000000 -8832 -10817 0
1000000 -8833 -11837 0
1000000 -8834 -10642 0
1000000 -8835 -11316 0
1000000 -8836 -11710 0
1000000 -8837 -11595 0
1000000 -8838 -9919 0
1000000 -8839 -10289 0
1000000 -8840 -10328 0
1000000 -8841 -11146 0
1000000 -8842 -10728 0
1000000 -8843 -11382 0
1000000 -8844 -10968 0
1000000 -8845 -11368 0
1000000 -8846 -10347 0
1000000 -8847 -11303 0
1000000 -8848 -11563 0
1000000 -8849 -10162 0
1000000 -8850 -10319 0
1000000 -8851 -10205 0
1000000 -8852 -11466 0
1000000 -8853 -9873 0
1000000 -8854 -10386 0
1000000 -8855 -10253 0
1000000 -8856 -10846 0
1000000 -8857 -9919 0
1000000 -8858 -11632 0
1000000 -8859 -9714 0
1000000 -8860 -10820 0
1000000 -8861 -9982 0
1000000 -8862 -10458 0
1000000 -8863 -9756 0
1000000 -8864 -10477 0
1000000 -8865 -10143 0
1000000 -8866 -11446 0
1000000 -8867 -10955 0
1000000 -8868 -11183 0
1000000 -8869 -11014 0
1000000 -8870 -9916 0
1000000 -8871 -11722 0
1000000 -8872 -10577 0
1000000 -8873 -10561 0
1000000 -8874 -10768 0
1000000 -8875 -11829 0
1000000 -8876 -11647 0
1000000 -8877 -11622 0
1000000 -8878 -10503 0
1000000 -8879 -10724 0
1000000 -8880 -9958 0
1000000 -8881 -10937 0
1000000 -8882 -10176 0
1000000 -8883 -9883 0
1000000 -8884 -9986 0
1000000 -8885 -11005 0
1000000 -8886 -10484 0
1000000 -8887 -10450 0
1000000 -8888 -11719 0
1000000 -8889 -9846 0
1000000 -8890 -10469 0
1000000 -8891 -10452 0
1000000 -8892 -9996 0
1000000 -8893 -10483 0
1000000 -8894 -9809 0
1000000 -8895 -10752 0
1000000 -8896 -10719 0
1000000 -8897 -9803 0
1000000 -8898 -9701 0
1000000 -8899 -10746 0
1000000 -8900 -10864 0
1000000 -8901 -11480 0
1000000 -8902 -11759 0
1000000 -8903 -10485 0
1000000 -8904 -10433 0
1000000 -8905 -11062 0
1000000 -8906 -11112 0
1000000 -8907 -10733 0
1000000 -8908 -10841 0
1000000 -8909 -11308 0
1000000 -8910 -10419 0
1000000 -8911 -10725 0
1000000 -8912 -9767 0
1000000 -8913 -10027 0
1000000 -8914 -10546 0
1000000 -8915 -10536 0
1000000 -8916 -9687 0
1000000 -8917 -10885 0
1000000 -8918 -11589 0
1000000 -8919 -10871 0
1000000 -8920 -10580 0
1000000 -8921 -11734 0
1000000 -8922 -11369 0
1000000 -8923 -10139 0
1000000 -8924 -10889 0
1000000 -8925 -10212 0
1000000 -8926 -10252 0
1000000 -8927 -10701 0
1000000 -8928 -11596 0
1000000 -8929 -10747 0
1000000 -8930 -11304 0
1000000 -8931 -11317 0
1000000 -8932 -11058 0
1000000 -8933 -10252 0
1000000 -8934 -11655 0
1000000 -8935 -11216 0
1000000 -8936 -11833 0
1000000 -8937 -10239 0
1000000 -8938 -10144 0
1000000 -8939 -11769 0
1000000 -8940 -9799 0
1000000 -8941 -11173 0
1000000 -8942 -9829 0
1000000 -8943 -11294 0
1000000 -8944 -11123 0
1000000 -8945 -11400 0
1000000 -8946 -11549 0
1000000 -8947 -11475 0
1000000 -8948 -11827 0
1000000 -8949 -10576 0
1000000 -8950 -11700 0
1000000 -8951 -9930 0
1000000 -8952 -10289 0
1000000 -8953 -10413 0
1000000 -8954 -11838 0
1000000 -8955 -10332 0
1000000 -8956 -10223 0
1000000 -8957 -11285 0
1000000 -8958 -10628 0
1000000 -8959 -9902 0
1000000 -8960 -9879 0
1000000 -8961 -10135 0
1000000 -8962 -11595 0
1000000 -8963 -11078 0
1000000 -8964 -11771 0
1000000 -8965 -11642 0
1000000 -8966 -11480 0
1000000 -8967 -11349 0
1000000 -8968 -11077 0
1000000 -8969 -10983 0
1000000 -8970 -10329 0
1000000 -8971 -10763 0
1000000 -8972 -10534 0
1000000 -8973 -10511 0
1000000 -8974 -10014 0
1000000 -8975 -10663 0
1000000 -8976 -9788 0
1000000 -8977 -9759 0
1000000 -8978 -9693 0
1000000 -8979 -11685 0
1000000 -8980 -10151 0
1000000 -8981 -11785 0
1000000 -8982 -11511 0
1000000 -8983 -11060 0
1000000 -8984 -10736 0
1000000 -8985 -10011 0
1000000 -8986 -11783 0
1000000 -8987 -10621 0
1000000 -8988 -10076 0
1000000 -8989 -11114 0
1000000 -8990 -10927 0
1000000 -8991 -10455 0
1000000 -8992 -11618 0
1000000 -8993 -10083 0
1000000 -8994 -10074 0
1000000 -8995 -10419 0
1000000 -8996 -11332 0
1000000 -8997 -11361 0
1000000 -8998 -10731 0
1000000 -8999 -10974 0
1000000 -9000 -9709 0
1000000 -9001 -11415 0
1000000 -9002 -10337 0
1000000 -9003 -10611 0
1000000 -9004 -11288 0
1000000 -9005 -10767 0
1000000 -9006 -11774 0
1000000 -9007 -10257 0
1000000 -9008 -11396 0
1000000 -9009 -10818 0
1000000 -9010 -10341 0
1000000 -9011 -10772 0
1000000 -9012 -10166 0
1000000 -9013 -10150 0
1000000 -9014 -11364 0
1000000 -9015 -10076 0
1000000 -9016 -11623 0
1000000 -9017 -10417 0
1000000 -9018 -11139 0
1000000 -9019 -10832 0
1000000 -9020 -10122 0
1000000 -9021 -11802 0
1000000 -9022 -10063 0
1000000 -9023 -10420 0
1000000 -9024 -10994 0
1000000 -9025 -10313 0
1000000 -9026 -11677 0
1000000 -9027 -10462 0
1000000 -9028 -10873 0
1000000 -9029 -9784 0
1000000 -9030 -11135 0
1000000 -9031 -11608 0
1000000 -9032 -10276 0
1000000 -9033 -10876 0
1000000 -9034 -9933 0
1000000 -9035 -11386 0
1000000 -9036 -10757 0
1000000 -9037 -10602 0
1000000 -9038 -10321 0
1000000 -9039 -10899 0
1000000 -9040 -9842 0
1000000 -9041 -10025 0
1000000 -9042 -11696 0
1000000 -9043 -11809 0
1000000 -9044 -10703 0
1000000 -9045 -11233 0
1000000 -9046 -9999 0
1000000 -9047 -11250 0
1000000 -9048 -10261 0
1000000 -9049 -10069 0
1000000 -9050 -11787 0
1000000 -9051 -10092 0
1000000 -9052 -10382 0
1000000 -9053 -11581 0
1000000 -9054 -10105 0
1000000 -9055 -10920 0
1000000 -9056 -10214 0
1000000 -9057 -9802 0
1000000 -9058 -11182 0
1000000 -9059 -10549 0
1000000 -9060 -11104 0
1000000 -9061 -9866 0
1000000 -9062 -11042 0
1000000 -9063 -11383 0
1000000 -9064 -11593 0
1000000 -9065 -10639 0
1000000 -9066 -9934 0
1000000 -9067 -11459 0
1000000 -9068 -10548 0
1000000 -9069 -10997 0
1000000 -9070 -10210 0
1000000 -9071 -10358 0
1000000 -9072 -11516 0
1000000 -9073 -10000 0
1000000 -9074 -10986 0
1000000 -9075 -9904 0
1000000 -9076 -11591 0
1000000 -9077 -11289 0
1000000 -9078 -10527 0
1000000 -9079 -11718 0
1000000 -9080 -10617 0
1000000 -9081 -10854 0
1000000 -9082 -10619 0
1000000 -9083 -10902 0
1000000 -9084 -10805 0
1000000 -9085 -10486 0
1000000 -9086 -10869 0
1000000 -9087 -10357 0
1000000 -9088 -10592 0
1000000 -9089 -10131 0
1000000 -9090 -10186 0
1000000 -9091 -10233 0
1000000 -9092 -11495 0
1000000 -9093 -9867 0
1000000 -9094 -9978 0
1000000 -9095 -11493 0
1000000 -9096 -10411 0
1000000 -9097 -10729 0
1000000 -9098 -10633 0
1000000 -9099 -10156 0
1000000 -9100 -10499 0
1000000 -9101 -10881 0
1000000 -9102 -10009 0
1000000 -9103 -9859 0
1000000 -9104 -11334 0
1000000 -9105 -11504 0
1000000 -9106 -11338 0
1000000 -9107 -9720 0
1000000 -9108 -10838 0
1000000 -9109 -11409 0
1000000 -9110 -11596 0
1000000 -9111 -10251 0
1000000 -9112 -10926 0
1000000 -9113 -9672 0
1000000 -9114 -10327 0
1000000 -9115 -9723 0
1000000 -9116 -11450 0
1000000 -9117 -9737 0
1000000 -9118 -11270 0
1000000 -9119 -9794 0
1000000 -9120 -10504 0
1000000 -9121 -10904 0
1000000 -9122 -10959 0
1000000 -9123 -10203 0
1000000 -9124 -11056 0
1000000 -9125 -11668 0
1000000 -9126 -10782 0
1000000 -9127 -10583 0
1000000 -9128 -11799 0
1000000 -9129 -10733 0
1000000 -9130 -11433 0
1000000 -9131 -10574 0
1000000 -9132 -9766 0
1000000 -9133 -11287 0
1000000 -9134 -11161 0
1000000 -9135 -10756 0
1000000 -9136 -10913 0
1000000 -9137 -10224 0
1000000 -9138 -9651 0
1000000 -9139 -11712 0
1000000 -9140 -11630 0
1000000 -9141 -11850 0
1000000 -9142 -11682 0
1000000 -9143 -10542 0
1000000 -9144 -10957 0
1000000 -9145 -10210 0
1000000 -9146 -10423 0
1000000 -9147 -9754 0
1000000 -9148 -10324 0
1000000 -9149 -10980 0
1000000 -9150 -10167 0
1000000 -9151 -10164 0
1000000 -9152 -11536 0
1000000 -9153 -10048 0
1000000 -9154 -9683 0
1000000 -9155 -9956 0
1000000 -9156 -9688 0
1000000 -9157 -11086 0
1000000 -9158 -9744 0
1000000 -9159 -10086 0
1000000 -9160 -11635 0
1000000 -9161 -10809 0
1000000 -9162 -9877 0
1000000 -9163 -11815 0
1000000 -9164 -11818 0
1000000 -9165 -10655 0
1000000 -9166 -10412 0
1000000 -9167 -11637 0
1000000 -9168 -9906 0
1000000 -9169 -10599 0
1000000 -9170 -10999 0
1000000 -9171 -11653 0
1000000 -9172 -10932 0
1000000 -9173 -10137 0
1000000 -9174 -9606 0
1000000 -9175 -10856 0
1000000 -9176 -10346 0
1000000 -9177 -10667 0
1000000 -9178 -11354 0
1000000 -9179 -11773 0
1000000 -9180 -11498 0
1000000 -9181 -10456 0
1000000 -9182 -9909 0
1000000 -9183 -11820 0
1000000 -9184 -11704 0
1000000 -9185 -11551 0
1000000 -9186 -10817 0
1000000 -9187 -9727 0
1000000 -9188 -11296 0
1000000 -9189 -10513 0
1000000 -9190 -10062 0
1000000 -9191 -10571 0
1000000 -9192 -9865 0
1000000 -9193 -10283 0
1000000 -9194 -10130 0
1000000 -9195 -11819 0
1000000 -9196 -11140 0
1000000 -9197 -10735 0
1000000 -9198 -10730 0
1000000 -9199 -10620 0
1000000 -9200 -10107 0
1000000 -9201 -10542 0
1000000 -9202 -10339 0
1000000 -9203 -9718 0
1000000 -9204 -11479 0
1000000 -9205 -11282 0
1000000 -9206 -11331 0
1000000 -9207 -11157 0
1000000 -9208 -9830 0
1000000 -9209 -10700 0
1000000 -9210 -10579 0
1000000 -9211 -11567 0
1000000 -9212 -11270 0
1000000 -9213 -10928 0
1000000 -9214 -10123 0
1000000 -9215 -10647 0
1000000 -9216 -11098 0
1000000 -9217 -11107 0
1000000 -9218 -11327 0
1000000 -9219 -9847 0
1000000 -9220 -9940 0
1000000 -9221 -11737 0
1000000 -9222 -10670 0
1000000 -9223 -9786 0
1000000 -9224 -11104 0
1000000 -9225 -10156 0
1000000 -9226 -10261 0
1000000 -9227 -10665 0
1000000 -9228 -10631 0
1000000 -9229 -11092 0
1000000 -9230 -10063 0
1000000 -9231 -11700 0
1000000 -9232 -9724 0
1000000 -9233 -9683 0
1000000 -9234 -10753 0
1000000 -9235 -11126 0
1000000 -9236 -10259 0
1000000 -9237 -11792 0
1000000 -9238 -11599 0
1000000 -9239 -10946 0
1000000 -9240 -9852 0
1000000 -9241 -9919 0
1000000 -9242 -11131 0
1000000 -9243 -10843 0
1000000 -9244 -11684 0
1000000 -9245 -9714 0
1000000 -9246 -10260 0
1000000 -9247 -10813 0
1000000 -9248 -10140 0
1000000 -9249 -9745 0
1000000 -9250 -9922 0
1000000 -9251 -11437 0
1000000 -9252 -9732 0
1000000 -9253 -11652 0
1000000 -9254 -10762 0
1000000 -9255 -10771 0
1000000 -9256 -10159 0
1000000 -9257 -11241 0
1000000 -9258 -9616 0
1000000 -9259 -10469 0
1000000 -9260 -9776 0
1000000 -9261 -11028 0
1000000 -9262 -11210 0
1000000 -9263 -11303 0
1000000 -9264 -10307 0
1000000 -9265 -10222 0
1000000 -9266 -11630 0
1000000 -9267 -10038 0
1000000 -9268 -10539 0
1000000 -9269 -10477 0
1000000 -9270 -10140 0
1000000 -9271 -9889 0
1000000 -9272 -10230 0
1000000 -9273 -9747 0
1000000 -9274 -10263 0
1000000 -9275 -9731 0
1000000 -9276 -11279 0
1000000 -9277 -10690 0
1000000 -9278 -11121 0
1000000 -9279 -10927 0
1000000 -9280 -10968 0
1000000 -9281 -11093 0
1000000 -9282 -11816 0
1000000 -9283 -10933 0
1000000 -9284 -10544 0
1000000 -9285 -10966 0
1000000 -9286 -9849 0
1000000 -9287 -11540 0
1000000 -9288 -10204 0
1000000 -9289 -11055 0
1000000 -9290 -10635 0
1000000 -9291 -11008 0
1000000 -9292 -10719 0
1000000 -9293 -10238 0
1000000 -9294 -9882 0
1000000 -9295 -10230 0
1000000 -9296 -11632 0
1000000 -9297 -11639 0
1000000 -9298 -9807 0
1000000 -9299 -11126 0
1000000 -9300 -10857 0
1000000 -9301 -11825 0
1000000 -9302 -11721 0
1000000 -9303 -9744 0
1000000 -9304 -11232 0
1000000 -9305 -11433 0
1000000 -9306 -11341 0
1000000 -9307 -9891 0
1000000 -9308 -10433 0
1000000 -9309 -11103 0
1000000 -9310 -11411 0
1000000 -9311 -11466 0
1000000 -9312 -9953 0
1000000 -9313 -9736 0
1000000 -9314 -11243 0
1000000 -9315 -11528 0
1000000 -9316 -11217 0
1000000 -9317 -11187 0
1000000 -9318 -10274 0
1000000 -9319 -10444 0
1000000 -9320 -10447 0
1000000 -9321 -11264 0
1000000 -9322 -11069 0
1000000 -9323 -10752 0
1000000 -9324 -9804 0
1000000 -9325 -9851 0
1000000 -9326 -10700 0
1000000 -9327 -11096 0
1000000 -9328 -10246 0
1000000 -9329 -10317 0
1000000 -9330 -10197 0
1000000 -9331 -10109 0
1000000 -9332 -10740 0
1000000 -9333 -10324 0
1000000 -9334 -11332 0
1000000 -9335 -11262 0
1000000 -9336 -11620 0
1000000 -9337 -10449 0
1000000 -9338 -10809 0
1000000 -9339 -11730 0
1000000 -9340 -10152 0
1000000 -9341 -10978 0
1000000 -9342 -10214 0
1000000 -9343 -10967 0
1000000 -9344 -11368 0
1000000 -9345 -9704 0
1000000 -9346 -11046 0
1000000 -9347 -10203 0
1000000 -9348 -11602 0
1000000 -9349 -11374 0
1000000 -9350 -10977 0
1000000 -9351 -11305 0
1000000 -9352 -10987 0
1000000 -9353 -10831 0
1000000 -9354 -10593 0
1000000 -9355 -9888 0
1000000 -9356 -10598 0
1000000 -9357 -11531 0
1000000 -9358 -11419 0
1000000 -9359 -10928 0
1000000 -9360 -11064 0
1000000 -9361 -9813 0
1000000 -9362 -10847 0
1000000 -9363 -10893 0
1000000 -9364 -11000 0
1000000 -9365 -11570 0
1000000 -9366 -10808 0
1000000 -9367 -9859 0
1000000 -9368 -10679 0
1000000 -9369 -10363 0
1000000 -9370 -10601 0
1000000 -9371 -11398 0
1000000 -9372 -10838 0
1000000 -9373 -11051 0
1000000 -9374 -10073 0
1000000 -9375 -10564 0
1000000 -9376 -9867 0
1000000 -9377 -11266 0
1000000 -9378 -10036 0
1000000 -9379 -10679 0
1000000 -9380 -10336 0
1000000 -9381 -11435 0
1000000 -9382 -9896 0
1000000 -9383 -11582 0
1000000 -9384 -10284 0
1000000 -9385 -10864 0
1000000 -9386 -10560 0
1000000 -9387 -11099 0
1000000 -9388 -10436 0
1000000 -9389 -11705 0
1000000 -9390 -10296 0
1000000 -9391 -11170 0
1000000 -9392 -10791 0
1000000 -9393 -11485 0
1000000 -9394 -10867 0
1000000 -9395 -10614 0
1000000 -9396 -9847 0
1000000 -9397 -10145 0
1000000 -9398 -11293 0
1000000 -9399 -10802 0
1000000 -9400 -10182 0
1000000 -9401 -9679 0
1000000 -9402 -11043 0
1000000 -9403 -10217 0
1000000 -9404 -10953 0
1000000 -9405 -11678 0
1000000 -9406 -11115 0
1000000 -9407 -10070 0
1000000 -9408 -10188 0
1000000 -9409 -9740 0
1000000 -9410 -11258 0
1000000 -9411 -10726 0
1000000 -9412 -11674 0
1000000 -9413 -10664 0
1000000 -9414 -10244 0
1000000 -9415 -11552 0
1000000 -9416 -11753 0
1000000 -9417 -9711 0
1000000 -9418 -9929 0
1000000 -9419 -9732 0
1000000 -9420 -11326 0
1000000 -9421 -9933 0
1000000 -9422 -10362 0
1000000 -9423 -11665 0
1000000 -9424 -10286 0
1000000 -9425 -9923 0
1000000 -9426 -10620 0
1000000 -9427 -9653 0
1000000 -9428 -11461 0
1000000 -9429 -9703 0
1000000 -9430 -9741 0
1000000 -9431 -11742 0
1000000 -9432 -11286 0
1000000 -9433 -9650 0
1000000 -9434 -10452 0
1000000 -9435 -11402 0
1000000 -9436 -9937 0
1000000 -9437 -11052 0
1000000 -9438 -10211 0
1000000 -9439 -10577 0
1000000 -9440 -9637 0
1000000 -9441 -11600 0
1000000 -9442 -9654 0
1000000 -9443 -9949 0
1000000 -9444 -9995 0
1000000 -9445 -10549 0
1000000 -9446 -11337 0
1000000 -9447 -10905 0
1000000 -9448 -11672 0
1000000 -9449 -9704 0
1000000 -9450 -10647 0
1000000 -9451 -9671 0
1000000 -9452 -9651 0
1000000 -9453 -11548 0
1000000 -9454 -9739 0
1000000 -9455 -11815 0
1000000 -9456 -10856 0
1000000 -9457 -11194 0
1000000 -9458 -10678 0
1000000 -9459 -9903 0
1000000 -9460 -9708 0
1000000 -9461 -10998 0
1000000 -9462 -10765 0
1000000 -9463 -10060 0
1000000 -9464 -10825 0
1000000 -9465 -9623 0
1000000 -9466 -11630 0
1000000 -9467 -11403 0
1000000 -9468 -11041 0
1000000 -9469 -11446 0
1000000 -9470 -10972 0
1000000 -9471 -11069 0
1000000 -9472 -10873 0
1000000 -9473 -11017 0
1000000 -9474 -11183 0
1000000 -9475 -10709 0
1000000 -9476 -11553 0
1000000 -9477 -10656 0
1000000 -9478 -9695 0
1000000 -9479 -9700 0
1000000 -9480 -11040 0
1000000 -9481 -10928 0
1000000 -9482 -10600 0
1000000 -9483 -10858 0
1000000 -9484 -11715 0
1000000 -9485 -9997 0
1000000 -9486 -9928 0
1000000 -9487 -11573 0
1000000 -9488 -9734 0
1000000 -9489 -10737 0
1000000 -9490 -11036 0
1000000 -9491 -9834 0
1000000 -9492 -10900 0
1000000 -9493 -10455 0
1000000 -9494 -11766 0
1000000 -9495 -9972 0
1000000 -9496 -10952 0
1000000 -9497 -10973 0
1000000 -9498 -10363 0
1000000 -9499 -9664 0
1000000 -9500 -11198 0
1000000 -9501 -11790 0
1000000 -9502 -10969 0
1000000 -9503 -11324 0
1000000 -9504 -10110 0
1000000 -9505 -10083 0
1000000 -9506 -11682 0
1000000 -9507 -10350 0
1000000 -9508 -11794 0
1000000 -9509 -11079 0
1000000 -9510 -11105 0
1000000 -9511 -11682 0
1000000 -9512 -11186 0
1000000 -9513 -9920 0
1000000 -9514 -10995 0
1000000 -9515 -10118 0
1000000 -9516 -10247 0
1000000 -9517 -11145 0
1000000 -9518 -11374 0
1000000 -9519 -11804 0
1000000 -9520 -9797 0
1000000 -9521 -11488 0
1000000 -9522 -9785 0
1000000 -9523 -10535 0
1000000 -9524 -10148 0
1000000 -9525 -11230 0
1000000 -9526 -10810 0
1000000 -9527 -9972 0
1000000 -9528 -10707 0
1000000 -9529 -10097 0
1000000 -9530 -9855 0
1000000 -9531 -11723 0
1000000 -9532 -11163 0
1000000 -9533 -9887 0
1000000 -9534 -11018 0
1000000 -9535 -10757 0
1000000 -9536 -10502 0
1000000 -9537 -10439 0
1000000 -9538 -10138 0
1000000 -9539 -11106 0
1000000 -9540 -9716 0
1000000 -9541 -9778 0
1000000 -9542 -9739 0
1000000 -9543 -11052 0
1000000 -9544 -10229 0
1000000 -9545 -11432 0
1000000 -9546 -9912 0
1000000 -9547 -11407 0
1000000 -9548 -11804 0
1000000 -9549 -10504 0
1000000 -9550 -10179 0
1000000 -9551 -10868 0
1000000 -9552 -9649 0
1000000 -9553 -11526 0
1000000 -9554 -11406 0
1000000 -9555 -10082 0
1000000 -9556 -11169 0
1000000 -9557 -11388 0
1000000 -9558 -11549 0
1000000 -9559 -10209 0
1000000 -9560 -11400 0
1000000 -9561 -10835 0
1000000 -9562 -11105 0
1000000 -9563 -10334 0
1000000 -9564 -9602 0
1000000 -9565 -10609 0
1000000 -9566 -9749 0
1000000 -9567 -11061 0
1000000 -9568 -9760 0
1000000 -9569 -11578 0
1000000 -9570 -11223 0
1000000 -9571 -10075 0
1000000 -9572 -9730 0
1000000 -9573 -11749 0
1000000 -9574 -9726 0
1000000 -9575 -10219 0
1000000 -9576 -11028 0
1000000 -9577 -11639 0
1000000 -9578 -11012 0
1000000 -9579 -9621 0
1000000 -9580 -10814 0
1000000 -9581 -9618 0
1000000 -9582 -9729 0
1000000 -9583 -10512 0
1000000 -9584 -10325 0
1000000 -9585 -9625 0
1000000 -9586 -11263 0
1000000 -9587 -11245 0
1000000 -9588 -10674 0
1000000 -9589 -10437 0
1000000 -9590 -10672 0
1000000 -9591 -9830 0
1000000 -9592 -11013 0
1000000 -9593 -11424 0
1000000 -9594 -11660 0
1000000 -9595 -11831 0
1000000 -9596 -10859 0
1000000 -9597 -10508 0
1000000 -9598 -9627 0
1000000 -9599 -11499 0
1000000 -9600 -10653 0
7700 -9601 0
7700 -9602 0
8700 -9603 0
5100 -9604 0
5200 -9605 0
8700 -9606 0
5200 -9607 0
8700 -9608 0
5200 -9609 0
7700 -9610 0
8700 -9611 0
5200 -9612 0
5500 -9613 0
5200 -9614 0
8700 -9615 0
5200 -9616 0
8700 -9617 0
8700 -9618 0
8700 -9619 0
5100 -9620 0
5200 -9621 0
8700 -9622 0
7700 -9623 0
5500 -9624 0
7700 -9625 0
8700 -9626 0
8700 -9627 0
5200 -9628 0
5100 -9629 0
8700 -9630 0
5500 -9631 0
8700 -9632 0
5500 -9633 0
5200 -9634 0
8700 -9635 0
5200 -9636 0
5200 -9637 0
5500 -9638 0
5100 -9639 0
8700 -9640 0
5500 -9641 0
5100 -9642 0
5500 -9643 0
5200 -9644 0
5200 -9645 0
5500 -9646 0
5500 -9647 0
5500 -9648 0
5500 -9649 0
8700 -9650 0
8700 -9651 0
5500 -9652 0
7700 -9653 0
8700 -9654 0
5100 -9655 0
5500 -9656 0
5500 -9657 0
5500 -9658 0
5100 -9659 0
7700 -9660 0
5500 -9661 0
8700 -9662 0
8700 -9663 0
5200 -9664 0
5100 -9665 0
5200 -9666 0
8700 -9667 0
7700 -9668 0
7700 -9669 0
5200 -9670 0
8700 -9671 0
8700 -9672 0
5500 -9673 0
5100 -9674 0
7700 -9675 0
5100 -9676 0
5500 -9677 0
5500 -9678 0
5500 -9679 0
5500 -9680 0
5100 -9681 0
7700 -9682 0
5500 -9683 0
5100 -9684 0
5200 -9685 0
8700 -9686 0
5500 -9687 0
8700 -9688 0
5500 -9689 0
8700 -9690 0
5200 -9691 0
5200 -9692 0
8700 -9693 0
7700 -9694 0
7700 -9695 0
8700 -9696 0
5200 -9697 0
5500 -9698 0
5200 -9699 0
8700 -9700 0
5500 -9701 0
8700 -9702 0
5500 -9703 0
7700 -9704 0
7700 -9705 0
5500 -9706 0
5100 -9707 0
7700 -9708 0
5500 -9709 0
7700 -9710 0
5500 -9711 0
5500 -9712 0
5100 -9713 0
8700 -9714 0
8700 -9715 0
5200 -9716 0
5100 -9717 0
7700 -9718 0
5100 -9719 0
8700 -9720 0
5200 -9721 0
8700 -9722 0
7700 -9723 0
5100 -9724 0
7700 -9725 0
7700 -9726 0
5500 -9727 0
7700 -9728 0
5200 -9729 0
7700 -9730 0
7700 -9731 0
5500 -9732 0
5500 -9733 0
8700 -9734 0
8700 -9735 0
7700 -9736 0
8700 -9737 0
5200 -9738 0
5200 -9739 0
5200 -9740 0
5500 -9741 0
5500 -9742 0
5100 -9743 0
5200 -9744 0
7700 -9745 0
8700 -9746 0
5500 -9747 0
7700 -9748 0
8700 -9749 0
8700 -9750 0
5200 -9751 0
7700 -9752 0
7700 -9753 0
5200 -9754 0
5200 -9755 0
5200 -9756 0
5200 -9757 0
5100 -9758 0
7700 -9759 0
8700 -9760 0
8700 -9761 0
5200 -9762 0
5200 -9763 0
5100 -9764 0
5200 -9765 0
5100 -9766 0
5100 -9767 0
5200 -9768 0
5100 -9769 0
5100 -9770 0
8700 -9771 0
5200 -9772 0
5500 -9773 0
5100 -9774 0
5200 -9775 0
5100 -9776 0
5100 -9777 0
8700 -9778 0
5500 -9779 0
8700 -9780 0
7700 -9781 0
5500 -9782 0
8700 -9783 0
5500 -9784 0
7700 -9785 0
5100 -9786 0
5200 -9787 0
8700 -9788 0
5500 -9789 0
5500 -9790 0
7700 -9791 0
7700 -9792 0
8700 -9793 0
7700 -9794 0
5200 -9795 0
8700 -9796 0
5100 -9797 0
5200 -9798 0
8700 -9799 0
8700 -9800 0
8700 -9801 0
5500 -9802 0
8700 -9803 0
5500 -9804 0
8700 -9805 0
5200 -9806 0
5500 -9807 0
5200 -9808 0
7700 -9809 0
5500 -9810 0
5500 -9811 0
5100 -9812 0
5500 -9813 0
5200 -9814 0
5100 -9815 0
8700 -9816 0
5500 -9817 0
8700 -9818 0
7700 -9819 0
8700 -9820 0
5500 -9821 0
8700 -9822 0
5500 -9823 0
5500 -9824 0
5100 -9825 0
5200 -9826 0
8700 -9827 0
8700 -9828 0
5200 -9829 0
8700 -9830 0
5100 -9831 0
7700 -9832 0
5200 -9833 0
5200 -9834 0
7700 -9835 0
5200 -9836 0
5500 -9837 0
7700 -9838 0
5500 -9839 0
8700 -9840 0
5500 -9841 0
5500 -9842 0
5100 -9843 0
8700 -9844 0
5100 -9845 0
8700 -9846 0
5500 -9847 0
5200 -9848 0
5200 -9849 0
5200 -9850 0
5100 -9851 0
7700 -9852 0
5100 -9853 0
5100 -9854 0
7700 -9855 0
8700 -9856 0
5200 -9857 0
8700 -9858 0
7700 -9859 0
5500 -9860 0
5100 -9861 0
5200 -9862 0
8700 -9863 0
8700 -9864 0
5200 -9865 0
5100 -9866 0
5500 -9867 0
8700 -9868 0
5200 -9869 0
8700 -9870 0
5100 -9871 0
5100 -9872 0
5500 -9873 0
5200 -9874 0
5200 -9875 0
7700 -9876 0
5200 -9877 0
5200 -9878 0
8700 -9879 0
5500 -9880 0
7700 -9881 0
5200 -9882 0
8700 -9883 0
7700 -9884 0
5500 -9885 0
5500 -9886 0
5500 -9887 0
7700 -9888 0
5100 -9889 0
7700 -9890 0
5500 -9891 0
8700 -9892 0
7700 -9893 0
8700 -9894 0
5100 -9895 0
5500 -9896 0
5500 -9897 0
8700 -9898 0
5100 -9899 0
5500 -9900 0
7700 -9901 0
8700 -9902 0
5100 -9903 0
8700 -9904 0
5500 -9905 0
8700 -9906 0
7700 -9907 0
5500 -9908 0
5100 -9909 0
5100 -9910 0
5500 -9911 0
5100 -9912 0
5200 -9913 0
5500 -9914 0
5500 -9915 0
7700 -9916 0
5500 -9917 0
7700 -9918 0
5500 -9919 0
7700 -9920 0
7700 -9921 0
5200 -9922 0
5100 -9923 0
8700 -9924 0
7700 -9925 0
5200 -9926 0
7700 -9927 0
8700 -9928 0
5500 -9929 0
7700 -9930 0
5200 -9931 0
5100 -9932 0
5500 -9933 0
5100 -9934 0
8700 -9935 0
5500 -9936 0
5100 -9937 0
5200 -9938 0
5200 -9939 0
5100 -9940 0
5500 -9941 0
7700 -9942 0
8700 -9943 0
8700 -9944 0
5200 -9945 0
5500 -9946 0
5500 -9947 0
8700 -9948 0
8700 -9949 0
8700 -9950 0
8700 -9951 0
5100 -9952 0
5100 -9953 0
5100 -9954 0
5100 -9955 0
7700 -9956 0
5200 -9957 0
8700 -9958 0
7700 -9959 0
7700 -9960 0
7700 -9961 0
5100 -9962 0
5200 -9963 0
5500 -9964 0
5200 -9965 0
8700 -9966 0
8700 -9967 0
5100 -9968 0
5100 -9969 0
5500 -9970 0
8700 -9971 0
5100 -9972 0
5200 -9973 0
5500 -9974 0
5500 -9975 0
8700 -9976 0
7700 -9977 0
5100 -9978 0
5500 -9979 0
5200 -9980 0
5500 -9981 0
5200 -9982 0
7700 -9983 0
8700 -9984 0
7700 -9985 0
8700 -9986 0
5500 -9987 0
7700 -9988 0
5100 -9989 0
7700 -9990 0
7700 -9991 0
5500 -9992 0
5500 -9993 0
8700 -9994 0
5200 -9995 0
7700 -9996 0
5200 -9997 0
7700 -9998 0
5200 -9999 0
8700 -10000 0
5500 -10001 0
5100 -10002 0
5200 -10003 0
5500 -10004 0
7700 -10005 0
7700 -10006 0
5200 -10007 0
5200 -10008 0
5100 -10009 0
8700 -10010 0
5200 -10011 0
7700 -10012 0
5100 -10013 0
5100 -10014 0
7700 -10015 0
7700 -10016 0
5500 -10017 0
5200 -10018 0
5100 -10019 0
5200 -10020 0
7700 -10021 0
5500 -10022 0
5100 -10023 0
5500 -10024 0
8700 -10025 0
5100 -10026 0
5500 -10027 0
8700 -10028 0
5500 -10029 0
7700 -10030 0
5200 -10031 0
8700 -10032 0
5100 -10033 0
5200 -10034 0
5500 -10035 0
8700 -10036 0
5200 -10037 0
5200 -10038 0
5500 -10039 0
7700 -10040 0
5200 -10041 0
5200 -10042 0
5100 -10043 0
5200 -10044 0
5500 -10045 0
5500 -10046 0
8700 -10047 0
5500 -10048 0
5200 -10049 0
5200 -10050 0
8700 -10051 0
5200 -10052 0
7700 -10053 0
5500 -10054 0
7700 -10055 0
7700 -10056 0
5100 -10057 0
5200 -10058 0
8700 -10059 0
5200 -10060 0
5500 -10061 0
7700 -10062 0
5200 -10063 0
5500 -10064 0
5100 -10065 0
8700 -10066 0
5200 -10067 0
8700 -10068 0
8700 -10069 0
7700 -10070 0
5100 -10071 0
5500 -10072 0
5100 -10073 0
5200 -10074 0
5500 -10075 0
7700 -10076 0
5200 -10077 0
5200 -10078 0
8700 -10079 0
5500 -10080 0
8700 -10081 0
5500 -10082 0
5200 -10083 0
7700 -10084 0
7700 -10085 0
8700 -10086 0
5500 -10087 0
8700 -10088 0
5500 -10089 0
7700 -10090 0
5200 -10091 0
5500 -10092 0
7700 -10093 0
5200 -10094 0
5200 -10095 0
5100 -10096 0
8700 -10097 0
7700 -10098 0
8700 -10099 0
5500 -10100 0
5500 -10101 0
5200 -10102 0
7700 -10103 0
7700 -10104 0
8700 -10105 0
8700 -10106 0
7700 -10107 0
5200 -10108 0
5200 -10109 0
5200 -10110 0
5100 -10111 0
8700 -10112 0
5200 -10113 0
7700 -10114 0
5100 -10115 0
5200 -10116 0
5500 -10117 0
5100 -10118 0
5100 -10119 0
8700 -10120 0
5500 -10121 0
5100 -10122 0
5100 -10123 0
8700 -10124 0
7700 -10125 0
7700 -10126 0
5500 -10127 0
8700 -10128 0
5200 -10129 0
8700 -10130 0
5200 -10131 0
7700 -10132 0
5500 -10133 0
5200 -10134 0
7700 -10135 0
5100 -10136 0
5500 -10137 0
5200 -10138 0
8700 -10139 0
5200 -10140 0
5100 -10141 0
5500 -10142 0
5500 -10143 0
8700 -10144 0
8700 -10145 0
5200 -10146 0
5100 -10147 0
8700 -10148 0
5100 -10149 0
5200 -10150 0
8700 -10151 0
7700 -10152 0
8700 -10153 0
8700 -10154 0
5100 -10155 0
5500 -10156 0
7700 -10157 0
7700 -10158 0
5500 -10159 0
7700 -10160 0
7700 -10161 0
5100 -10162 0
5500 -10163 0
5200 -10164 0
5200 -10165 0
5200 -10166 0
5200 -10167 0
7700 -10168 0
7700 -10169 0
5100 -10170 0
5200 -10171 0
5100 -10172 0
7700 -10173 0
5500 -10174 0
8700 -10175 0
5200 -10176 0
5200 -10177 0
7700 -10178 0
8700 -10179 0
5100 -10180 0
5100 -10181 0
8700 -10182 0
5100 -10183 0
5200 -10184 0
5200 -10185 0
7700 -10186 0
5200 -10187 0
7700 -10188 0
5100 -10189 0
5500 -10190 0
5500 -10191 0
5500 -10192 0
5500 -10193 0
5500 -10194 0
5100 -10195 0
5200 -10196 0
5500 -10197 0
5200 -10198 0
5100 -10199 0
5100 -10200 0
5500 -10201 0
5200 -10202 0
5100 -10203 0
5100 -10204 0
5500 -10205 0
7700 -10206 0
5200 -10207 0
8700 -10208 0
8700 -10209 0
5200 -10210 0
5100 -10211 0
5200 -10212 0
5500 -10213 0
8700 -10214 0
5200 -10215 0
5500 -10216 0
7700 -10217 0
5200 -10218 0
5200 -10219 0
5200 -10220 0
5500 -10221 0
7700 -10222 0
8700 -10223 0
5100 -10224 0
7700 -10225 0
7700 -10226 0
7700 -10227 0
7700 -10228 0
5200 -10229 0
8700 -10230 0
5500 -10231 0
5200 -10232 0
5500 -10233 0
5500 -10234 0
5500 -10235 0
8700 -10236 0
7700 -10237 0
5100 -10238 0
5100 -10239 0
7700 -10240 0
7700 -10241 0
8700 -10242 0
5100 -10243 0
5200 -10244 0
8700 -10245 0
5100 -10246 0
5200 -10247 0
8700 -10248 0
5100 -10249 0
5200 -10250 0
5500 -10251 0
5100 -10252 0
5200 -10253 0
8700 -10254 0
5200 -10255 0
8700 -10256 0
5200 -10257 0
7700 -10258 0
5100 -10259 0
8700 -10260 0
5200 -10261 0
8700 -10262 0
5500 -10263 0
8700 -10264 0
5100 -10265 0
5500 -10266 0
5100 -10267 0
5200 -10268 0
7700 -10269 0
5100 -10270 0
8700 -10271 0
7700 -10272 0
8700 -10273 0
5500 -10274 0
5500 -10275 0
5500 -10276 0
5200 -10277 0
5500 -10278 0
5100 -10279 0
8700 -10280 0
5500 -10281 0
5100 -10282 0
5100 -10283 0
5500 -10284 0
5100 -10285 0
5200 -10286 0
5500 -10287 0
8700 -10288 0
5200 -10289 0
7700 -10290 0
8700 -10291 0
8700 -10292 0
8700 -10293 0
7700 -10294 0
8700 -10295 0
5100 -10296 0
8700 -10297 0
5200 -10298 0
7700 -10299 0
5500 -10300 0
7700 -10301 0
5500 -10302 0
8700 -10303 0
5500 -10304 0
5100 -10305 0
5500 -10306 0
5500 -10307 0
5200 -10308 0
5100 -10309 0
5500 -10310 0
5500 -10311 0
8700 -10312 0
7700 -10313 0
7700 -10314 0
8700 -10315 0
5500 -10316 0
5500 -10317 0
5200 -10318 0
7700 -10319 0
8700 -10320 0
5200 -10321 0
5500 -10322 0
5200 -10323 0
5500 -10324 0
5200 -10325 0
5500 -10326 0
5200 -10327 0
5500 -10328 0
8700 -10329 0
5200 -10330 0
5200 -10331 0
7700 -10332 0
5200 -10333 0
8700 -10334 0
8700 -10335 0
7700 -10336 0
5500 -10337 0
8700 -10338 0
5100 -10339 0
5100 -10340 0
5500 -10341 0
5500 -10342 0
7700 -10343 0
7700 -10344 0
5200 -10345 0
5100 -10346 0
5100 -10347 0
5100 -10348 0
5500 -10349 0
8700 -10350 0
5100 -10351 0
7700 -10352 0
5500 -10353 0
8700 -10354 0
5100 -10355 0
5500 -10356 0
5100 -10357 0
5500 -10358 0
5100 -10359 0
5100 -10360 0
8700 -10361 0
8700 -10362 0
7700 -10363 0
5500 -10364 0
8700 -10365 0
5500 -10366 0
7700 -10367 0
8700 -10368 0
8700 -10369 0
5500 -10370 0
8700 -10371 0
7700 -10372 0
7700 -10373 0
5200 -10374 0
8700 -10375 0
5500 -10376 0
7700 -10377 0
5100 -10378 0
7700 -10379 0
5200 -10380 0
5200 -10381 0
5200 -10382 0
5100 -10383 0
5200 -10384 0
8700 -10385 0
7700 -10386 0
8700 -10387 0
8700 -10388 0
7700 -10389 0
5200 -10390 0
5500 -10391 0
5100 -10392 0
5100 -10393 0
7700 -10394 0
8700 -10395 0
8700 -10396 0
5200 -10397 0
5200 -10398 0
5200 -10399 0
5200 -10400 0
5100 -10401 0
7700 -10402 0
7700 -10403 0
5100 -10404 0
5500 -10405 0
5100 -10406 0
5200 -10407 0
5200 -10408 0
8700 -10409 0
5100 -10410 0
7700 -10411 0
7700 -10412 0
5500 -10413 0
5200 -10414 0
8700 -10415 0
5500 -10416 0
5100 -10417 0
7700 -10418 0
5100 -10419 0
5200 -10420 0
7700 -10421 0
5100 -10422 0
5100 -10423 0
7700 -10424 0
5200 -10425 0
5500 -10426 0
5500 -10427 0
8700 -10428 0
7700 -10429 0
5200 -10430 0
8700 -10431 0
7700 -10432 0
8700 -10433 0
5500 -10434 0
8700 -10435 0
7700 -10436 0
7700 -10437 0
8700 -10438 0
7700 -10439 0
5500 -10440 0
5500 -10441 0
7700 -10442 0
5500 -10443 0
7700 -10444 0
8700 -10445 0
5200 -10446 0
5100 -10447 0
7700 -10448 0
8700 -10449 0
5100 -10450 0
5500 -10451 0
5200 -10452 0
7700 -10453 0
5100 -10454 0
8700 -10455 0
5100 -10456 0
8700 -10457 0
5500 -10458 0
5100 -10459 0
7700 -10460 0
5100 -10461 0
5500 -10462 0
5100 -10463 0
5200 -10464 0
5200 -10465 0
7700 -10466 0
7700 -10467 0
8700 -10468 0
8700 -10469 0
5500 -10470 0
5200 -10471 0
5200 -10472 0
5500 -10473 0
7700 -10474 0
5200 -10475 0
5500 -10476 0
5500 -10477 0
5200 -10478 0
8700 -10479 0
5100 -10480 0
7700 -10481 0
5100 -10482 0
5200 -10483 0
8700 -10484 0
5100 -10485 0
5500 -10486 0
7700 -10487 0
5500 -10488 0
5100 -10489 0
5500 -10490 0
5200 -10491 0
7700 -10492 0
8700 -10493 0
5200 -10494 0
5500 -10495 0
5100 -10496 0
5100 -10497 0
5500 -10498 0
7700 -10499 0
5500 -10500 0
5500 -10501 0
5200 -10502 0
5500 -10503 0
5200 -10504 0
7700 -10505 0
7700 -10506 0
7700 -10507 0
7700 -10508 0
5200 -10509 0
5500 -10510 0
5100 -10511 0
7700 -10512 0
5200 -10513 0
5100 -10514 0
5500 -10515 0
5200 -10516 0
7700 -10517 0
5200 -10518 0
5200 -10519 0
5500 -10520 0
7700 -10521 0
5100 -10522 0
5500 -10523 0
5500 -10524 0
8700 -10525 0
5500 -10526 0
5500 -10527 0
8700 -10528 0
5500 -10529 0
7700 -10530 0
5200 -10531 0
8700 -10532 0
8700 -10533 0
5500 -10534 0
8700 -10535 0
7700 -10536 0
5100 -10537 0
5500 -10538 0
5500 -10539 0
7700 -10540 0
5500 -10541 0
5500 -10542 0
5500 -10543 0
7700 -10544 0
5500 -10545 0
7700 -10546 0
7700 -10547 0
5100 -10548 0
5200 -10549 0
7700 -10550 0
8700 -10551 0
8700 -10552 0
5100 -10553 0
5200 -10554 0
5500 -10555 0
8700 -10556 0
7700 -10557 0
8700 -10558 0
5100 -10559 0
5200 -10560 0
5200 -10561 0
5500 -10562 0
5100 -10563 0
5100 -10564 0
8700 -10565 0
5100 -10566 0
5200 -10567 0
5200 -10568 0
7700 -10569 0
7700 -10570 0
5200 -10571 0
8700 -10572 0
5500 -10573 0
7700 -10574 0
7700 -10575 0
5500 -10576 0
7700 -10577 0
5100 -10578 0
8700 -10579 0
8700 -10580 0
5500 -10581 0
5500 -10582 0
5200 -10583 0
5500 -10584 0
8700 -10585 0
5500 -10586 0
8700 -10587 0
5200 -10588 0
5200 -10589 0
8700 -10590 0
5200 -10591 0
5500 -10592 0
7700 -10593 0
8700 -10594 0
5100 -10595 0
5100 -10596 0
5100 -10597 0
7700 -10598 0
7700 -10599 0
5200 -10600 0
8700 -10601 0
5100 -10602 0
5500 -10603 0
8700 -10604 0
8700 -10605 0
7700 -10606 0
5200 -10607 0
5200 -10608 0
5100 -10609 0
5100 -10610 0
8700 -10611 0
5200 -10612 0
8700 -10613 0
5500 -10614 0
7700 -10615 0
5200 -10616 0
8700 -10617 0
7700 -10618 0
5100 -10619 0
5500 -10620 0
8700 -10621 0
5200 -10622 0
5500 -10623 0
5500 -10624 0
8700 -10625 0
5500 -10626 0
5200 -10627 0
8700 -10628 0
7700 -10629 0
5500 -10630 0
5200 -10631 0
5100 -10632 0
5200 -10633 0
7700 -10634 0
7700 -10635 0
5500 -10636 0
5100 -10637 0
5500 -10638 0
7700 -10639 0
5200 -10640 0
8700 -10641 0
8700 -10642 0
5200 -10643 0
5100 -10644 0
5200 -10645 0
5100 -10646 0
7700 -10647 0
5500 -10648 0
5200 -10649 0
7700 -10650 0
7700 -10651 0
5500 -10652 0
5500 -10653 0
5200 -10654 0
5200 -10655 0
8700 -10656 0
7700 -10657 0
8700 -10658 0
5200 -10659 0
8700 -10660 0
5100 -10661 0
7700 -10662 0
5100 -10663 0
5100 -10664 0
5200 -10665 0
5100 -10666 0
5200 -10667 0
5500 -10668 0
5500 -10669 0
8700 -10670 0
5500 -10671 0
8700 -10672 0
5500 -10673 0
5500 -10674 0
5500 -10675 0
5100 -10676 0
7700 -10677 0
8700 -10678 0
5500 -10679 0
5100 -10680 0
5500 -10681 0
7700 -10682 0
8700 -10683 0
5100 -10684 0
5200 -10685 0
5200 -10686 0
5200 -10687 0
5500 -10688 0
8700 -10689 0
7700 -10690 0
5200 -10691 0
8700 -10692 0
8700 -10693 0
8700 -10694 0
7700 -10695 0
7700 -10696 0
5100 -10697 0
7700 -10698 0
5500 -10699 0
5500 -10700 0
8700 -10701 0
5100 -10702 0
5100 -10703 0
5200 -10704 0
7700 -10705 0
8700 -10706 0
8700 -10707 0
7700 -10708 0
5500 -10709 0
8700 -10710 0
8700 -10711 0
7700 -10712 0
5200 -10713 0
8700 -10714 0
5500 -10715 0
5200 -10716 0
5200 -10717 0
7700 -10718 0
5500 -10719 0
8700 -10720 0
7700 -10721 0
5500 -10722 0
8700 -10723 0
5500 -10724 0
5100 -10725 0
7700 -10726 0
5200 -10727 0
5100 -10728 0
5500 -10729 0
5200 -10730 0
8700 -10731 0
5200 -10732 0
5500 -10733 0
5500 -10734 0
5500 -10735 0
5100 -10736 0
7700 -10737 0
8700 -10738 0
5100 -10739 0
5100 -10740 0
8700 -10741 0
8700 -10742 0
5500 -10743 0
5500 -10744 0
7700 -10745 0
7700 -10746 0
5200 -10747 0
5200 -10748 0
7700 -10749 0
5100 -10750 0
7700 -10751 0
5200 -10752 0
7700 -10753 0
7700 -10754 0
5200 -10755 0
5500 -10756 0
7700 -10757 0
7700 -10758 0
7700 -10759 0
5100 -10760 0
5100 -10761 0
5200 -10762 0
5500 -10763 0
7700 -10764 0
5100 -10765 0
5500 -10766 0
8700 -10767 0
5200 -10768 0
8700 -10769 0
8700 -10770 0
7700 -10771 0
5200 -10772 0
5500 -10773 0
8700 -10774 0
5100 -10775 0
5200 -10776 0
7700 -10777 0
8700 -10778 0
5500 -10779 0
8700 -10780 0
5200 -10781 0
5500 -10782 0
7700 -10783 0
5100 -10784 0
5200 -10785 0
5100 -10786 0
8700 -10787 0
7700 -10788 0
7700 -10789 0
7700 -10790 0
5200 -10791 0
5100 -10792 0
5200 -10793 0
7700 -10794 0
7700 -10795 0
8700 -10796 0
5500 -10797 0
5100 -10798 0
5100 -10799 0
7700 -10800 0
5100 -10801 0
5500 -10802 0
5200 -10803 0
5200 -10804 0
5100 -10805 0
7700 -10806 0
7700 -10807 0
5500 -10808 0
5500 -10809 0
5200 -10810 0
8700 -10811 0
5200 -10812 0
8700 -10813 0
5100 -10814 0
7700 -10815 0
5100 -10816 0
5100 -10817 0
8700 -10818 0
7700 -10819 0
5200 -10820 0
7700 -10821 0
5500 -10822 0
7700 -10823 0
5500 -10824 0
5200 -10825 0
5500 -10826 0
8700 -10827 0
7700 -10828 0
5100 -10829 0
5500 -10830 0
5500 -10831 0
5200 -10832 0
7700 -10833 0
5500 -10834 0
5200 -10835 0
7700 -10836 0
5500 -10837 0
5500 -10838 0
7700 -10839 0
8700 -10840 0
7700 -10841 0
7700 -10842 0
5100 -10843 0
5100 -10844 0
8700 -10845 0
5500 -10846 0
7700 -10847 0
8700 -10848 0
8700 -10849 0
5200 -10850 0
5100 -10851 0
5500 -10852 0
7700 -10853 0
8700 -10854 0
5500 -10855 0
5200 -10856 0
7700 -10857 0
8700 -10858 0
5200 -10859 0
5200 -10860 0
5200 -10861 0
5500 -10862 0
7700 -10863 0
7700 -10864 0
5100 -10865 0
7700 -10866 0
8700 -10867 0
5100 -10868 0
5200 -10869 0
7700 -10870 0
5100 -10871 0
8700 -10872 0
8700 -10873 0
7700 -10874 0
8700 -10875 0
5200 -10876 0
5100 -10877 0
8700 -10878 0
7700 -10879 0
7700 -10880 0
5500 -10881 0
7700 -10882 0
5100 -10883 0
5200 -10884 0
5100 -10885 0
8700 -10886 0
5200 -10887 0
5200 -10888 0
5500 -10889 0
8700 -10890 0
5100 -10891 0
5200 -10892 0
7700 -10893 0
5100 -10894 0
7700 -10895 0
5200 -10896 0
7700 -10897 0
5200 -10898 0
5200 -10899 0
5200 -10900 0
5200 -10901 0
5200 -10902 0
5500 -10903 0
5100 -10904 0
5500 -10905 0
5200 -10906 0
5500 -10907 0
8700 -10908 0
5100 -10909 0
7700 -10910 0
8700 -10911 0
5100 -10912 0
5100 -10913 0
7700 -10914 0
8700 -10915 0
5100 -10916 0
5100 -10917 0
5100 -10918 0
7700 -10919 0
5500 -10920 0
5200 -10921 0
8700 -10922 0
5200 -10923 0
5500 -10924 0
5200 -10925 0
5100 -10926 0
5200 -10927 0
5500 -10928 0
5500 -10929 0
5500 -10930 0
7700 -10931 0
5500 -10932 0
7700 -10933 0
5100 -10934 0
5500 -10935 0
7700 -10936 0
5100 -10937 0
5200 -10938 0
7700 -10939 0
5500 -10940 0
5500 -10941 0
5100 -10942 0
5100 -10943 0
5500 -10944 0
8700 -10945 0
5100 -10946 0
8700 -10947 0
5100 -10948 0
5200 -10949 0
8700 -10950 0
8700 -10951 0
8700 -10952 0
7700 -10953 0
7700 -10954 0
5500 -10955 0
5200 -10956 0
5100 -10957 0
8700 -10958 0
5500 -10959 0
5500 -10960 0
5500 -10961 0
8700 -10962 0
5100 -10963 0
5500 -10964 0
5100 -10965 0
5500 -10966 0
8700 -10967 0
8700 -10968 0
5500 -10969 0
5200 -10970 0
5500 -10971 0
5100 -10972 0
5200 -10973 0
5200 -10974 0
5500 -10975 0
5500 -10976 0
7700 -10977 0
5200 -10978 0
5200 -10979 0
8700 -10980 0
8700 -10981 0
5100 -10982 0
7700 -10983 0
5100 -10984 0
5200 -10985 0
5100 -10986 0
5500 -10987 0
5200 -10988 0
8700 -10989 0
5500 -10990 0
8700 -10991 0
8700 -10992 0
8700 -10993 0
8700 -10994 0
5100 -10995 0
5100 -10996 0
8700 -10997 0
5200 -10998 0
5200 -10999 0
7700 -11000 0
7700 -11001 0
5500 -11002 0
5100 -11003 0
5200 -11004 0
7700 -11005 0
7700 -11006 0
5200 -11007 0
5200 -11008 0
5500 -11009 0
5200 -11010 0
5200 -11011 0
5200 -11012 0
8700 -11013 0
5500 -11014 0
7700 -11015 0
5200 -11016 0
5500 -11017 0
5100 -11018 0
5200 -11019 0
5500 -11020 0
5100 -11021 0
7700 -11022 0
5500 -11023 0
5100 -11024 0
5200 -11025 0
5500 -11026 0
7700 -11027 0
8700 -11028 0
5200 -11029 0
5200 -11030 0
7700 -11031 0
5500 -11032 0
8700 -11033 0
7700 -11034 0
5100 -11035 0
5100 -11036 0
8700 -11037 0
7700 -11038 0
5100 -11039 0
5200 -11040 0
5100 -11041 0
5500 -11042 0
8700 -11043 0
8700 -11044 0
7700 -11045 0
5100 -11046 0
7700 -11047 0
5200 -11048 0
8700 -11049 0
7700 -11050 0
7700 -11051 0
5200 -11052 0
5500 -11053 0
5200 -11054 0
5200 -11055 0
5200 -11056 0
5100 -11057 0
8700 -11058 0
5100 -11059 0
5100 -11060 0
5100 -11061 0
7700 -11062 0
8700 -11063 0
7700 -11064 0
5100 -11065 0
5100 -11066 0
7700 -11067 0
5100 -11068 0
5100 -11069 0
5200 -11070 0
5500 -11071 0
5500 -11072 0
5500 -11073 0
8700 -11074 0
8700 -11075 0
5500 -11076 0
5500 -11077 0
5200 -11078 0
5200 -11079 0
7700 -11080 0
8700 -11081 0
8700 -11082 0
5500 -11083 0
8700 -11084 0
5200 -11085 0
5200 -11086 0
5500 -11087 0
5500 -11088 0
5100 -11089 0
7700 -11090 0
5500 -11091 0
5500 -11092 0
5500 -11093 0
5200 -11094 0
7700 -11095 0
5100 -11096 0
5500 -11097 0
8700 -11098 0
7700 -11099 0
5500 -11100 0
5200 -11101 0
5200 -11102 0
8700 -11103 0
5100 -11104 0
5100 -11105 0
8700 -11106 0
8700 -11107 0
7700 -11108 0
5200 -11109 0
5200 -11110 0
7700 -11111 0
8700 -11112 0
8700 -11113 0
8700 -11114 0
5200 -11115 0
5100 -11116 0
8700 -11117 0
5500 -11118 0
5100 -11119 0
5500 -11120 0
5500 -11121 0
8700 -11122 0
5500 -11123 0
8700 -11124 0
5500 -11125 0
7700 -11126 0
5200 -11127 0
5100 -11128 0
5100 -11129 0
5500 -11130 0
7700 -11131 0
8700 -11132 0
5100 -11133 0
5200 -11134 0
8700 -11135 0
8700 -11136 0
5100 -11137 0
5200 -11138 0
5100 -11139 0
7700 -11140 0
7700 -11141 0
5100 -11142 0
5100 -11143 0
8700 -11144 0
5500 -11145 0
5200 -11146 0
5200 -11147 0
5200 -11148 0
5500 -11149 0
5100 -11150 0
5500 -11151 0
8700 -11152 0
5100 -11153 0
7700 -11154 0
5500 -11155 0
5500 -11156 0
5200 -11157 0
8700 -11158 0
5500 -11159 0
5100 -11160 0
5100 -11161 0
7700 -11162 0
5500 -11163 0
8700 -11164 0
7700 -11165 0
7700 -11166 0
5200 -11167 0
7700 -11168 0
5500 -11169 0
8700 -11170 0
7700 -11171 0
5500 -11172 0
5100 -11173 0
5100 -11174 0
8700 -11175 0
5100 -11176 0
5100 -11177 0
5100 -11178 0
7700 -11179 0
5200 -11180 0
5100 -11181 0
5500 -11182 0
5100 -11183 0
5500 -11184 0
5100 -11185 0
5200 -11186 0
7700 -11187 0
5500 -11188 0
5500 -11189 0
7700 -11190 0
5200 -11191 0
7700 -11192 0
8700 -11193 0
7700 -11194 0
5500 -11195 0
8700 -11196 0
8700 -11197 0
5100 -11198 0
7700 -11199 0
5500 -11200 0
8700 -11201 0
5200 -11202 0
5500 -11203 0
5100 -11204 0
5100 -11205 0
5500 -11206 0
7700 -11207 0
5500 -11208 0
5200 -11209 0
5100 -11210 0
5100 -11211 0
5500 -11212 0
5100 -11213 0
5200 -11214 0
8700 -11215 0
7700 -11216 0
5500 -11217 0
5500 -11218 0
5500 -11219 0
5200 -11220 0
5100 -11221 0
8700 -11222 0
7700 -11223 0
5200 -11224 0
5200 -11225 0
7700 -11226 0
8700 -11227 0
5500 -11228 0
5500 -11229 0
5500 -11230 0
8700 -11231 0
5100 -11232 0
5100 -11233 0
5200 -11234 0
5500 -11235 0
5100 -11236 0
5200 -11237 0
5500 -11238 0
5200 -11239 0
5200 -11240 0
8700 -11241 0
5200 -11242 0
5200 -11243 0
5100 -11244 0
8700 -11245 0
5500 -11246 0
5200 -11247 0
5500 -11248 0
5100 -11249 0
7700 -11250 0
7700 -11251 0
8700 -11252 0
7700 -11253 0
5200 -11254 0
5500 -11255 0
8700 -11256 0
8700 -11257 0
5500 -11258 0
5100 -11259 0
5500 -11260 0
8700 -11261 0
5200 -11262 0
5100 -11263 0
5100 -11264 0
5500 -11265 0
5500 -11266 0
8700 -11267 0
5500 -11268 0
5500 -11269 0
5500 -11270 0
8700 -11271 0
5200 -11272 0
8700 -11273 0
7700 -11274 0
5500 -11275 0
7700 -11276 0
7700 -11277 0
5100 -11278 0
8700 -11279 0
7700 -11280 0
8700 -11281 0
5100 -11282 0
5200 -11283 0
5200 -11284 0
5500 -11285 0
5500 -11286 0
5500 -11287 0
7700 -11288 0
5100 -11289 0
8700 -11290 0
5200 -11291 0
7700 -11292 0
8700 -11293 0
5200 -11294 0
7700 -11295 0
7700 -11296 0
5100 -11297 0
7700 -11298 0
8700 -11299 0
5100 -11300 0
7700 -11301 0
7700 -11302 0
5100 -11303 0
5100 -11304 0
5500 -11305 0
5500 -11306 0
7700 -11307 0
5200 -11308 0
5100 -11309 0
5200 -11310 0
7700 -11311 0
5500 -11312 0
8700 -11313 0
8700 -11314 0
5100 -11315 0
8700 -11316 0
7700 -11317 0
5100 -11318 0
8700 -11319 0
5500 -11320 0
7700 -11321 0
8700 -11322 0
5500 -11323 0
8700 -11324 0
5200 -11325 0
5200 -11326 0
5500 -11327 0
5500 -11328 0
5200 -11329 0
5500 -11330 0
7700 -11331 0
7700 -11332 0
5100 -11333 0
5200 -11334 0
7700 -11335 0
5500 -11336 0
5500 -11337 0
7700 -11338 0
5100 -11339 0
5200 -11340 0
5200 -11341 0
5500 -11342 0
5200 -11343 0
5200 -11344 0
5200 -11345 0
5500 -11346 0
8700 -11347 0
8700 -11348 0
5200 -11349 0
8700 -11350 0
5200 -11351 0
5100 -11352 0
5500 -11353 0
7700 -11354 0
5500 -11355 0
5100 -11356 0
7700 -11357 0
5500 -11358 0
5100 -11359 0
7700 -11360 0
7700 -11361 0
5100 -11362 0
8700 -11363 0
5500 -11364 0
7700 -11365 0
5100 -11366 0
5200 -11367 0
5200 -11368 0
5500 -11369 0
5500 -11370 0
5100 -11371 0
5200 -11372 0
7700 -11373 0
5100 -11374 0
5200 -11375 0
5200 -11376 0
5100 -11377 0
5100 -11378 0
5100 -11379 0
7700 -11380 0
8700 -11381 0
5200 -11382 0
5200 -11383 0
8700 -11384 0
8700 -11385 0
5500 -11386 0
7700 -11387 0
7700 -11388 0
5500 -11389 0
8700 -11390 0
5100 -11391 0
7700 -11392 0
7700 -11393 0
5100 -11394 0
5200 -11395 0
5500 -11396 0
5100 -11397 0
7700 -11398 0
7700 -11399 0
7700 -11400 0
7700 -11401 0
5100 -11402 0
5500 -11403 0
5500 -11404 0
7700 -11405 0
5100 -11406 0
7700 -11407 0
7700 -11408 0
8700 -11409 0
5200 -11410 0
5200 -11411 0
5500 -11412 0
5200 -11413 0
5500 -11414 0
5200 -11415 0
5500 -11416 0
7700 -11417 0
5200 -11418 0
5100 -11419 0
8700 -11420 0
5200 -11421 0
5500 -11422 0
5100 -11423 0
5500 -11424 0
7700 -11425 0
5100 -11426 0
5100 -11427 0
7700 -11428 0
5500 -11429 0
5200 -11430 0
8700 -11431 0
7700 -11432 0
7700 -11433 0
7700 -11434 0
5200 -11435 0
8700 -11436 0
8700 -11437 0
8700 -11438 0
8700 -11439 0
5100 -11440 0
5500 -11441 0
8700 -11442 0
5500 -11443 0
5500 -11444 0
8700 -11445 0
5100 -11446 0
5200 -11447 0
5100 -11448 0
7700 -11449 0
5500 -11450 0
5100 -11451 0
8700 -11452 0
5500 -11453 0
7700 -11454 0
7700 -11455 0
5500 -11456 0
7700 -11457 0
5100 -11458 0
5500 -11459 0
5100 -11460 0
8700 -11461 0
7700 -11462 0
5500 -11463 0
5500 -11464 0
5100 -11465 0
5200 -11466 0
5500 -11467 0
5100 -11468 0
5500 -11469 0
8700 -11470 0
8700 -11471 0
7700 -11472 0
5100 -11473 0
7700 -11474 0
5200 -11475 0
5500 -11476 0
5200 -11477 0
7700 -11478 0
8700 -11479 0
5500 -11480 0
7700 -11481 0
5100 -11482 0
7700 -11483 0
7700 -11484 0
5200 -11485 0
7700 -11486 0
5200 -11487 0
7700 -11488 0
5100 -11489 0
5500 -11490 0
8700 -11491 0
7700 -11492 0
5500 -11493 0
7700 -11494 0
8700 -11495 0
5100 -11496 0
5500 -11497 0
5500 -11498 0
5100 -11499 0
8700 -11500 0
7700 -11501 0
5100 -11502 0
5100 -11503 0
5100 -11504 0
7700 -11505 0
8700 -11506 0
5200 -11507 0
5100 -11508 0
5500 -11509 0
8700 -11510 0
5200 -11511 0
5500 -11512 0
5500 -11513 0
8700 -11514 0
5100 -11515 0
5100 -11516 0
5100 -11517 0
5100 -11518 0
5200 -11519 0
5100 -11520 0
5500 -11521 0
5100 -11522 0
5500 -11523 0
5100 -11524 0
5200 -11525 0
5100 -11526 0
5100 -11527 0
5200 -11528 0
7700 -11529 0
7700 -11530 0
8700 -11531 0
5100 -11532 0
7700 -11533 0
8700 -11534 0
7700 -11535 0
8700 -11536 0
7700 -11537 0
8700 -11538 0
5200 -11539 0
7700 -11540 0
5500 -11541 0
8700 -11542 0
5200 -11543 0
5200 -11544 0
7700 -11545 0
5500 -11546 0
7700 -11547 0
5100 -11548 0
5100 -11549 0
5500 -11550 0
7700 -11551 0
5200 -11552 0
5100 -11553 0
8700 -11554 0
5200 -11555 0
5200 -11556 0
8700 -11557 0
5100 -11558 0
8700 -11559 0
5100 -11560 0
8700 -11561 0
5200 -11562 0
5100 -11563 0
8700 -11564 0
5100 -11565 0
7700 -11566 0
7700 -11567 0
7700 -11568 0
7700 -11569 0
5500 -11570 0
5500 -11571 0
5200 -11572 0
5200 -11573 0
5100 -11574 0
8700 -11575 0
5100 -11576 0
5200 -11577 0
8700 -11578 0
8700 -11579 0
5200 -11580 0
5500 -11581 0
8700 -11582 0
5500 -11583 0
5200 -11584 0
7700 -11585 0
5100 -11586 0
5200 -11587 0
5500 -11588 0
8700 -11589 0
5500 -11590 0
5200 -11591 0
5500 -11592 0
8700 -11593 0
5500 -11594 0
8700 -11595 0
5100 -11596 0
5100 -11597 0
5200 -11598 0
5200 -11599 0
7700 -11600 0
8700 -11601 0
5200 -11602 0
5100 -11603 0
8700 -11604 0
7700 -11605 0
5500 -11606 0
7700 -11607 0
7700 -11608 0
5100 -11609 0
5100 -11610 0
5100 -11611 0
5500 -11612 0
5500 -11613 0
5500 -11614 0
7700 -11615 0
5200 -11616 0
5200 -11617 0
5200 -11618 0
5200 -11619 0
7700 -11620 0
5200 -11621 0
8700 -11622 0
8700 -11623 0
5100 -11624 0
5100 -11625 0
5500 -11626 0
8700 -11627 0
5500 -11628 0
5100 -11629 0
5100 -11630 0
7700 -11631 0
5200 -11632 0
5200 -11633 0
7700 -11634 0
5200 -11635 0
8700 -11636 0
5100 -11637 0
5100 -11638 0
7700 -11639 0
5500 -11640 0
8700 -11641 0
7700 -11642 0
5200 -11643 0
7700 -11644 0
5500 -11645 0
5100 -11646 0
5100 -11647 0
5100 -11648 0
5100 -11649 0
5100 -11650 0
5200 -11651 0
7700 -11652 0
7700 -11653 0
5200 -11654 0
7700 -11655 0
8700 -11656 0
8700 -11657 0
5500 -11658 0
8700 -11659 0
5200 -11660 0
5100 -11661 0
7700 -11662 0
5100 -11663 0
5100 -11664 0
7700 -11665 0
5500 -11666 0
7700 -11667 0
7700 -11668 0
8700 -11669 0
5500 -11670 0
7700 -11671 0
7700 -11672 0
5200 -11673 0
5200 -11674 0
8700 -11675 0
8700 -11676 0
7700 -11677 0
7700 -11678 0
5100 -11679 0
5500 -11680 0
8700 -11681 0
7700 -11682 0
8700 -11683 0
5500 -11684 0
8700 -11685 0
5100 -11686 0
5100 -11687 0
8700 -11688 0
5500 -11689 0
5100 -11690 0
5500 -11691 0
5100 -11692 0
5100 -11693 0
8700 -11694 0
5500 -11695 0
5200 -11696 0
5500 -11697 0
7700 -11698 0
8700 -11699 0
7700 -11700 0
5100 -11701 0
5200 -11702 0
5200 -11703 0
5100 -11704 0
8700 -11705 0
5200 -11706 0
7700 -11707 0
5500 -11708 0
5500 -11709 0
5200 -11710 0
5200 -11711 0
5200 -11712 0
7700 -11713 0
5500 -11714 0
8700 -11715 0
7700 -11716 0
5500 -11717 0
7700 -11718 0
5500 -11719 0
8700 -11720 0
5500 -11721 0
7700 -11722 0
8700 -11723 0
5100 -11724 0
7700 -11725 0
7700 -11726 0
5200 -11727 0
5100 -11728 0
5500 -11729 0
7700 -11730 0
5500 -11731 0
5200 -11732 0
5500 -11733 0
5100 -11734 0
7700 -11735 0
8700 -11736 0
5100 -11737 0
5500 -11738 0
5500 -11739 0
8700 -11740 0
8700 -11741 0
5100 -11742 0
5200 -11743 0
8700 -11744 0
8700 -11745 0
7700 -11746 0
5200 -11747 0
8700 -11748 0
5200 -11749 0
8700 -11750 0
5200 -11751 0
7700 -11752 0
8700 -11753 0
8700 -11754 0
5500 -11755 0
5100 -11756 0
8700 -11757 0
5500 -11758 0
5200 -11759 0
5500 -11760 0
5200 -11761 0
5100 -11762 0
5100 -11763 0
8700 -11764 0
8700 -11765 0
5500 -11766 0
5200 -11767 0
7700 -11768 0
5100 -11769 0
5200 -11770 0
5100 -11771 0
8700 -11772 0
7700 -11773 0
5200 -11774 0
5100 -11775 0
8700 -11776 0
7700 -11777 0
8700 -11778 0
7700 -11779 0
5200 -11780 0
5200 -11781 0
5200 -11782 0
5100 -11783 0
7700 -11784 0
5100 -11785 0
5200 -11786 0
7700 -11787 0
5500 -11788 0
8700 -11789 0
5500 -11790 0
7700 -11791 0
5200 -11792 0
5200 -11793 0
7700 -11794 0
8700 -11795 0
5200 -11796 0
5500 -11797 0
8700 -11798 0
5200 -11799 0
7700 -11800 0
5500 -11801 0
7700 -11802 0
5200 -11803 0
8700 -11804 0
5200 -11805 0
5200 -11806 0
5100 -11807 0
5200 -11808 0
8700 -11809 0
5500 -11810 0
7700 -11811 0
7700 -11812 0
5100 -11813 0
8700 -11814 0
5200 -11815 0
5500 -11816 0
5100 -11817 0
7700 -11818 0
7700 -11819 0
7700 -11820 0
5200 -11821 0
5200 -11822 0
5200 -11823 0
5200 -11824 0
5200 -11825 0
7700 -11826 0
5500 -11827 0
7700 -11828 0
5200 -11829 0
8700 -11830 0
7700 -11831 0
5500 -11832 0
7700 -11833 0
5200 -11834 0
5200 -11835 0
8700 -11836 0
5100 -11837 0
8700 -11838 0
5100 -11839 0
8700 -11840 0
5500 -11841 0
5100 -11842 0
5100 -11843 0
7700 -11844 0
8700 -11845 0
5100 -11846 0
5100 -11847 0
5500 -11848 0
5500 -11849 0
5200 -11850 0
2500 5101 0
4400 5102 0
2500 5103 0
1800 5104 0
1600 5105 0
2500 5106 0
2500 5107 0
4400 5108 0
1800 5109 0
2500 5110 0
4400 5111 0
1800 5112 0
2400 5113 0
1800 5114 0
2400 5115 0
2400 5116 0
1800 5117 0
1800 5118 0
4400 5119 0
1800 5120 0
1600 5121 0
2500 5122 0
1800 5123 0
2400 5124 0
2400 5125 0
1800 5126 0
2500 5127 0
2500 5128 0
4400 5129 0
4400 5130 0
4400 5131 0
2500 5132 0
2400 5133 0
4400 5134 0
1800 5135 0
4400 5136 0
1800 5137 0
1800 5138 0
2400 5139 0
1800 5140 0
4400 5141 0
2400 5142 0
2400 5143 0
2500 5144 0
1800 5145 0
4400 5146 0
1800 5147 0
4400 5148 0
1600 5149 0
2500 5150 0
2400 5151 0
2500 5152 0
1600 5153 0
2500 5154 0
2500 5155 0
1600 5156 0
2500 5157 0
2500 5158 0
1600 5159 0
1600 5160 0
2400 5161 0
4400 5162 0
4400 5163 0
1600 5164 0
4400 5165 0
1800 5166 0
1800 5167 0
1800 5168 0
2400 5169 0
4400 5170 0
2500 5171 0
1600 5172 0
4400 5173 0
2400 5174 0
2500 5175 0
1600 5176 0
2500 5177 0
1600 5178 0
1800 5179 0
1600 5180 0
1600 5181 0
2400 5182 0
2400 5183 0
2400 5184 0
4400 5185 0
1800 5186 0
1800 5187 0
1600 5188 0
2400 5189 0
1800 5190 0
1800 5191 0
1600 5192 0
1600 5193 0
2500 5194 0
2500 5195 0
1600 5196 0
2500 5197 0
1800 5198 0
1600 5199 0
1600 5200 0
2400 5201 0
1800 5202 0
1800 5203 0
4400 5204 0
4400 5205 0
2400 5206 0
4400 5207 0
2500 5208 0
1600 5209 0
2500 5210 0
1800 5211 0
4400 5212 0
2500 5213 0
1800 5214 0
4400 5215 0
1600 5216 0
1600 5217 0
4400 5218 0
1600 5219 0
2400 5220 0
4400 5221 0
2400 5222 0
4400 5223 0
2400 5224 0
1600 5225 0
1600 5226 0
2500 5227 0
1800 5228 0
2400 5229 0
4400 5230 0
1600 5231 0
1600 5232 0
4400 5233 0
1800 5234 0
4400 5235 0
2400 5236 0
2400 5237 0
2500 5238 0
4400 5239 0
1600 5240 0
2500 5241 0
4400 5242 0
4400 5243 0
1600 5244 0
1800 5245 0
4400 5246 0
2500 5247 0
1600 5248 0
2400 5249 0
1800 5250 0
1600 5251 0
2500 5252 0
4400 5253 0
2500 5254 0
4400 5255 0
1600 5256 0
1800 5257 0
1600 5258 0
2500 5259 0
2500 5260 0
2400 5261 0
2400 5262 0
4400 5263 0
2500 5264 0
2400 5265 0
2400 5266 0
1600 5267 0
4400 5268 0
1800 5269 0
1600 5270 0
4400 5271 0
4400 5272 0
1600 5273 0
2400 5274 0
2400 5275 0
1800 5276 0
1800 5277 0
4400 5278 0
1800 5279 0
1600 5280 0
1800 5281 0
2500 5282 0
4400 5283 0
2500 5284 0
4400 5285 0
4400 5286 0
1600 5287 0
2400 5288 0
1800 5289 0
2500 5290 0
1800 5291 0
4400 5292 0
2500 5293 0
2500 5294 0
4400 5295 0
1800 5296 0
2500 5297 0
1800 5298 0
2500 5299 0
2400 5300 0
1600 5301 0
4400 5302 0
1600 5303 0
1800 5304 0
1600 5305 0
1600 5306 0
1600 5307 0
1600 5308 0
4400 5309 0
2400 5310 0
2400 5311 0
1600 5312 0
2400 5313 0
2400 5314 0
4400 5315 0
1600 5316 0
1800 5317 0
1600 5318 0
2400 5319 0
1800 5320 0
2400 5321 0
2400 5322 0
2500 5323 0
2500 5324 0
2500 5325 0
2400 5326 0
1600 5327 0
1600 5328 0
2400 5329 0
2500 5330 0
2400 5331 0
1600 5332 0
1600 5333 0
4400 5334 0
1600 5335 0
4400 5336 0
2400 5337 0
1600 5338 0
4400 5339 0
1600 5340 0
4400 5341 0
1600 5342 0
1600 5343 0
1800 5344 0
2400 5345 0
2400 5346 0
1600 5347 0
4400 5348 0
2500 5349 0
4400 5350 0
1600 5351 0
2400 5352 0
4400 5353 0
1800 5354 0
1600 5355 0
4400 5356 0
4400 5357 0
1800 5358 0
2500 5359 0
2500 5360 0
4400 5361 0
1600 5362 0
1800 5363 0
2500 5364 0
4400 5365 0
1600 5366 0
2500 5367 0
2400 5368 0
4400 5369 0
1800 5370 0
1600 5371 0
4400 5372 0
2500 5373 0
4400 5374 0
4400 5375 0
2500 5376 0
2400 5377 0
1600 5378 0
2500 5379 0
4400 5380 0
4400 5381 0
1800 5382 0
4400 5383 0
2500 5384 0
1800 5385 0
4400 5386 0
2500 5387 0
1600 5388 0
1600 5389 0
4400 5390 0
1600 5391 0
4400 5392 0
1800 5393 0
1600 5394 0
1800 5395 0
1800 5396 0
1800 5397 0
2400 5398 0
2500 5399 0
4400 5400 0
1800 5401 0
4400 5402 0
1800 5403 0
2500 5404 0
1600 5405 0
4400 5406 0
2400 5407 0
4400 5408 0
2500 5409 0
1800 5410 0
4400 5411 0
2500 5412 0
1800 5413 0
1600 5414 0
2500 5415 0
2400 5416 0
4400 5417 0
2500 5418 0
1800 5419 0
1800 5420 0
2400 5421 0
4400 5422 0
1800 5423 0
1800 5424 0
1800 5425 0
2500 5426 0
2500 5427 0
4400 5428 0
2400 5429 0
4400 5430 0
2400 5431 0
1600 5432 0
1800 5433 0
2400 5434 0
1800 5435 0
2400 5436 0
1600 5437 0
2400 5438 0
4400 5439 0
2500 5440 0
1800 5441 0
2500 5442 0
2400 5443 0
4400 5444 0
2400 5445 0
1600 5446 0
1600 5447 0
1600 5448 0
2400 5449 0
1600 5450 0
2400 5451 0
2400 5452 0
4400 5453 0
1800 5454 0
2500 5455 0
1800 5456 0
2500 5457 0
2500 5458 0
2400 5459 0
1600 5460 0
1600 5461 0
1600 5462 0
1800 5463 0
1600 5464 0
4400 5465 0
2400 5466 0
1600 5467 0
1600 5468 0
1600 5469 0
1800 5470 0
2400 5471 0
4400 5472 0
1600 5473 0
2500 5474 0
1800 5475 0
1600 5476 0
1600 5477 0
1800 5478 0
4400 5479 0
2500 5480 0
2500 5481 0
4400 5482 0
1800 5483 0
1600 5484 0
4400 5485 0
1800 5486 0
1800 5487 0
1800 5488 0
1800 5489 0
2500 5490 0
1800 5491 0
4400 5492 0
1600 5493 0
1600 5494 0
2400 5495 0
4400 5496 0
2400 5497 0
4400 5498 0
1800 5499 0
2400 5500 0
1800 5501 0
4400 5502 0
2500 5503 0
2500 5504 0
2500 5505 0
2500 5506 0
1600 5507 0
2500 5508 0
4400 5509 0
2500 5510 0
1600 5511 0
1800 5512 0
2400 5513 0
1800 5514 0
1800 5515 0
2400 5516 0
2500 5517 0
2500 5518 0
4400 5519 0
2500 5520 0
2500 5521 0
4400 5522 0
2400 5523 0
4400 5524 0
2500 5525 0
2500 5526 0
2500 5527 0
4400 5528 0
2400 5529 0
1600 5530 0
4400 5531 0
2400 5532 0
2500 5533 0
2400 5534 0
1800 5535 0
1800 5536 0
1600 5537 0
2500 5538 0
1600 5539 0
1800 5540 0
1600 5541 0
1800 5542 0
1800 5543 0
2400 5544 0
2500 5545 0
1800 5546 0
2500 5547 0
1600 5548 0
1600 5549 0
1800 5550 0
2500 5551 0
1800 5552 0
1800 5553 0
2400 5554 0
1600 5555 0
2500 5556 0
1600 5557 0
2400 5558 0
4400 5559 0
1600 5560 0
2400 5561 0
1600 5562 0
2500 5563 0
2400 5564 0
4400 5565 0
1600 5566 0
2400 5567 0
4400 5568 0
2500 5569 0
1600 5570 0
1800 5571 0
2500 5572 0
2500 5573 0
2500 5574 0
2500 5575 0
4400 5576 0
1800 5577 0
1600 5578 0
2500 5579 0
1600 5580 0
2400 5581 0
2500 5582 0
2500 5583 0
1600 5584 0
1800 5585 0
2400 5586 0
1800 5587 0
1600 5588 0
4400 5589 0
2500 5590 0
4400 5591 0
1600 5592 0
1600 5593 0
1600 5594 0
1600 5595 0
2500 5596 0
4400 5597 0
2400 5598 0
2500 5599 0
1600 5600 0
1600 5601 0
2500 5602 0
4400 5603 0
4400 5604 0
1800 5605 0
1800 5606 0
1800 5607 0
1600 5608 0
2500 5609 0
2500 5610 0
1800 5611 0
4400 5612 0
1800 5613 0
2500 5614 0
1600 5615 0
1800 5616 0
2400 5617 0
2400 5618 0
4400 5619 0
2500 5620 0
1600 5621 0
2400 5622 0
1800 5623 0
1600 5624 0
2500 5625 0
1800 5626 0
1600 5627 0
2500 5628 0
1600 5629 0
2400 5630 0
2400 5631 0
2500 5632 0
2400 5633 0
2500 5634 0
4400 5635 0
2400 5636 0
1600 5637 0
1600 5638 0
2500 5639 0
4400 5640 0
1800 5641 0
1600 5642 0
4400 5643 0
1600 5644 0
2500 5645 0
2500 5646 0
1800 5647 0
2500 5648 0
1800 5649 0
2500 5650 0
1600 5651 0
2500 5652 0
2400 5653 0
4400 5654 0
1600 5655 0
4400 5656 0
2400 5657 0
4400 5658 0
2400 5659 0
2500 5660 0
2500 5661 0
2400 5662 0
1600 5663 0
2500 5664 0
1600 5665 0
4400 5666 0
2500 5667 0
2400 5668 0
2400 5669 0
2500 5670 0
2400 5671 0
2500 5672 0
1800 5673 0
2500 5674 0
1600 5675 0
4400 5676 0
2400 5677 0
4400 5678 0
2500 5679 0
2500 5680 0
2500 5681 0
1600 5682 0
4400 5683 0
4400 5684 0
2400 5685 0
2500 5686 0
2400 5687 0
1600 5688 0
1800 5689 0
1600 5690 0
1800 5691 0
2500 5692 0
4400 5693 0
4400 5694 0
2400 5695 0
1800 5696 0
2400 5697 0
2500 5698 0
4400 5699 0
2400 5700 0
1800 5701 0
2500 5702 0
2500 5703 0
1800 5704 0
2400 5705 0
1600 5706 0
2400 5707 0
1800 5708 0
4400 5709 0
2400 5710 0
1600 5711 0
2400 5712 0
4400 5713 0
2500 5714 0
2400 5715 0
2500 5716 0
4400 5717 0
1600 5718 0
2400 5719 0
2500 5720 0
1600 5721 0
2500 5722 0
2500 5723 0
2500 5724 0
2400 5725 0
2500 5726 0
4400 5727 0
1800 5728 0
1600 5729 0
1600 5730 0
2400 5731 0
2400 5732 0
2400 5733 0
1800 5734 0
4400 5735 0
1600 5736 0
1600 5737 0
2400 5738 0
2400 5739 0
4400 5740 0
2500 5741 0
4400 5742 0
2400 5743 0
1600 5744 0
4400 5745 0
2500 5746 0
1800 5747 0
1800 5748 0
1600 5749 0
2500 5750 0
4400 5751 0
2400 5752 0
2400 5753 0
2500 5754 0
4400 5755 0
2500 5756 0
4400 5757 0
1800 5758 0
4400 5759 0
4400 5760 0
2400 5761 0
1600 5762 0
2400 5763 0
1800 5764 0
2500 5765 0
2400 5766 0
2500 5767 0
2400 5768 0
1600 5769 0
1600 5770 0
2400 5771 0
2400 5772 0
2500 5773 0
2500 5774 0
1800 5775 0
1800 5776 0
2400 5777 0
1600 5778 0
1800 5779 0
1800 5780 0
4400 5781 0
1600 5782 0
2500 5783 0
2500 5784 0
2500 5785 0
4400 5786 0
2400 5787 0
2400 5788 0
2500 5789 0
1600 5790 0
4400 5791 0
2500 5792 0
2500 5793 0
2400 5794 0
1600 5795 0
4400 5796 0
4400 5797 0
1800 5798 0
1600 5799 0
2400 5800 0
1800 5801 0
2400 5802 0
2500 5803 0
1800 5804 0
2400 5805 0
2500 5806 0
2400 5807 0
1600 5808 0
2400 5809 0
1600 5810 0
2400 5811 0
2500 5812 0
1600 5813 0
4400 5814 0
1600 5815 0
2500 5816 0
1600 5817 0
2400 5818 0
2400 5819 0
4400 5820 0
1600 5821 0
2400 5822 0
1600 5823 0
1800 5824 0
2400 5825 0
1600 5826 0
2400 5827 0
1800 5828 0
1800 5829 0
2400 5830 0
1800 5831 0
2400 5832 0
2500 5833 0
4400 5834 0
2500 5835 0
1800 5836 0
2400 5837 0
2500 5838 0
1600 5839 0
1600 5840 0
1600 5841 0
2400 5842 0
1800 5843 0
2400 5844 0
1800 5845 0
4400 5846 0
2400 5847 0
4400 5848 0
2400 5849 0
4400 5850 0
4400 5851 0
2400 5852 0
2500 5853 0
1600 5854 0
4400 5855 0
1600 5856 0
2400 5857 0
4400 5858 0
1600 5859 0
1600 5860 0
1800 5861 0
2500 5862 0
1600 5863 0
2400 5864 0
2400 5865 0
1800 5866 0
1600 5867 0
4400 5868 0
2400 5869 0
4400 5870 0
2400 5871 0
4400 5872 0
2500 5873 0
1600 5874 0
2500 5875 0
2500 5876 0
1600 5877 0
4400 5878 0
2500 5879 0
1600 5880 0
4400 5881 0
1600 5882 0
1600 5883 0
2500 5884 0
1600 5885 0
1600 5886 0
2400 5887 0
2500 5888 0
4400 5889 0
2500 5890 0
1600 5891 0
2400 5892 0
2400 5893 0
1800 5894 0
1800 5895 0
2400 5896 0
2500 5897 0
2500 5898 0
1600 5899 0
1800 5900 0
2400 5901 0
1600 5902 0
4400 5903 0
4400 5904 0
2500 5905 0
1600 5906 0
1600 5907 0
2400 5908 0
1600 5909 0
2400 5910 0
1800 5911 0
1600 5912 0
2500 5913 0
2500 5914 0
1600 5915 0
1800 5916 0
4400 5917 0
2500 5918 0
1800 5919 0
1600 5920 0
1800 5921 0
4400 5922 0
4400 5923 0
4400 5924 0
2400 5925 0
2500 5926 0
4400 5927 0
1800 5928 0
2500 5929 0
4400 5930 0
1800 5931 0
2500 5932 0
2500 5933 0
1600 5934 0
1800 5935 0
1600 5936 0
4400 5937 0
2500 5938 0
1800 5939 0
1800 5940 0
2400 5941 0
4400 5942 0
2500 5943 0
4400 5944 0
2400 5945 0
2400 5946 0
1800 5947 0
2400 5948 0
4400 5949 0
2500 5950 0
1600 5951 0
4400 5952 0
2400 5953 0
2400 5954 0
1800 5955 0
1800 5956 0
1800 5957 0
4400 5958 0
1600 5959 0
1800 5960 0
2500 5961 0
2500 5962 0
1800 5963 0
1800 5964 0
1600 5965 0
1600 5966 0
4400 5967 0
4400 5968 0
2500 5969 0
1600 5970 0
4400 5971 0
4400 5972 0
1800 5973 0
1600 5974 0
4400 5975 0
1800 5976 0
2500 5977 0
2400 5978 0
1600 5979 0
2500 5980 0
2500 5981 0
1600 5982 0
2400 5983 0
1800 5984 0
2500 5985 0
2500 5986 0
2400 5987 0
1800 5988 0
2500 5989 0
2400 5990 0
1600 5991 0
2400 5992 0
2400 5993 0
4400 5994 0
2500 5995 0
1800 5996 0
1600 5997 0
4400 5998 0
2400 5999 0
1600 6000 0
1800 6001 0
1600 6002 0
1600 6003 0
2500 6004 0
1800 6005 0
2400 6006 0
2500 6007 0
2500 6008 0
2400 6009 0
4400 6010 0
1800 6011 0
1600 6012 0
4400 6013 0
1800 6014 0
1800 6015 0
1600 6016 0
4400 6017 0
4400 6018 0
4400 6019 0
1600 6020 0
1600 6021 0
1800 6022 0
4400 6023 0
2400 6024 0
1800 6025 0
2400 6026 0
1800 6027 0
2400 6028 0
1600 6029 0
1800 6030 0
1800 6031 0
2500 6032 0
2400 6033 0
1800 6034 0
1800 6035 0
1600 6036 0
2400 6037 0
4400 6038 0
2400 6039 0
4400 6040 0
1800 6041 0
2400 6042 0
2400 6043 0
2400 6044 0
2400 6045 0
2400 6046 0
2500 6047 0
2500 6048 0
1800 6049 0
4400 6050 0
2400 6051 0
1600 6052 0
1800 6053 0
1800 6054 0
2400 6055 0
2400 6056 0
4400 6057 0
2500 6058 0
1800 6059 0
1800 6060 0
2400 6061 0
1800 6062 0
1600 6063 0
4400 6064 0
2400 6065 0
4400 6066 0
1800 6067 0
2500 6068 0
2500 6069 0
1600 6070 0
1600 6071 0
2400 6072 0
1600 6073 0
1800 6074 0
2400 6075 0
2500 6076 0
4400 6077 0
4400 6078 0
1800 6079 0
1800 6080 0
1600 6081 0
1800 6082 0
4400 6083 0
2400 6084 0
4400 6085 0
1600 6086 0
1800 6087 0
2500 6088 0
1600 6089 0
2500 6090 0
2400 6091 0
4400 6092 0
2500 6093 0
1800 6094 0
2500 6095 0
1600 6096 0
4400 6097 0
2400 6098 0
1600 6099 0
1800 6100 0
2500 6101 0
1800 6102 0
2500 6103 0
4400 6104 0
2400 6105 0
4400 6106 0
4400 6107 0
2400 6108 0
1800 6109 0
2400 6110 0
2500 6111 0
2500 6112 0
4400 6113 0
1600 6114 0
2500 6115 0
4400 6116 0
1600 6117 0
2400 6118 0
1600 6119 0
1800 6120 0
4400 6121 0
4400 6122 0
4400 6123 0
2500 6124 0
1800 6125 0
1600 6126 0
2400 6127 0
1600 6128 0
1800 6129 0
1600 6130 0
1800 6131 0
2500 6132 0
1800 6133 0
1800 6134 0
1800 6135 0
1800 6136 0
1600 6137 0
4400 6138 0
2500 6139 0
2400 6140 0
1600 6141 0
1600 6142 0
1600 6143 0
1800 6144 0
2400 6145 0
1600 6146 0
1600 6147 0
2400 6148 0
4400 6149 0
4400 6150 0
2500 6151 0
2400 6152 0
2400 6153 0
1800 6154 0
1600 6155 0
4400 6156 0
1800 6157 0
2500 6158 0
4400 6159 0
1600 6160 0
2500 6161 0
2500 6162 0
1600 6163 0
1800 6164 0
1600 6165 0
2400 6166 0
4400 6167 0
1600 6168 0
4400 6169 0
2400 6170 0
2400 6171 0
2400 6172 0
1600 6173 0
1800 6174 0
4400 6175 0
1600 6176 0
2500 6177 0
1800 6178 0
4400 6179 0
1800 6180 0
1600 6181 0
4400 6182 0
1600 6183 0
2400 6184 0
2500 6185 0
2500 6186 0
2400 6187 0
1800 6188 0
1800 6189 0
1600 6190 0
2500 6191 0
1800 6192 0
1600 6193 0
2400 6194 0
1600 6195 0
2400 6196 0
2500 6197 0
2500 6198 0
1800 6199 0
1600 6200 0
2500 6201 0
4400 6202 0
1800 6203 0
4400 6204 0
1600 6205 0
4400 6206 0
1600 6207 0
1800 6208 0
1600 6209 0
2500 6210 0
1800 6211 0
4400 6212 0
4400 6213 0
2500 6214 0
1800 6215 0
2400 6216 0
4400 6217 0
2500 6218 0
2400 6219 0
1800 6220 0
1600 6221 0
2400 6222 0
1800 6223 0
2400 6224 0
2500 6225 0
1800 6226 0
1800 6227 0
1600 6228 0
1800 6229 0
2500 6230 0
1800 6231 0
1800 6232 0
4400 6233 0
2500 6234 0
4400 6235 0
2400 6236 0
2400 6237 0
2500 6238 0
4400 6239 0
2400 6240 0
4400 6241 0
1800 6242 0
1800 6243 0
1800 6244 0
1800 6245 0
1800 6246 0
2500 6247 0
4400 6248 0
4400 6249 0
1800 6250 0
2400 6251 0
2500 6252 0
2400 6253 0
4400 6254 0
1800 6255 0
1800 6256 0
1600 6257 0
1600 6258 0
1800 6259 0
2400 6260 0
2500 6261 0
2400 6262 0
2400 6263 0
4400 6264 0
2400 6265 0
2400 6266 0
4400 6267 0
4400 6268 0
4400 6269 0
4400 6270 0
4400 6271 0
2500 6272 0
1600 6273 0
1600 6274 0
2500 6275 0
2500 6276 0
2400 6277 0
2500 6278 0
1600 6279 0
1800 6280 0
1800 6281 0
1800 6282 0
2400 6283 0
1600 6284 0
4400 6285 0
4400 6286 0
1800 6287 0
2400 6288 0
1800 6289 0
2500 6290 0
2500 6291 0
2400 6292 0
2400 6293 0
2400 6294 0
2400 6295 0
1800 6296 0
2400 6297 0
2400 6298 0
2400 6299 0
2500 6300 0
1600 6301 0
2500 6302 0
2500 6303 0
2500 6304 0
1600 6305 0
1600 6306 0
2500 6307 0
2400 6308 0
2500 6309 0
2500 6310 0
4400 6311 0
4400 6312 0
2500 6313 0
1600 6314 0
2500 6315 0
1800 6316 0
2500 6317 0
2500 6318 0
1800 6319 0
2500 6320 0
2500 6321 0
2500 6322 0
4400 6323 0
2400 6324 0
4400 6325 0
2400 6326 0
2400 6327 0
1800 6328 0
2500 6329 0
2500 6330 0
2400 6331 0
1800 6332 0
4400 6333 0
1800 6334 0
1800 6335 0
2400 6336 0
4400 6337 0
4400 6338 0
2400 6339 0
4400 6340 0
4400 6341 0
2500 6342 0
2500 6343 0
4400 6344 0
2500 6345 0
4400 6346 0
2400 6347 0
2400 6348 0
1800 6349 0
2400 6350 0
4400 6351 0
2500 6352 0
2500 6353 0
2400 6354 0
4400 6355 0
1600 6356 0
1800 6357 0
4400 6358 0
2400 6359 0
1600 6360 0
2500 6361 0
2400 6362 0
1800 6363 0
1600 6364 0
1600 6365 0
2400 6366 0
4400 6367 0
2400 6368 0
1600 6369 0
2500 6370 0
1800 6371 0
2500 6372 0
1600 6373 0
2500 6374 0
4400 6375 0
2400 6376 0
1600 6377 0
1800 6378 0
1800 6379 0
4400 6380 0
2500 6381 0
2500 6382 0
1800 6383 0
1600 6384 0
2500 6385 0
1600 6386 0
1800 6387 0
1600 6388 0
4400 6389 0
1800 6390 0
1600 6391 0
2400 6392 0
4400 6393 0
1600 6394 0
1800 6395 0
1600 6396 0
2400 6397 0
2500 6398 0
1600 6399 0
1800 6400 0
2400 6401 0
2500 6402 0
1600 6403 0
2500 6404 0
1600 6405 0
1600 6406 0
4400 6407 0
2500 6408 0
2500 6409 0
2400 6410 0
1600 6411 0
1600 6412 0
4400 6413 0
2500 6414 0
2400 6415 0
2500 6416 0
1800 6417 0
2400 6418 0
1800 6419 0
2400 6420 0
4400 6421 0
1600 6422 0
2500 6423 0
2400 6424 0
1600 6425 0
1600 6426 0
1800 6427 0
4400 6428 0
4400 6429 0
1800 6430 0
1600 6431 0
1800 6432 0
1600 6433 0
4400 6434 0
1600 6435 0
1600 6436 0
4400 6437 0
1800 6438 0
2400 6439 0
1600 6440 0
2500 6441 0
2500 6442 0
1800 6443 0
1600 6444 0
1600 6445 0
2400 6446 0
2400 6447 0
2500 6448 0
2500 6449 0
2500 6450 0
2500 6451 0
1600 6452 0
2500 6453 0
2400 6454 0
1600 6455 0
4400 6456 0
1800 6457 0
2400 6458 0
1800 6459 0
4400 6460 0
4400 6461 0
2500 6462 0
2500 6463 0
4400 6464 0
1600 6465 0
1600 6466 0
2400 6467 0
1800 6468 0
1600 6469 0
1600 6470 0
4400 6471 0
1800 6472 0
4400 6473 0
1800 6474 0
4400 6475 0
4400 6476 0
2500 6477 0
2500 6478 0
1600 6479 0
2500 6480 0
1600 6481 0
1600 6482 0
1800 6483 0
1600 6484 0
1600 6485 0
1600 6486 0
2500 6487 0
2500 6488 0
2400 6489 0
4400 6490 0
1800 6491 0
2400 6492 0
1600 6493 0
1600 6494 0
2400 6495 0
1800 6496 0
1600 6497 0
1600 6498 0
2500 6499 0
4400 6500 0
1600 6501 0
4400 6502 0
4400 6503 0
4400 6504 0
1600 6505 0
1600 6506 0
4400 6507 0
2400 6508 0
4400 6509 0
2500 6510 0
1600 6511 0
1800 6512 0
1600 6513 0
4400 6514 0
1600 6515 0
4400 6516 0
1800 6517 0
1800 6518 0
1800 6519 0
2500 6520 0
2500 6521 0
4400 6522 0
2500 6523 0
2400 6524 0
1800 6525 0
1800 6526 0
4400 6527 0
2500 6528 0
1800 6529 0
1600 6530 0
2500 6531 0
1600 6532 0
1800 6533 0
1800 6534 0
1600 6535 0
1800 6536 0
2500 6537 0
2400 6538 0
2400 6539 0
2400 6540 0
1800 6541 0
4400 6542 0
2500 6543 0
2500 6544 0
1800 6545 0
2500 6546 0
1800 6547 0
2400 6548 0
2500 6549 0
4400 6550 0
1800 6551 0
2500 6552 0
1600 6553 0
1600 6554 0
4400 6555 0
4400 6556 0
1600 6557 0
1800 6558 0
2500 6559 0
1600 6560 0
4400 6561 0
2500 6562 0
1800 6563 0
1600 6564 0
4400 6565 0
1600 6566 0
1800 6567 0
4400 6568 0
2500 6569 0
1600 6570 0
2500 6571 0
2400 6572 0
1800 6573 0
1600 6574 0
4400 6575 0
1800 6576 0
2400 6577 0
4400 6578 0
1800 6579 0
1800 6580 0
1600 6581 0
2400 6582 0
1600 6583 0
2500 6584 0
4400 6585 0
2400 6586 0
1800 6587 0
1800 6588 0
2500 6589 0
1800 6590 0
4400 6591 0
1600 6592 0
2400 6593 0
4400 6594 0
2500 6595 0
4400 6596 0
2500 6597 0
4400 6598 0
1800 6599 0
1800 6600 0
2500 6601 0
4400 6602 0
4400 6603 0
1600 6604 0
1600 6605 0
2400 6606 0
1800 6607 0
2500 6608 0
1800 6609 0
4400 6610 0
1800 6611 0
1600 6612 0
4400 6613 0
1800 6614 0
2400 6615 0
1600 6616 0
1600 6617 0
1800 6618 0
4400 6619 0
4400 6620 0
1600 6621 0
4400 6622 0
2400 6623 0
2500 6624 0
4400 6625 0
2400 6626 0
4400 6627 0
1600 6628 0
2400 6629 0
1600 6630 0
1800 6631 0
4400 6632 0
4400 6633 0
1600 6634 0
4400 6635 0
2500 6636 0
4400 6637 0
2400 6638 0
1800 6639 0
1600 6640 0
2400 6641 0
2400 6642 0
2400 6643 0
1800 6644 0
1600 6645 0
1600 6646 0
1800 6647 0
2500 6648 0
2400 6649 0
1600 6650 0
1800 6651 0
1800 6652 0
2400 6653 0
1800 6654 0
4400 6655 0
2400 6656 0
1600 6657 0
2400 6658 0
2500 6659 0
2400 6660 0
2400 6661 0
2500 6662 0
2400 6663 0
1800 6664 0
1600 6665 0
1600 6666 0
4400 6667 0
1600 6668 0
1600 6669 0
2500 6670 0
2400 6671 0
2400 6672 0
1800 6673 0
2400 6674 0
2500 6675 0
1800 6676 0
1800 6677 0
4400 6678 0
2400 6679 0
2500 6680 0
1600 6681 0
2500 6682 0
2500 6683 0
2500 6684 0
1800 6685 0
4400 6686 0
1800 6687 0
2500 6688 0
1600 6689 0
1800 6690 0
2500 6691 0
1600 6692 0
2400 6693 0
2400 6694 0
2500 6695 0
4400 6696 0
4400 6697 0
2500 6698 0
4400 6699 0
4400 6700 0
4400 6701 0
1800 6702 0
1600 6703 0
2500 6704 0
2400 6705 0
4400 6706 0
2500 6707 0
1800 6708 0
1800 6709 0
4400 6710 0
1600 6711 0
2400 6712 0
1600 6713 0
2400 6714 0
2400 6715 0
2500 6716 0
2400 6717 0
2400 6718 0
1800 6719 0
1600 6720 0
1600 6721 0
1800 6722 0
4400 6723 0
2500 6724 0
1600 6725 0
4400 6726 0
1800 6727 0
2500 6728 0
1800 6729 0
4400 6730 0
1600 6731 0
1600 6732 0
2400 6733 0
1800 6734 0
2400 6735 0
1800 6736 0
1600 6737 0
1800 6738 0
1800 6739 0
2500 6740 0
4400 6741 0
2500 6742 0
2500 6743 0
2400 6744 0
1800 6745 0
4400 6746 0
1600 6747 0
1800 6748 0
1800 6749 0
2500 6750 0
4400 6751 0
2400 6752 0
1600 6753 0
1600 6754 0
2500 6755 0
1600 6756 0
1800 6757 0
1800 6758 0
2500 6759 0
2400 6760 0
1800 6761 0
2400 6762 0
2400 6763 0
1600 6764 0
1800 6765 0
1600 6766 0
2500 6767 0
1800 6768 0
2500 6769 0
1600 6770 0
1600 6771 0
1600 6772 0
1800 6773 0
1600 6774 0
2500 6775 0
2400 6776 0
1800 6777 0
4400 6778 0
2500 6779 0
1800 6780 0
1600 6781 0
4400 6782 0
4400 6783 0
1800 6784 0
1600 6785 0
2500 6786 0
2500 6787 0
2400 6788 0
1600 6789 0
2400 6790 0
2500 6791 0
1600 6792 0
2400 6793 0
1800 6794 0
1800 6795 0
4400 6796 0
2500 6797 0
2500 6798 0
2400 6799 0
2400 6800 0
4400 6801 0
2400 6802 0
4400 6803 0
1600 6804 0
1800 6805 0
1600 6806 0
1600 6807 0
2400 6808 0
1800 6809 0
2400 6810 0
4400 6811 0
1800 6812 0
1800 6813 0
2400 6814 0
2500 6815 0
1600 6816 0
1800 6817 0
2400 6818 0
1600 6819 0
1600 6820 0
4400 6821 0
2400 6822 0
2500 6823 0
2500 6824 0
4400 6825 0
4400 6826 0
2400 6827 0
2500 6828 0
1600 6829 0
2400 6830 0
1800 6831 0
2400 6832 0
2500 6833 0
1600 6834 0
4400 6835 0
1600 6836 0
4400 6837 0
1800 6838 0
2400 6839 0
2500 6840 0
1800 6841 0
2400 6842 0
4400 6843 0
2500 6844 0
2500 6845 0
4400 6846 0
1600 6847 0
1600 6848 0
1600 6849 0
2500 6850 0
2400 6851 0
2400 6852 0
2400 6853 0
1800 6854 0
1800 6855 0
1600 6856 0
1600 6857 0
2400 6858 0
1600 6859 0
2400 6860 0
4400 6861 0
2400 6862 0
1800 6863 0
2400 6864 0
1600 6865 0
2400 6866 0
1600 6867 0
2400 6868 0
2500 6869 0
1800 6870 0
1800 6871 0
2400 6872 0
4400 6873 0
1600 6874 0
2400 6875 0
1800 6876 0
4400 6877 0
1600 6878 0
2500 6879 0
2500 6880 0
1600 6881 0
2400 6882 0
1800 6883 0
1600 6884 0
2400 6885 0
1600 6886 0
1600 6887 0
4400 6888 0
1800 6889 0
2500 6890 0
2500 6891 0
4400 6892 0
2500 6893 0
2500 6894 0
1800 6895 0
2400 6896 0
1600 6897 0
1800 6898 0
4400 6899 0
4400 6900 0
2500 6901 0
2500 6902 0
1800 6903 0
4400 6904 0
4400 6905 0
1600 6906 0
1800 6907 0
1600 6908 0
1800 6909 0
2400 6910 0
4400 6911 0
2500 6912 0
4400 6913 0
2400 6914 0
1800 6915 0
2400 6916 0
4400 6917 0
1600 6918 0
1800 6919 0
1600 6920 0
2400 6921 0
2500 6922 0
1800 6923 0
4400 6924 0
1600 6925 0
2400 6926 0
1800 6927 0
2500 6928 0
1800 6929 0
2500 6930 0
2400 6931 0
1600 6932 0
1800 6933 0
1800 6934 0
1600 6935 0
1800 6936 0
1800 6937 0
4400 6938 0
1800 6939 0
4400 6940 0
1800 6941 0
1600 6942 0
2400 6943 0
1800 6944 0
1600 6945 0
2400 6946 0
4400 6947 0
1600 6948 0
2500 6949 0
2400 6950 0
2400 6951 0
2500 6952 0
2400 6953 0
2400 6954 0
2500 6955 0
1600 6956 0
1800 6957 0
2400 6958 0
1600 6959 0
1600 6960 0
2500 6961 0
1600 6962 0
2500 6963 0
1600 6964 0
1800 6965 0
4400 6966 0
1600 6967 0
1600 6968 0
1600 6969 0
2500 6970 0
2400 6971 0
2500 6972 0
1800 6973 0
2500 6974 0
2400 6975 0
1800 6976 0
2400 6977 0
2400 6978 0
4400 6979 0
1800 6980 0
4400 6981 0
4400 6982 0
2400 6983 0
4400 6984 0
2500 6985 0
4400 6986 0
4400 6987 0
2400 6988 0
1600 6989 0
2500 6990 0
2400 6991 0
1600 6992 0
2500 6993 0
1800 6994 0
2500 6995 0
1800 6996 0
2500 6997 0
1600 6998 0
1800 6999 0
4400 7000 0
2500 7001 0
1800 7002 0
2400 7003 0
2500 7004 0
2500 7005 0
1600 7006 0
1600 7007 0
1600 7008 0
1800 7009 0
4400 7010 0
2500 7011 0
1800 7012 0
2500 7013 0
4400 7014 0
1600 7015 0
1800 7016 0
4400 7017 0
2400 7018 0
2400 7019 0
2500 7020 0
1800 7021 0
1800 7022 0
2500 7023 0
2500 7024 0
4400 7025 0
4400 7026 0
1600 7027 0
2500 7028 0
1600 7029 0
1800 7030 0
2400 7031 0
2400 7032 0
1600 7033 0
2500 7034 0
2500 7035 0
2400 7036 0
2400 7037 0
1600 7038 0
1600 7039 0
1800 7040 0
2400 7041 0
2500 7042 0
1800 7043 0
1600 7044 0
1600 7045 0
1800 7046 0
4400 7047 0
2400 7048 0
1800 7049 0
2500 7050 0
1800 7051 0
4400 7052 0
2400 7053 0
1600 7054 0
1600 7055 0
1600 7056 0
1600 7057 0
1800 7058 0
4400 7059 0
4400 7060 0
1600 7061 0
2500 7062 0
1600 7063 0
1800 7064 0
4400 7065 0
2400 7066 0
1600 7067 0
1600 7068 0
2500 7069 0
2500 7070 0
4400 7071 0
1800 7072 0
1600 7073 0
2400 7074 0
2400 7075 0
1600 7076 0
4400 7077 0
4400 7078 0
2500 7079 0
1800 7080 0
1600 7081 0
1600 7082 0
2500 7083 0
1600 7084 0
1800 7085 0
2400 7086 0
2400 7087 0
1800 7088 0
2400 7089 0
4400 7090 0
1600 7091 0
1800 7092 0
4400 7093 0
2500 7094 0
4400 7095 0
2500 7096 0
2500 7097 0
4400 7098 0
2500 7099 0
4400 7100 0
1600 7101 0
1600 7102 0
2500 7103 0
1600 7104 0
4400 7105 0
1800 7106 0
1800 7107 0
1800 7108 0
4400 7109 0
2500 7110 0
4400 7111 0
2500 7112 0
2500 7113 0
1600 7114 0
2400 7115 0
2400 7116 0
1600 7117 0
2500 7118 0
2500 7119 0
1600 7120 0
1800 7121 0
1800 7122 0
4400 7123 0
1600 7124 0
1600 7125 0
4400 7126 0
1800 7127 0
1800 7128 0
2400 7129 0
2400 7130 0
2400 7131 0
2500 7132 0
4400 7133 0
1800 7134 0
2500 7135 0
1600 7136 0
4400 7137 0
2500 7138 0
2500 7139 0
1600 7140 0
2500 7141 0
2500 7142 0
2400 7143 0
1600 7144 0
1600 7145 0
1600 7146 0
4400 7147 0
1600 7148 0
1800 7149 0
4400 7150 0
4400 7151 0
1800 7152 0
1600 7153 0
1800 7154 0
2500 7155 0
2400 7156 0
2400 7157 0
2500 7158 0
2400 7159 0
2500 7160 0
2500 7161 0
2400 7162 0
2500 7163 0
2400 7164 0
1600 7165 0
2400 7166 0
2400 7167 0
1600 7168 0
4400 7169 0
2400 7170 0
2500 7171 0
1800 7172 0
1600 7173 0
2400 7174 0
1600 7175 0
1600 7176 0
2500 7177 0
2500 7178 0
2400 7179 0
2400 7180 0
1600 7181 0
1600 7182 0
1600 7183 0
2500 7184 0
1600 7185 0
4400 7186 0
2400 7187 0
2400 7188 0
1800 7189 0
4400 7190 0
1600 7191 0
2500 7192 0
1800 7193 0
2500 7194 0
2500 7195 0
1600 7196 0
1600 7197 0
1600 7198 0
4400 7199 0
4400 7200 0
4400 7201 0
1800 7202 0
2500 7203 0
1600 7204 0
1600 7205 0
1600 7206 0
4400 7207 0
4400 7208 0
4400 7209 0
1600 7210 0
2400 7211 0
2500 7212 0
4400 7213 0
2500 7214 0
1600 7215 0
4400 7216 0
1800 7217 0
4400 7218 0
2500 7219 0
1800 7220 0
1600 7221 0
1600 7222 0
2500 7223 0
1600 7224 0
4400 7225 0
1800 7226 0
1600 7227 0
1600 7228 0
2500 7229 0
2400 7230 0
1800 7231 0
2400 7232 0
1600 7233 0
1800 7234 0
1600 7235 0
2400 7236 0
4400 7237 0
2400 7238 0
4400 7239 0
1800 7240 0
4400 7241 0
1600 7242 0
2400 7243 0
1800 7244 0
1600 7245 0
1600 7246 0
1800 7247 0
1600 7248 0
2400 7249 0
4400 7250 0
2400 7251 0
1800 7252 0
2500 7253 0
1600 7254 0
2400 7255 0
2400 7256 0
2400 7257 0
2400 7258 0
4400 7259 0
1600 7260 0
2500 7261 0
1600 7262 0
1600 7263 0
1800 7264 0
2400 7265 0
2400 7266 0
4400 7267 0
2500 7268 0
2500 7269 0
1800 7270 0
1800 7271 0
1800 7272 0
2400 7273 0
2400 7274 0
4400 7275 0
2500 7276 0
2500 7277 0
1800 7278 0
1600 7279 0
2500 7280 0
4400 7281 0
2400 7282 0
2500 7283 0
4400 7284 0
2400 7285 0
1600 7286 0
1800 7287 0
1800 7288 0
1800 7289 0
2500 7290 0
4400 7291 0
1800 7292 0
2400 7293 0
4400 7294 0
4400 7295 0
2500 7296 0
2500 7297 0
1600 7298 0
1600 7299 0
2500 7300 0
2500 7301 0
4400 7302 0
4400 7303 0
2500 7304 0
4400 7305 0
2500 7306 0
4400 7307 0
2500 7308 0
2400 7309 0
2500 7310 0
2400 7311 0
1800 7312 0
2400 7313 0
1800 7314 0
1600 7315 0
4400 7316 0
1600 7317 0
2500 7318 0
2400 7319 0
1800 7320 0
1800 7321 0
2400 7322 0
2500 7323 0
2400 7324 0
1600 7325 0
1600 7326 0
2500 7327 0
2400 7328 0
1600 7329 0
1800 7330 0
1800 7331 0
4400 7332 0
2400 7333 0
2500 7334 0
1800 7335 0
1800 7336 0
1600 7337 0
1800 7338 0
2400 7339 0
2400 7340 0
4400 7341 0
1600 7342 0
2400 7343 0
2400 7344 0
1600 7345 0
1600 7346 0
1600 7347 0
1600 7348 0
4400 7349 0
1800 7350 0
2500 7351 0
1600 7352 0
2400 7353 0
2500 7354 0
4400 7355 0
2500 7356 0
2500 7357 0
1800 7358 0
1800 7359 0
1600 7360 0
2400 7361 0
1600 7362 0
2500 7363 0
1600 7364 0
2500 7365 0
2400 7366 0
4400 7367 0
2500 7368 0
4400 7369 0
1800 7370 0
1600 7371 0
1600 7372 0
4400 7373 0
1800 7374 0
1800 7375 0
1800 7376 0
2500 7377 0
1800 7378 0
4400 7379 0
4400 7380 0
2400 7381 0
1600 7382 0
1600 7383 0
2400 7384 0
4400 7385 0
4400 7386 0
4400 7387 0
1600 7388 0
1800 7389 0
1600 7390 0
2400 7391 0
1800 7392 0
2500 7393 0
2500 7394 0
4400 7395 0
1800 7396 0
1600 7397 0
2400 7398 0
4400 7399 0
4400 7400 0
1800 7401 0
2400 7402 0
2500 7403 0
4400 7404 0
4400 7405 0
1800 7406 0
4400 7407 0
1800 7408 0
2400 7409 0
2500 7410 0
2500 7411 0
4400 7412 0
4400 7413 0
1800 7414 0
2400 7415 0
1800 7416 0
1600 7417 0
4400 7418 0
2500 7419 0
2500 7420 0
1800 7421 0
1800 7422 0
4400 7423 0
1800 7424 0
2500 7425 0
2500 7426 0
2500 7427 0
1600 7428 0
1800 7429 0
4400 7430 0
2500 7431 0
1600 7432 0
1800 7433 0
2400 7434 0
4400 7435 0
4400 7436 0
4400 7437 0
4400 7438 0
2400 7439 0
1800 7440 0
1800 7441 0
1800 7442 0
4400 7443 0
2400 7444 0
1600 7445 0
4400 7446 0
2400 7447 0
2500 7448 0
1800 7449 0
4400 7450 0
4400 7451 0
2400 7452 0
1800 7453 0
1600 7454 0
2500 7455 0
2400 7456 0
1600 7457 0
1600 7458 0
2500 7459 0
2500 7460 0
2500 7461 0
1600 7462 0
2400 7463 0
1600 7464 0
2400 7465 0
1600 7466 0
2500 7467 0
1800 7468 0
4400 7469 0
1600 7470 0
4400 7471 0
4400 7472 0
4400 7473 0
1600 7474 0
1800 7475 0
4400 7476 0
1600 7477 0
1600 7478 0
1600 7479 0
1600 7480 0
1600 7481 0
2400 7482 0
2400 7483 0
4400 7484 0
2400 7485 0
1600 7486 0
1600 7487 0
2400 7488 0
4400 7489 0
4400 7490 0
2500 7491 0
2400 7492 0
1600 7493 0
1600 7494 0
2500 7495 0
2400 7496 0
4400 7497 0
1800 7498 0
2500 7499 0
4400 7500 0
1600 7501 0
2500 7502 0
2500 7503 0
1800 7504 0
4400 7505 0
1800 7506 0
2500 7507 0
4400 7508 0
2400 7509 0
2500 7510 0
1800 7511 0
1800 7512 0
1800 7513 0
1800 7514 0
1800 7515 0
1600 7516 0
2500 7517 0
2400 7518 0
2400 7519 0
4400 7520 0
1600 7521 0
2500 7522 0
1800 7523 0
1800 7524 0
2400 7525 0
2400 7526 0
1600 7527 0
2500 7528 0
2500 7529 0
4400 7530 0
1800 7531 0
2500 7532 0
2500 7533 0
1600 7534 0
1600 7535 0
4400 7536 0
1800 7537 0
4400 7538 0
1600 7539 0
1800 7540 0
1600 7541 0
1600 7542 0
4400 7543 0
2400 7544 0
2400 7545 0
4400 7546 0
1600 7547 0
1600 7548 0
1600 7549 0
2400 7550 0
1800 7551 0
2500 7552 0
4400 7553 0
4400 7554 0
1600 7555 0
1600 7556 0
2400 7557 0
1600 7558 0
1800 7559 0
4400 7560 0
2500 7561 0
1600 7562 0
1800 7563 0
2500 7564 0
2400 7565 0
2500 7566 0
4400 7567 0
1800 7568 0
4400 7569 0
2500 7570 0
4400 7571 0
2500 7572 0
2400 7573 0
4400 7574 0
4400 7575 0
4400 7576 0
2500 7577 0
4400 7578 0
4400 7579 0
2400 7580 0
1600 7581 0
4400 7582 0
2500 7583 0
2500 7584 0
4400 7585 0
2400 7586 0
2500 7587 0
1800 7588 0
2400 7589 0
2400 7590 0
4400 7591 0
1600 7592 0
2500 7593 0
4400 7594 0
4400 7595 0
1800 7596 0
1600 7597 0
4400 7598 0
2500 7599 0
1600 7600 0
2500 7601 0
1800 7602 0
1600 7603 0
2400 7604 0
1600 7605 0
2500 7606 0
4400 7607 0
1800 7608 0
1600 7609 0
1800 7610 0
2500 7611 0
2500 7612 0
2500 7613 0
4400 7614 0
2400 7615 0
1800 7616 0
2400 7617 0
2400 7618 0
1800 7619 0
2500 7620 0
2400 7621 0
1800 7622 0
1600 7623 0
2400 7624 0
2500 7625 0
4400 7626 0
1800 7627 0
2400 7628 0
2500 7629 0
2500 7630 0
1800 7631 0
1600 7632 0
2500 7633 0
1800 7634 0
2400 7635 0
1600 7636 0
1800 7637 0
1800 7638 0
1600 7639 0
2500 7640 0
2500 7641 0
2400 7642 0
2400 7643 0
4400 7644 0
4400 7645 0
2400 7646 0
1600 7647 0
4400 7648 0
4400 7649 0
1600 7650 0
2500 7651 0
1800 7652 0
2500 7653 0
1800 7654 0
1600 7655 0
4400 7656 0
1600 7657 0
2500 7658 0
1600 7659 0
2500 7660 0
1600 7661 0
2400 7662 0
2500 7663 0
1800 7664 0
4400 7665 0
4400 7666 0
2500 7667 0
2400 7668 0
4400 7669 0
2400 7670 0
1800 7671 0
4400 7672 0
1600 7673 0
1600 7674 0
2500 7675 0
4400 7676 0
2400 7677 0
2400 7678 0
1800 7679 0
4400 7680 0
2400 7681 0
2400 7682 0
4400 7683 0
1600 7684 0
4400 7685 0
1600 7686 0
2500 7687 0
2500 7688 0
1600 7689 0
4400 7690 0
1800 7691 0
2400 7692 0
2500 7693 0
2500 7694 0
1600 7695 0
1800 7696 0
4400 7697 0
1800 7698 0
1600 7699 0
1800 7700 0
2400 7701 0
4400 7702 0
4400 7703 0
1800 7704 0
2500 7705 0
2400 7706 0
4400 7707 0
4400 7708 0
2500 7709 0
1800 7710 0
2500 7711 0
1600 7712 0
2500 7713 0
2400 7714 0
4400 7715 0
1800 7716 0
1600 7717 0
2400 7718 0
4400 7719 0
4400 7720 0
1800 7721 0
1800 7722 0
1800 7723 0
1600 7724 0
1800 7725 0
2400 7726 0
1800 7727 0
1800 7728 0
2400 7729 0
1600 7730 0
4400 7731 0
1800 7732 0
2500 7733 0
2400 7734 0
2500 7735 0
4400 7736 0
1600 7737 0
2500 7738 0
2500 7739 0
2400 7740 0
1600 7741 0
4400 7742 0
1600 7743 0
1600 7744 0
4400 7745 0
2500 7746 0
2500 7747 0
4400 7748 0
2500 7749 0
1600 7750 0
2500 7751 0
1800 7752 0
1600 7753 0
4400 7754 0
1800 7755 0
1600 7756 0
2400 7757 0
2500 7758 0
2500 7759 0
1600 7760 0
1800 7761 0
2400 7762 0
1600 7763 0
2500 7764 0
2400 7765 0
2500 7766 0
1800 7767 0
1800 7768 0
2400 7769 0
2500 7770 0
4400 7771 0
1800 7772 0
2400 7773 0
2400 7774 0
1600 7775 0
1800 7776 0
2500 7777 0
1800 7778 0
1600 7779 0
4400 7780 0
2400 7781 0
2500 7782 0
2400 7783 0
1600 7784 0
2500 7785 0
1800 7786 0
4400 7787 0
4400 7788 0
1600 7789 0
2400 7790 0
4400 7791 0
2400 7792 0
4400 7793 0
4400 7794 0
4400 7795 0
2400 7796 0
2500 7797 0
4400 7798 0
2400 7799 0
2500 7800 0
2400 7801 0
1800 7802 0
4400 7803 0
2400 7804 0
4400 7805 0
1800 7806 0
2400 7807 0
2500 7808 0
4400 7809 0
4400 7810 0
1800 7811 0
4400 7812 0
1600 7813 0
2500 7814 0
1600 7815 0
2500 7816 0
1800 7817 0
1600 7818 0
1600 7819 0
1800 7820 0
2500 7821 0
4400 7822 0
1600 7823 0
1600 7824 0
1800 7825 0
4400 7826 0
2500 7827 0
2400 7828 0
2500 7829 0
1800 7830 0
1600 7831 0
4400 7832 0
1600 7833 0
1800 7834 0
2500 7835 0
1600 7836 0
2400 7837 0
1800 7838 0
2500 7839 0
4400 7840 0
2500 7841 0
2400 7842 0
1600 7843 0
2500 7844 0
2400 7845 0
2400 7846 0
2400 7847 0
1800 7848 0
1800 7849 0
2500 7850 0
2500 7851 0
2500 7852 0
1600 7853 0
1600 7854 0
2500 7855 0
4400 7856 0
1800 7857 0
1800 7858 0
2400 7859 0
2500 7860 0
1600 7861 0
2400 7862 0
1800 7863 0
2500 7864 0
1800 7865 0
4400 7866 0
2400 7867 0
2500 7868 0
4400 7869 0
4400 7870 0
1600 7871 0
2500 7872 0
1600 7873 0
4400 7874 0
2500 7875 0
2500 7876 0
2500 7877 0
2500 7878 0
1600 7879 0
1800 7880 0
2500 7881 0
2400 7882 0
2500 7883 0
1600 7884 0
2500 7885 0
1800 7886 0
4400 7887 0
1600 7888 0
2500 7889 0
2500 7890 0
2500 7891 0
4400 7892 0
2500 7893 0
1800 7894 0
1600 7895 0
1600 7896 0
2500 7897 0
4400 7898 0
1600 7899 0
2400 7900 0
4400 7901 0
4400 7902 0
2500 7903 0
1600 7904 0
1600 7905 0
1600 7906 0
1600 7907 0
4400 7908 0
4400 7909 0
2500 7910 0
1800 7911 0
2500 7912 0
1600 7913 0
4400 7914 0
1800 7915 0
4400 7916 0
2400 7917 0
2500 7918 0
2500 7919 0
2500 7920 0
4400 7921 0
2500 7922 0
4400 7923 0
2400 7924 0
4400 7925 0
2400 7926 0
4400 7927 0
1800 7928 0
1800 7929 0
1600 7930 0
1600 7931 0
4400 7932 0
1600 7933 0
2400 7934 0
2400 7935 0
2400 7936 0
2500 7937 0
2500 7938 0
2400 7939 0
1800 7940 0
4400 7941 0
1600 7942 0
4400 7943 0
1800 7944 0
1800 7945 0
4400 7946 0
4400 7947 0
2400 7948 0
2400 7949 0
1600 7950 0
1800 7951 0
4400 7952 0
1800 7953 0
1800 7954 0
1800 7955 0
2500 7956 0
4400 7957 0
4400 7958 0
2400 7959 0
2500 7960 0
2400 7961 0
4400 7962 0
4400 7963 0
2500 7964 0
1600 7965 0
1800 7966 0
2400 7967 0
2400 7968 0
2400 7969 0
2500 7970 0
1800 7971 0
2400 7972 0
1600 7973 0
1600 7974 0
4400 7975 0
1800 7976 0
4400 7977 0
4400 7978 0
1800 7979 0
4400 7980 0
1800 7981 0
1600 7982 0
1800 7983 0
2400 7984 0
2500 7985 0
1600 7986 0
2500 7987 0
1600 7988 0
2400 7989 0
2500 7990 0
2400 7991 0
2400 7992 0
1600 7993 0
4400 7994 0
2400 7995 0
2400 7996 0
1600 7997 0
1800 7998 0
1600 7999 0
2400 8000 0
1600 8001 0
2400 8002 0
2500 8003 0
1800 8004 0
2500 8005 0
2500 8006 0
1800 8007 0
2500 8008 0
4400 8009 0
2500 8010 0
2400 8011 0
1800 8012 0
1600 8013 0
2400 8014 0
4400 8015 0
1800 8016 0
2500 8017 0
2500 8018 0
2400 8019 0
2400 8020 0
1800 8021 0
2400 8022 0
2400 8023 0
1800 8024 0
2400 8025 0
1800 8026 0
4400 8027 0
2400 8028 0
2400 8029 0
2400 8030 0
2500 8031 0
2400 8032 0
1800 8033 0
2500 8034 0
2500 8035 0
2400 8036 0
1600 8037 0
2500 8038 0
1800 8039 0
2400 8040 0
1800 8041 0
1600 8042 0
2400 8043 0
1800 8044 0
1800 8045 0
2400 8046 0
4400 8047 0
4400 8048 0
1600 8049 0
2500 8050 0
2500 8051 0
2400 8052 0
2400 8053 0
2400 8054 0
2400 8055 0
4400 8056 0
1600 8057 0
1800 8058 0
1800 8059 0
4400 8060 0
1600 8061 0
2400 8062 0
2500 8063 0
4400 8064 0
4400 8065 0
2400 8066 0
4400 8067 0
1800 8068 0
2400 8069 0
1800 8070 0
2400 8071 0
2500 8072 0
1800 8073 0
2400 8074 0
4400 8075 0
4400 8076 0
1600 8077 0
2400 8078 0
2500 8079 0
1600 8080 0
4400 8081 0
2500 8082 0
2400 8083 0
4400 8084 0
1600 8085 0
4400 8086 0
1800 8087 0
1600 8088 0
4400 8089 0
1600 8090 0
2400 8091 0
1800 8092 0
1800 8093 0
4400 8094 0
1600 8095 0
1600 8096 0
1600 8097 0
1800 8098 0
4400 8099 0
1600 8100 0
4400 8101 0
2500 8102 0
2400 8103 0
2400 8104 0
2400 8105 0
1600 8106 0
2400 8107 0
1600 8108 0
2400 8109 0
1800 8110 0
1600 8111 0
1600 8112 0
4400 8113 0
2400 8114 0
1800 8115 0
1800 8116 0
4400 8117 0
2500 8118 0
2400 8119 0
2500 8120 0
1800 8121 0
1600 8122 0
4400 8123 0
1800 8124 0
2400 8125 0
4400 8126 0
2500 8127 0
1600 8128 0
4400 8129 0
4400 8130 0
1800 8131 0
1600 8132 0
1600 8133 0
1600 8134 0
1600 8135 0
1600 8136 0
1800 8137 0
1600 8138 0
1800 8139 0
1800 8140 0
1600 8141 0
2500 8142 0
2400 8143 0
1600 8144 0
2400 8145 0
1800 8146 0
2500 8147 0
1800 8148 0
2500 8149 0
1800 8150 0
4400 8151 0
4400 8152 0
4400 8153 0
2500 8154 0
1800 8155 0
2400 8156 0
2500 8157 0
2500 8158 0
2500 8159 0
1800 8160 0
2500 8161 0
4400 8162 0
2400 8163 0
1800 8164 0
2400 8165 0
1800 8166 0
1800 8167 0
1800 8168 0
1800 8169 0
2400 8170 0
4400 8171 0
2400 8172 0
4400 8173 0
1800 8174 0
2500 8175 0
1800 8176 0
1800 8177 0
1800 8178 0
1600 8179 0
1600 8180 0
4400 8181 0
2500 8182 0
1600 8183 0
4400 8184 0
2400 8185 0
1600 8186 0
2400 8187 0
2400 8188 0
2400 8189 0
1600 8190 0
2400 8191 0
4400 8192 0
4400 8193 0
4400 8194 0
1600 8195 0
1600 8196 0
1800 8197 0
2500 8198 0
1800 8199 0
2400 8200 0
1600 8201 0
1600 8202 0
2400 8203 0
1600 8204 0
1600 8205 0
4400 8206 0
2500 8207 0
1800 8208 0
2400 8209 0
4400 8210 0
2400 8211 0
1800 8212 0
2500 8213 0
1600 8214 0
1800 8215 0
1800 8216 0
2400 8217 0
1600 8218 0
1600 8219 0
1600 8220 0
4400 8221 0
1800 8222 0
1800 8223 0
4400 8224 0
2500 8225 0
4400 8226 0
2500 8227 0
2400 8228 0
2400 8229 0
1800 8230 0
4400 8231 0
4400 8232 0
4400 8233 0
4400 8234 0
1600 8235 0
1600 8236 0
2400 8237 0
1600 8238 0
2500 8239 0
4400 8240 0
1600 8241 0
2400 8242 0
1600 8243 0
2500 8244 0
1800 8245 0
4400 8246 0
1600 8247 0
1800 8248 0
2500 8249 0
2400 8250 0
2500 8251 0
4400 8252 0
2400 8253 0
2500 8254 0
4400 8255 0
1600 8256 0
2500 8257 0
2400 8258 0
2400 8259 0
2500 8260 0
1600 8261 0
1800 8262 0
2400 8263 0
2400 8264 0
1800 8265 0
4400 8266 0
2500 8267 0
1600 8268 0
2500 8269 0
1800 8270 0
4400 8271 0
2500 8272 0
2400 8273 0
1800 8274 0
1600 8275 0
1600 8276 0
2400 8277 0
2500 8278 0
2400 8279 0
4400 8280 0
1600 8281 0
1600 8282 0
2500 8283 0
1600 8284 0
2400 8285 0
2400 8286 0
2400 8287 0
1800 8288 0
1600 8289 0
1600 8290 0
2400 8291 0
4400 8292 0
4400 8293 0
1800 8294 0
4400 8295 0
2400 8296 0
4400 8297 0
1600 8298 0
1800 8299 0
2400 8300 0
2500 8301 0
2400 8302 0
1600 8303 0
2500 8304 0
1600 8305 0
4400 8306 0
2400 8307 0
4400 8308 0
1800 8309 0
4400 8310 0
1600 8311 0
1600 8312 0
1600 8313 0
4400 8314 0
2500 8315 0
2500 8316 0
1800 8317 0
1600 8318 0
1800 8319 0
1800 8320 0
1600 8321 0
4400 8322 0
2400 8323 0
1600 8324 0
2400 8325 0
2400 8326 0
4400 8327 0
1600 8328 0
1600 8329 0
1600 8330 0
2400 8331 0
4400 8332 0
2500 8333 0
1600 8334 0
2500 8335 0
2400 8336 0
2400 8337 0
1800 8338 0
4400 8339 0
1800 8340 0
2500 8341 0
2400 8342 0
1600 8343 0
1600 8344 0
4400 8345 0
2500 8346 0
1800 8347 0
2500 8348 0
2500 8349 0
4400 8350 0
1800 8351 0
1600 8352 0
1600 8353 0
2400 8354 0
1800 8355 0
2400 8356 0
4400 8357 0
2500 8358 0
1600 8359 0
2500 8360 0
2500 8361 0
1600 8362 0
1600 8363 0
1800 8364 0
1600 8365 0
2400 8366 0
1600 8367 0
2500 8368 0
2500 8369 0
1800 8370 0
2500 8371 0
2400 8372 0
1800 8373 0
1600 8374 0
1600 8375 0
1600 8376 0
2500 8377 0
2500 8378 0
4400 8379 0
2400 8380 0
1600 8381 0
2400 8382 0
1600 8383 0
1800 8384 0
2400 8385 0
2400 8386 0
2500 8387 0
4400 8388 0
2500 8389 0
2400 8390 0
1800 8391 0
2500 8392 0
4400 8393 0
1600 8394 0
2400 8395 0
2500 8396 0
2500 8397 0
1800 8398 0
2400 8399 0
1600 8400 0
1800 8401 0
2400 8402 0
2400 8403 0
2500 8404 0
4400 8405 0
2400 8406 0
1600 8407 0
2500 8408 0
4400 8409 0
2500 8410 0
1600 8411 0
1800 8412 0
1600 8413 0
2500 8414 0
4400 8415 0
2500 8416 0
2500 8417 0
1600 8418 0
2400 8419 0
2400 8420 0
1800 8421 0
2400 8422 0
2400 8423 0
2500 8424 0
2500 8425 0
1600 8426 0
2500 8427 0
2500 8428 0
1800 8429 0
2400 8430 0
2500 8431 0
2400 8432 0
2500 8433 0
2400 8434 0
2400 8435 0
2500 8436 0
1600 8437 0
4400 8438 0
2500 8439 0
1800 8440 0
1800 8441 0
4400 8442 0
2400 8443 0
4400 8444 0
2400 8445 0
4400 8446 0
1600 8447 0
1600 8448 0
2500 8449 0
2400 8450 0
2400 8451 0
2500 8452 0
1800 8453 0
1800 8454 0
2400 8455 0
2500 8456 0
1600 8457 0
1800 8458 0
2500 8459 0
1600 8460 0
2400 8461 0
1600 8462 0
2400 8463 0
2500 8464 0
1800 8465 0
4400 8466 0
1800 8467 0
2500 8468 0
2500 8469 0
2400 8470 0
1600 8471 0
1800 8472 0
4400 8473 0
1600 8474 0
2500 8475 0
4400 8476 0
4400 8477 0
2400 8478 0
1800 8479 0
2500 8480 0
4400 8481 0
1800 8482 0
1600 8483 0
2400 8484 0
1800 8485 0
2400 8486 0
1800 8487 0
1600 8488 0
2500 8489 0
1800 8490 0
2500 8491 0
4400 8492 0
4400 8493 0
1600 8494 0
1600 8495 0
4400 8496 0
2400 8497 0
4400 8498 0
4400 8499 0
2500 8500 0
2400 8501 0
2500 8502 0
4400 8503 0
2500 8504 0
1800 8505 0
2400 8506 0
1600 8507 0
2400 8508 0
4400 8509 0
2500 8510 0
2500 8511 0
2400 8512 0
1800 8513 0
1600 8514 0
1800 8515 0
2400 8516 0
2400 8517 0
1600 8518 0
2400 8519 0
2500 8520 0
2400 8521 0
4400 8522 0
1600 8523 0
1800 8524 0
2400 8525 0
1800 8526 0
1800 8527 0
2500 8528 0
4400 8529 0
1600 8530 0
1800 8531 0
2500 8532 0
2400 8533 0
1800 8534 0
1800 8535 0
2400 8536 0
2400 8537 0
4400 8538 0
2500 8539 0
2400 8540 0
2400 8541 0
4400 8542 0
1600 8543 0
4400 8544 0
1800 8545 0
2400 8546 0
1600 8547 0
2500 8548 0
2500 8549 0
1600 8550 0
2500 8551 0
2400 8552 0
2500 8553 0
2400 8554 0
2400 8555 0
2400 8556 0
2500 8557 0
2400 8558 0
4400 8559 0
4400 8560 0
2400 8561 0
2400 8562 0
4400 8563 0
2500 8564 0
1600 8565 0
1600 8566 0
1800 8567 0
2400 8568 0
2400 8569 0
2400 8570 0
1600 8571 0
2400 8572 0
4400 8573 0
2400 8574 0
1800 8575 0
1800 8576 0
4400 8577 0
1600 8578 0
2400 8579 0
1800 8580 0
1600 8581 0
2500 8582 0
1800 8583 0
1600 8584 0
1600 8585 0
2400 8586 0
1600 8587 0
1600 8588 0
1600 8589 0
4400 8590 0
4400 8591 0
1600 8592 0
2400 8593 0
1600 8594 0
2500 8595 0
1600 8596 0
1600 8597 0
2500 8598 0
1800 8599 0
4400 8600 0
4400 8601 0
2400 8602 0
4400 8603 0
2400 8604 0
1800 8605 0
1600 8606 0
1600 8607 0
1800 8608 0
1600 8609 0
1800 8610 0
1600 8611 0
4400 8612 0
4400 8613 0
1600 8614 0
2500 8615 0
1800 8616 0
2400 8617 0
1600 8618 0
2400 8619 0
2400 8620 0
2400 8621 0
2500 8622 0
2500 8623 0
4400 8624 0
1800 8625 0
1600 8626 0
1600 8627 0
1600 8628 0
1600 8629 0
1800 8630 0
1600 8631 0
1600 8632 0
1800 8633 0
4400 8634 0
2500 8635 0
1600 8636 0
2500 8637 0
2500 8638 0
1600 8639 0
4400 8640 0
2400 8641 0
2400 8642 0
1600 8643 0
1800 8644 0
1800 8645 0
4400 8646 0
1600 8647 0
1800 8648 0
2500 8649 0
1600 8650 0
1600 8651 0
2400 8652 0
2400 8653 0
1600 8654 0
2500 8655 0
1800 8656 0
2500 8657 0
2400 8658 0
1800 8659 0
4400 8660 0
1600 8661 0
2400 8662 0
1800 8663 0
2400 8664 0
4400 8665 0
4400 8666 0
2400 8667 0
2500 8668 0
2500 8669 0
2500 8670 0
1600 8671 0
1600 8672 0
4400 8673 0
2500 8674 0
4400 8675 0
2400 8676 0
1600 8677 0
2400 8678 0
1600 8679 0
1800 8680 0
1800 8681 0
4400 8682 0
4400 8683 0
1600 8684 0
4400 8685 0
1800 8686 0
1600 8687 0
2500 8688 0
2500 8689 0
4400 8690 0
1800 8691 0
2400 8692 0
1800 8693 0
2400 8694 0
1600 8695 0
1800 8696 0
2500 8697 0
2400 8698 0
1600 8699 0
2500 8700 0
2500 8701 0
2500 8702 0
1600 8703 0
4400 8704 0
1600 8705 0
1800 8706 0
1600 8707 0
2400 8708 0
2400 8709 0
1800 8710 0
2400 8711 0
2400 8712 0
2400 8713 0
1600 8714 0
2400 8715 0
4400 8716 0
2500 8717 0
1600 8718 0
4400 8719 0
2400 8720 0
2400 8721 0
2400 8722 0
2500 8723 0
2400 8724 0
2400 8725 0
1800 8726 0
1600 8727 0
1600 8728 0
4400 8729 0
2500 8730 0
2400 8731 0
2500 8732 0
1800 8733 0
2500 8734 0
1600 8735 0
2500 8736 0
1800 8737 0
2500 8738 0
1800 8739 0
2500 8740 0
4400 8741 0
2400 8742 0
1600 8743 0
1600 8744 0
2500 8745 0
2500 8746 0
2500 8747 0
1800 8748 0
2500 8749 0
4400 8750 0
2500 8751 0
2500 8752 0
2400 8753 0
4400 8754 0
2500 8755 0
1600 8756 0
4400 8757 0
4400 8758 0
1800 8759 0
1600 8760 0
1600 8761 0
1800 8762 0
4400 8763 0
1600 8764 0
1800 8765 0
1800 8766 0
1800 8767 0
1800 8768 0
2400 8769 0
1800 8770 0
1600 8771 0
1600 8772 0
4400 8773 0
2500 8774 0
1800 8775 0
1800 8776 0
2500 8777 0
2500 8778 0
1600 8779 0
1600 8780 0
2400 8781 0
2500 8782 0
4400 8783 0
2500 8784 0
4400 8785 0
1800 8786 0
2400 8787 0
1800 8788 0
1600 8789 0
4400 8790 0
1600 8791 0
4400 8792 0
1600 8793 0
2400 8794 0
2500 8795 0
1800 8796 0
2500 8797 0
1800 8798 0
2500 8799 0
1800 8800 0
1600 8801 0
2400 8802 0
4400 8803 0
1600 8804 0
1600 8805 0
4400 8806 0
2500 8807 0
1800 8808 0
1600 8809 0
1600 8810 0
2500 8811 0
1600 8812 0
1800 8813 0
4400 8814 0
2400 8815 0
2400 8816 0
4400 8817 0
4400 8818 0
4400 8819 0
2500 8820 0
2400 8821 0
1600 8822 0
2500 8823 0
1800 8824 0
4400 8825 0
1600 8826 0
2400 8827 0
1600 8828 0
2500 8829 0
1600 8830 0
4400 8831 0
2400 8832 0
2400 8833 0
2400 8834 0
2400 8835 0
2500 8836 0
2500 8837 0
1600 8838 0
2500 8839 0
2400 8840 0
1800 8841 0
1600 8842 0
1800 8843 0
2400 8844 0
1800 8845 0
1600 8846 0
2500 8847 0
2400 8848 0
4400 8849 0
1600 8850 0
2500 8851 0
1800 8852 0
2400 8853 0
4400 8854 0
4400 8855 0
2500 8856 0
1800 8857 0
1600 8858 0
1600 8859 0
4400 8860 0
1600 8861 0
2400 8862 0
2400 8863 0
1800 8864 0
2500 8865 0
1800 8866 0
2500 8867 0
2500 8868 0
2500 8869 0
1800 8870 0
4400 8871 0
2400 8872 0
2500 8873 0
4400 8874 0
1800 8875 0
2400 8876 0
1800 8877 0
1600 8878 0
4400 8879 0
2500 8880 0
1800 8881 0
2500 8882 0
4400 8883 0
4400 8884 0
2400 8885 0
1600 8886 0
1600 8887 0
1800 8888 0
1800 8889 0
2400 8890 0
4400 8891 0
4400 8892 0
4400 8893 0
2400 8894 0
2500 8895 0
1600 8896 0
2500 8897 0
4400 8898 0
1600 8899 0
1800 8900 0
2400 8901 0
1800 8902 0
2400 8903 0
1600 8904 0
1600 8905 0
2400 8906 0
4400 8907 0
1800 8908 0
2400 8909 0
2500 8910 0
4400 8911 0
1800 8912 0
1800 8913 0
4400 8914 0
2500 8915 0
1800 8916 0
4400 8917 0
1600 8918 0
2400 8919 0
1600 8920 0
1800 8921 0
1600 8922 0
2500 8923 0
1800 8924 0
2400 8925 0
2400 8926 0
2400 8927 0
2500 8928 0
2400 8929 0
1600 8930 0
1600 8931 0
1800 8932 0
2400 8933 0
2500 8934 0
4400 8935 0
1600 8936 0
1800 8937 0
1600 8938 0
1600 8939 0
1800 8940 0
1600 8941 0
1600 8942 0
2500 8943 0
4400 8944 0
1800 8945 0
1800 8946 0
2400 8947 0
4400 8948 0
1600 8949 0
2500 8950 0
2400 8951 0
1800 8952 0
4400 8953 0
2500 8954 0
1800 8955 0
1600 8956 0
2400 8957 0
4400 8958 0
2400 8959 0
1600 8960 0
1600 8961 0
1800 8962 0
2400 8963 0
2400 8964 0
2400 8965 0
2400 8966 0
2500 8967 0
1800 8968 0
4400 8969 0
2500 8970 0
2400 8971 0
1600 8972 0
1600 8973 0
2400 8974 0
2500 8975 0
2500 8976 0
1800 8977 0
1600 8978 0
2400 8979 0
2500 8980 0
2500 8981 0
4400 8982 0
1800 8983 0
4400 8984 0
1600 8985 0
2400 8986 0
1600 8987 0
2400 8988 0
2500 8989 0
2500 8990 0
2400 8991 0
1600 8992 0
1600 8993 0
1800 8994 0
4400 8995 0
2400 8996 0
1600 8997 0
2500 8998 0
1600 8999 0
1600 9000 0
1800 9001 0
1600 9002 0
1800 9003 0
2500 9004 0
2500 9005 0
2500 9006 0
2500 9007 0
2500 9008 0
1600 9009 0
4400 9010 0
2400 9011 0
2500 9012 0
4400 9013 0
4400 9014 0
4400 9015 0
1600 9016 0
1800 9017 0
2500 9018 0
4400 9019 0
2400 9020 0
1600 9021 0
1600 9022 0
1600 9023 0
1800 9024 0
4400 9025 0
2400 9026 0
2500 9027 0
1800 9028 0
2500 9029 0
4400 9030 0
2400 9031 0
1600 9032 0
2500 9033 0
1600 9034 0
4400 9035 0
4400 9036 0
4400 9037 0
1600 9038 0
2500 9039 0
4400 9040 0
4400 9041 0
4400 9042 0
2500 9043 0
2400 9044 0
2500 9045 0
2400 9046 0
4400 9047 0
2400 9048 0
2500 9049 0
4400 9050 0
1600 9051 0
1800 9052 0
2500 9053 0
2500 9054 0
2400 9055 0
4400 9056 0
2400 9057 0
2400 9058 0
2500 9059 0
4400 9060 0
1800 9061 0
2500 9062 0
2500 9063 0
2500 9064 0
4400 9065 0
1800 9066 0
1800 9067 0
4400 9068 0
2400 9069 0
1600 9070 0
2500 9071 0
2400 9072 0
1800 9073 0
2500 9074 0
4400 9075 0
1800 9076 0
4400 9077 0
1600 9078 0
2400 9079 0
4400 9080 0
1600 9081 0
1800 9082 0
4400 9083 0
1800 9084 0
4400 9085 0
4400 9086 0
4400 9087 0
2400 9088 0
2500 9089 0
2500 9090 0
2400 9091 0
2500 9092 0
2400 9093 0
2400 9094 0
1800 9095 0
2400 9096 0
2400 9097 0
4400 9098 0
4400 9099 0
2400 9100 0
4400 9101 0
1800 9102 0
1800 9103 0
2400 9104 0
4400 9105 0
1600 9106 0
2500 9107 0
4400 9108 0
1800 9109 0
1800 9110 0
1600 9111 0
2400 9112 0
1600 9113 0
1600 9114 0
2500 9115 0
1800 9116 0
1600 9117 0
2400 9118 0
4400 9119 0
2400 9120 0
2500 9121 0
1800 9122 0
2400 9123 0
1800 9124 0
4400 9125 0
4400 9126 0
4400 9127 0
2400 9128 0
1600 9129 0
2400 9130 0
1800 9131 0
1600 9132 0
1600 9133 0
2500 9134 0
4400 9135 0
2400 9136 0
2500 9137 0
1800 9138 0
2500 9139 0
4400 9140 0
2500 9141 0
4400 9142 0
1600 9143 0
2500 9144 0
1800 9145 0
2500 9146 0
1800 9147 0
1800 9148 0
1800 9149 0
2400 9150 0
2400 9151 0
1800 9152 0
2500 9153 0
2500 9154 0
1600 9155 0
2400 9156 0
1600 9157 0
2500 9158 0
2500 9159 0
2400 9160 0
4400 9161 0
1800 9162 0
4400 9163 0
1600 9164 0
2500 9165 0
4400 9166 0
1800 9167 0
4400 9168 0
1800 9169 0
4400 9170 0
1800 9171 0
4400 9172 0
2500 9173 0
2500 9174 0
2400 9175 0
1800 9176 0
1600 9177 0
2400 9178 0
1800 9179 0
4400 9180 0
4400 9181 0
4400 9182 0
1600 9183 0
1600 9184 0
4400 9185 0
2400 9186 0
1800 9187 0
2500 9188 0
4400 9189 0
2400 9190 0
2400 9191 0
2400 9192 0
1600 9193 0
4400 9194 0
1800 9195 0
2500 9196 0
1800 9197 0
2400 9198 0
4400 9199 0
1600 9200 0
1600 9201 0
2400 9202 0
1600 9203 0
1800 9204 0
1600 9205 0
4400 9206 0
1800 9207 0
1800 9208 0
1600 9209 0
4400 9210 0
2400 9211 0
1800 9212 0
2500 9213 0
1800 9214 0
1600 9215 0
1800 9216 0
2500 9217 0
2500 9218 0
2500 9219 0
2400 9220 0
2500 9221 0
2400 9222 0
4400 9223 0
2500 9224 0
2500 9225 0
1800 9226 0
4400 9227 0
1600 9228 0
2500 9229 0
1600 9230 0
4400 9231 0
2400 9232 0
1600 9233 0
1600 9234 0
4400 9235 0
4400 9236 0
2500 9237 0
1600 9238 0
2500 9239 0
4400 9240 0
2400 9241 0
2500 9242 0
1600 9243 0
4400 9244 0
1800 9245 0
2400 9246 0
4400 9247 0
4400 9248 0
2500 9249 0
4400 9250 0
1600 9251 0
2400 9252 0
4400 9253 0
2400 9254 0
2400 9255 0
2500 9256 0
1800 9257 0
2400 9258 0
4400 9259 0
1800 9260 0
2500 9261 0
1600 9262 0
1600 9263 0
1600 9264 0
2400 9265 0
1800 9266 0
2500 9267 0
1800 9268 0
2400 9269 0
4400 9270 0
2500 9271 0
1800 9272 0
1800 9273 0
1600 9274 0
1800 9275 0
1800 9276 0
2400 9277 0
2500 9278 0
4400 9279 0
1600 9280 0
2400 9281 0
1800 9282 0
4400 9283 0
2500 9284 0
1600 9285 0
4400 9286 0
1600 9287 0
2500 9288 0
1800 9289 0
2500 9290 0
4400 9291 0
1600 9292 0
1800 9293 0
1800 9294 0
1800 9295 0
2500 9296 0
2500 9297 0
1800 9298 0
2400 9299 0
1600 9300 0
1800 9301 0
2500 9302 0
2500 9303 0
1600 9304 0
1600 9305 0
2400 9306 0
2500 9307 0
4400 9308 0
4400 9309 0
2400 9310 0
1600 9311 0
2500 9312 0
1600 9313 0
2500 9314 0
2400 9315 0
1800 9316 0
2400 9317 0
1600 9318 0
1600 9319 0
1800 9320 0
1800 9321 0
1800 9322 0
1600 9323 0
2400 9324 0
4400 9325 0
1800 9326 0
2500 9327 0
1600 9328 0
1600 9329 0
2400 9330 0
2400 9331 0
1800 9332 0
1600 9333 0
2500 9334 0
1800 9335 0
2400 9336 0
2500 9337 0
2400 9338 0
1800 9339 0
2500 9340 0
2400 9341 0
1600 9342 0
1600 9343 0
1800 9344 0
2500 9345 0
2400 9346 0
2400 9347 0
1600 9348 0
1800 9349 0
2500 9350 0
1600 9351 0
1600 9352 0
4400 9353 0
1600 9354 0
2400 9355 0
1800 9356 0
1600 9357 0
4400 9358 0
1600 9359 0
2400 9360 0
2500 9361 0
2500 9362 0
2500 9363 0
2400 9364 0
2400 9365 0
1800 9366 0
4400 9367 0
2500 9368 0
2400 9369 0
2500 9370 0
1800 9371 0
1600 9372 0
4400 9373 0
2500 9374 0
1600 9375 0
1600 9376 0
1800 9377 0
1800 9378 0
1600 9379 0
2500 9380 0
1600 9381 0
2400 9382 0
4400 9383 0
2400 9384 0
4400 9385 0
2400 9386 0
2400 9387 0
1800 9388 0
2500 9389 0
1800 9390 0
2400 9391 0
1600 9392 0
2400 9393 0
1600 9394 0
2500 9395 0
4400 9396 0
4400 9397 0
2400 9398 0
2400 9399 0
4400 9400 0
2400 9401 0
2400 9402 0
2500 9403 0
2400 9404 0
1600 9405 0
2500 9406 0
1800 9407 0
2400 9408 0
2400 9409 0
1600 9410 0
2500 9411 0
4400 9412 0
2400 9413 0
2500 9414 0
2500 9415 0
1600 9416 0
1600 9417 0
4400 9418 0
1800 9419 0
2400 9420 0
2400 9421 0
1800 9422 0
1600 9423 0
1600 9424 0
2500 9425 0
4400 9426 0
1600 9427 0
2500 9428 0
1800 9429 0
2500 9430 0
1800 9431 0
1800 9432 0
1800 9433 0
1800 9434 0
1600 9435 0
2400 9436 0
1800 9437 0
2500 9438 0
2400 9439 0
2500 9440 0
2500 9441 0
2500 9442 0
1800 9443 0
2400 9444 0
1800 9445 0
1600 9446 0
1800 9447 0
4400 9448 0
2500 9449 0
1600 9450 0
2400 9451 0
1800 9452 0
1600 9453 0
1800 9454 0
1800 9455 0
1800 9456 0
2500 9457 0
2500 9458 0
2500 9459 0
4400 9460 0
2400 9461 0
1800 9462 0
1800 9463 0
1800 9464 0
4400 9465 0
4400 9466 0
4400 9467 0
1800 9468 0
2400 9469 0
1800 9470 0
2400 9471 0
4400 9472 0
1600 9473 0
2500 9474 0
2500 9475 0
2400 9476 0
4400 9477 0
2500 9478 0
2500 9479 0
4400 9480 0
2400 9481 0
2400 9482 0
1600 9483 0
2500 9484 0
2500 9485 0
4400 9486 0
4400 9487 0
1800 9488 0
1800 9489 0
1600 9490 0
2400 9491 0
4400 9492 0
2400 9493 0
2500 9494 0
2400 9495 0
2400 9496 0
1600 9497 0
4400 9498 0
1800 9499 0
4400 9500 0
1800 9501 0
1800 9502 0
1600 9503 0
2500 9504 0
1600 9505 0
2500 9506 0
1600 9507 0
1600 9508 0
4400 9509 0
4400 9510 0
2500 9511 0
2400 9512 0
4400 9513 0
1800 9514 0
2400 9515 0
1800 9516 0
2500 9517 0
4400 9518 0
2500 9519 0
2400 9520 0
1600 9521 0
1600 9522 0
4400 9523 0
4400 9524 0
2500 9525 0
2400 9526 0
1600 9527 0
4400 9528 0
1600 9529 0
4400 9530 0
1600 9531 0
1600 9532 0
4400 9533 0
1800 9534 0
2400 9535 0
2400 9536 0
2500 9537 0
2400 9538 0
4400 9539 0
2400 9540 0
4400 9541 0
2500 9542 0
4400 9543 0
1600 9544 0
4400 9545 0
4400 9546 0
1800 9547 0
1800 9548 0
2400 9549 0
1800 9550 0
1800 9551 0
4400 9552 0
2500 9553 0
2400 9554 0
2400 9555 0
2500 9556 0
4400 9557 0
2400 9558 0
1800 9559 0
2500 9560 0
2400 9561 0
1800 9562 0
2400 9563 0
1800 9564 0
2500 9565 0
2400 9566 0
2400 9567 0
4400 9568 0
2500 9569 0
2500 9570 0
1800 9571 0
4400 9572 0
1800 9573 0
1800 9574 0
2500 9575 0
4400 9576 0
1800 9577 0
2400 9578 0
1600 9579 0
4400 9580 0
1800 9581 0
1800 9582 0
2500 9583 0
2500 9584 0
1800 9585 0
2400 9586 0
1800 9587 0
2400 9588 0
1800 9589 0
2500 9590 0
4400 9591 0
4400 9592 0
2500 9593 0
1600 9594 0
1800 9595 0
4400 9596 0
4400 9597 0
2400 9598 0
1600 9599 0
2400 9600 0
30160 2720 -3221 0
4524 -2720 3221 0
31065 -2720 -3221 0
10450 4956 -3441 0
10450 -4956 3441 0
15153 -4956 -3441 0
7600 1609 1626 1816 -4554 0
6650 1609 1626 -1816 4554 0
11590 1609 1626 -1816 -4554 0
3800 1609 -1626 1816 4554 0
9880 1609 -1626 1816 -4554 0
9120 1609 -1626 -1816 4554 0
13072 1609 -1626 -1816 -4554 0
2280 -1609 1626 1816 4554 0
8968 -1609 1626 1816 -4554 0
8132 -1609 1626 -1816 4554 0
12479 -1609 1626 -1816 -4554 0
5624 -1609 -1626 1816 4554 0
10974 -1609 -1626 1816 -4554 0
10306 -1609 -1626 -1816 4554 0
13783 -1609 -1626 -1816 -4554 0
7600 4377 -2912 0
2280 -4377 2912 0
8968 -4377 -2912 0
27885 3214 -2636 0
8580 -3214 2636 0
30888 -3214 -2636 0
26390 4739 2784 -3659 0
13195 4739 -2784 3659 0
30348 4739 -2784 -3659 0
18850 -4739 2784 3659 0
32045 -4739 2784 -3659 0
25448 -4739 -2784 3659 0
34024 -4739 -2784 -3659 0
2140 -3553 0
1240 1770 -3396 0
5580 -1770 3396 0
5704 -1770 -3396 0
10165 4646 4080 -3434 0
10165 4646 -4080 3434 0
10673 4646 -4080 -3434 0
10165 -4646 4080 3434 0
10673 -4646 4080 -3434 0
10673 -4646 -4080 3434 0
10699 -4646 -4080 -3434 0
1116 1763 1521 3425 -2589 0
310 1763 1521 -3425 2589 0
1370 1763 1521 -3425 -2589 0
1984 1763 -1521 3425 2589 0
2743 1763 -1521 3425 -2589 0
2195 1763 -1521 -3425 2589 0
2916 1763 -1521 -3425 -2589 0
2170 -1763 1521 3425 2589 0
2895 -1763 1521 3425 -2589 0
2372 -1763 1521 -3425 2589 0
3061 -1763 1521 -3425 -2589 0
3460 -1763 -1521 3425 2589 0
3953 -1763 -1521 3425 -2589 0
3597 -1763 -1521 -3425 2589 0
4065 -1763 -1521 -3425 -2589 0
7722 3755 -5048 0
6435 -3755 5048 0
12999 -3755 -5048 0
2356 2994 -1758 0
3100 -2994 1758 0
4278 -2994 -1758 0
754 1735 -4476 0
13195 -1735 4476 0
13685 -1735 -4476 0
14250 2229 4695 -3121 0
2850 2229 -4695 3121 0
14962 2229 -4695 -3121 0
3800 -2229 4695 3121 0
15200 -2229 4695 -3121 0
6080 -2229 -4695 3121 0
15770 -2229 -4695 -3121 0
8580 -1878 0
1116 4471 3309 -4580 0
1116 4471 -3309 4580 0
2031 4471 -3309 -4580 0
1240 -4471 3309 4580 0
2133 -4471 3309 -4580 0
2133 -4471 -3309 4580 0
2865 -4471 -3309 -4580 0
10450 4874 -4844 0
7220 -4874 4844 0
13699 -4874 -4844 0
930 4239 1946 -3082 0
1860 4239 -1946 3082 0
2511 4239 -1946 -3082 0
1240 -4239 1946 3082 0
1984 -4239 1946 -3082 0
2728 -4239 -1946 3082 0
3249 -4239 -1946 -3082 0
1885 2860 2568 -5055 0
18850 2860 -2568 5055 0
19793 2860 -2568 -5055 0
28275 -2860 2568 5055 0
28746 -2860 2568 -5055 0
32988 -2860 -2568 5055 0
33223 -2860 -2568 -5055 0
7490 4730 2259 2222 -4107 0
8560 4730 2259 -2222 4107 0
10058 4730 2259 -2222 -4107 0
9630 4730 -2259 2222 4107 0
10379 4730 -2259 2222 -4107 0
10486 4730 -2259 -2222 4107 0
10636 4730 -2259 -2222 -4107 0
8025 -4730 2259 2222 4107 0
9898 -4730 2259 2222 -4107 0
10165 -4730 2259 -2222 4107 0
10539 -4730 2259 -2222 -4107 0
10433 -4730 -2259 2222 4107 0
10620 -4730 -2259 2222 -4107 0
10647 -4730 -2259 -2222 4107 0
10684 -4730 -2259 -2222 -4107 0
28275 -2234 0
6786 4062 -2575 0
35815 -4062 2575 0
36154 -4062 -2575 0
25740 1883 -4420 0
12870 -1883 4420 0
30888 -1883 -4420 0
1550 2721 3890 4116 -4133 0
1116 2721 3890 -4116 4133 0
2387 2721 3890 -4116 -4133 0
744 2721 -3890 4116 4133 0
2108 2721 -3890 4116 -4133 0
1726 2721 -3890 -4116 4133 0
2845 2721 -3890 -4116 -4133 0
310 -2721 3890 4116 4133 0
1783 -2721 3890 4116 -4133 0
1370 -2721 3890 -4116 4133 0
2578 -2721 3890 -4116 -4133 0
1017 -2721 -3890 4116 4133 0
2313 -2721 -3890 4116 -4133 0
1950 -2721 -3890 -4116 4133 0
3012 -2721 -3890 -4116 -4133 0
5270 4737 2194 -2008 0
310 4737 -2194 2008 0
5316 4737 -2194 -2008 0
744 -4737 2194 2008 0
5382 -4737 2194 -2008 0
1017 -4737 -2194 2008 0
5423 -4737 -2194 -2008 0
3410 2317 3432 3520 2310 -3959 0
5890 2317 3432 3520 -2310 3959 0
6061 2317 3432 3520 -2310 -3959 0
124 2317 3432 -3520 2310 3959 0
3466 2317 3432 -3520 2310 -3959 0
5896 2317 3432 -3520 -2310 3959 0
6063 2317 3432 -3520 -2310 -3959 0
2356 2317 -3432 3520 2310 3959 0
4470 2317 -3432 3520 2310 -3959 0
6008 2317 -3432 3520 -2310 3959 0
6114 2317 -3432 3520 -2310 -3959 0
2433 2317 -3432 -3520 2310 3959 0
4505 2317 -3432 -3520 2310 -3959 0
6012 2317 -3432 -3520 -2310 3959 0
6115 2317 -3432 -3520 -2310 -3959 0
1550 -2317 3432 3520 2310 3959 0
4108 -2317 3432 3520 2310 -3959 0
5967 -2317 3432 3520 -2310 3959 0
6095 -2317 3432 3520 -2310 -3959 0
1643 -2317 3432 -3520 2310 3959 0
4149 -2317 3432 -3520 2310 -3959 0
5972 -2317 3432 -3520 -2310 3959 0
6097 -2317 3432 -3520 -2310 -3959 0
3317 -2317 -3432 3520 2310 3959 0
4903 -2317 -3432 3520 2310 -3959 0
6056 -2317 -3432 3520 -2310 3959 0
6135 -2317 -3432 3520 -2310 -3959 0
3375 -2317 -3432 -3520 2310 3959 0
4929 -2317 -3432 -3520 2310 -3959 0
6059 -2317 -3432 -3520 -2310 3959 0
6136 -2317 -3432 -3520 -2310 -3959 0
28275 4314 3253 2632 -2933 0
32045 4314 3253 -2632 2933 0
36286 4314 3253 -2632 -2933 0
35815 4314 -3253 2632 2933 0
37229 4314 -3253 2632 -2933 0
37417 4314 -3253 -2632 2933 0
37629 4314 -3253 -2632 -2933 0
9425 -4314 3253 2632 2933 0
30631 -4314 3253 2632 -2933 0
33459 -4314 3253 -2632 2933 0
36640 -4314 3253 -2632 -2933 0
36286 -4314 -3253 2632 2933 0
37347 -4314 -3253 2632 -2933 0
37488 -4314 -3253 -2632 2933 0
37647 -4314 -3253 -2632 -2933 0
3745 -3171 0
4066 4536 3987 -1808 0
6420 4536 -3987 1808 0
8046 4536 -3987 -1808 0
9630 -4536 3987 1808 0
10037 -4536 3987 -1808 0
10272 -4536 -3987 1808 0
10435 -4536 -3987 -1808 0
21450 -2664 0
18050 -1862 0
4650 -2418 0
4524 -1675 0
20735 3957 -2382 0
33930 -3957 2382 0
36004 -3957 -2382 0
32175 3787 1994 -3676 0
2145 3787 -1994 3676 0
32711 3787 -1994 -3676 0
17160 -3787 1994 3676 0
36465 -3787 1994 -3676 0
18447 -3787 -1994 3676 0
36787 -3787 -1994 -3676 0
4066 -3748 0
2850 3454 2144 -4521 0
11400 3454 -2144 4521 0
12540 3454 -2144 -4521 0
13300 -3454 2144 4521 0
14155 -3454 2144 -4521 0
16720 -3454 -2144 4521 0
17062 -3454 -2144 -4521 0
3100 -2667 0
7722 4843 4945 -1827 0
30030 4843 -4945 1827 0
32347 4843 -4945 -1827 0
21450 -4843 4945 1827 0
25311 -4843 4945 -1827 0
36465 -4843 -4945 1827 0
37623 -4843 -4945 -1827 0
38610 2802 2319 -1804 0
10725 2802 -2319 1804 0
39683 2802 -2319 -1804 0
8580 -2802 2319 1804 0
39468 -2802 2319 -1804 0
17160 -2802 -2319 1804 0
40326 -2802 -2319 -1804 0
3424 4330 3670 -3953 0
2675 4330 -3670 3953 0
5243 4330 -3670 -3953 0
8025 -4330 3670 3953 0
8881 -4330 3670 -3953 0
8694 -4330 -3670 3953 0
9336 -4330 -3670 -3953 0
3420 3476 3304 4520 -4813 0
18050 3476 3304 -4520 4813 0
18221 3476 3304 -4520 -4813 0
14250 3476 -3304 4520 4813 0
15105 3476 -3304 4520 -4813 0
18762 3476 -3304 -4520 4813 0
18805 3476 -3304 -4520 -4813 0
7220 -3476 3304 4520 4813 0
9340 -3476 3304 4520 -4813 0
18411 -3476 3304 -4520 4813 0
18517 -3476 3304 -4520 -4813 0
16055 -3476 -3304 4520 4813 0
16585 -3476 -3304 4520 -4813 0
18853 -3476 -3304 -4520 4813 0
18879 -3476 -3304 -4520 -4813 0
14250 -3158 0
17100 -4776 0
9630 2535 3052 4643 -2812 0
1070 2535 3052 -4643 2812 0
9737 2535 3052 -4643 -2812 0
1284 2535 -3052 4643 2812 0
9758 2535 -3052 4643 -2812 0
2226 2535 -3052 -4643 2812 0
9853 2535 -3052 -4643 -2812 0
3210 -2535 3052 4643 2812 0
9951 -2535 3052 4643 -2812 0
3959 -2535 3052 -4643 2812 0
10026 -2535 3052 -4643 -2812 0
4109 -2535 -3052 4643 2812 0
10041 -2535 -3052 4643 -2812 0
4768 -2535 -3052 -4643 2812 0
10107 -2535 -3052 -4643 -2812 0
9095 4046 -2201 0
3210 -4046 2201 0
9577 -4046 -2201 0
14326 -4473 0
1885 -2029 0
6420 1840 4950 -3906 0
7490 1840 -4950 3906 0
9416 1840 -4950 -3906 0
9630 -1840 4950 3906 0
10272 -1840 4950 -3906 0
10379 -1840 -4950 3906 0
10572 -1840 -4950 -3906 0
5148 -2859 0
858 2147 -4027 0
13728 -2147 4027 0
14311 -2147 -4027 0
25740 1520 -1507 0
8580 -1520 1507 0
29172 -1520 -1507 0
17100 2773 4227 -3462 0
11400 2773 -4227 3462 0
18240 2773 -4227 -3462 0
14250 -2773 4227 3462 0
18525 -2773 4227 -3462 0
17100 -2773 -4227 3462 0
18810 -2773 -4227 -3462 0
12064 3083 -4401 0
35815 -3083 4401 0
36418 -3083 -4401 0
24505 3827 -3216 0
18850 -3827 3216 0
31102 -3827 -3216 0
6650 -2960 0
1860 3686 -1739 0
124 -3686 1739 0
1947 -3686 -1739 0
27885 3345 -2183 0
6435 -3345 2183 0
30137 -3345 -2183 0
18850 -3308 0
5890 2087 2386 -2188 0
4030 2087 -2386 2188 0
6091 2087 -2386 -2188 0
1860 -2087 2386 2188 0
5983 -2087 2386 -2188 0
4681 -2087 -2386 2188 0
6124 -2087 -2386 -2188 0
1926 4991 3920 3331 -2539 0
5885 4991 3920 -3331 2539 0
6752 4991 3920 -3331 -2539 0
9630 4991 -3920 3331 2539 0
9823 4991 -3920 3331 -2539 0
10219 4991 -3920 -3331 2539 0
10305 4991 -3920 -3331 -2539 0
3745 -4991 3920 3331 2539 0
4997 -4991 3920 3331 -2539 0
7570 -4991 3920 -3331 2539 0
8134 -4991 3920 -3331 -2539 0
10005 -4991 -3920 3331 2539 0
10130 -4991 -3920 3331 -2539 0
10387 -4991 -3920 -3331 2539 0
10443 -4991 -3920 -3331 -2539 0
15080 -2783 0
1984 3968 -3947 0
2356 -3968 3947 0
3586 -3968 -3947 0
10450 1851 4716 2294 3269 -2762 0
7600 1851 4716 2294 -3269 2762 0
13870 1851 4716 2294 -3269 -2762 0
15200 1851 4716 -2294 3269 2762 0
17290 1851 4716 -2294 3269 -2762 0
16720 1851 4716 -2294 -3269 2762 0
17974 1851 4716 -2294 -3269 -2762 0
9500 1851 -4716 2294 3269 2762 0
14725 1851 -4716 2294 3269 -2762 0
13300 1851 -4716 2294 -3269 2762 0
16435 1851 -4716 2294 -3269 -2762 0
17100 1851 -4716 -2294 3269 2762 0
18145 1851 -4716 -2294 3269 -2762 0
17860 1851 -4716 -2294 -3269 2762 0
18487 1851 -4716 -2294 -3269 -2762 0
3420 -1851 4716 2294 3269 2762 0
11989 -1851 4716 2294 3269 -2762 0
9652 -1851 4716 2294 -3269 2762 0
14793 -1851 4716 2294 -3269 -2762 0
15884 -1851 4716 -2294 3269 2762 0
17598 -1851 4716 -2294 3269 -2762 0
17130 -1851 4716 -2294 -3269 2762 0
18159 -1851 4716 -2294 -3269 -2762 0
11210 -1851 -4716 2294 3269 2762 0
15494 -1851 -4716 2294 3269 -2762 0
14326 -1851 -4716 2294 -3269 2762 0
16897 -1851 -4716 2294 -3269 -2762 0
17442 -1851 -4716 -2294 3269 2762 0
18299 -1851 -4716 -2294 3269 -2762 0
18065 -1851 -4716 -2294 -3269 2762 0
18579 -1851 -4716 -2294 -3269 -2762 0
5885 -1707 0
8025 -4619 0
18050 3517 1657 -2614 0
7600 3517 -1657 2614 0
18430 3517 -1657 -2614 0
3420 -3517 1657 2614 0
18221 -3517 1657 -2614 0
9652 -3517 -1657 2614 0
18533 -3517 -1657 -2614 0
3420 2197 -1843 0
3800 -2197 1843 0
6536 -2197 -1843 0
18850 3962 -3044 0
16965 -3962 3044 0
27332 -3962 -3044 0
3100 -4324 0
3720 1578 -4271 0
620 -1578 4271 0
3968 -1578 -4271 0
2140 5001 -4088 0
214 -5001 4088 0
2311 -5001 -4088 0
22620 2609 2957 -4685 0
7540 2609 -2957 4685 0
25636 2609 -2957 -4685 0
33930 -2609 2957 4685 0
36192 -2609 2957 -4685 0
34684 -2609 -2957 4685 0
36494 -2609 -2957 -4685 0
40755 4349 -2768 0
5148 -4349 2768 0
41012 -4349 -2768 0
7600 -4779 0
4815 3607 -2760 0
3424 -3607 2760 0
6698 -3607 -2760 0
2280 3852 4176 -1649 0
7220 3852 -4176 1649 0
8634 3852 -4176 -1649 0
17100 -3852 4176 1649 0
17328 -3852 4176 -1649 0
17822 -3852 -4176 1649 0
17963 -3852 -4176 -1649 0
15200 4934 4037 2248 -3933 0
16150 4934 4037 -2248 3933 0
18430 4934 4037 -2248 -3933 0
10450 4934 -4037 2248 3933 0
17290 4934 -4037 2248 -3933 0
17718 4934 -4037 -2248 3933 0
18744 4934 -4037 -2248 -3933 0
10450 -4934 4037 2248 3933 0
17290 -4934 4037 2248 -3933 0
17718 -4934 4037 -2248 3933 0
18744 -4934 4037 -2248 -3933 0
15153 -4934 -4037 2248 3933 0
18231 -4934 -4037 2248 -3933 0
18423 -4934 -4037 -2248 3933 0
18885 -4934 -4037 -2248 -3933 0
21450 -4785 0
3420 3914 4323 -2039 0
9500 3914 -4323 2039 0
11210 3914 -4323 -2039 0
9500 -3914 4323 2039 0
11210 -3914 4323 -2039 0
14250 -3914 -4323 2039 0
15105 -3914 -4323 -2039 0
2675 3927 3775 1528 -2956 0
4066 3927 3775 -1528 2956 0
5725 3927 3775 -1528 -2956 0
1605 3927 -3775 1528 2956 0
3879 3927 -3775 1528 -2956 0
5061 3927 -3775 -1528 2956 0
6471 3927 -3775 -1528 -2956 0
10165 -3927 3775 1528 2956 0
10299 -3927 3775 1528 -2956 0
10368 -3927 3775 -1528 2956 0
10451 -3927 3775 -1528 -2956 0
10245 -3927 -3775 1528 2956 0
10359 -3927 -3775 1528 -2956 0
10418 -3927 -3775 -1528 2956 0
10489 -3927 -3775 -1528 -2956 0
16302 2107 3684 5080 3772 -3943 0
7722 2107 3684 5080 -3772 3943 0
21090 2107 3684 5080 -3772 -3943 0
15015 2107 3684 -5080 3772 3943 0
25611 2107 3684 -5080 3772 -3943 0
20034 2107 3684 -5080 -3772 3943 0
28723 2107 3684 -5080 -3772 -3943 0
23595 2107 -3684 5080 3772 3943 0
30931 2107 -3684 5080 3772 -3943 0
27070 2107 -3684 5080 -3772 3943 0
33085 2107 -3684 5080 -3772 -3943 0
30352 2107 -3684 -5080 3772 3943 0
35120 2107 -3684 -5080 3772 -3943 0
32610 2107 -3684 -5080 -3772 3943 0
36520 2107 -3684 -5080 -3772 -3943 0
38610 -2107 3684 5080 3772 3943 0
40240 -2107 3684 5080 3772 -3943 0
39382 -2107 3684 5080 -3772 3943 0
40719 -2107 3684 5080 -3772 -3943 0
40112 -2107 3684 -5080 3772 3943 0
41171 -2107 3684 -5080 3772 -3943 0
40613 -2107 3684 -5080 -3772 3943 0
41482 -2107 3684 -5080 -3772 -3943 0
40970 -2107 -3684 5080 3772 3943 0
41703 -2107 -3684 5080 3772 -3943 0
41317 -2107 -3684 5080 -3772 3943 0
41919 -2107 -3684 5080 -3772 -3943 0
41645 -2107 -3684 -5080 3772 3943 0
42122 -2107 -3684 -5080 3772 -3943 0
41871 -2107 -3684 -5080 -3772 3943 0
42262 -2107 -3684 -5080 -3772 -3943 0
1116 4649 2169 -4784 0
3720 4649 -2169 4784 0
4166 4649 -2169 -4784 0
2170 -4649 2169 4784 0
2895 -4649 2169 -4784 0
4588 -4649 -2169 4784 0
4878 -4649 -2169 -4784 0
6080 3794 -2277 0
10450 -3794 2277 0
13186 -3794 -2277 0
5885 -4156 0
1240 1902 -4708 0
4960 -1902 4708 0
5208 -1902 -4708 0
3420 -5067 0
3424 2422 1548 3118 -4380 0
1926 2422 1548 -3118 4380 0
4734 2422 1548 -3118 -4380 0
4280 2422 -1548 3118 4380 0
6334 2422 -1548 3118 -4380 0
5436 2422 -1548 -3118 4380 0
7120 2422 -1548 -3118 -4380 0
9095 -2422 1548 3118 4380 0
9609 -2422 1548 3118 -4380 0
9384 -2422 1548 -3118 4380 0
9805 -2422 1548 -3118 -4380 0
9737 -2422 -1548 3118 4380 0
10045 -2422 -1548 3118 -4380 0
9910 -2422 -1548 -3118 4380 0
10163 -2422 -1548 -3118 -4380 0
4524 3996 1631 -4264 0
9425 3996 -1631 4264 0
12818 3996 -1631 -4264 0
11310 -3996 1631 4264 0
14477 -3996 1631 -4264 0
17908 -3996 -1631 4264 0
20283 -3996 -1631 -4264 0
4524 3115 4748 -1501 0
15080 3115 -4748 1501 0
17794 3115 -4748 -1501 0
30160 -3115 4748 1501 0
31065 -3115 4748 -1501 0
33176 -3115 -4748 1501 0
33719 -3115 -4748 -1501 0
32045 4756 -2552 0
12064 -4756 2552 0
33855 -4756 -2552 0
2356 2827 -2991 0
5270 -2827 2991 0
5623 -2827 -2991 0
3210 -2605 0
4750 4491 3638 3873 3568 -2649 0
3420 4491 3638 3873 -3568 2649 0
7315 4491 3638 3873 -3568 -2649 0
18050 4491 3638 -3873 3568 2649 0
18287 4491 3638 -3873 3568 -2649 0
18221 4491 3638 -3873 -3568 2649 0
18416 4491 3638 -3873 -3568 -2649 0
8550 4491 -3638 3873 3568 2649 0
11162 4491 -3638 3873 3568 -2649 0
10431 4491 -3638 3873 -3568 2649 0
12573 4491 -3638 3873 -3568 -2649 0
18477 4491 -3638 -3873 3568 2649 0
18608 4491 -3638 -3873 3568 -2649 0
18572 4491 -3638 -3873 -3568 2649 0
18679 4491 -3638 -3873 -3568 -2649 0
18050 -4491 3638 3873 3568 2649 0
18287 -4491 3638 3873 3568 -2649 0
18221 -4491 3638 3873 -3568 2649 0
18416 -4491 3638 3873 -3568 -2649 0
18952 -4491 3638 -3873 3568 2649 0
18964 -4491 3638 -3873 3568 -2649 0
18961 -4491 3638 -3873 -3568 2649 0
18971 -4491 3638 -3873 -3568 -2649 0
18477 -4491 -3638 3873 3568 2649 0
18608 -4491 -3638 3873 3568 -2649 0
18572 -4491 -3638 3873 -3568 2649 0
18679 -4491 -3638 3873 -3568 -2649 0
18974 -4491 -3638 -3873 3568 2649 0
18980 -4491 -3638 -3873 3568 -2649 0
18979 -4491 -3638 -3873 -3568 2649 0
18984 -4491 -3638 -3873 -3568 -2649 0
3424 3885 4608 2018 -4829 0
4815 3885 4608 -2018 4829 0
6698 3885 4608 -2018 -4829 0
9095 3885 -4608 2018 4829 0
9609 3885 -4608 2018 -4829 0
9817 3885 -4608 -2018 4829 0
10100 3885 -4608 -2018 -4829 0
535 -3885 4608 2018 4829 0
3788 -3885 4608 2018 -4829 0
5109 -3885 4608 -2018 4829 0
6898 -3885 4608 -2018 -4829 0
9175 -3885 -4608 2018 4829 0
9663 -3885 -4608 2018 -4829 0
9861 -3885 -4608 -2018 4829 0
10130 -3885 -4608 -2018 -4829 0
15015 1589 1761 -1937 0
10725 1589 -1761 1937 0
21986 1589 -1761 -1937 0
17160 -1589 1761 1937 0
26169 -1589 1761 -1937 0
23595 -1589 -1761 1937 0
30352 -1589 -1761 -1937 0
33930 2845 -3789 0
11310 -2845 3789 0
35061 -2845 -3789 0
2790 -2224 0
2145 1724 3349 2082 -1558 0
5148 1724 3349 -2082 1558 0
7036 1724 3349 -2082 -1558 0
30030 1724 -3349 2082 1558 0
30674 1724 -3349 2082 -1558 0
31574 1724 -3349 -2082 1558 0
32141 1724 -3349 -2082 -1558 0
23595 -1724 3349 2082 1558 0
24560 -1724 3349 2082 -1558 0
25912 -1724 3349 -2082 1558 0
26761 -1724 3349 -2082 -1558 0
37108 -1724 -3349 2082 1558 0
37398 -1724 -3349 2082 -1558 0
37803 -1724 -3349 -2082 1558 0
38058 -1724 -3349 -2082 -1558 0
13195 4245 3366 -2697 0
7540 4245 -3366 2697 0
18096 4245 -3366 -2697 0
1885 -4245 3366 2697 0
14420 -4245 3366 -2697 0
9048 -4245 -3366 2697 0
19076 -4245 -3366 -2697 0
33930 1662 3210 -2725 0
26390 1662 -3210 2725 0
36569 1662 -3210 -2725 0
3770 -1662 3210 2725 0
34307 -1662 3210 -2725 0
27521 -1662 -3210 2725 0
36682 -1662 -3210 -2725 0
2480 3263 4715 -1917 0
2170 3263 -4715 1917 0
3782 3263 -4715 -1917 0
1550 -3263 4715 1917 0
3410 -3263 4715 -1917 0
3177 -3263 -4715 1917 0
4387 -3263 -4715 -1917 0
6786 3628 -2506 0
4524 -3628 2506 0
10496 -3628 -2506 0
3424 3157 3335 4065 -4499 0
5350 3157 3335 -4065 4499 0
7062 3157 3335 -4065 -4499 0
1926 3157 -3335 4065 4499 0
4734 3157 -3335 4065 -4499 0
6313 3157 -3335 -4065 4499 0
7717 3157 -3335 -4065 -4499 0
3745 -3157 3335 4065 4499 0
5971 -3157 3335 4065 -4499 0
7223 -3157 3335 -4065 4499 0
8335 -3157 3335 -4065 -4499 0
4997 -3157 -3335 4065 4499 0
6822 -3157 -3335 4065 -4499 0
7848 -3157 -3335 -4065 4499 0
8761 -3157 -3335 -4065 -4499 0
5350 3132 -1648 0
6955 -3132 1648 0
8827 -3132 -1648 0
4960 -4967 0
16965 -4760 0
7220 3094 -3112 0
380 -3094 3112 0
7456 -3094 -3112 0
7600 1682 -3648 0
18050 -1682 3648 0
18430 -1682 -3648 0
22620 3034 2218 -4262 0
28275 3034 -2218 4262 0
33930 3034 -2218 -4262 0
1885 -3034 2218 4262 0
23374 -3034 2218 -4262 0
28746 -3034 -2218 4262 0
34119 -3034 -2218 -4262 0
6955 2751 3950 -3105 0
6420 2751 -3950 3105 0
9202 2751 -3950 -3105 0
7490 -2751 3950 3105 0
9577 -2751 3950 -3105 0
9416 -2751 -3950 3105 0
10251 -2751 -3950 -3105 0
2145 3413 2967 3872 2531 2448 5096 -3256 0
38610 3413 2967 3872 2531 2448 -5096 3256 0
38825 3413 2967 3872 2531 2448 -5096 -3256 0
12870 3413 2967 3872 2531 -2448 5096 3256 0
14372 3413 2967 3872 2531 -2448 5096 -3256 0
39897 3413 2967 3872 2531 -2448 -5096 3256 0
40047 3413 2967 3872 2531 -2448 -5096 -3256 0
34320 3413 2967 3872 -2531 2448 5096 3256 0
34749 3413 2967 3872 -2531 2448 5096 -3256 0
42042 3413 2967 3872 -2531 2448 -5096 3256 0
42085 3413 2967 3872 -2531 2448 -5096 -3256 0
36894 3413 2967 3872 -2531 -2448 5096 3256 0
37194 3413 2967 3872 -2531 -2448 5096 -3256 0
42299 3413 2967 3872 -2531 -2448 -5096 3256 0
42329 3413 2967 3872 -2531 -2448 -5096 -3256 0
12870 3413 2967 -3872 2531 2448 5096 3256 0
14372 3413 2967 -3872 2531 2448 5096 -3256 0
39897 3413 2967 -3872 2531 2448 -5096 3256 0
40047 3413 2967 -3872 2531 2448 -5096 -3256 0
21879 3413 2967 -3872 2531 -2448 5096 3256 0
22930 3413 2967 -3872 2531 -2448 5096 -3256 0
40798 3413 2967 -3872 2531 -2448 -5096 3256 0
40903 3413 2967 -3872 2531 -2448 -5096 -3256 0
36894 3413 2967 -3872 -2531 2448 5096 3256 0
37194 3413 2967 -3872 -2531 2448 5096 -3256 0
42299 3413 2967 -3872 -2531 2448 -5096 3256 0
42329 3413 2967 -3872 -2531 2448 -5096 -3256 0
38696 3413 2967 -3872 -2531 -2448 5096 3256 0
38906 3413 2967 -3872 -2531 -2448 5096 -3256 0
42480 3413 2967 -3872 -2531 -2448 -5096 3256 0
42501 3413 2967 -3872 -2531 -2448 -5096 -3256 0
27885 3413 -2967 3872 2531 2448 5096 3256 0
28636 3413 -2967 3872 2531 2448 5096 -3256 0
41399 3413 -2967 3872 2531 2448 -5096 3256 0
41474 3413 -2967 3872 2531 2448 -5096 -3256 0
32389 3413 -2967 3872 2531 -2448 5096 3256 0
32915 3413 -2967 3872 2531 -2448 5096 -3256 0
41849 3413 -2967 3872 2531 -2448 -5096 3256 0
41902 3413 -2967 3872 2531 -2448 -5096 -3256 0
39897 3413 -2967 3872 -2531 2448 5096 3256 0
40047 3413 -2967 3872 -2531 2448 5096 -3256 0
42600 3413 -2967 3872 -2531 2448 -5096 3256 0
42615 3413 -2967 3872 -2531 2448 -5096 -3256 0
40798 3413 -2967 3872 -2531 -2448 5096 3256 0
40903 3413 -2967 3872 -2531 -2448 5096 -3256 0
42690 3413 -2967 3872 -2531 -2448 -5096 3256 0
42700 3413 -2967 3872 -2531 -2448 -5096 -3256 0
32389 3413 -2967 -3872 2531 2448 5096 3256 0
32915 3413 -2967 -3872 2531 2448 5096 -3256 0
41849 3413 -2967 -3872 2531 2448 -5096 3256 0
41902 3413 -2967 -3872 2531 2448 -5096 -3256 0
35543 3413 -2967 -3872 2531 -2448 5096 3256 0
35911 3413 -2967 -3872 2531 -2448 5096 -3256 0
42164 3413 -2967 -3872 2531 -2448 -5096 3256 0
42201 3413 -2967 -3872 2531 -2448 -5096 -3256 0
40798 3413 -2967 -3872 -2531 2448 5096 3256 0
40903 3413 -2967 -3872 -2531 2448 5096 -3256 0
42690 3413 -2967 -3872 -2531 2448 -5096 3256 0
42700 3413 -2967 -3872 -2531 2448 -5096 -3256 0
41429 3413 -2967 -3872 -2531 -2448 5096 3256 0
41502 3413 -2967 -3872 -2531 -2448 5096 -3256 0
42753 3413 -2967 -3872 -2531 -2448 -5096 3256 0
42760 3413 -2967 -3872 -2531 -2448 -5096 -3256 0
23595 -3413 2967 3872 2531 2448 5096 3256 0
24560 -3413 2967 3872 2531 2448 5096 -3256 0
40970 -3413 2967 3872 2531 2448 -5096 3256 0
41066 -3413 2967 3872 2531 2448 -5096 -3256 0
29387 -3413 2967 3872 2531 -2448 5096 3256 0
30062 -3413 2967 3872 2531 -2448 5096 -3256 0
41549 -3413 2967 3872 2531 -2448 -5096 3256 0
41616 -3413 2967 3872 2531 -2448 -5096 -3256 0
39039 -3413 2967 3872 -2531 2448 5096 3256 0
39232 -3413 2967 3872 -2531 2448 5096 -3256 0
42514 -3413 2967 3872 -2531 2448 -5096 3256 0
42533 -3413 2967 3872 -2531 2448 -5096 -3256 0
40197 -3413 2967 3872 -2531 -2448 5096 3256 0
40332 -3413 2967 3872 -2531 -2448 5096 -3256 0
42630 -3413 2967 3872 -2531 -2448 -5096 3256 0
42643 -3413 2967 3872 -2531 -2448 -5096 -3256 0
29387 -3413 2967 -3872 2531 2448 5096 3256 0
30062 -3413 2967 -3872 2531 2448 5096 -3256 0
41549 -3413 2967 -3872 2531 2448 -5096 3256 0
41616 -3413 2967 -3872 2531 2448 -5096 -3256 0
33441 -3413 2967 -3872 2531 -2448 5096 3256 0
33914 -3413 2967 -3872 2531 -2448 5096 -3256 0
41954 -3413 2967 -3872 2531 -2448 -5096 3256 0
42001 -3413 2967 -3872 2531 -2448 -5096 -3256 0
40197 -3413 2967 -3872 -2531 2448 5096 3256 0
40332 -3413 2967 -3872 -2531 2448 5096 -3256 0
42630 -3413 2967 -3872 -2531 2448 -5096 3256 0
42643 -3413 2967 -3872 -2531 2448 -5096 -3256 0
41008 -3413 2967 -3872 -2531 -2448 5096 3256 0
41103 -3413 2967 -3872 -2531 -2448 5096 -3256 0
42711 -3413 2967 -3872 -2531 -2448 -5096 3256 0
42720 -3413 2967 -3872 -2531 -2448 -5096 -3256 0
36143 -3413 -2967 3872 2531 2448 5096 3256 0
36481 -3413 -2967 3872 2531 2448 5096 -3256 0
42224 -3413 -2967 3872 2531 2448 -5096 3256 0
42258 -3413 -2967 3872 2531 2448 -5096 -3256 0
38170 -3413 -2967 3872 2531 -2448 5096 3256 0
38407 -3413 -2967 3872 2531 -2448 5096 -3256 0
42427 -3413 -2967 3872 2531 -2448 -5096 3256 0
42451 -3413 -2967 3872 2531 -2448 -5096 -3256 0
41549 -3413 -2967 3872 -2531 2448 5096 3256 0
41616 -3413 -2967 3872 -2531 2448 5096 -3256 0
42765 -3413 -2967 3872 -2531 2448 -5096 3256 0
42772 -3413 -2967 3872 -2531 2448 -5096 -3256 0
41954 -3413 -2967 3872 -2531 -2448 5096 3256 0
42001 -3413 -2967 3872 -2531 -2448 5096 -3256 0
42805 -3413 -2967 3872 -2531 -2448 -5096 3256 0
42810 -3413 -2967 3872 -2531 -2448 -5096 -3256 0
38170 -3413 -2967 -3872 2531 2448 5096 3256 0
38407 -3413 -2967 -3872 2531 2448 5096 -3256 0
42427 -3413 -2967 -3872 2531 2448 -5096 3256 0
42451 -3413 -2967 -3872 2531 2448 -5096 -3256 0
39589 -3413 -2967 -3872 2531 -2448 5096 3256 0
39755 -3413 -2967 -3872 2531 -2448 5096 -3256 0
42569 -3413 -2967 -3872 2531 -2448 -5096 3256 0
42585 -3413 -2967 -3872 2531 -2448 -5096 -3256 0
41954 -3413 -2967 -3872 -2531 2448 5096 3256 0
42001 -3413 -2967 -3872 -2531 2448 5096 -3256 0
42805 -3413 -2967 -3872 -2531 2448 -5096 3256 0
42810 -3413 -2967 -3872 -2531 2448 -5096 -3256 0
42238 -3413 -2967 -3872 -2531 -2448 5096 3256 0
42271 -3413 -2967 -3872 -2531 -2448 5096 -3256 0
42834 -3413 -2967 -3872 -2531 -2448 -5096 3256 0
42837 -3413 -2967 -3872 -2531 -2448 -5096 -3256 0
13728 3909 -2117 0
2145 -3909 2117 0
15187 -3909 -2117 0
5350 2291 -4803 0
2675 -2291 4803 0
6688 -2291 -4803 0
30030 4585 -4852 0
16302 -4585 4852 0
34921 -4585 -4852 0
19305 1979 2995 4622 1803 -2279 0
30030 1979 2995 4622 -1803 2279 0
35821 1979 2995 4622 -1803 -2279 0
27885 1979 2995 -4622 1803 2279 0
34642 1979 2995 -4622 1803 -2279 0
38395 1979 2995 -4622 -1803 2279 0
40423 1979 2995 -4622 -1803 -2279 0
23595 1979 -2995 4622 1803 2279 0
32282 1979 -2995 4622 1803 -2279 0
37108 1979 -2995 4622 -1803 2279 0
39715 1979 -2995 4622 -1803 -2279 0
36143 1979 -2995 -4622 1803 2279 0
39184 1979 -2995 -4622 1803 -2279 0
40873 1979 -2995 -4622 -1803 2279 0
41785 1979 -2995 -4622 -1803 -2279 0
17160 -1979 2995 4622 1803 2279 0
28743 -1979 2995 4622 1803 -2279 0
35178 -1979 2995 4622 -1803 2279 0
38653 -1979 2995 4622 -1803 -2279 0
33891 -1979 2995 -4622 1803 2279 0
37945 -1979 2995 -4622 1803 -2279 0
40197 -1979 2995 -4622 -1803 2279 0
41414 -1979 2995 -4622 -1803 -2279 0
31317 -1979 -2995 4622 1803 2279 0
36529 -1979 -2995 4622 1803 -2279 0
39425 -1979 -2995 4622 -1803 2279 0
40989 -1979 -2995 4622 -1803 -2279 0
38846 -1979 -2995 -4622 1803 2279 0
40670 -1979 -2995 -4622 1803 -2279 0
41684 -1979 -2995 -4622 -1803 2279 0
42231 -1979 -2995 -4622 -1803 -2279 0
7600 2205 -3391 0
8550 -2205 3391 0
12730 -2205 -3391 0
8580 -4752 0
3410 4821 2304 2083 -1824 0
1984 4821 2304 -2083 1824 0
4303 4821 2304 -2083 -1824 0
1984 4821 -2304 2083 1824 0
4303 4821 -2304 2083 -1824 0
3333 4821 -2304 -2083 1824 0
4910 4821 -2304 -2083 -1824 0
5270 -4821 2304 2083 1824 0
5781 -4821 2304 2083 -1824 0
5568 -4821 2304 -2083 1824 0
5915 -4821 2304 -2083 -1824 0
5568 -4821 -2304 2083 1824 0
5915 -4821 -2304 2083 -1824 0
5770 -4821 -2304 -2083 1824 0
6006 -4821 -2304 -2083 -1824 0
12064 1814 -2685 0
26390 -1814 2685 0
30009 -1814 -2685 0
380 1812 -4551 0
16150 -1812 4551 0
16207 -1812 -4551 0
5580 1858 -2356 0
744 -1858 2356 0
5654 -1858 -2356 0
1900 3211 -1881 0
13300 -3211 1881 0
13870 -3211 -1881 0
18050 2265 -1532 0
4750 -2265 1532 0
18287 -2265 -1532 0
3800 2121 3209 -2498 0
380 2121 -3209 2498 0
4104 2121 -3209 -2498 0
16150 -2121 3209 2498 0
16720 -2121 3209 -2498 0
16207 -2121 -3209 2498 0
16766 -2121 -3209 -2498 0
3424 -4329 0
9425 4358 4502 -4674 0
33930 4358 -4502 4674 0
34873 4358 -4502 -4674 0
9425 -4358 4502 4674 0
16494 -4358 4502 -4674 0
34873 -4358 -4502 4674 0
35579 -4358 -4502 -4674 0
8025 2542 4485 -5046 0
535 2542 -4485 5046 0
8159 2542 -4485 -5046 0
4066 -2542 4485 5046 0
9041 -2542 4485 -5046 0
4398 -2542 -4485 5046 0
9124 -2542 -4485 -5046 0
1900 -4048 0
6650 4688 3721 4293 -1911 0
3420 4688 3721 -4293 1911 0
8873 4688 3721 -4293 -1911 0
17100 4688 -3721 4293 1911 0
17765 4688 -3721 4293 -1911 0
17442 4688 -3721 -4293 1911 0
17987 4688 -3721 -4293 -1911 0
17100 -4688 3721 4293 1911 0
17765 -4688 3721 4293 -1911 0
17442 -4688 3721 -4293 1911 0
17987 -4688 3721 -4293 -1911 0
18810 -4688 -3721 4293 1911 0
18877 -4688 -3721 4293 -1911 0
18844 -4688 -3721 -4293 1911 0
18899 -4688 -3721 -4293 -1911 0
15080 3127 4964 -2281 0
4524 3127 -4964 2281 0
17794 3127 -4964 -2281 0
26390 -3127 4964 2281 0
30914 -3127 4964 -2281 0
27747 -3127 -4964 2281 0
31728 -3127 -4964 -2281 0
7600 -2103 0
2356 4742 -3690 0
3720 -4742 3690 0
4662 -4742 -3690 0
6955 3346 -4977 0
8560 -3346 4977 0
9951 -3346 -4977 0
4030 3373 2052 -2679 0
4650 3373 -2052 2679 0
5657 3373 -2052 -2679 0
2790 -3373 2052 2679 0
5006 -3373 2052 -2679 0
5348 -3373 -2052 2679 0
5902 -3373 -2052 -2679 0
38610 3645 -2795 0
10725 -3645 2795 0
39683 -3645 -2795 0
1860 -3751 0
28275 1686 -2100 0
15080 -1686 2100 0
32045 -1686 -2100 0
7220 2774 4154 2280 -3465 0
7600 2774 4154 -2280 3465 0
11932 2774 4154 -2280 -3465 0
12350 2774 -4154 2280 3465 0
14877 2774 -4154 2280 -3465 0
15010 2774 -4154 -2280 3465 0
16526 2774 -4154 -2280 -3465 0
14250 -2774 4154 2280 3465 0
16055 -2774 4154 2280 -3465 0
16150 -2774 4154 -2280 3465 0
17233 -2774 4154 -2280 -3465 0
17338 -2774 -4154 2280 3465 0
17969 -2774 -4154 2280 -3465 0
18003 -2774 -4154 -2280 3465 0
18382 -2774 -4154 -2280 -3465 0
1885 2036 -4123 0
5655 -2036 4123 0
7257 -2036 -4123 0
7490 1888 -4820 0
4280 -1888 4820 0
8774 -1888 -4820 0
1284 3326 1897 -2441 0
6955 3326 -1897 2441 0
7404 3326 -1897 -2441 0
3745 -3326 1897 2441 0
4580 -3326 1897 -2441 0
8266 -3326 -1897 2441 0
8558 -3326 -1897 -2441 0
11310 -3478 0
5270 3606 -2750 0
3720 -3606 2750 0
5828 -3606 -2750 0
10725 3154 -1646 0
15015 -3154 1646 0
21986 -3154 -1646 0
2356 1859 3905 -1771 0
930 1859 -3905 1771 0
2933 1859 -3905 -1771 0
3410 -1859 3905 1771 0
4470 -1859 3905 -1771 0
3829 -1859 -3905 1771 0
4730 -1859 -3905 -1771 0
14250 -2637 0
12350 2583 -2796 0
8550 -2583 2796 0
15343 -2583 -2796 0
9425 2392 1660 -1864 0
30160 2392 -1660 1864 0
32045 2392 -1660 -1864 0
22620 -2392 1660 1864 0
26390 -2392 1660 -1864 0
34684 -2392 -1660 1864 0
35438 -2392 -1660 -1864 0
6955 4391 3002 -4277 0
1070 4391 -3002 4277 0
7330 4391 -3002 -4277 0
1284 -4391 3002 4277 0
7404 -4391 3002 -4277 0
2226 -4391 -3002 4277 0
7734 -4391 -3002 -4277 0
14326 4200 2935 3504 -3936 0
33930 4200 2935 -3504 3936 0
35363 4200 2935 -3504 -3936 0
12064 4200 -2935 3504 3936 0
21806 4200 -2935 3504 -3936 0
35136 4200 -2935 -3504 3936 0
36111 4200 -2935 -3504 -3936 0
5655 -4200 2935 3504 3936 0
17832 -4200 2935 3504 -3936 0
34496 -4200 2935 -3504 3936 0
35713 -4200 2935 -3504 -3936 0
15909 -4200 -2935 3504 3936 0
24190 -4200 -2935 3504 -3936 0
35521 -4200 -2935 -3504 3936 0
36349 -4200 -2935 -3504 -3936 0
8025 4982 -4937 0
2140 -4982 4937 0
8560 -4982 -4937 0
6080 2166 2818 -4753 0
15200 2166 -2818 4753 0
16416 2166 -2818 -4753 0
5700 -2166 2818 4753 0
9956 -2166 2818 -4753 0
16340 -2166 -2818 4753 0
17191 -2166 -2818 -4753 0
2170 4586 3779 4431 1611 2243 -4206 0
4960 4586 3779 4431 1611 -2243 4206 0
5394 4586 3779 4431 1611 -2243 -4206 0
2356 4586 3779 4431 -1611 2243 4206 0
3701 4586 3779 4431 -1611 2243 -4206 0
5431 4586 3779 4431 -1611 -2243 4206 0
5700 4586 3779 4431 -1611 -2243 -4206 0
4340 4586 3779 -4431 1611 2243 4206 0
4991 4586 3779 -4431 1611 2243 -4206 0
5828 4586 3779 -4431 1611 -2243 4206 0
5958 4586 3779 -4431 1611 -2243 -4206 0
5047 4586 3779 -4431 -1611 2243 4206 0
5450 4586 3779 -4431 -1611 2243 -4206 0
5969 4586 3779 -4431 -1611 -2243 4206 0
6050 4586 3779 -4431 -1611 -2243 -4206 0
5890 4586 -3779 4431 1611 2243 4206 0
5998 4586 -3779 4431 1611 2243 -4206 0
6138 4586 -3779 4431 1611 -2243 4206 0
6160 4586 -3779 4431 1611 -2243 -4206 0
6008 4586 -3779 4431 -1611 2243 4206 0
6075 4586 -3779 4431 -1611 2243 -4206 0
6162 4586 -3779 4431 -1611 -2243 4206 0
6175 4586 -3779 4431 -1611 -2243 -4206 0
6107 4586 -3779 -4431 1611 2243 4206 0
6140 4586 -3779 -4431 1611 2243 -4206 0
6181 4586 -3779 -4431 1611 -2243 4206 0
6188 4586 -3779 -4431 1611 -2243 -4206 0
6142 4586 -3779 -4431 -1611 2243 4206 0
6163 4586 -3779 -4431 -1611 2243 -4206 0
6188 4586 -3779 -4431 -1611 -2243 4206 0
6193 4586 -3779 -4431 -1611 -2243 -4206 0
4960 -4586 3779 4431 1611 2243 4206 0
5394 -4586 3779 4431 1611 2243 -4206 0
5952 -4586 3779 4431 1611 -2243 4206 0
6039 -4586 3779 4431 1611 -2243 -4206 0
5431 -4586 3779 4431 -1611 2243 4206 0
5700 -4586 3779 4431 -1611 2243 -4206 0
6046 -4586 3779 4431 -1611 -2243 4206 0
6100 -4586 3779 4431 -1611 -2243 -4206 0
5828 -4586 3779 -4431 1611 2243 4206 0
5958 -4586 3779 -4431 1611 2243 -4206 0
6126 -4586 3779 -4431 1611 -2243 4206 0
6152 -4586 3779 -4431 1611 -2243 -4206 0
5969 -4586 3779 -4431 -1611 2243 4206 0
6050 -4586 3779 -4431 -1611 2243 -4206 0
6154 -4586 3779 -4431 -1611 -2243 4206 0
6170 -4586 3779 -4431 -1611 -2243 -4206 0
6138 -4586 -3779 4431 1611 2243 4206 0
6160 -4586 -3779 4431 1611 2243 -4206 0
6188 -4586 -3779 4431 1611 -2243 4206 0
6192 -4586 -3779 4431 1611 -2243 -4206 0
6162 -4586 -3779 4431 -1611 2243 4206 0
6175 -4586 -3779 4431 -1611 2243 -4206 0
6192 -4586 -3779 4431 -1611 -2243 4206 0
6195 -4586 -3779 4431 -1611 -2243 -4206 0
6181 -4586 -3779 -4431 1611 2243 4206 0
6188 -4586 -3779 -4431 1611 2243 -4206 0
6196 -4586 -3779 -4431 1611 -2243 4206 0
6198 -4586 -3779 -4431 1611 -2243 -4206 0
6188 -4586 -3779 -4431 -1611 2243 4206 0
6193 -4586 -3779 -4431 -1611 2243 -4206 0
6198 -4586 -3779 -4431 -1611 -2243 4206 0
6199 -4586 -3779 -4431 -1611 -2243 -4206 0
5270 -2301 0
310 3930 -1784 0
2790 -3930 1784 0
2961 -3930 -1784 0
14326 -1568 0
25740 2698 3682 -4567 0
36465 2698 -3682 4567 0
40326 2698 -3682 -4567 0
27885 -2698 3682 4567 0
36894 -2698 3682 -4567 0
40648 -2698 -3682 4567 0
41999 -2698 -3682 -4567 0
13195 3824 -1866 0
22620 -3824 1866 0
27898 -3824 -1866 0
3424 3997 2619 -3086 0
6420 3997 -2619 3086 0
7790 3997 -2619 -3086 0
4815 -3997 2619 3086 0
6698 -3997 2619 -3086 0
8346 -3997 -2619 3086 0
9099 -3997 -2619 -3086 0
5890 4296 3895 -2799 0
4960 4296 -3895 2799 0
6138 4296 -3895 -2799 0
3720 -4296 3895 2799 0
6076 -4296 3895 -2799 0
5704 -4296 -3895 2799 0
6175 -4296 -3895 -2799 0
15015 5063 4787 4066 -2618 0
40755 5063 4787 -4066 2618 0
41506 5063 4787 -4066 -2618 0
38610 5063 -4787 4066 2618 0
40112 5063 -4787 4066 -2618 0
42686 5063 -4787 -4066 2618 0
42761 5063 -4787 -4066 -2618 0
13728 -5063 4787 4066 2618 0
23938 -5063 4787 4066 -2618 0
41441 -5063 4787 -4066 2618 0
41952 -5063 4787 -4066 -2618 0
39983 -5063 -4787 4066 2618 0
41004 -5063 -4787 4066 -2618 0
42754 -5063 -4787 -4066 2618 0
42805 -5063 -4787 -4066 -2618 0
2145 -4495 0
4524 -4773 0
3745 -4819 0
4650 4965 -2683 0
124 -4965 2683 0
4681 -4965 -2683 0
6420 -3888 0
13195 4392 -3729 0
9425 -4392 3729 0
19321 -4392 -3729 0
754 2578 2177 3807 -2430 0
754 2578 2177 -3807 2430 0
1493 2578 2177 -3807 -2430 0
20735 2578 -2177 3807 2430 0
21074 2578 -2177 3807 -2430 0
21074 2578 -2177 -3807 2430 0
21407 2578 -2177 -3807 -2430 0
33930 -2578 2177 3807 2430 0
34005 -2578 2177 3807 -2430 0
34005 -2578 2177 -3807 2430 0
34079 -2578 2177 -3807 -2430 0
36004 -2578 -2177 3807 2430 0
36037 -2578 -2177 3807 -2430 0
36037 -2578 -2177 -3807 2430 0
36071 -2578 -2177 -3807 -2430 0
1070 -3412 0
32045 -2808 0
18050 2211 -5082 0
2850 -2211 5082 0
18193 -2211 -5082 0
38610 3776 2298 -3161 0
25740 3776 -2298 3161 0
41184 3776 -2298 -3161 0
34320 -3776 2298 3161 0
42042 -3776 2298 -3161 0
39468 -3776 -2298 3161 0
42557 -3776 -2298 -3161 0
5885 3665 -1894 0
5885 -3665 1894 0
8533 -3665 -1894 0
8025 2252 -3524 0
3745 -2252 3524 0
8961 -2252 -3524 0
1605 4428 -5078 0
3745 -4428 5078 0
4788 -4428 -5078 0
3770 1688 3107 2776 -2411 0
22620 1688 3107 -2776 2411 0
24128 1688 3107 -2776 -2411 0
12064 1688 -3107 2776 2411 0
14628 1688 -3107 2776 -2411 0
27446 1688 -3107 -2776 2411 0
28471 1688 -3107 -2776 -2411 0
16965 -1688 3107 2776 2411 0
19038 -1688 3107 2776 -2411 0
29406 -1688 3107 -2776 2411 0
30235 -1688 3107 -2776 -2411 0
23600 -1688 -3107 2776 2411 0
25010 -1688 -3107 2776 -2411 0
32060 -1688 -3107 -2776 2411 0
32624 -1688 -3107 -2776 -2411 0
310 4709 2918 -5009 0
930 4709 -2918 5009 0
1194 4709 -2918 -5009 0
620 -4709 2918 5009 0
899 -4709 2918 -5009 0
1457 -4709 -2918 5009 0
1694 -4709 -2918 -5009 0
19305 3727 -2073 0
30030 -3727 2073 0
35821 -3727 -2073 0
7490 4468 2794 1820 -1663 0
1926 4468 2794 -1820 1663 0
8068 4468 2794 -1820 -1663 0
3424 4468 -2794 1820 1663 0
8517 4468 -2794 1820 -1663 0
4734 4468 -2794 -1820 1663 0
8910 4468 -2794 -1820 -1663 0
4815 -4468 2794 1820 1663 0
8934 -4468 2794 1820 -1663 0
5874 -4468 2794 -1820 1663 0
9252 -4468 2794 -1820 -1663 0
6698 -4468 -2794 1820 1663 0
9499 -4468 -2794 1820 -1663 0
7419 -4468 -2794 -1820 1663 0
9716 -4468 -2794 -1820 -1663 0
11310 4061 3039 -3737 0
26390 4061 -3039 3737 0
29783 4061 -3039 -3737 0
9425 -4061 3039 3737 0
17908 -4061 3039 -3737 0
29217 -4061 -3039 3737 0
31762 -4061 -3039 -3737 0
32045 2615 -3181 0
26390 -2615 3181 0
36003 -2615 -3181 0
6955 4446 2646 2691 -2816 0
5350 4446 2646 -2691 2816 0
8827 4446 2646 -2691 -2816 0
1070 4446 -2646 2691 2816 0
7330 4446 -2646 2691 -2816 0
5885 4446 -2646 -2691 2816 0
9015 4446 -2646 -2691 -2816 0
2140 -4446 2646 2691 2816 0
7704 -4446 2646 2691 -2816 0
6420 -4446 2646 -2691 2816 0
9202 -4446 2646 -2691 -2816 0
2996 -4446 -2646 2691 2816 0
8004 -4446 -2646 2691 -2816 0
6848 -4446 -2646 -2691 2816 0
9352 -4446 -2646 -2691 -2816 0
32175 -3240 0
9095 4750 4318 -2395 0
4280 4750 -4318 2395 0
9737 4750 -4318 -2395 0
8560 -4750 4318 2395 0
10379 -4750 4318 -2395 0
9416 -4750 -4318 2395 0
10507 -4750 -4318 -2395 0
6420 2798 2735 -5097 0
4280 2798 -2735 5097 0
8132 2798 -2735 -5097 0
9630 -2798 2735 5097 0
10272 -2798 2735 -5097 0
10058 -2798 -2735 5097 0
10443 -2798 -2735 -5097 0
930 4191 3598 4057 3995 -2348 0
4030 4191 3598 4057 -3995 2348 0
4355 4191 3598 4057 -3995 -2348 0
5580 4191 3598 -4057 3995 2348 0
5673 4191 3598 -4057 3995 -2348 0
5983 4191 3598 -4057 -3995 2348 0
6016 4191 3598 -4057 -3995 -2348 0
124 4191 -3598 4057 3995 2348 0
1035 4191 -3598 4057 3995 -2348 0
4073 4191 -3598 4057 -3995 2348 0
4392 4191 -3598 4057 -3995 -2348 0
5592 4191 -3598 -4057 3995 2348 0
5684 4191 -3598 -4057 3995 -2348 0
5987 4191 -3598 -4057 -3995 2348 0
6019 4191 -3598 -4057 -3995 -2348 0
620 -4191 3598 4057 3995 2348 0
1457 -4191 3598 4057 3995 -2348 0
4247 -4191 3598 4057 -3995 2348 0
4540 -4191 3598 4057 -3995 -2348 0
5642 -4191 3598 -4057 3995 2348 0
5726 -4191 3598 -4057 3995 -2348 0
6005 -4191 3598 -4057 -3995 2348 0
6034 -4191 3598 -4057 -3995 -2348 0
732 -4191 -3598 4057 3995 2348 0
1552 -4191 -3598 4057 3995 -2348 0
4286 -4191 -3598 4057 -3995 2348 0
4573 -4191 -3598 4057 -3995 -2348 0
5653 -4191 -3598 -4057 3995 2348 0
5735 -4191 -3598 -4057 3995 -2348 0
6009 -4191 -3598 -4057 -3995 2348 0
6037 -4191 -3598 -4057 -3995 -2348 0
310 -1508 0
4750 1645 4385 -1879 0
1900 1645 -4385 1879 0
6175 1645 -4385 -1879 0
12350 -1645 4385 1879 0
14012 -1645 4385 -1879 0
13015 -1645 -4385 1879 0
14511 -1645 -4385 -1879 0
3420 -4051 0
4524 4930 4038 4535 -1552 0
7540 4930 4038 -4535 1552 0
11159 4930 4038 -4535 -1552 0
14326 4930 -4038 4535 1552 0
17131 4930 -4038 4535 -1552 0
19001 4930 -4038 -4535 1552 0
21245 4930 -4038 -4535 -1552 0
35815 -4930 4038 4535 1552 0
36041 -4930 4038 4535 -1552 0
36192 -4930 4038 -4535 1552 0
36373 -4930 4038 -4535 -1552 0
36531 -4930 -4038 4535 1552 0
36672 -4930 -4038 4535 -1552 0
36765 -4930 -4038 -4535 1552 0
36877 -4930 -4038 -4535 -1552 0
1116 2932 -3733 0
4960 -2932 3733 0
5183 -2932 -3733 0
5890 -4900 0
7220 2571 -4322 0
17100 -2571 4322 0
17822 -2571 -4322 0
1860 3291 -4165 0
4340 -3291 4165 0
4898 -3291 -4165 0
18050 3070 2981 -3227 0
6650 3070 -2981 3227 0
18383 3070 -2981 -3227 0
14250 -3070 2981 3227 0
18762 -3070 2981 -3227 0
15912 -3070 -2981 3227 0
18846 -3070 -2981 -3227 0
18050 3724 4045 -3056 0
950 3724 -4045 3056 0
18097 3724 -4045 -3056 0
16150 -3724 4045 3056 0
18857 -3724 4045 -3056 0
16292 -3724 -4045 3056 0
18865 -3724 -4045 -3056 0
32045 -3323 0
9425 4609 3146 1512 -2978 0
12064 4609 3146 -1512 2978 0
18473 4609 3146 -1512 -2978 0
32045 4609 -3146 1512 2978 0
33459 4609 -3146 1512 -2978 0
33855 4609 -3146 -1512 2978 0
34816 4609 -3146 -1512 -2978 0
28275 -4609 3146 1512 2978 0
30631 -4609 3146 1512 -2978 0
31291 -4609 3146 -1512 2978 0
32893 -4609 3146 -1512 -2978 0
36286 -4609 -3146 1512 2978 0
36640 -4609 -3146 1512 -2978 0
36739 -4609 -3146 -1512 2978 0
36979 -4609 -3146 -1512 -2978 0
6650 4312 4068 -3167 0
11400 4312 -4068 3167 0
14060 4312 -4068 -3167 0
6650 -4312 4068 3167 0
10972 -4312 4068 -3167 0
14060 -4312 -4068 3167 0
15789 -4312 -4068 -3167 0
214 -2384 0
14326 2504 3049 -4388 0
754 2504 -3049 4388 0
14793 2504 -3049 -4388 0
16965 -2504 3049 4388 0
24844 -2504 3049 -4388 0
17380 -2504 -3049 4388 0
25101 -2504 -3049 -4388 0
4030 3438 -2302 0
2790 -3438 2302 0
5006 -3438 -2302 0
5655 -4684 0
1984 2821 -3089 0
744 -2821 3089 0
2490 -2821 -3089 0
4290 4241 4228 4610 4108 -1984 0
38610 4241 4228 4610 -4108 1984 0
39039 4241 4228 4610 -4108 -1984 0
34320 4241 4228 -4610 4108 1984 0
35178 4241 4228 -4610 4108 -1984 0
42042 4241 4228 -4610 -4108 1984 0
42128 4241 4228 -4610 -4108 -1984 0
32175 4241 -4228 4610 4108 1984 0
33248 4241 -4228 4610 4108 -1984 0
41827 4241 -4228 4610 -4108 1984 0
41935 4241 -4228 4610 -4108 -1984 0
40755 4241 -4228 -4610 4108 1984 0
40969 4241 -4228 -4610 4108 -1984 0
42686 4241 -4228 -4610 -4108 1984 0
42707 4241 -4228 -4610 -4108 -1984 0
23595 -4241 4228 4610 4108 1984 0
25525 -4241 4228 4610 4108 -1984 0
40970 -4241 4228 4610 -4108 1984 0
41163 -4241 4228 4610 -4108 -1984 0
39039 -4241 4228 -4610 4108 1984 0
39425 -4241 4228 -4610 4108 -1984 0
42514 -4241 4228 -4610 -4108 1984 0
42553 -4241 4228 -4610 -4108 -1984 0
38074 -4241 -4228 4610 4108 1984 0
38556 -4241 -4228 4610 4108 -1984 0
42417 -4241 -4228 4610 -4108 1984 0
42466 -4241 -4228 4610 -4108 -1984 0
41935 -4241 -4228 -4610 4108 1984 0
42031 -4241 -4228 -4610 4108 -1984 0
42803 -4241 -4228 -4610 -4108 1984 0
42813 -4241 -4228 -4610 -4108 -1984 0
5890 1776 2289 3740 -4998 0
2170 1776 2289 -3740 4998 0
5998 1776 2289 -3740 -4998 0
5890 1776 -2289 3740 4998 0
6184 1776 -2289 3740 -4998 0
5998 1776 -2289 -3740 4998 0
6190 1776 -2289 -3740 -4998 0
1240 -1776 2289 3740 4998 0
5952 -1776 2289 3740 -4998 0
2976 -1776 2289 -3740 4998 0
6039 -1776 2289 -3740 -4998 0
5952 -1776 -2289 3740 4998 0
6188 -1776 -2289 3740 -4998 0
6039 -1776 -2289 -3740 4998 0
6192 -1776 -2289 -3740 -4998 0
4815 1592 3866 4309 -2545 0
8560 1592 3866 -4309 2545 0
9523 1592 3866 -4309 -2545 0
1926 1592 -3866 4309 2545 0
5874 1592 -3866 4309 -2545 0
8945 1592 -3866 -4309 2545 0
9735 1592 -3866 -4309 -2545 0
3745 -1592 3866 4309 2545 0
6875 -1592 3866 4309 -2545 0
9309 -1592 3866 -4309 2545 0
9935 -1592 3866 -4309 -2545 0
4997 -1592 -3866 4309 2545 0
7563 -1592 -3866 4309 -2545 0
9559 -1592 -3866 -4309 2545 0
10073 -1592 -3866 -4309 -2545 0
23595 4986 -1900 0
4290 -4986 1900 0
25525 -4986 -1900 0
4066 3506 3922 -4902 0
1926 3506 -3922 4902 0
5260 3506 -3922 -4902 0
1284 -3506 3922 4902 0
4862 -3506 3922 -4902 0
2979 -3506 -3922 4902 0
5913 -3506 -3922 -4902 0
1550 4310 3830 3059 -1555 0
5890 4310 3830 -3059 1555 0
5967 4310 3830 -3059 -1555 0
4650 4310 -3830 3059 1555 0
5038 4310 -3830 3059 -1555 0
6123 4310 -3830 -3059 1555 0
6142 4310 -3830 -3059 -1555 0
2790 -4310 3830 3059 1555 0
3642 -4310 3830 3059 -1555 0
6029 -4310 3830 -3059 1555 0
6072 -4310 3830 -3059 -1555 0
5348 -4310 -3830 3059 1555 0
5561 -4310 -3830 3059 -1555 0
6157 -4310 -3830 -3059 1555 0
6168 -4310 -3830 -3059 -1555 0
13195 -4042 0
1926 4745 3275 4746 2463 2478 -3125 0
1284 4745 3275 4746 2463 -2478 3125 0
2979 4745 3275 4746 2463 -2478 -3125 0
4280 4745 3275 4746 -2463 2478 3125 0
5436 4745 3275 4746 -2463 2478 -3125 0
5050 4745 3275 4746 -2463 -2478 3125 0
6067 4745 3275 4746 -2463 -2478 -3125 0
535 4745 3275 -4746 2463 2478 3125 0
2365 4745 3275 -4746 2463 2478 -3125 0
1755 4745 3275 -4746 2463 -2478 3125 0
3365 4745 3275 -4746 2463 -2478 -3125 0
4601 4745 3275 -4746 -2463 2478 3125 0
5699 4745 3275 -4746 -2463 2478 -3125 0
5333 4745 3275 -4746 -2463 -2478 3125 0
6299 4745 3275 -4746 -2463 -2478 -3125 0
3745 4745 -3275 4746 2463 2478 3125 0
4997 4745 -3275 4746 2463 2478 -3125 0
4580 4745 -3275 4746 2463 -2478 3125 0
5681 4745 -3275 4746 2463 -2478 -3125 0
6527 4745 -3275 4746 -2463 2478 3125 0
7278 4745 -3275 4746 -2463 2478 -3125 0
7028 4745 -3275 4746 -2463 -2478 3125 0
7689 4745 -3275 4746 -2463 -2478 -3125 0
4093 4745 -3275 -4746 2463 2478 3125 0
5282 4745 -3275 -4746 2463 2478 -3125 0
4886 4745 -3275 -4746 2463 -2478 3125 0
5932 4745 -3275 -4746 2463 -2478 -3125 0
6736 4745 -3275 -4746 -2463 2478 3125 0
7449 4745 -3275 -4746 -2463 2478 -3125 0
7211 4745 -3275 -4746 -2463 -2478 3125 0
7839 4745 -3275 -4746 -2463 -2478 -3125 0
10165 -4745 3275 4746 2463 2478 3125 0
10261 -4745 3275 4746 2463 2478 -3125 0
10229 -4745 3275 4746 2463 -2478 3125 0
10314 -4745 3275 4746 2463 -2478 -3125 0
10379 -4745 3275 4746 -2463 2478 3125 0
10437 -4745 3275 4746 -2463 2478 -3125 0
10418 -4745 3275 4746 -2463 -2478 3125 0
10468 -4745 3275 4746 -2463 -2478 -3125 0
10192 -4745 3275 -4746 2463 2478 3125 0
10283 -4745 3275 -4746 2463 2478 -3125 0
10253 -4745 3275 -4746 2463 -2478 3125 0
10333 -4745 3275 -4746 2463 -2478 -3125 0
10395 -4745 3275 -4746 -2463 2478 3125 0
10450 -4745 3275 -4746 -2463 2478 -3125 0
10432 -4745 3275 -4746 -2463 -2478 3125 0
10480 -4745 3275 -4746 -2463 -2478 -3125 0
10352 -4745 -3275 4746 2463 2478 3125 0
10415 -4745 -3275 4746 2463 2478 -3125 0
10394 -4745 -3275 4746 2463 -2478 3125 0
10449 -4745 -3275 4746 2463 -2478 -3125 0
10491 -4745 -3275 4746 -2463 2478 3125 0
10529 -4745 -3275 4746 -2463 2478 -3125 0
10516 -4745 -3275 4746 -2463 -2478 3125 0
10549 -4745 -3275 4746 -2463 -2478 -3125 0
10370 -4745 -3275 -4746 2463 2478 3125 0
10429 -4745 -3275 -4746 2463 2478 -3125 0
10409 -4745 -3275 -4746 2463 -2478 3125 0
10462 -4745 -3275 -4746 2463 -2478 -3125 0
10502 -4745 -3275 -4746 -2463 2478 3125 0
10537 -4745 -3275 -4746 -2463 2478 -3125 0
10526 -4745 -3275 -4746 -2463 -2478 3125 0
10557 -4745 -3275 -4746 -2463 -2478 -3125 0
6650 4280 -4472 0
8550 -4280 4472 0
12207 -4280 -4472 0
4960 1574 3579 -4768 0
124 1574 -3579 4768 0
4985 1574 -3579 -4768 0
3720 -1574 3579 4768 0
5704 -1574 3579 -4768 0
3770 -1574 -3579 4768 0
5714 -1574 -3579 -4768 0
30030 -4929 0
6650 2719 3552 -4408 0
6080 2719 -3552 4408 0
10602 2719 -3552 -4408 0
17100 -2719 3552 4408 0
17765 -2719 3552 -4408 0
17708 -2719 -3552 4408 0
18160 -2719 -3552 -4408 0
7490 1773 3883 2135 -3248 0
2140 1773 3883 -2135 3248 0
8132 1773 3883 -2135 -3248 0
5885 1773 -3883 2135 3248 0
9255 1773 -3883 2135 -3248 0
6848 1773 -3883 -2135 3248 0
9544 1773 -3883 -2135 -3248 0
7490 -1773 3883 2135 3248 0
9737 -1773 3883 2135 -3248 0
8132 -1773 3883 -2135 3248 0
9930 -1773 3883 -2135 -3248 0
9255 -1773 -3883 2135 3248 0
10267 -1773 -3883 2135 -3248 0
9544 -1773 -3883 -2135 3248 0
10353 -1773 -3883 -2135 -3248 0
620 2328 -3630 0
3100 -2328 3630 0
3410 -2328 -3630 0
14250 1666 -4235 0
1900 -1666 4235 0
14725 -1666 -4235 0
3210 2397 -2096 0
8560 -2397 2096 0
9202 -2397 -2096 0
4066 5054 2060 2624 -2955 0
1284 5054 2060 -2624 2955 0
4862 5054 2060 -2624 -2955 0
4280 5054 -2060 2624 2955 0
6720 5054 -2060 2624 -2955 0
5050 5054 -2060 -2624 2955 0
7197 5054 -2060 -2624 -2955 0
9630 -5054 2060 2624 2955 0
10037 -5054 2060 2624 -2955 0
9758 -5054 2060 -2624 2955 0
10116 -5054 2060 -2624 -2955 0
10058 -5054 -2060 2624 2955 0
10302 -5054 -2060 2624 -2955 0
10135 -5054 -2060 -2624 2955 0
10350 -5054 -2060 -2624 -2955 0
535 -4974 0
3745 3854 4628 3234 -1674 0
4280 3854 4628 -3234 1674 0
6527 3854 4628 -3234 -1674 0
6955 3854 -4628 3234 1674 0
8266 3854 -4628 3234 -1674 0
8453 3854 -4628 -3234 1674 0
9239 3854 -4628 -3234 -1674 0
8025 -3854 4628 3234 1674 0
8961 -3854 4628 3234 -1674 0
9095 -3854 4628 -3234 1674 0
9657 -3854 4628 -3234 -1674 0
9764 -3854 -4628 3234 1674 0
10091 -3854 -4628 3234 -1674 0
10138 -3854 -4628 -3234 1674 0
10335 -3854 -4628 -3234 -1674 0
2850 -4001 0
22620 -5077 0
13300 2477 -2895 0
16150 -2477 2895 0
18145 -2477 -2895 0
19305 2068 -3972 0
32175 -2068 3972 0
37001 -2068 -3972 0
10165 -3201 0
12064 -2116 0
7540 3010 3650 -4366 0
35815 3010 -3650 4366 0
36192 3010 -3650 -4366 0
7540 -3010 3650 4366 0
13572 -3010 3650 -4366 0
36192 -3010 -3650 4366 0
36494 -3010 -3650 -4366 0
1284 4074 1918 -1969 0
1926 4074 -1918 1969 0
2979 4074 -1918 -1969 0
3424 -4074 1918 1969 0
4297 -4074 1918 -1969 0
4734 -4074 -1918 1969 0
5450 -4074 -1918 -1969 0
15200 4846 -4179 0
12350 -4846 4179 0
17670 -4846 -4179 0
8550 3012 1783 2480 3782 -1537 0
6080 3012 1783 2480 -3782 1537 0
11894 3012 1783 2480 -3782 -1537 0
11400 3012 1783 -2480 3782 1537 0
14820 3012 1783 -2480 3782 -1537 0
13832 3012 1783 -2480 -3782 1537 0
16158 3012 1783 -2480 -3782 -1537 0
1900 3012 -1783 2480 3782 1537 0
9595 3012 -1783 2480 3782 -1537 0
7372 3012 -1783 2480 -3782 1537 0
12605 3012 -1783 2480 -3782 -1537 0
12160 3012 -1783 -2480 3782 1537 0
15238 3012 -1783 -2480 3782 -1537 0
14349 3012 -1783 -2480 -3782 1537 0
16442 3012 -1783 -2480 -3782 -1537 0
15200 -3012 1783 2480 3782 1537 0
16910 -3012 1783 2480 3782 -1537 0
16416 -3012 1783 2480 -3782 1537 0
17579 -3012 1783 2480 -3782 -1537 0
17480 -3012 1783 -2480 3782 1537 0
18164 -3012 1783 -2480 3782 -1537 0
17966 -3012 1783 -2480 -3782 1537 0
18432 -3012 1783 -2480 -3782 -1537 0
15580 -3012 -1783 2480 3782 1537 0
17119 -3012 -1783 2480 3782 -1537 0
16674 -3012 -1783 2480 -3782 1537 0
17721 -3012 -1783 2480 -3782 -1537 0
17632 -3012 -1783 -2480 3782 1537 0
18248 -3012 -1783 -2480 3782 -1537 0
18070 -3012 -1783 -2480 -3782 1537 0
18488 -3012 -1783 -2480 -3782 -1537 0
7540 2538 4177 -4925 0
18850 2538 -4177 4925 0
22620 2538 -4177 -4925 0
4524 -2538 4177 4925 0
11159 -2538 4177 -4925 0
21112 -2538 -4177 4925 0
24430 -2538 -4177 -4925 0
34320 -4866 0
15200 4184 3458 3554 -4449 0
950 4184 3458 -3554 4449 0
15390 4184 3458 -3554 -4449 0
380 4184 -3458 3554 4449 0
15276 4184 -3458 3554 -4449 0
1311 4184 -3458 -3554 4449 0
15462 4184 -3458 -3554 -4449 0
380 -4184 3458 3554 4449 0
15276 -4184 3458 3554 -4449 0
1311 -4184 3458 -3554 4449 0
15462 -4184 3458 -3554 -4449 0
752 -4184 -3458 3554 4449 0
15350 -4184 -3458 3554 -4449 0
1665 -4184 -3458 -3554 4449 0
15533 -4184 -3458 -3554 -4449 0
19305 2607 4575 2360 -4828 0
15015 2607 4575 -2360 4828 0
27563 2607 4575 -2360 -4828 0
13728 2607 -4575 2360 4828 0
26855 2607 -4575 2360 -4828 0
23938 2607 -4575 -2360 4828 0
32471 2607 -4575 -2360 -4828 0
15015 -2607 4575 2360 4828 0
27563 -2607 4575 2360 -4828 0
24775 -2607 4575 -2360 4828 0
32931 -2607 4575 -2360 -4828 0
23938 -2607 -4575 2360 4828 0
32471 -2607 -4575 2360 -4828 0
30575 -2607 -4575 -2360 4828 0
36121 -2607 -4575 -2360 -4828 0
2280 -2547 0
18050 -2139 0
1070 -2046 0
27885 4008 3626 2074 3768 -3219 0
40755 4008 3626 2074 -3768 3219 0
42149 4008 3626 2074 -3768 -3219 0
6435 4008 3626 -2074 3768 3219 0
30137 4008 3626 -2074 3768 -3219 0
41077 4008 3626 -2074 -3768 3219 0
42262 4008 3626 -2074 -3768 -3219 0
858 4008 -3626 2074 3768 3219 0
28185 4008 -3626 2074 3768 -3219 0
40798 4008 -3626 2074 -3768 3219 0
42164 4008 -3626 2074 -3768 -3219 0
7164 4008 -3626 -2074 3768 3219 0
30393 4008 -3626 -2074 3768 -3219 0
41113 4008 -3626 -2074 -3768 3219 0
42275 4008 -3626 -2074 -3768 -3219 0
12870 -4008 3626 2074 3768 3219 0
32389 -4008 3626 2074 3768 -3219 0
41399 -4008 3626 2074 -3768 3219 0
42374 -4008 3626 2074 -3768 -3219 0
17375 -4008 3626 -2074 3768 3219 0
33966 -4008 3626 -2074 3768 -3219 0
41624 -4008 3626 -2074 -3768 3219 0
42453 -4008 3626 -2074 -3768 -3219 0
13471 -4008 -3626 2074 3768 3219 0
32600 -4008 -3626 2074 3768 -3219 0
41429 -4008 -3626 2074 -3768 3219 0
42385 -4008 -3626 2074 -3768 -3219 0
17885 -4008 -3626 -2074 3768 3219 0
34145 -4008 -3626 -2074 3768 -3219 0
41649 -4008 -3626 -2074 -3768 3219 0
42462 -4008 -3626 -2074 -3768 -3219 0
7490 3893 -2920 0
1605 -3893 2920 0
7972 -3893 -2920 0
5270 4679 2724 -4547 0
930 4679 -2724 4547 0
5410 4679 -2724 -4547 0
124 -4679 2724 4547 0
5289 -4679 2724 -4547 0
1035 -4679 -2724 4547 0
5425 -4679 -2724 -4547 0
1900 2581 4313 1522 -4043 0
13300 2581 4313 -1522 4043 0
13870 2581 4313 -1522 -4043 0
14250 2581 -4313 1522 4043 0
14725 2581 -4313 1522 -4043 0
17575 2581 -4313 -1522 4043 0
17718 2581 -4313 -1522 -4043 0
3420 -2581 4313 1522 4043 0
4978 -2581 4313 1522 -4043 0
14326 -2581 4313 -1522 4043 0
14793 -2581 4313 -1522 -4043 0
15105 -2581 -4313 1522 4043 0
15494 -2581 -4313 1522 -4043 0
17831 -2581 -4313 -1522 4043 0
17948 -2581 -4313 -1522 -4043 0
4815 4270 3289 -1822 0
4280 4270 -3289 1822 0
7169 4270 -3289 -1822 0
2140 -4270 3289 1822 0
5992 -4270 3289 -1822 0
5564 -4270 -3289 1822 0
7875 -4270 -3289 -1822 0
30160 2028 -4553 0
33930 -2028 4553 0
36946 -2028 -4553 0
9095 2081 3400 -2521 0
4815 2081 -3400 2521 0
9817 2081 -3400 -2521 0
7490 -2081 3400 2521 0
10219 -2081 3400 -2521 0
8934 -2081 -3400 2521 0
10435 -2081 -3400 -2521 0
2790 2258 -2950 0
4960 -2258 2950 0
5518 -2258 -2950 0
32045 -4289 0
10165 2336 -3362 0
1070 -2336 3362 0
10219 -2336 -3362 0
9630 -2164 0
6786 1708 2105 3305 2282 -2195 0
35815 1708 2105 3305 -2282 2195 0
36154 1708 2105 3305 -2282 -2195 0
754 1708 2105 -3305 2282 2195 0
7404 1708 2105 -3305 2282 -2195 0
35853 1708 2105 -3305 -2282 2195 0
36185 1708 2105 -3305 -2282 -2195 0
15080 1708 -2105 3305 2282 2195 0
19152 1708 -2105 3305 2282 -2195 0
36569 1708 -2105 3305 -2282 2195 0
36773 1708 -2105 3305 -2282 -2195 0
15532 1708 -2105 -3305 2282 2195 0
19523 1708 -2105 -3305 2282 -2195 0
36592 1708 -2105 -3305 -2282 2195 0
36791 1708 -2105 -3305 -2282 -2195 0
1885 -1708 2105 3305 2282 2195 0
8332 -1708 2105 3305 2282 -2195 0
35909 -1708 2105 3305 -2282 2195 0
36232 -1708 2105 3305 -2282 -2195 0
2601 -1708 2105 -3305 2282 2195 0
8919 -1708 2105 -3305 2282 -2195 0
35945 -1708 2105 -3305 -2282 2195 0
36261 -1708 2105 -3305 -2282 -2195 0
16211 -1708 -2105 3305 2282 2195 0
20079 -1708 -2105 3305 2282 -2195 0
36626 -1708 -2105 3305 -2282 2195 0
36819 -1708 -2105 3305 -2282 -2195 0
16641 -1708 -2105 -3305 2282 2195 0
20431 -1708 -2105 -3305 2282 -2195 0
36647 -1708 -2105 -3305 -2282 2195 0
36837 -1708 -2105 -3305 -2282 -2195 0
2170 4984 2296 -1545 0
5270 4984 -2296 1545 0
5595 4984 -2296 -1545 0
1984 -4984 2296 1545 0
3460 -4984 2296 -1545 0
5568 -4984 -2296 1545 0
5789 -4984 -2296 -1545 0
40755 -5020 0
6435 -4599 0
8550 -3482 0
12064 -2299 0
950 4350 -3791 0
950 -4350 3791 0
1853 -4350 -3791 0
15080 3908 -3856 0
754 -3908 3856 0
15532 -3908 -3856 0
1240 4933 -4707 0
620 -4933 4707 0
1736 -4933 -4707 0
23595 -4914 0
1900 1793 4256 3754 -3605 0
13300 1793 4256 -3754 3605 0
13870 1793 4256 -3754 -3605 0
950 1793 -4256 3754 3605 0
2755 1793 -4256 3754 -3605 0
13585 1793 -4256 -3754 3605 0
14126 1793 -4256 -3754 -3605 0
14250 -1793 4256 3754 3605 0
14725 -1793 4256 3754 -3605 0
17575 -1793 4256 -3754 3605 0
17718 -1793 4256 -3754 -3605 0
14488 -1793 -4256 3754 3605 0
14939 -1793 -4256 3754 -3605 0
17646 -1793 -4256 -3754 3605 0
17782 -1793 -4256 -3754 -3605 0
3424 2835 2042 -4987 0
2140 2835 -2042 4987 0
4879 2835 -2042 -4987 0
214 -2835 2042 4987 0
3570 -2835 2042 -4987 0
2311 -2835 -2042 4987 0
4996 -2835 -2042 -4987 0
930 4672 -4044 0
4340 -4672 4044 0
4619 -4672 -4044 0
5655 4084 -3467 0
11310 -4084 3467 0
15269 -4084 -3467 0
27885 3179 -4294 0
16302 -3179 4294 0
33591 -3179 -4294 0
23595 3355 4467 1915 3479 4433 -2824 0
2145 3355 4467 1915 3479 -4433 2824 0
24560 3355 4467 1915 3479 -4433 -2824 0
36465 3355 4467 1915 -3479 4433 2824 0
40004 3355 4467 1915 -3479 4433 -2824 0
36787 3355 4467 1915 -3479 -4433 2824 0
40149 3355 4467 1915 -3479 -4433 -2824 0
15015 3355 4467 -1915 3479 4433 2824 0
30352 3355 4467 -1915 3479 4433 -2824 0
16409 3355 4467 -1915 3479 -4433 2824 0
30979 3355 4467 -1915 3479 -4433 -2824 0
38717 3355 4467 -1915 -3479 4433 2824 0
41018 3355 4467 -1915 -3479 4433 -2824 0
38926 3355 4467 -1915 -3479 -4433 2824 0
41112 3355 4467 -1915 -3479 -4433 -2824 0
19305 3355 -4467 1915 3479 4433 2824 0
32282 3355 -4467 1915 3479 4433 -2824 0
20485 3355 -4467 1915 3479 -4433 2824 0
32813 3355 -4467 1915 3479 -4433 -2824 0
39361 3355 -4467 1915 -3479 4433 2824 0
41307 3355 -4467 1915 -3479 4433 -2824 0
39538 3355 -4467 1915 -3479 -4433 2824 0
41387 3355 -4467 1915 -3479 -4433 -2824 0
27563 3355 -4467 -1915 3479 4433 2824 0
35998 3355 -4467 -1915 3479 4433 -2824 0
28330 3355 -4467 -1915 3479 -4433 2824 0
36344 3355 -4467 -1915 3479 -4433 -2824 0
40599 3355 -4467 -1915 -3479 4433 2824 0
41865 3355 -4467 -1915 -3479 4433 -2824 0
40715 3355 -4467 -1915 -3479 -4433 2824 0
41917 3355 -4467 -1915 -3479 -4433 -2824 0
25740 -3355 4467 1915 3479 4433 2824 0
35178 -3355 4467 1915 3479 4433 -2824 0
26598 -3355 4467 1915 3479 -4433 2824 0
35564 -3355 4467 1915 3479 -4433 -2824 0
40326 -3355 4467 1915 -3479 4433 2824 0
41742 -3355 4467 1915 -3479 4433 -2824 0
40455 -3355 4467 1915 -3479 -4433 2824 0
41800 -3355 4467 1915 -3479 -4433 -2824 0
31746 -3355 4467 -1915 3479 4433 2824 0
37881 -3355 4467 -1915 3479 4433 -2824 0
32304 -3355 4467 -1915 3479 -4433 2824 0
38132 -3355 4467 -1915 3479 -4433 -2824 0
41227 -3355 4467 -1915 -3479 4433 2824 0
42147 -3355 4467 -1915 -3479 4433 -2824 0
41311 -3355 4467 -1915 -3479 -4433 2824 0
42185 -3355 4467 -1915 -3479 -4433 -2824 0
33462 -3355 -4467 1915 3479 4433 2824 0
38653 -3355 -4467 1915 3479 4433 -2824 0
33934 -3355 -4467 1915 3479 -4433 2824 0
38865 -3355 -4467 1915 3479 -4433 -2824 0
41484 -3355 -4467 1915 -3479 4433 2824 0
42263 -3355 -4467 1915 -3479 4433 -2824 0
41555 -3355 -4467 1915 -3479 -4433 2824 0
42295 -3355 -4467 1915 -3479 -4433 -2824 0
36765 -3355 -4467 -1915 3479 4433 2824 0
40139 -3355 -4467 -1915 3479 4433 -2824 0
37072 -3355 -4467 -1915 3479 -4433 2824 0
40277 -3355 -4467 -1915 3479 -4433 -2824 0
41980 -3355 -4467 -1915 -3479 4433 2824 0
42486 -3355 -4467 -1915 -3479 4433 -2824 0
42026 -3355 -4467 -1915 -3479 -4433 2824 0
42507 -3355 -4467 -1915 -3479 -4433 -2824 0
3800 3892 -1968 0
14250 -3892 1968 0
15200 -3892 -1968 0
4290 -4237 0
30160 4832 1591 -4136 0
35815 4832 -1591 4136 0
37323 4832 -1591 -4136 0
18850 -4832 1591 4136 0
33930 -4832 1591 -4136 0
36757 -4832 -1591 4136 0
37512 -4832 -1591 -4136 0
36465 2495 3771 2872 -2879 0
13728 2495 3771 -2872 2879 0
38524 2495 3771 -2872 -2879 0
858 2495 -3771 2872 2879 0
36594 2495 -3771 2872 -2879 0
14311 2495 -3771 -2872 2879 0
38612 2495 -3771 -2872 -2879 0
23595 -2495 3771 2872 2879 0
40004 -2495 3771 2872 -2879 0
29773 -2495 3771 -2872 2879 0
40931 -2495 3771 -2872 -2879 0
23981 -2495 -3771 2872 2879 0
40062 -2495 -3771 2872 -2879 0
30035 -2495 -3771 -2872 2879 0
40970 -2495 -3771 -2872 -2879 0
27885 -1643 0
3410 1813 4644 -3405 0
4030 1813 -4644 3405 0
5223 1813 -4644 -3405 0
2480 -1813 4644 3405 0
4526 -1813 4644 -3405 0
4898 -1813 -4644 3405 0
5614 -1813 -4644 -3405 0
8560 3536 -4475 0
4280 -3536 4475 0
9416 -3536 -4475 0
1860 4886 4624 1590 2297 -4538 0
2356 4886 4624 1590 -2297 4538 0
3509 4886 4624 1590 -2297 -4538 0
5580 4886 4624 -1590 2297 4538 0
5766 4886 4624 -1590 2297 -4538 0
5816 4886 4624 -1590 -2297 4538 0
5931 4886 4624 -1590 -2297 -4538 0
1240 4886 -4624 1590 2297 4538 0
2728 4886 -4624 1590 2297 -4538 0
3125 4886 -4624 1590 -2297 4538 0
4047 4886 -4624 1590 -2297 -4538 0
5704 4886 -4624 -1590 2297 4538 0
5853 4886 -4624 -1590 2297 -4538 0
5892 4886 -4624 -1590 -2297 4538 0
5985 4886 -4624 -1590 -2297 -4538 0
2790 -4886 4624 1590 2297 4538 0
3813 -4886 4624 1590 2297 -4538 0
4086 -4886 4624 1590 -2297 4538 0
4720 -4886 4624 1590 -2297 -4538 0
5859 -4886 4624 -1590 2297 4538 0
5961 -4886 4624 -1590 2297 -4538 0
5989 -4886 4624 -1590 -2297 4538 0
6052 -4886 4624 -1590 -2297 -4538 0
3472 -4886 -4624 1590 2297 4538 0
4290 -4886 -4624 1590 2297 -4538 0
4509 -4886 -4624 1590 -2297 4538 0
5016 -4886 -4624 1590 -2297 -4538 0
5927 -4886 -4624 -1590 2297 4538 0
6009 -4886 -4624 -1590 2297 -4538 0
6031 -4886 -4624 -1590 -2297 4538 0
6082 -4886 -4624 -1590 -2297 -4538 0
32175 4252 2594 -1700 0
858 4252 -2594 1700 0
32389 4252 -2594 -1700 0
2145 -4252 2594 1700 0
32711 -4252 2594 -1700 0
2960 -4252 -2594 1700 0
32915 -4252 -2594 -1700 0
30030 2541 -3101 0
13728 -2541 3101 0
34148 -2541 -3101 0
7540 3521 -3672 0
3770 -3521 3672 0
10556 -3521 -3672 0
5700 4578 3053 -4918 0
12350 4578 -3053 4918 0
14345 4578 -3053 -4918 0
7600 -4578 3053 4918 0
11020 -4578 3053 -4918 0
15010 -4578 -3053 4918 0
16207 -4578 -3053 -4918 0
2170 4903 -2942 0
310 -4903 2942 0
2372 -4903 -2942 0
754 1949 3294 3452 -1640 0
35815 1949 3294 -3452 1640 0
35853 1949 3294 -3452 -1640 0
22620 1949 -3294 3452 1640 0
22922 1949 -3294 3452 -1640 0
36946 1949 -3294 -3452 1640 0
36961 1949 -3294 -3452 -1640 0
12064 -1949 3294 3452 1640 0
12577 -1949 3294 3452 -1640 0
36418 -1949 3294 -3452 1640 0
36444 -1949 3294 -3452 -1640 0
27446 -1949 -3294 3452 1640 0
27651 -1949 -3294 3452 -1640 0
37187 -1949 -3294 -3452 1640 0
37198 -1949 -3294 -3452 -1640 0
33930 4792 -2820 0
13195 -4792 2820 0
35250 -4792 -2820 0
6420 3284 -5022 0
6955 -3284 5022 0
9202 -3284 -5022 0
32045 -2848 0
8025 2447 -4185 0
8560 -2447 4185 0
10165 -2447 -4185 0
7540 4422 4462 1755 1557 -4451 0
20735 4422 4462 1755 -1557 4451 0
24128 4422 4462 1755 -1557 -4451 0
9425 4422 4462 -1755 1557 4451 0
15080 4422 4462 -1755 1557 -4451 0
24976 4422 4462 -1755 -1557 4451 0
27521 4422 4462 -1755 -1557 -4451 0
32045 4422 -4462 1755 1557 4451 0
33176 4422 -4462 1755 1557 -4451 0
35155 4422 -4462 1755 -1557 4451 0
35664 4422 -4462 1755 -1557 -4451 0
33459 4422 -4462 -1755 1557 4451 0
34307 4422 -4462 -1755 1557 -4451 0
35791 4422 -4462 -1755 -1557 4451 0
36173 4422 -4462 -1755 -1557 -4451 0
9425 -4422 4462 1755 1557 4451 0
15080 -4422 4462 1755 1557 -4451 0
24976 -4422 4462 1755 -1557 4451 0
27521 -4422 4462 1755 -1557 -4451 0
16494 -4422 4462 -1755 1557 4451 0
20735 -4422 4462 -1755 1557 -4451 0
28157 -4422 4462 -1755 -1557 4451 0
30066 -4422 4462 -1755 -1557 -4451 0
33459 -4422 -4462 1755 1557 4451 0
34307 -4422 -4462 1755 1557 -4451 0
35791 -4422 -4462 1755 -1557 4451 0
36173 -4422 -4462 1755 -1557 -4451 0
34519 -4422 -4462 -1755 1557 4451 0
35155 -4422 -4462 -1755 1557 -4451 0
36269 -4422 -4462 -1755 -1557 4451 0
36555 -4422 -4462 -1755 -1557 -4451 0
4815 2800 2948 -3447 0
6420 2800 -2948 3447 0
8346 2800 -2948 -3447 0
6955 -2800 2948 3447 0
8640 -2800 2948 -3447 0
9202 -2800 -2948 3447 0
9876 -2800 -2948 -3447 0
3410 1719 4448 -1967 0
2480 1719 -4448 1967 0
4526 1719 -4448 -1967 0
4030 -1719 4448 1967 0
5223 -1719 4448 -1967 0
4898 -1719 -4448 1967 0
5614 -1719 -4448 -1967 0
5350 4445 -4172 0
6955 -4445 4172 0
8827 -4445 -4172 0
15080 4670 -2380 0
11310 -4670 2380 0
21866 -4670 -2380 0
6955 4060 4780 1582 -4990 0
4815 4060 4780 -1582 4990 0
8640 4060 4780 -1582 -4990 0
4815 4060 -4780 1582 4990 0
8640 4060 -4780 1582 -4990 0
7463 4060 -4780 -1582 4990 0
9567 4060 -4780 -1582 -4990 0
5350 -4060 4780 1582 4990 0
8827 -4060 4780 1582 -4990 0
7758 -4060 4780 -1582 4990 0
9670 -4060 4780 -1582 -4990 0
7758 -4060 -4780 1582 4990 0
9670 -4060 -4780 1582 -4990 0
9082 -4060 -4780 -1582 4990 0
10134 -4060 -4780 -1582 -4990 0
28275 -2700 0
1550 2746 4135 -3762 0
4030 2746 -4135 3762 0
4573 2746 -4135 -3762 0
4340 -2746 4135 3762 0
4805 -2746 4135 -3762 0
5549 -2746 -4135 3762 0
5712 -2746 -4135 -3762 0
15015 4656 -2323 0
13728 -4656 2323 0
23938 -4656 -2323 0
2675 3472 -3965 0
3210 -3472 3965 0
5083 -3472 -3965 0
6420 -2032 0
2170 3293 -4404 0
620 -3293 4404 0
2573 -3293 -4404 0
18050 -4705 0
16150 4725 -2842 0
6650 -4725 2842 0
17147 -4725 -2842 0
4650 5099 -4949 0
124 -5099 4949 0
4681 -5099 -4949 0
310 4870 2167 -1635 0
2356 4870 -2167 1635 0
2548 4870 -2167 -1635 0
1116 -4870 2167 1635 0
1370 -4870 2167 -1635 0
3048 -4870 -2167 1635 0
3206 -4870 -2167 -1635 0
1984 1899 4207 -3540 0
744 1899 -4207 3540 0
2490 1899 -4207 -3540 0
744 -1899 4207 3540 0
2490 -1899 4207 -3540 0
1399 -1899 -4207 3540 0
2935 -1899 -4207 -3540 0
16302 4012 3698 -2176 0
25740 4012 -3698 2176 0
32261 4012 -3698 -2176 0
8580 -4012 3698 2176 0
21622 -4012 3698 -2176 0
29172 -4012 -3698 2176 0
34389 -4012 -3698 -2176 0
4524 2245 2830 -1617 0
32045 2245 -2830 1617 0
32724 2245 -2830 -1617 0
28275 -2245 2830 1617 0
29406 -2245 2830 -1617 0
36286 -2245 -2830 1617 0
36456 -2245 -2830 -1617 0
1984 3498 3954 -2231 0
3410 3498 -3954 2231 0
4303 3498 -3954 -2231 0
930 -3498 3954 2231 0
2616 -3498 3954 -2231 0
3829 -3498 -3954 2231 0
4587 -3498 -3954 -2231 0
4290 3785 -2007 0
30030 -3785 2007 0
31317 -3785 -2007 0
17160 2154 4399 4364 -3979 0
17160 2154 4399 -4364 3979 0
27456 2154 4399 -4364 -3979 0
17160 2154 -4399 4364 3979 0
27456 2154 -4399 4364 -3979 0
27456 2154 -4399 -4364 3979 0
33634 2154 -4399 -4364 -3979 0
858 -2154 4399 4364 3979 0
17675 -2154 4399 4364 -3979 0
17675 -2154 4399 -4364 3979 0
27765 -2154 4399 -4364 -3979 0
17675 -2154 -4399 4364 3979 0
27765 -2154 -4399 4364 -3979 0
27765 -2154 -4399 -4364 3979 0
33819 -2154 -4399 -4364 -3979 0
8550 1830 2793 3818 -4096 0
12350 1830 2793 -3818 4096 0
15343 1830 2793 -3818 -4096 0
11400 1830 -2793 3818 4096 0
14820 1830 -2793 3818 -4096 0
16340 1830 -2793 -3818 4096 0
17537 1830 -2793 -3818 -4096 0
17100 -1830 2793 3818 4096 0
17955 -1830 2793 3818 -4096 0
18335 -1830 2793 -3818 4096 0
18634 -1830 2793 -3818 -4096 0
18240 -1830 -2793 3818 4096 0
18582 -1830 -2793 3818 -4096 0
18734 -1830 -2793 -3818 4096 0
18854 -1830 -2793 -3818 -4096 0
1984 2033 -1817 0
4340 -2033 1817 0
4935 -2033 -1817 0
17100 4543 -3615 0
1900 -4543 3615 0
17290 -4543 -3615 0
19305 -2476 0
1900 3519 -4681 0
15200 -3519 4681 0
15580 -3519 -4681 0
214 5069 3915 -4652 0
6955 5069 -3915 4652 0
7030 5069 -3915 -4652 0
4066 -5069 3915 4652 0
4199 -5069 3915 -4652 0
8378 -5069 -3915 4652 0
8425 -5069 -3915 -4652 0
3770 3088 3764 3816 -4211 0
30160 3088 3764 -3816 4211 0
30914 3088 3764 -3816 -4211 0
16965 3088 -3764 3816 4211 0
19038 3088 -3764 3816 -4211 0
33553 3088 -3764 -3816 4211 0
33968 3088 -3764 -3816 -4211 0
5655 -3088 3764 3816 4211 0
8859 -3088 3764 3816 -4211 0
31291 -3088 3764 -3816 4211 0
31932 -3088 3764 -3816 -4211 0
20075 -3088 -3764 3816 4211 0
21838 -3088 -3764 3816 -4211 0
34175 -3088 -3764 -3816 4211 0
34528 -3088 -3764 -3816 -4211 0
8580 -3507 0
13728 -4833 0
5148 3261 -1573 0
12870 -3261 1573 0
16474 -3261 -1573 0
16302 2823 4797 -4285 0
38610 2823 -4797 4285 0
40240 2823 -4797 -4285 0
27885 -2823 4797 4285 0
33591 -2823 4797 -4285 0
41399 -2823 -4797 4285 0
41969 -2823 -4797 -4285 0
10165 -2865 0
5270 2069 -2587 0
4340 -2069 2587 0
5921 -2069 -2587 0
1240 4658 4566 -1612 0
1240 4658 -4566 1612 0
2232 4658 -4566 -1612 0
5890 -4658 4566 1612 0
5952 -4658 4566 -1612 0
5952 -4658 -4566 1612 0
6002 -4658 -4566 -1612 0
6650 1610 3152 4550 -5005 0
2280 1610 3152 -4550 5005 0
8132 1610 3152 -4550 -5005 0
1900 1610 -3152 4550 5005 0
7885 1610 -3152 4550 -5005 0
3952 1610 -3152 -4550 5005 0
9219 1610 -3152 -4550 -5005 0
12350 -1610 3152 4550 5005 0
14678 -1610 3152 4550 -5005 0
13148 -1610 3152 -4550 5005 0
15196 -1610 3152 -4550 -5005 0
13015 -1610 -3152 4550 5005 0
15110 -1610 -3152 4550 -5005 0
13733 -1610 -3152 -4550 5005 0
15577 -1610 -3152 -4550 -5005 0
2356 2670 -1632 0
3410 -2670 1632 0
4470 -2670 -1632 0
5700 2311 -2129 0
12350 -2311 2129 0
14345 -2311 -2129 0
28275 3821 -3739 0
14326 -3821 3739 0
31856 -3821 -3739 0
32175 1515 3613 2313 -4166 0
36465 1515 3613 -2313 4166 0
41291 1515 3613 -2313 -4166 0
30030 1515 -3613 2313 4166 0
39683 1515 -3613 2313 -4166 0
40969 1515 -3613 -2313 4166 0
42417 1515 -3613 -2313 -4166 0
4290 -1515 3613 2313 4166 0
33248 -1515 3613 2313 -4166 0
37108 -1515 3613 -2313 4166 0
41452 -1515 3613 -2313 -4166 0
31317 -1515 -3613 2313 4166 0
40004 -1515 -3613 2313 -4166 0
41163 -1515 -3613 -2313 4166 0
42466 -1515 -3613 -2313 -4166 0
8025 1514 -3320 0
3745 -1514 3320 0
8961 -1514 -3320 0
6435 3182 -2485 0
40755 -3182 2485 0
41077 -3182 -2485 0
30160 2267 4124 1974 2890 -2361 0
30160 2267 4124 1974 -2890 2361 0
36192 2267 4124 1974 -2890 -2361 0
12064 2267 4124 -1974 2890 2361 0
32573 2267 4124 -1974 2890 -2361 0
32573 2267 4124 -1974 -2890 2361 0
36675 2267 4124 -1974 -2890 -2361 0
1885 2267 -4124 1974 2890 2361 0
30537 2267 -4124 1974 2890 -2361 0
30537 2267 -4124 1974 -2890 2361 0
36267 2267 -4124 1974 -2890 -2361 0
13346 2267 -4124 -1974 2890 2361 0
32829 2267 -4124 -1974 2890 -2361 0
32829 2267 -4124 -1974 -2890 2361 0
36726 2267 -4124 -1974 -2890 -2361 0
28275 -2267 4124 1974 2890 2361 0
35815 -2267 4124 1974 2890 -2361 0
35815 -2267 4124 1974 -2890 2361 0
37323 -2267 4124 1974 -2890 -2361 0
31291 -2267 4124 -1974 2890 2361 0
36418 -2267 4124 -1974 2890 -2361 0
36418 -2267 4124 -1974 -2890 2361 0
37444 -2267 4124 -1974 -2890 -2361 0
28746 -2267 -4124 1974 2890 2361 0
35909 -2267 -4124 1974 2890 -2361 0
35909 -2267 -4124 1974 -2890 2361 0
37342 -2267 -4124 1974 -2890 -2361 0
31611 -2267 -4124 -1974 2890 2361 0
36482 -2267 -4124 -1974 2890 -2361 0
36482 -2267 -4124 -1974 -2890 2361 0
37456 -2267 -4124 -1974 -2890 -2361 0
9630 4456 -4375 0
2675 -4456 4375 0
9898 -4456 -4375 0
9630 2850 -2503 0
1605 -2850 2503 0
9791 -2850 -2503 0
3420 -4825 0
4750 3129 2160 -4058 0
950 3129 -2160 4058 0
5463 3129 -2160 -4058 0
12350 -3129 2160 4058 0
14012 -3129 2160 -4058 0
12683 -3129 -2160 4058 0
14262 -3129 -2160 -4058 0
6435 2343 -4603 0
25740 -2343 4603 0
28314 -2343 -4603 0
16150 1942 -4678 0
12350 -1942 4678 0
18003 -1942 -4678 0
858 4010 4374 3527 -4500 0
4290 4010 4374 -3527 4500 0
5062 4010 4374 -3527 -4500 0
38610 4010 -4374 3527 4500 0
38696 4010 -4374 3527 -4500 0
39039 4010 -4374 -3527 4500 0
39116 4010 -4374 -3527 -4500 0
32175 -4010 4374 3527 4500 0
32389 -4010 4374 3527 -4500 0
33248 -4010 4374 -3527 4500 0
33441 -4010 4374 -3527 -4500 0
41827 -4010 -4374 3527 4500 0
41849 -4010 -4374 3527 -4500 0
41935 -4010 -4374 -3527 4500 0
41954 -4010 -4374 -3527 -4500 0
3720 3192 4079 -4574 0
310 3192 -4079 4574 0
3844 3192 -4079 -4574 0
1116 -3192 4079 4574 0
4166 -3192 4079 -4574 0
1370 -3192 -4079 4574 0
4268 -3192 -4079 -4574 0
2140 3114 -4509 0
4815 -3114 4509 0
5992 -3114 -4509 0
12350 -2863 0
4815 4014 3551 3788 -2789 0
1284 4014 3551 -3788 2789 0
5521 4014 3551 -3788 -2789 0
6420 4014 -3551 3788 2789 0
8346 4014 -3551 3788 -2789 0
6934 4014 -3551 -3788 2789 0
8628 4014 -3551 -3788 -2789 0
214 -4014 3551 3788 2789 0
4933 -4014 3551 3788 -2789 0
1472 -4014 3551 -3788 2789 0
5625 -4014 3551 -3788 -2789 0
6506 -4014 -3551 3788 2789 0
8393 -4014 -3551 3788 -2789 0
7009 -4014 -3551 -3788 2789 0
8670 -4014 -3551 -3788 -2789 0
8580 4132 4917 5053 4497 -2736 0
32175 4132 4917 5053 -4497 2736 0
34320 4132 4917 5053 -4497 -2736 0
15015 4132 4917 -5053 4497 2736 0
20592 4132 4917 -5053 4497 -2736 0
35929 4132 4917 -5053 -4497 2736 0
37323 4132 4917 -5053 -4497 -2736 0
38610 4132 -4917 5053 4497 2736 0
39468 4132 -4917 5053 4497 -2736 0
41827 4132 -4917 5053 -4497 2736 0
42042 4132 -4917 5053 -4497 -2736 0
40112 4132 -4917 -5053 4497 2736 0
40669 4132 -4917 -5053 4497 -2736 0
42203 4132 -4917 -5053 -4497 2736 0
42342 4132 -4917 -5053 -4497 -2736 0
23595 -4132 4917 5053 4497 2736 0
27456 -4132 4917 5053 4497 -2736 0
38074 -4132 4917 5053 -4497 2736 0
39039 -4132 4917 5053 -4497 -2736 0
30352 -4132 4917 -5053 4497 2736 0
32861 -4132 4917 -5053 4497 -2736 0
39763 -4132 4917 -5053 -4497 2736 0
40390 -4132 4917 -5053 -4497 -2736 0
40970 -4132 -4917 5053 4497 2736 0
41356 -4132 -4917 5053 4497 -2736 0
42417 -4132 -4917 5053 -4497 2736 0
42514 -4132 -4917 5053 -4497 -2736 0
41645 -4132 -4917 -5053 4497 2736 0
41896 -4132 -4917 -5053 4497 -2736 0
42586 -4132 -4917 -5053 -4497 2736 0
42649 -4132 -4917 -5053 -4497 -2736 0
9500 3378 4488 3314 -1906 0
5700 3378 4488 -3314 1906 0
12350 3378 4488 -3314 -1906 0
16150 3378 -4488 3314 1906 0
17575 3378 -4488 3314 -1906 0
17005 3378 -4488 -3314 1906 0
18003 3378 -4488 -3314 -1906 0
14250 -3378 4488 3314 1906 0
16625 -3378 4488 3314 -1906 0
15675 -3378 4488 -3314 1906 0
17338 -3378 4488 -3314 -1906 0
18288 -3378 -4488 3314 1906 0
18644 -3378 -4488 3314 -1906 0
18501 -3378 -4488 -3314 1906 0
18751 -3378 -4488 -3314 -1906 0
380 4261 -3237 0
3800 -4261 3237 0
4104 -4261 -3237 0
7540 3643 1678 -4663 0
1885 3643 -1678 4663 0
9048 3643 -1678 -4663 0
33930 -3643 1678 4663 0
34684 -3643 1678 -4663 0
34119 -3643 -1678 4663 0
34835 -3643 -1678 -4663 0
2356 1971 -3290 0
1240 -1971 3290 0
3125 -1971 -3290 0
3210 2896 1705 -2885 0
4815 2896 -1705 2885 0
6580 2896 -1705 -2885 0
6955 -2896 1705 2885 0
8078 -2896 1705 -2885 0
8640 -2896 -1705 2885 0
9258 -2896 -1705 -2885 0
5700 -2921 0
3770 1847 2780 -1975 0
33930 1847 -2780 1975 0
34307 1847 -2780 -1975 0
26390 -1847 2780 1975 0
27521 -1847 2780 -1975 0
36569 -1847 -2780 1975 0
36682 -1847 -2780 -1975 0
3800 5012 4590 -3658 0
5700 5012 -4590 3658 0
8360 5012 -4590 -3658 0
10450 -5012 4590 3658 0
12160 -5012 4590 -3658 0
13015 -5012 -4590 3658 0
14212 -5012 -4590 -3658 0
4066 4034 -2185 0
3745 -4034 2185 0
6388 -4034 -2185 0
13728 -2413 0
24505 2999 -4405 0
7540 -2999 4405 0
27144 -2999 -4405 0
27885 3433 4611 -4129 0
36465 3433 -4611 4129 0
40648 3433 -4611 -4129 0
30030 -3433 4611 4129 0
38395 -3433 4611 -4129 0
40969 -3433 -4611 4129 0
42224 -3433 -4611 -4129 0
1550 4304 3505 -3529 0
1116 4304 -3505 3529 0
2387 4304 -3505 -3529 0
2170 -4304 3505 3529 0
3177 -4304 3505 -3529 0
2895 -4304 -3505 3529 0
3722 -4304 -3505 -3529 0
5655 2004 3631 2134 3539 -4837 0
22620 2004 3631 2134 -3539 4837 0
24882 2004 3631 2134 -3539 -4837 0
3770 2004 3631 -2134 3539 4837 0
8859 2004 3631 -2134 3539 -4837 0
24128 2004 3631 -2134 -3539 4837 0
26164 2004 3631 -2134 -3539 -4837 0
15080 2004 -3631 2134 3539 4837 0
18473 2004 -3631 2134 3539 -4837 0
28652 2004 -3631 2134 -3539 4837 0
30009 2004 -3631 2134 -3539 -4837 0
17342 2004 -3631 -2134 3539 4837 0
20396 2004 -3631 -2134 3539 -4837 0
29557 2004 -3631 -2134 -3539 4837 0
30778 2004 -3631 -2134 -3539 -4837 0
33930 -2004 3631 2134 3539 4837 0
34496 -2004 3631 2134 3539 -4837 0
36192 -2004 3631 2134 -3539 4837 0
36418 -2004 3631 2134 -3539 -4837 0
34307 -2004 3631 -2134 3539 4837 0
34816 -2004 3631 -2134 3539 -4837 0
36343 -2004 3631 -2134 -3539 4837 0
36546 -2004 3631 -2134 -3539 -4837 0
35438 -2004 -3631 2134 3539 4837 0
35777 -2004 -3631 2134 3539 -4837 0
36795 -2004 -3631 2134 -3539 4837 0
36931 -2004 -3631 2134 -3539 -4837 0
35664 -2004 -3631 -2134 3539 4837 0
35970 -2004 -3631 -2134 3539 -4837 0
36886 -2004 -3631 -2134 -3539 4837 0
37008 -2004 -3631 -2134 -3539 -4837 0
17160 4345 2338 -2591 0
8580 4345 -2338 2591 0
22308 4345 -2338 -2591 0
27885 -4345 2338 2591 0
33891 -4345 2338 -2591 0
30888 -4345 -2338 2591 0
35693 -4345 -2338 -2591 0
26390 2600 1837 -3588 0
15080 2600 -1837 3588 0
30914 2600 -1837 -3588 0
4524 -2600 1837 3588 0
27747 -2600 1837 -3588 0
17794 -2600 -1837 3588 0
31728 -2600 -1837 -3588 0
33930 -4682 0
16965 1999 1728 2172 -1556 0
4524 1999 1728 -2172 1556 0
19453 1999 1728 -2172 -1556 0
26390 1999 -1728 2172 1556 0
31479 1999 -1728 2172 -1556 0
27747 1999 -1728 -2172 1556 0
32226 1999 -1728 -2172 -1556 0
9425 -1999 1728 2172 1556 0
22149 -1999 1728 2172 -1556 0
12818 -1999 1728 -2172 1556 0
24015 -1999 1728 -2172 -1556 0
29217 -1999 -1728 2172 1556 0
33035 -1999 -1728 2172 -1556 0
30235 -1999 -1728 -2172 1556 0
33594 -1999 -1728 -2172 -1556 0
8550 4180 3985 -2486 0
15200 4180 -3985 2486 0
16910 4180 -3985 -2486 0
11400 -4180 3985 2486 0
14820 -4180 3985 -2486 0
17480 -4180 -3985 2486 0
18164 -4180 -3985 -2486 0
6786 -2362 0
6786 2364 1601 -2180 0
4524 2364 -1601 2180 0
10496 2364 -1601 -2180 0
30160 -2364 1601 2180 0
31517 -2364 1601 -2180 0
31065 -2364 -1601 2180 0
32259 -2364 -1601 -2180 0
23595 3278 2031 1736 4242 -3189 0
4290 3278 2031 1736 -4242 3189 0
25525 3278 2031 1736 -4242 -3189 0
32175 3278 2031 -1736 4242 3189 0
38074 3278 2031 -1736 4242 -3189 0
33248 3278 2031 -1736 -4242 3189 0
38556 3278 2031 -1736 -4242 -3189 0
30030 3278 -2031 1736 4242 3189 0
37108 3278 -2031 1736 4242 -3189 0
31317 3278 -2031 1736 -4242 3189 0
37688 3278 -2031 1736 -4242 -3189 0
39683 3278 -2031 -1736 4242 3189 0
41452 3278 -2031 -1736 4242 -3189 0
40004 3278 -2031 -1736 -4242 3189 0
41597 3278 -2031 -1736 -4242 -3189 0
25740 -3278 2031 1736 4242 3189 0
35178 -3278 2031 1736 4242 -3189 0
27456 -3278 2031 1736 -4242 3189 0
35950 -3278 2031 1736 -4242 -3189 0
38610 -3278 2031 -1736 4242 3189 0
40969 -3278 2031 -1736 4242 -3189 0
39039 -3278 2031 -1736 -4242 3189 0
41163 -3278 2031 -1736 -4242 -3189 0
37752 -3278 -2031 1736 4242 3189 0
40583 -3278 -2031 1736 4242 -3189 0
38267 -3278 -2031 1736 -4242 3189 0
40815 -3278 -2031 1736 -4242 -3189 0
41613 -3278 -2031 -1736 4242 3189 0
42321 -3278 -2031 -1736 4242 -3189 0
41742 -3278 -2031 -1736 -4242 3189 0
42379 -3278 -2031 -1736 -4242 -3189 0
11400 3149 1527 2509 -4635 0
10450 3149 1527 -2509 4635 0
15580 3149 1527 -2509 -4635 0
9500 3149 -1527 2509 4635 0
15200 3149 -1527 2509 -4635 0
14725 3149 -1527 -2509 4635 0
17290 3149 -1527 -2509 -4635 0
2280 -3149 1527 2509 4635 0
12312 -3149 1527 2509 -4635 0
11476 -3149 1527 -2509 4635 0
15990 -3149 1527 -2509 -4635 0
10640 -3149 -1527 2509 4635 0
15656 -3149 -1527 2509 -4635 0
15238 -3149 -1527 -2509 4635 0
17495 -3149 -1527 -2509 -4635 0
12350 -3934 0
32175 2557 -2699 0
21450 -2557 2699 0
37538 -2557 -2699 0
13300 4711 3359 -2078 0
15200 4711 -3359 2078 0
17860 4711 -3359 -2078 0
9500 -4711 3359 2078 0
16150 -4711 3359 -2078 0
17100 -4711 -3359 2078 0
18430 -4711 -3359 -2078 0
4960 3685 -4689 0
4650 -3685 4689 0
5890 -3685 -4689 0
16965 3358 3299 -1893 0
15080 3358 -3299 1893 0
25259 3358 -3299 -1893 0
26390 -3358 3299 1893 0
31479 -3358 3299 -1893 0
30914 -3358 -3299 1893 0
33968 -3358 -3299 -1893 0
6786 4968 -1760 0
4524 -4968 1760 0
10496 -4968 -1760 0
3424 2775 4259 -2847 0
3424 2775 -4259 2847 0
5752 2775 -4259 -2847 0
3745 -2775 4259 2847 0
5971 -2775 4259 -2847 0
5971 -2775 -4259 2847 0
7484 -2775 -4259 -2847 0
1116 4524 -3119 0
5270 -4524 3119 0
5437 -4524 -3119 0
6420 3051 -4439 0
9095 -3051 4439 0
10058 -3051 -4439 0
2850 4669 4572 -3868 0
950 4669 -4572 3868 0
3658 4669 -4572 -3868 0
14250 -4669 4572 3868 0
14962 -4669 4572 -3868 0
14488 -4669 -4572 3868 0
15164 -4669 -4572 -3868 0
14326 -3301 0
9500 4483 2573 -3863 0
8550 4483 -2573 3863 0
13775 4483 -2573 -3863 0
2850 -4483 2573 3863 0
10925 -4483 2573 -3863 0
10117 -4483 -2573 3863 0
14559 -4483 -2573 -3863 0
24505 -4911 0
2790 3225 -2345 0
1550 -3225 2345 0
3642 -3225 -2345 0
27885 -3095 0
1926 -1867 0
16150 -5033 0
1926 2214 2470 -4372 0
2140 2214 -2470 4372 0
3681 2214 -2470 -4372 0
8025 -2214 2470 4372 0
8506 -2214 2470 -4372 0
8560 -2214 -2470 4372 0
8945 -2214 -2470 -4372 0
18050 3054 1658 -4798 0
7220 3054 -1658 4798 0
18411 3054 -1658 -4798 0
380 -3054 1658 4798 0
18069 -3054 1658 -4798 0
7456 -3054 -1658 4798 0
18423 -3054 -1658 -4798 0
2140 1998 1624 -2738 0
8025 1998 -1624 2738 0
8560 1998 -1624 -2738 0
3210 -1998 1624 2738 0
4708 -1998 1624 -2738 0
8827 -1998 -1624 2738 0
9202 -1998 -1624 -2738 0
5350 3766 1720 4161 -2696 0
4066 3766 1720 -4161 2696 0
7383 3766 1720 -4161 -2696 0
214 3766 -1720 4161 2696 0
5457 3766 -1720 4161 -2696 0
4199 3766 -1720 -4161 2696 0
7449 3766 -1720 -4161 -2696 0
2140 -3766 1720 4161 2696 0
6420 -3766 1720 4161 -2696 0
5393 -3766 1720 -4161 2696 0
8046 -3766 1720 -4161 -2696 0
2311 -3766 -1720 4161 2696 0
6506 -3766 -1720 4161 -2696 0
5499 -3766 -1720 -4161 2696 0
8099 -3766 -1720 -4161 -2696 0
1284 5091 -1913 0
2140 -5091 1913 0
3167 -5091 -1913 0
15200 -2199 0
12350 1712 -3190 0
2850 -1712 3190 0
13347 -1712 -3190 0
10725 3464 -2781 0
19305 -3464 2781 0
25204 -3464 -2781 0
3100 2483 2623 -3622 0
4650 2483 -2623 3622 0
5425 2483 -2623 -3622 0
4650 -2483 2623 3622 0
5425 -2483 2623 -3622 0
5812 -2483 -2623 3622 0
6006 -2483 -2623 -3622 0
124 -1536 0
25740 -4344 0
3420 -4696 0
8580 3703 4875 4196 -4697 0
25740 3703 4875 -4196 4697 0
29172 3703 4875 -4196 -4697 0
2145 3703 -4875 4196 4697 0
10296 3703 -4875 4196 -4697 0
26598 3703 -4875 -4196 4697 0
29858 3703 -4875 -4196 -4697 0
6435 -3703 4875 4196 4697 0
13728 -3703 4875 4196 -4697 0
28314 -3703 4875 -4196 4697 0
31231 -3703 4875 -4196 -4697 0
8258 -3703 -4875 4196 4697 0
15187 -3703 -4875 4196 -4697 0
29043 -3703 -4875 -4196 4697 0
31815 -3703 -4875 -4196 -4697 0
3800 -4512 0
24505 5092 -2465 0
35815 -5092 2465 0
37040 -5092 -2465 0
950 3045 4147 -4827 0
5700 3045 -4147 4827 0
6365 3045 -4147 -4827 0
15200 -3045 4147 4827 0
15390 -3045 4147 -4827 0
16340 -3045 -4147 4827 0
16473 -3045 -4147 -4827 0
14326 4823 -3711 0
6786 -4823 3711 0
18533 -4823 -3711 0
744 -2006 0
3210 2886 -3629 0
2140 -2886 3629 0
4708 -2886 -3629 0
23595 2554 -3370 0
7722 -2554 3370 0
27070 -2554 -3370 0
4066 3104 -3187 0
6955 -3104 3187 0
8378 -3104 -3187 0
4290 3833 -2026 0
34320 -3833 2026 0
35178 -3833 -2026 0
7722 4657 -4641 0
21450 -4657 4641 0
25311 -4657 -4641 0
23595 4714 3992 -4117 0
13728 4714 -3992 4117 0
29773 4714 -3992 -4117 0
38610 -4714 3992 4117 0
40970 -4714 3992 -4117 0
39983 -4714 -3992 4117 0
41587 -4714 -3992 -4117 0
930 2497 -4636 0
4650 -2497 4636 0
4882 -2497 -4636 0
7540 4664 -4269 0
4524 -4664 4269 0
11159 -4664 -4269 0
3410 1810 3174 3247 -3689 0
1116 1810 3174 -3247 3689 0
3912 1810 3174 -3247 -3689 0
5580 1810 -3174 3247 3689 0
5921 1810 -3174 3247 -3689 0
5692 1810 -3174 -3247 3689 0
5971 1810 -3174 -3247 -3689 0
2356 -1810 3174 3247 3689 0
4470 -1810 3174 3247 -3689 0
3048 -1810 3174 -3247 3689 0
4782 -1810 3174 -3247 -3689 0
5816 -1810 -3174 3247 3689 0
6027 -1810 -3174 3247 -3689 0
5885 -1810 -3174 -3247 3689 0
6058 -1810 -3174 -3247 -3689 0
30030 3862 4039 -2408 0
21450 3862 -4039 2408 0
36465 3862 -4039 -2408 0
25740 -3862 4039 2408 0
37752 -3862 4039 -2408 0
34320 -3862 -4039 2408 0
40326 -3862 -4039 -2408 0
23595 1702 3523 -1980 0
23595 1702 -3523 1980 0
34213 1702 -3523 -1980 0
34320 -1702 3523 1980 0
39039 -1702 3523 -1980 0
39039 -1702 -3523 1980 0
41163 -1702 -3523 -1980 0
5700 4726 3714 -4022 0
3420 4726 -3714 4022 0
8094 4726 -3714 -4022 0
7600 -4726 3714 4022 0
11020 -4726 3714 -4022 0
9652 -4726 -3714 4022 0
12456 -4726 -3714 -4022 0
20735 4579 -2572 0
35815 -4579 2572 0
36852 -4579 -2572 0
4340 1571 3702 -4775 0
4340 1571 -3702 4775 0
5642 1571 -3702 -4775 0
620 -1571 3702 4775 0
4526 -1571 3702 -4775 0
4526 -1571 -3702 4775 0
5698 -1571 -3702 -4775 0
8580 -3969 0
7540 2272 2318 2137 -3139 0
7540 2272 2318 -2137 3139 0
13572 2272 2318 -2137 -3139 0
14326 2272 -2318 2137 3139 0
19001 2272 -2318 2137 -3139 0
19001 2272 -2318 -2137 3139 0
22741 2272 -2318 -2137 -3139 0
5655 -2272 2318 2137 3139 0
12064 -2272 2318 2137 -3139 0
12064 -2272 2318 -2137 3139 0
17191 -2272 2318 -2137 -3139 0
17832 -2272 -2318 2137 3139 0
21806 -2272 -2318 2137 -3139 0
21806 -2272 -2318 -2137 3139 0
24985 -2272 -2318 -2137 -3139 0
2850 2223 -2928 0
5700 -2223 2928 0
7695 -2223 -2928 0
22620 3944 -3116 0
16965 -3944 3116 0
29406 -3944 -3116 0
310 -4106 0
17160 -4997 0
30160 3249 2190 4661 5068 -2633 0
4524 3249 2190 4661 -5068 2633 0
31065 3249 2190 4661 -5068 -2633 0
11310 3249 2190 -4661 5068 2633 0
32422 3249 2190 -4661 5068 -2633 0
14477 3249 2190 -4661 -5068 2633 0
33055 3249 2190 -4661 -5068 -2633 0
3770 3249 -2190 4661 5068 2633 0
30914 3249 -2190 4661 5068 -2633 0
7842 3249 -2190 4661 -5068 2633 0
31728 3249 -2190 4661 -5068 -2633 0
13949 3249 -2190 -4661 5068 2633 0
32950 3249 -2190 -4661 5068 -2633 0
16799 3249 -2190 -4661 -5068 2633 0
33520 3249 -2190 -4661 -5068 -2633 0
26390 -3249 2190 4661 5068 2633 0
35438 -3249 2190 4661 5068 -2633 0
27747 -3249 2190 4661 -5068 2633 0
35709 -3249 2190 4661 -5068 -2633 0
29783 -3249 2190 -4661 5068 2633 0
36117 -3249 2190 -4661 5068 -2633 0
30733 -3249 2190 -4661 -5068 2633 0
36307 -3249 2190 -4661 -5068 -2633 0
27521 -3249 -2190 4661 5068 2633 0
35664 -3249 -2190 4661 5068 -2633 0
28742 -3249 -2190 4661 -5068 2633 0
35908 -3249 -2190 4661 -5068 -2633 0
30575 -3249 -2190 -4661 5068 2633 0
36275 -3249 -2190 -4661 5068 -2633 0
31430 -3249 -2190 -4661 -5068 2633 0
36446 -3249 -2190 -4661 -5068 -2633 0
2850 4915 -2787 0
2850 -4915 2787 0
5273 -4915 -2787 0
930 -2753 0
27885 4727 3200 2091 -2508 0
30030 4727 3200 -2091 2508 0
38395 4727 3200 -2091 -2508 0
12870 4727 -3200 2091 2508 0
32389 4727 -3200 2091 -2508 0
33891 4727 -3200 -2091 2508 0
39747 4727 -3200 -2091 -2508 0
32175 -4727 3200 2091 2508 0
39146 -4727 3200 2091 -2508 0
39683 -4727 3200 -2091 2508 0
41774 -4727 3200 -2091 -2508 0
35392 -4727 -3200 2091 2508 0
40272 -4727 -3200 2091 -2508 0
40648 -4727 -3200 -2091 2508 0
42112 -4727 -3200 -2091 -2508 0
5700 3567 -2530 0
380 -3567 2530 0
5966 -3567 -2530 0
10165 3900 3849 -2489 0
3745 3900 -3849 2489 0
10352 3900 -3849 -2489 0
10165 -3900 3849 2489 0
10673 -3900 3849 -2489 0
10352 -3900 -3849 2489 0
10683 -3900 -3849 -2489 0
30160 -1661 0
6786 -3561 0
16965 3731 -4613 0
28275 -3731 4613 0
32516 -3731 -4613 0
9425 2213 3016 -3442 0
4524 2213 -3016 3442 0
12818 2213 -3016 -3442 0
6786 -2213 3016 3442 0
14515 -2213 3016 -3442 0
10496 -2213 -3016 3442 0
17297 -2213 -3016 -3442 0
1605 3918 -2075 0
5350 -3918 2075 0
6152 -3918 -2075 0
744 2729 -4020 0
744 -2729 4020 0
1399 -2729 -4020 0
3720 3394 2525 4496 -3457 0
1550 3394 2525 -4496 3457 0
4340 3394 2525 -4496 -3457 0
3720 3394 -2525 4496 3457 0
5208 3394 -2525 4496 -3457 0
4340 3394 -2525 -4496 3457 0
5456 3394 -2525 -4496 -3457 0
744 -3394 2525 4496 3457 0
4018 -3394 2525 4496 -3457 0
2108 -3394 2525 -4496 3457 0
4563 -3394 2525 -4496 -3457 0
4018 -3394 -2525 4496 3457 0
5327 -3394 -2525 4496 -3457 0
4563 -3394 -2525 -4496 3457 0
5545 -3394 -2525 -4496 -3457 0
23595 1952 4802 -3937 0
38610 1952 -4802 3937 0
40970 1952 -4802 -3937 0
2145 -1952 4802 3937 0
24560 -1952 4802 -3937 0
38825 -1952 -4802 3937 0
41066 -1952 -4802 -3937 0
4066 2980 -3144 0
9095 -2980 3144 0
9705 -2980 -3144 0
9095 -1834 0
16150 4883 3473 2037 2481 -2626 0
5700 4883 3473 2037 -2481 2626 0
17005 4883 3473 2037 -2481 -2626 0
2280 4883 3473 -2037 2481 2626 0
16492 4883 3473 -2037 2481 -2626 0
7296 4883 3473 -2037 -2481 2626 0
17244 4883 3473 -2037 -2481 -2626 0
12350 4883 -3473 2037 2481 2626 0
18003 4883 -3473 2037 2481 -2626 0
14345 4883 -3473 2037 -2481 2626 0
18302 4883 -3473 2037 -2481 -2626 0
13148 4883 -3473 -2037 2481 2626 0
18122 4883 -3473 -2037 2481 -2626 0
14904 4883 -3473 -2037 -2481 2626 0
18386 4883 -3473 -2037 -2481 -2626 0
1900 -4883 3473 2037 2481 2626 0
16435 -4883 3473 2037 2481 -2626 0
7030 -4883 3473 2037 -2481 2626 0
17204 -4883 3473 2037 -2481 -2626 0
3952 -4883 3473 -2037 2481 2626 0
16743 -4883 3473 -2037 2481 -2626 0
8466 -4883 3473 -2037 -2481 2626 0
17420 -4883 3473 -2037 -2481 -2626 0
13015 -4883 -3473 2037 2481 2626 0
18102 -4883 -3473 2037 2481 -2626 0
14811 -4883 -3473 2037 -2481 2626 0
18372 -4883 -3473 2037 -2481 -2626 0
13733 -4883 -3473 -2037 2481 2626 0
18210 -4883 -3473 -2037 2481 -2626 0
15313 -4883 -3473 -2037 -2481 2626 0
18447 -4883 -3473 -2037 -2481 -2626 0
4066 -3572 0
620 4041 -4858 0
310 -4041 4858 0
899 -4041 -4858 0
858 3855 -4031 0
34320 -3855 4031 0
34492 -3855 -4031 0
9500 4457 -4505 0
4750 -4457 4505 0
11875 -4457 -4505 0
15080 3031 3487 -4723 0
14326 3031 -3487 4723 0
23676 3031 -3487 -4723 0
1885 -3031 3487 4723 0
16211 -3031 3487 -4723 0
15495 -3031 -3487 4723 0
24377 -3031 -3487 -4723 0
5890 -2388 0
2850 -3026 0
30030 3531 1785 -3226 0
10725 3531 -1785 3226 0
33247 3531 -1785 -3226 0
4290 -3531 1785 3226 0
31317 -3531 1785 -3226 0
13942 -3531 -1785 3226 0
34213 -3531 -1785 -3226 0
21450 3390 -3832 0
10725 -3390 3832 0
26812 -3390 -3832 0
4340 4659 -4230 0
4960 -4659 4230 0
5828 -4659 -4230 0
9500 2905 -1671 0
16150 -2905 1671 0
17575 -2905 -1671 0
310 3162 2913 -2843 0
310 3162 -2913 2843 0
605 3162 -2913 -2843 0
4340 -3162 2913 2843 0
4433 -3162 2913 -2843 0
4433 -3162 -2913 2843 0
4521 -3162 -2913 -2843 0
8025 2216 4865 -2593 0
8025 2216 -4865 2593 0
10031 2216 -4865 -2593 0
2675 -2216 4865 2593 0
8694 -2216 4865 -2593 0
8694 -2216 -4865 2593 0
10198 -2216 -4865 -2593 0
3745 1656 1509 4890 -4075 0
3424 1656 1509 -4890 4075 0
5971 1656 1509 -4890 -4075 0
4280 1656 -1509 4890 4075 0
6527 1656 -1509 4890 -4075 0
6334 1656 -1509 -4890 4075 0
7862 1656 -1509 -4890 -4075 0
2140 -1656 1509 4890 4075 0
5136 -1656 1509 4890 -4075 0
4879 -1656 1509 -4890 4075 0
6916 -1656 1509 -4890 -4075 0
5564 -1656 -1509 4890 4075 0
7362 -1656 -1509 4890 -4075 0
7208 -1656 -1509 -4890 4075 0
8430 -1656 -1509 -4890 -4075 0
6435 -4333 0
13728 4736 2450 -3150 0
32175 4736 -2450 3150 0
35607 4736 -2450 -3150 0
25740 -4736 2450 3150 0
31231 -4736 2450 -3150 0
38610 -4736 -2450 3150 0
39983 -4736 -2450 -3150 0
40755 3424 2529 -4724 0
5148 3424 -2529 4724 0
41012 3424 -2529 -4724 0
16302 -3424 2529 4724 0
41570 -3424 2529 -4724 0
19494 -3424 -2529 4724 0
41730 -3424 -2529 -4724 0
9630 1996 3636 -2791 0
2675 1996 -3636 2791 0
9898 1996 -3636 -2791 0
5350 -1996 3636 2791 0
10165 -1996 3636 -2791 0
6688 -1996 -3636 2791 0
10299 -1996 -3636 -2791 0
18850 2021 1854 2866 -3624 0
30160 2021 1854 -2866 3624 0
33930 2021 1854 -2866 -3624 0
28275 2021 -1854 2866 3624 0
32988 2021 -1854 2866 -3624 0
35815 2021 -1854 -2866 3624 0
36757 2021 -1854 -2866 -3624 0
20735 -2021 1854 2866 3624 0
29218 -2021 1854 2866 -3624 0
34307 -2021 1854 -2866 3624 0
36004 -2021 1854 -2866 -3624 0
33459 -2021 -1854 2866 3624 0
35579 -2021 -1854 2866 -3624 0
36852 -2021 -1854 -2866 3624 0
37276 -2021 -1854 -2866 -3624 0
2850 4240 2118 -1805 0
5700 4240 -2118 1805 0
7695 4240 -2118 -1805 0
15200 -4240 2118 1805 0
15770 -4240 2118 -1805 0
16340 -4240 -2118 1805 0
16739 -4240 -2118 -1805 0
13195 3800 3826 5031 2926 -4781 0
5655 3800 3826 5031 -2926 4781 0
16871 3800 3826 5031 -2926 -4781 0
7540 3800 3826 -5031 2926 4781 0
18096 3800 3826 -5031 2926 -4781 0
12064 3800 3826 -5031 -2926 4781 0
21037 3800 3826 -5031 -2926 -4781 0
35815 3800 -3826 5031 2926 4781 0
36475 3800 -3826 5031 2926 -4781 0
36098 3800 -3826 5031 -2926 4781 0
36659 3800 -3826 5031 -2926 -4781 0
36192 3800 -3826 -5031 2926 4781 0
36720 3800 -3826 -5031 2926 -4781 0
36418 3800 -3826 -5031 -2926 4781 0
36867 3800 -3826 -5031 -2926 -4781 0
11310 -3800 3826 5031 2926 4781 0
20547 -3800 3826 5031 2926 -4781 0
15269 -3800 3826 5031 -2926 4781 0
23120 -3800 3826 5031 -2926 -4781 0
16588 -3800 3826 -5031 2926 4781 0
23977 -3800 3826 -5031 2926 -4781 0
19755 -3800 3826 -5031 -2926 4781 0
26036 -3800 3826 -5031 -2926 -4781 0
36381 -3800 -3826 5031 2926 4781 0
36842 -3800 -3826 5031 2926 -4781 0
36578 -3800 -3826 5031 -2926 4781 0
36971 -3800 -3826 5031 -2926 -4781 0
36644 -3800 -3826 -5031 2926 4781 0
37014 -3800 -3826 -5031 2926 -4781 0
36803 -3800 -3826 -5031 -2926 4781 0
37117 -3800 -3826 -5031 -2926 -4781 0
38610 4690 4777 2419 -3062 0
25740 4690 4777 -2419 3062 0
41184 4690 4777 -2419 -3062 0
27885 4690 -4777 2419 3062 0
41399 4690 -4777 2419 -3062 0
36894 4690 -4777 -2419 3062 0
42299 4690 -4777 -2419 -3062 0
16302 -4690 4777 2419 3062 0
40240 -4690 4777 2419 -3062 0
32261 -4690 4777 -2419 3062 0
41836 -4690 4777 -2419 -3062 0
33591 -4690 -4777 2419 3062 0
41969 -4690 -4777 2419 -3062 0
39176 -4690 -4777 -2419 3062 0
42528 -4690 -4777 -2419 -3062 0
7722 3142 2857 3562 -2814 0
36465 3142 2857 -3562 2814 0
37623 3142 2857 -3562 -2814 0
16302 3142 -2857 3562 2814 0
21090 3142 -2857 3562 -2814 0
38910 3142 -2857 -3562 2814 0
39628 3142 -2857 -3562 -2814 0
23595 -3142 2857 3562 2814 0
27070 -3142 2857 3562 -2814 0
40004 -3142 2857 -3562 2814 0
40525 -3142 2857 -3562 -2814 0
30931 -3142 -2857 3562 2814 0
33085 -3142 -2857 3562 -2814 0
41105 -3142 -2857 -3562 2814 0
41428 -3142 -2857 -3562 -2814 0
1070 -3365 0
8560 4549 1659 3297 -2133 0
2675 4549 1659 -3297 2133 0
9095 4549 1659 -3297 -2133 0
9095 4549 -1659 3297 2133 0
10379 4549 -1659 3297 -2133 0
9496 4549 -1659 -3297 2133 0
10459 4549 -1659 -3297 -2133 0
4066 -4549 1659 3297 2133 0
9373 -4549 1659 3297 -2133 0
5725 -4549 1659 -3297 2133 0
9705 -4549 1659 -3297 -2133 0
9705 -4549 -1659 3297 2133 0
10501 -4549 -1659 3297 -2133 0
9954 -4549 -1659 -3297 2133 0
10551 -4549 -1659 -3297 -2133 0
3720 -4732 0
21450 4028 2352 -5062 0
30030 4028 -2352 5062 0
36465 4028 -2352 -5062 0
10725 -4028 2352 5062 0
26812 -4028 2352 -5062 0
33247 -4028 -2352 5062 0
38074 -4028 -2352 -5062 0
4340 -1901 0
16150 1748 -2341 0
4750 -1748 2341 0
16862 -1748 -2341 0
4960 4266 4686 -2444 0
4650 4266 -4686 2444 0
5890 4266 -4686 -2444 0
1550 -4266 4686 2444 0
5270 -4266 4686 -2444 0
5038 -4266 -4686 2444 0
5968 -4266 -4686 -2444 0
8580 3515 5024 -5079 0
30030 3515 -5024 5079 0
32604 3515 -5024 -5079 0
38610 -3515 5024 5079 0
39468 -3515 5024 -5079 0
41613 -3515 -5024 5079 0
41870 -3515 -5024 -5079 0
18850 -1642 0
3210 -2228 0
3410 3734 -3430 0
4030 -3734 3430 0
5223 -3734 -3430 0
28275 2558 -3057 0
28275 -2558 3057 0
35344 -2558 -3057 0
33930 2233 4953 -4441 0
35815 2233 -4953 4441 0
37512 2233 -4953 -4441 0
22620 -2233 4953 4441 0
36192 -2233 4953 -4441 0
36946 -2233 -4953 4441 0
37625 -2233 -4953 -4441 0
33930 4411 -4150 0
9425 -4411 4150 0
34873 -4411 -4150 0
1240 3825 -2510 0
3410 -3825 2510 0
3968 -3825 -2510 0
15080 4403 -3700 0
1885 -4403 3700 0
16211 -4403 -3700 0
1885 3725 2242 -1800 0
24505 3725 -2242 1800 0
25165 3725 -2242 -1800 0
7540 -3725 2242 1800 0
9048 -3725 2242 -1800 0
27144 -3725 -2242 1800 0
27672 -3725 -2242 -1800 0
1984 4183 4120 -4021 0
4650 4183 -4120 4021 0
5146 4183 -4120 -4021 0
1116 -4183 4120 4021 0
2743 -4183 4120 -4021 0
4929 -4183 -4120 4021 0
5336 -4183 -4120 -4021 0
214 4962 -3956 0
2140 -4962 3956 0
2311 -4962 -3956 0
5700 -2325 0
5350 2833 1542 -4287 0
8560 2833 -1542 4287 0
9630 2833 -1542 -4287 0
3424 -2833 1542 4287 0
7062 -2833 1542 -4287 0
9245 -2833 -1542 4287 0
9972 -2833 -1542 -4287 0
24505 3286 2638 -3489 0
1885 3286 -2638 3489 0
25165 3286 -2638 -3489 0
6786 -3286 2638 3489 0
26880 -3286 2638 -3489 0
8332 -3286 -2638 3489 0
27421 -3286 -2638 -3489 0
30030 4734 -1767 0
38610 -4734 1767 0
41613 -4734 -1767 0
5350 -2973 0
950 1692 1734 -1625 0
380 1692 -1734 1625 0
1311 1692 -1734 -1625 0
3420 -1692 1734 1625 0
4199 -1692 1734 -1625 0
3732 -1692 -1734 1625 0
4495 -1692 -1734 -1625 0
2145 -3272 0
30030 5058 4542 3587 -2766 0
27885 5058 4542 -3587 2766 0
38395 5058 4542 -3587 -2766 0
858 5058 -4542 3587 2766 0
30287 5058 -4542 3587 -2766 0
28185 5058 -4542 -3587 2766 0
38486 5058 -4542 -3587 -2766 0
4290 -5058 4542 3587 2766 0
31317 -5058 4542 3587 -2766 0
29387 -5058 4542 -3587 2766 0
38846 -5058 4542 -3587 -2766 0
5062 -5058 -4542 3587 2766 0
31549 -5058 -4542 3587 -2766 0
29657 -5058 -4542 -3587 2766 0
38927 -5058 -4542 -3587 -2766 0
15080 3397 3197 -4072 0
5655 3397 -3197 4072 0
18473 3397 -3197 -4072 0
22620 -3397 3197 4072 0
28652 -3397 3197 -4072 0
24882 -3397 -3197 4072 0
30009 -3397 -3197 -4072 0
34320 3637 -1872 0
15015 -3637 1872 0
37323 -3637 -1872 0
17100 -2852 0
5148 3580 1630 -2548 0
38610 3580 -1630 2548 0
39125 3580 -1630 -2548 0
40755 -3580 1630 2548 0
41012 -3580 1630 -2548 0
42686 -3580 -1630 2548 0
42711 -3580 -1630 -2548 0
15200 -4733 0
30030 5043 1982 -2333 0
36465 5043 -1982 2333 0
40969 5043 -1982 -2333 0
27885 -5043 1982 2333 0
38395 -5043 1982 -2333 0
40648 -5043 -1982 2333 0
42224 -5043 -1982 -2333 0
16302 3967 4597 2230 -2822 0
21450 3967 4597 -2230 2822 0
29601 3967 4597 -2230 -2822 0
12870 3967 -4597 2230 2822 0
24281 3967 -4597 2230 -2822 0
27885 3967 -4597 -2230 2822 0
33591 3967 -4597 -2230 -2822 0
27885 -3967 4597 2230 2822 0
33591 -3967 4597 2230 -2822 0
35392 -3967 4597 -2230 2822 0
38245 -3967 4597 -2230 -2822 0
32389 -3967 -4597 2230 2822 0
36383 -3967 -4597 2230 -2822 0
37645 -3967 -4597 -2230 2822 0
39642 -3967 -4597 -2230 -2822 0
1070 -3569 0
32175 4650 -1698 0
6435 -4650 1698 0
33784 -4650 -1698 0
27885 3148 -2084 0
10725 -3148 2084 0
31639 -3148 -2084 0
3800 -2688 0
3100 -4767 0
40755 2951 -2727 0
27885 -2951 2727 0
42149 -2951 -2727 0
12350 4101 2437 3126 -2059 0
16150 4101 2437 -3126 2059 0
18003 4101 2437 -3126 -2059 0
380 4101 -2437 3126 2059 0
12483 4101 -2437 3126 -2059 0
16207 4101 -2437 -3126 2059 0
18022 4101 -2437 -3126 -2059 0
13300 -4101 2437 3126 2059 0
17005 -4101 2437 3126 -2059 0
18145 -4101 2437 -3126 2059 0
18701 -4101 2437 -3126 -2059 0
13414 -4101 -2437 3126 2059 0
17045 -4101 -2437 3126 -2059 0
18162 -4101 -2437 -3126 2059 0
18707 -4101 -2437 -3126 -2059 0
13195 -4906 0
17160 3736 -2342 0
10725 -3736 2342 0
23595 -3736 -2342 0
3410 3903 -4518 0
4960 -3903 4518 0
5642 -3903 -4518 0
535 -2537 0
124 3796 -2516 0
744 -3796 2516 0
853 -3796 -2516 0
9630 -3019 0
1284 2836 3940 -4217 0
1070 2836 -3940 4217 0
2226 2836 -3940 -4217 0
6420 -2836 3940 4217 0
6934 -2836 3940 -4217 0
6848 -2836 -3940 4217 0
7310 -2836 -3940 -4217 0
33930 2826 3439 3321 2013 -2871 0
9425 2826 3439 3321 -2013 2871 0
34873 2826 3439 3321 -2013 -2871 0
33930 2826 3439 -3321 2013 2871 0
37323 2826 3439 -3321 2013 -2871 0
34873 2826 3439 -3321 -2013 2871 0
37417 2826 3439 -3321 -2013 -2871 0
5655 2826 -3439 3321 2013 2871 0
34496 2826 -3439 3321 2013 -2871 0
13666 2826 -3439 3321 -2013 2871 0
35297 2826 -3439 3321 -2013 -2871 0
34496 2826 -3439 -3321 2013 2871 0
37380 2826 -3439 -3321 2013 -2871 0
35297 2826 -3439 -3321 -2013 2871 0
37460 2826 -3439 -3321 -2013 -2871 0
26390 -2826 3439 3321 2013 2871 0
36569 -2826 3439 3321 2013 -2871 0
29217 -2826 3439 3321 -2013 2871 0
36852 -2826 3439 3321 -2013 -2871 0
36569 -2826 3439 -3321 2013 2871 0
37587 -2826 3439 -3321 2013 -2871 0
36852 -2826 3439 -3321 -2013 2871 0
37615 -2826 3439 -3321 -2013 -2871 0
28087 -2826 -3439 3321 2013 2871 0
36739 -2826 -3439 3321 2013 -2871 0
30490 -2826 -3439 3321 -2013 2871 0
36979 -2826 -3439 3321 -2013 -2871 0
36739 -2826 -3439 -3321 2013 2871 0
37604 -2826 -3439 -3321 2013 -2871 0
36979 -2826 -3439 -3321 -2013 2871 0
37628 -2826 -3439 -3321 -2013 -2871 0
2145 2839 2901 -4063 0
8580 2839 -2901 4063 0
10296 2839 -2901 -4063 0
17160 -2839 2901 4063 0
18447 -2839 2901 -4063 0
22308 -2839 -2901 4063 0
23338 -2839 -2901 -4063 0
4030 4019 4032 -3584 0
3410 4019 -4032 3584 0
5223 4019 -4032 -3584 0
1116 -4019 4032 3584 0
4421 -4019 4032 -3584 0
3912 -4019 -4032 3584 0
5399 -4019 -4032 -3584 0
18850 4138 4718 -2749 0
16965 4138 -4718 2749 0
27332 4138 -4718 -2749 0
18850 -4138 4718 2749 0
28275 -4138 4718 -2749 0
27332 -4138 -4718 2749 0
32516 -4138 -4718 -2749 0
4960 -3795 0
8560 2840 -3288 0
1605 -2840 3288 0
8881 -2840 -3288 0
8550 3386 3048 -3168 0
6650 3386 -3048 3168 0
12207 3386 -3048 -3168 0
9500 -3386 3048 3168 0
13775 -3386 3048 -3168 0
12825 -3386 -3048 3168 0
15604 -3386 -3048 -3168 0
5270 3834 -4069 0
930 -3834 4069 0
5410 -3834 -4069 0
930 4871 4804 3046 -2577 0
2480 4871 4804 -3046 2577 0
3038 4871 4804 -3046 -2577 0
4960 4871 -4804 3046 2577 0
5146 4871 -4804 3046 -2577 0
5456 4871 -4804 -3046 2577 0
5568 4871 -4804 -3046 -2577 0
930 -4871 4804 3046 2577 0
1721 -4871 4804 3046 -2577 0
3038 -4871 4804 -3046 2577 0
3512 -4871 4804 -3046 -2577 0
5146 -4871 -4804 3046 2577 0
5304 -4871 -4804 3046 -2577 0
5568 -4871 -4804 -3046 2577 0
5662 -4871 -4804 -3046 -2577 0
620 1904 4786 -2660 0
4340 1904 -4786 2660 0
4526 1904 -4786 -2660 0
1550 -1904 4786 2660 0
2015 -1904 4786 -2660 0
4805 -1904 -4786 2660 0
4945 -1904 -4786 -2660 0
34320 -5014 0
3410 -1956 0
1116 3577 -3404 0
1240 -3577 3404 0
2133 -3577 -3404 0
10725 -1506 0
7490 1603 2350 3874 -1664 0
9630 1603 2350 -3874 1664 0
10379 1603 2350 -3874 -1664 0
3745 1603 -2350 3874 1664 0
8613 1603 -2350 3874 -1664 0
10005 1603 -2350 -3874 1664 0
10491 1603 -2350 -3874 -1664 0
1284 -1603 2350 3874 1664 0
7875 -1603 2350 3874 -1664 0
9758 -1603 2350 -3874 1664 0
10418 -1603 2350 -3874 -1664 0
4580 -1603 -2350 3874 1664 0
8864 -1603 -2350 3874 -1664 0
10088 -1603 -2350 -3874 1664 0
10516 -1603 -2350 -3874 -1664 0
8560 4189 -3176 0
3745 -4189 3176 0
9309 -4189 -3176 0
34320 4000 -3008 0
7722 -4000 3008 0
35864 -4000 -3008 0
5700 1825 2740 -3041 0
6650 1825 -2740 3041 0
10355 1825 -2740 -3041 0
15200 -1825 2740 3041 0
16340 -1825 2740 -3041 0
16530 -1825 -2740 3041 0
17271 -1825 -2740 -3041 0
15015 -2062 0
11400 -2030 0
2480 3130 -3518 0
3100 -3130 3518 0
4340 -3130 -3518 0
1550 3717 3303 3141 1779 -4104 0
1984 3717 3303 3141 -1779 4104 0
3038 3717 3303 3141 -1779 -4104 0
4340 3717 3303 -3141 1779 4104 0
4805 3717 3303 -3141 1779 -4104 0
4935 3717 3303 -3141 -1779 4104 0
5251 3717 3303 -3141 -1779 -4104 0
3410 3717 -3303 3141 1779 4104 0
4108 3717 -3303 3141 1779 -4104 0
4303 3717 -3303 3141 -1779 4104 0
4777 3717 -3303 3141 -1779 -4104 0
5363 3717 -3303 -3141 1779 4104 0
5572 3717 -3303 -3141 1779 -4104 0
5631 3717 -3303 -3141 -1779 4104 0
5773 3717 -3303 -3141 -1779 -4104 0
5580 -3717 3303 3141 1779 4104 0
5735 -3717 3303 3141 1779 -4104 0
5778 -3717 3303 3141 -1779 4104 0
5884 -3717 3303 3141 -1779 -4104 0
6014 -3717 3303 -3141 1779 4104 0
6061 -3717 3303 -3141 1779 -4104 0
6074 -3717 3303 -3141 -1779 4104 0
6105 -3717 3303 -3141 -1779 -4104 0
5921 -3717 -3303 3141 1779 4104 0
5991 -3717 -3303 3141 1779 -4104 0
6010 -3717 -3303 3141 -1779 4104 0
6058 -3717 -3303 3141 -1779 -4104 0
6116 -3717 -3303 -3141 1779 4104 0
6137 -3717 -3303 -3141 1779 -4104 0
6143 -3717 -3303 -3141 -1779 4104 0
6157 -3717 -3303 -3141 -1779 -4104 0
2170 3604 3097 -1627 0
930 3604 -3097 1627 0
2775 3604 -3097 -1627 0
4030 -3604 3097 1627 0
4789 -3604 3097 -1627 0
4355 -3604 -3097 1627 0
5001 -3604 -3097 -1627 0
9095 2580 -4414 0
535 -2580 4414 0
9175 -2580 -4414 0
15200 5036 -3087 0
1900 -5036 3087 0
15580 -5036 -3087 0
4750 1753 -3898 0
18050 -1753 3898 0
18287 -1753 -3898 0
3420 3435 2372 2674 2987 -2904 0
18050 3435 2372 2674 -2987 2904 0
18221 3435 2372 2674 -2987 -2904 0
2280 3435 2372 -2674 2987 2904 0
5290 3435 2372 -2674 2987 -2904 0
18164 3435 2372 -2674 -2987 2904 0
18314 3435 2372 -2674 -2987 -2904 0
3420 3435 -2372 2674 2987 2904 0
6224 3435 -2372 2674 2987 -2904 0
18221 3435 -2372 2674 -2987 2904 0
18361 3435 -2372 2674 -2987 -2904 0
5290 3435 -2372 -2674 2987 2904 0
7757 3435 -2372 -2674 2987 -2904 0
18314 3435 -2372 -2674 -2987 2904 0
18438 3435 -2372 -2674 -2987 -2904 0
17100 -3435 2372 2674 2987 2904 0
17442 -3435 2372 2674 2987 -2904 0
18905 -3435 2372 2674 -2987 2904 0
18922 -3435 2372 2674 -2987 -2904 0
17328 -3435 2372 -2674 2987 2904 0
17629 -3435 2372 -2674 2987 -2904 0
18916 -3435 2372 -2674 -2987 2904 0
18931 -3435 2372 -2674 -2987 -2904 0
17442 -3435 -2372 2674 2987 2904 0
17722 -3435 -2372 2674 2987 -2904 0
18922 -3435 -2372 2674 -2987 2904 0
18936 -3435 -2372 2674 -2987 -2904 0
17629 -3435 -2372 -2674 2987 2904 0
17876 -3435 -2372 -2674 2987 -2904 0
18931 -3435 -2372 -2674 -2987 2904 0
18944 -3435 -2372 -2674 -2987 -2904 0
12064 3837 -2125 0
13195 -3837 2125 0
21037 -3837 -2125 0
30030 3001 -3334 0
25740 -3001 3334 0
37752 -3001 -3334 0
1240 -1691 0
18850 2706 2187 -4857 0
11310 2706 -2187 4857 0
24505 2706 -2187 -4857 0
18850 -2706 2187 4857 0
28275 -2706 2187 -4857 0
24505 -2706 -2187 4857 0
31102 -2706 -2187 -4857 0
35815 4817 2040 -3109 0
6786 4817 -2040 3109 0
36154 4817 -2040 -3109 0
1885 -4817 2040 3109 0
35909 -4817 2040 -3109 0
8332 -4817 -2040 3109 0
36232 -4817 -2040 -3109 0
12870 2643 2016 1865 2888 -1693 0
21450 2643 2016 1865 -2888 1693 0
27885 2643 2016 1865 -2888 -1693 0
16302 2643 2016 -1865 2888 1693 0
24281 2643 2016 -1865 2888 -1693 0
29601 2643 2016 -1865 -2888 1693 0
33591 2643 2016 -1865 -2888 -1693 0
17160 2643 -2016 1865 2888 1693 0
24882 2643 -2016 1865 2888 -1693 0
30030 2643 -2016 1865 -2888 1693 0
33891 2643 -2016 1865 -2888 -1693 0
26941 2643 -2016 -1865 2888 1693 0
31729 2643 -2016 -1865 2888 -1693 0
34921 2643 -2016 -1865 -2888 1693 0
37314 2643 -2016 -1865 -2888 -1693 0
23595 -2643 2016 1865 2888 1693 0
29387 -2643 2016 1865 2888 -1693 0
33248 -2643 2016 1865 -2888 1693 0
36143 -2643 2016 1865 -2888 -1693 0
30931 -2643 2016 -1865 2888 1693 0
34522 -2643 2016 -1865 2888 -1693 0
36915 -2643 2016 -1865 -2888 1693 0
38711 -2643 2016 -1865 -2888 -1693 0
31317 -2643 -2016 1865 2888 1693 0
34792 -2643 -2016 1865 2888 -1693 0
37108 -2643 -2016 1865 -2888 1693 0
38846 -2643 -2016 1865 -2888 -1693 0
35719 -2643 -2016 -1865 2888 1693 0
37873 -2643 -2016 -1865 2888 -1693 0
39309 -2643 -2016 -1865 -2888 1693 0
40386 -2643 -2016 -1865 -2888 -1693 0
1605 3460 -2523 0
8560 -3460 2523 0
8881 -3460 -2523 0
10165 3337 2647 4489 1970 -4078 0
214 3337 2647 4489 -1970 4078 0
10176 3337 2647 4489 -1970 -4078 0
4066 3337 2647 -4489 1970 4078 0
10368 3337 2647 -4489 1970 -4078 0
4199 3337 2647 -4489 -1970 4078 0
10375 3337 2647 -4489 -1970 -4078 0
5885 3337 -2647 4489 1970 4078 0
10459 3337 -2647 4489 1970 -4078 0
5981 3337 -2647 4489 -1970 4078 0
10464 3337 -2647 4489 -1970 -4078 0
7715 3337 -2647 -4489 1970 4078 0
10551 3337 -2647 -4489 1970 -4078 0
7774 3337 -2647 -4489 -1970 4078 0
10554 3337 -2647 -4489 -1970 -4078 0
4815 -3337 2647 4489 1970 4078 0
10406 -3337 2647 4489 1970 -4078 0
4933 -3337 2647 4489 -1970 4078 0
10412 -3337 2647 4489 -1970 -4078 0
7051 -3337 2647 -4489 1970 4078 0
10518 -3337 2647 -4489 1970 -4078 0
7124 -3337 2647 -4489 -1970 4078 0
10521 -3337 2647 -4489 -1970 -4078 0
8052 -3337 -2647 4489 1970 4078 0
10568 -3337 -2647 4489 1970 -4078 0
8105 -3337 -2647 4489 -1970 4078 0
10570 -3337 -2647 4489 -1970 -4078 0
9058 -3337 -2647 -4489 1970 4078 0
10618 -3337 -2647 -4489 1970 -4078 0
9091 -3337 -2647 -4489 -1970 4078 0
10620 -3337 -2647 -4489 -1970 -4078 0
5890 4765 4847 -2436 0
124 4765 -4847 2436 0
5896 4765 -4847 -2436 0
3720 -4765 4847 2436 0
6076 -4765 4847 -2436 0
3770 -4765 -4847 2436 0
6078 -4765 -4847 -2436 0
3420 -1780 0
3210 1531 -3178 0
2140 -1531 3178 0
4708 -1531 -3178 0
20735 3566 -3078 0
30160 -3566 3078 0
34307 -3566 -3078 0
17100 -3495 0
3410 -4109 0
620 3597 -4362 0
4340 -3597 4362 0
4526 -3597 -4362 0
5148 2061 4548 4876 -1951 0
6435 2061 4548 -4876 1951 0
10811 2061 4548 -4876 -1951 0
36465 2061 -4548 4876 1951 0
37237 2061 -4548 4876 -1951 0
37430 2061 -4548 -4876 1951 0
38087 2061 -4548 -4876 -1951 0
27885 -2061 4548 4876 1951 0
29687 -2061 4548 4876 -1951 0
30137 -2061 4548 -4876 1951 0
31669 -2061 4548 -4876 -1951 0
40648 -2061 -4548 4876 1951 0
40918 -2061 -4548 4876 -1951 0
40986 -2061 -4548 -4876 1951 0
41215 -2061 -4548 -4876 -1951 0
310 3063 4782 -1563 0
3100 3063 -4782 1563 0
3255 3063 -4782 -1563 0
620 -3063 4782 1563 0
899 -3063 4782 -1563 0
3410 -3063 -4782 1563 0
3549 -3063 -4782 -1563 0
1550 4926 -2198 0
4650 -4926 2198 0
5038 -4926 -2198 0
2480 2512 -4194 0
3410 -2512 4194 0
4526 -2512 -4194 0
4340 -4363 0
12064 3199 -3897 0
7540 -3199 3897 0
17191 -3199 -3897 0
15015 2173 3683 -3656 0
36465 2173 -3683 3656 0
38717 2173 -3683 -3656 0
36465 -2173 3683 3656 0
38717 -2173 3683 -3656 0
41935 -2173 -3683 3656 0
42273 -2173 -3683 -3656 0
5350 4094 -3271 0
2675 -4094 3271 0
6688 -4094 -3271 0
7600 -4047 0
14326 -4680 0
2140 2054 4582 -3594 0
4066 2054 -4582 3594 0
5393 2054 -4582 -3594 0
3745 -2054 4582 3594 0
5136 -2054 4582 -3594 0
6388 -2054 -4582 3594 0
7250 -2054 -4582 -3594 0
10450 1950 2097 -3546 0
7600 1950 -2097 3546 0
13870 1950 -2097 -3546 0
4750 -1950 2097 3546 0
12588 -1950 2097 -3546 0
10450 -1950 -2097 3546 0
15153 -1950 -2097 -3546 0
11400 -2910 0
1070 3332 2088 -3843 0
4280 3332 -2088 3843 0
4922 3332 -2088 -3843 0
5885 -3332 2088 3843 0
6366 -3332 2088 -3843 0
7811 -3332 -2088 3843 0
8100 -3332 -2088 -3843 0
5350 3140 -4302 0
10165 -3140 4302 0
10433 -3140 -4302 0
5885 2407 -3155 0
6420 -2407 3155 0
8774 -2407 -3155 0
10450 3783 -2093 0
5700 -3783 2093 0
13015 -3783 -2093 0
5885 3030 3640 4219 -4050 0
2140 3030 3640 -4219 4050 0
6848 3030 3640 -4219 -4050 0
6420 3030 -3640 4219 4050 0
8774 3030 -3640 4219 -4050 0
7276 3030 -3640 -4219 4050 0
9159 3030 -3640 -4219 -4050 0
3745 -3030 3640 4219 4050 0
7570 -3030 3640 4219 -4050 0
5136 -3030 3640 -4219 4050 0
8196 -3030 3640 -4219 -4050 0
7918 -3030 -3640 4219 4050 0
9448 -3030 -3640 4219 -4050 0
8474 -3030 -3640 -4219 4050 0
9698 -3030 -3640 -4219 -4050 0
4750 4432 -4573 0
18050 -4432 4573 0
18287 -4432 -4573 0
4280 4859 -3887 0
8025 -4859 3887 0
9095 -4859 -3887 0
24505 -4175 0
620 2236 -1922 0
4340 -2236 1922 0
4526 -2236 -1922 0
4280 3081 -2406 0
2675 -3081 2406 0
5885 -3081 -2406 0
26390 3970 2602 -3756 0
18850 3970 -2602 3756 0
32045 3970 -2602 -3756 0
16965 -3970 2602 3756 0
31479 -3970 2602 -3756 0
27332 -3970 -2602 3756 0
34590 -3970 -2602 -3756 0
754 3456 -2673 0
4524 -3456 2673 0
5188 -3456 -2673 0
4290 3752 4938 -3882 0
38610 3752 -4938 3882 0
39039 3752 -4938 -3882 0
21450 -3752 4938 3882 0
23595 -3752 4938 -3882 0
40755 -3752 -4938 3882 0
40969 -3752 -4938 -3882 0
1885 4493 2597 3262 -2758 0
14326 4493 2597 -3262 2758 0
15495 4493 2597 -3262 -2758 0
5655 4493 -2597 3262 2758 0
7257 4493 -2597 3262 -2758 0
17832 4493 -2597 -3262 2758 0
18825 4493 -2597 -3262 -2758 0
4524 -4493 2597 3262 2758 0
6183 -4493 2597 3262 -2758 0
17131 -4493 2597 -3262 2758 0
18159 -4493 2597 -3262 -2758 0
9500 -4493 -2597 3262 2758 0
10910 -4493 -2597 3262 -2758 0
20216 -4493 -2597 -3262 2758 0
21090 -4493 -2597 -3262 -2758 0
3100 -2924 0
13195 4989 3407 4461 -4370 0
13195 4989 3407 -4461 4370 0
21772 4989 3407 -4461 -4370 0
28275 4989 -3407 4461 4370 0
31574 4989 -3407 4461 -4370 0
31574 4989 -3407 -4461 4370 0
33718 4989 -3407 -4461 -4370 0
22620 -4989 3407 4461 4370 0
27898 -4989 3407 4461 -4370 0
27898 -4989 3407 -4461 4370 0
31329 -4989 3407 -4461 -4370 0
33930 -4989 -3407 4461 4370 0
35250 -4989 -3407 4461 -4370 0
35250 -4989 -3407 -4461 4370 0
36107 -4989 -3407 -4461 -4370 0
214 3537 -4842 0
8025 -3537 4842 0
8078 -3537 -4842 0
6786 -4888 0
11400 1544 -4209 0
380 -1544 4209 0
11552 -1544 -4209 0
754 -4595 0
4290 4981 5015 -3033 0
21450 4981 -5015 3033 0
23595 4981 -5015 -3033 0
34320 -4981 5015 3033 0
35178 -4981 5015 -3033 0
38610 -4981 -5015 3033 0
39039 -4981 -5015 -3033 0
7722 3361 -2641 0
40755 -3361 2641 0
41141 -3361 -2641 0
17160 4247 2077 -4059 0
30030 4247 -2077 4059 0
35178 4247 -2077 -4059 0
27885 -4247 2077 4059 0
33891 -4247 2077 -4059 0
38395 -4247 -2077 4059 0
40197 -4247 -2077 -4059 0
21450 3239 4532 -3595 0
7722 3239 -4532 3595 0
25311 3239 -4532 -3595 0
10725 -3239 4532 3595 0
26812 -3239 4532 -3595 0
16516 -3239 -4532 3595 0
29708 -3239 -4532 -3595 0
15080 -3296 0
535 -4884 0
3410 3099 -2644 0
310 -3099 2644 0
3549 -3099 -2644 0
11400 -2946 0
5890 -4265 0
3420 -1988 0
12870 3494 -2915 0
16302 -3494 2915 0
24281 -3494 -2915 0
12870 -3853 0
26390 4224 2425 3120 -3285 0
9425 4224 2425 -3120 3285 0
29217 4224 2425 -3120 -3285 0
20735 4224 -2425 3120 3285 0
32611 4224 -2425 3120 -3285 0
24976 4224 -2425 -3120 3285 0
33883 4224 -2425 -3120 -3285 0
15080 -4224 2425 3120 3285 0
30914 -4224 2425 3120 -3285 0
20735 -4224 2425 -3120 3285 0
32611 -4224 2425 -3120 -3285 0
27521 -4224 -2425 3120 3285 0
34646 -4224 -2425 3120 -3285 0
30066 -4224 -2425 -3120 3285 0
35410 -4224 -2425 -3120 -3285 0
950 4429 1898 -2162 0
7600 4429 -1898 2162 0
8170 4429 -1898 -2162 0
1900 -4429 1898 2162 0
2755 -4429 1898 -2162 0
8740 -4429 -1898 2162 0
9253 -4429 -1898 -2162 0
3210 4009 1596 3344 4905 -4791 0
3424 4009 1596 3344 -4905 4791 0
5607 4009 1596 3344 -4905 -4791 0
1926 4009 1596 -3344 4905 4791 0
4558 4009 1596 -3344 4905 -4791 0
4734 4009 1596 -3344 -4905 4791 0
6524 4009 1596 -3344 -4905 -4791 0
2675 4009 -1596 3344 4905 4791 0
5083 4009 -1596 3344 4905 -4791 0
5243 4009 -1596 3344 -4905 4791 0
6880 4009 -1596 3344 -4905 -4791 0
4120 4009 -1596 -3344 4905 4791 0
6094 4009 -1596 -3344 4905 -4791 0
6225 4009 -1596 -3344 -4905 4791 0
7568 4009 -1596 -3344 -4905 -4791 0
9630 -4009 1596 3344 4905 4791 0
9951 -4009 1596 3344 4905 -4791 0
9972 -4009 1596 3344 -4905 4791 0
10191 -4009 1596 3344 -4905 -4791 0
9823 -4009 1596 -3344 4905 4791 0
10086 -4009 1596 -3344 4905 -4791 0
10103 -4009 1596 -3344 -4905 4791 0
10282 -4009 1596 -3344 -4905 -4791 0
9898 -4009 -1596 3344 4905 4791 0
10138 -4009 -1596 3344 4905 -4791 0
10154 -4009 -1596 3344 -4905 4791 0
10318 -4009 -1596 3344 -4905 -4791 0
10042 -4009 -1596 -3344 4905 4791 0
10239 -4009 -1596 -3344 4905 -4791 0
10253 -4009 -1596 -3344 -4905 4791 0
10387 -4009 -1596 -3344 -4905 -4791 0
2675 -2654 0
19305 -2379 0
5655 -2263 0
1860 1861 2334 -1732 0
4340 1861 -2334 1732 0
4898 1861 -2334 -1732 0
2170 -1861 2334 1732 0
3379 -1861 2334 -1732 0
4991 -1861 -2334 1732 0
5354 -1861 -2334 -1732 0
1550 2235 3312 4308 -3592 0
2790 2235 3312 -4308 3592 0
3642 2235 3312 -4308 -3592 0
3720 2235 -3312 4308 3592 0
4340 2235 -3312 4308 -3592 0
4836 2235 -3312 -4308 3592 0
5177 2235 -3312 -4308 -3592 0
2480 -2235 3312 4308 3592 0
3410 -2235 3312 4308 -3592 0
4154 -2235 3312 -4308 3592 0
4665 -2235 3312 -4308 -3592 0
4712 -2235 -3312 4308 3592 0
5084 -2235 -3312 4308 -3592 0
5382 -2235 -3312 -4308 3592 0
5586 -2235 -3312 -4308 -3592 0
34320 4299 4327 2079 -4379 0
5148 4299 4327 -2079 4379 0
35350 4299 4327 -2079 -4379 0
40755 4299 -4327 2079 4379 0
42471 4299 -4327 2079 -4379 0
41012 4299 -4327 -2079 4379 0
42522 4299 -4327 -2079 -4379 0
7722 -4299 4327 2079 4379 0
35864 -4299 4327 2079 -4379 0
11943 -4299 4327 -2079 4379 0
36709 -4299 4327 -2079 -4379 0
41141 -4299 -4327 2079 4379 0
42548 -4299 -4327 2079 -4379 0
41352 -4299 -4327 -2079 4379 0
42590 -4299 -4327 -2079 -4379 0
13195 4848 3280 3600 3451 -3143 0
33930 4848 3280 3600 -3451 3143 0
35250 4848 3280 3600 -3451 -3143 0
6786 4848 3280 -3600 3451 3143 0
17606 4848 3280 -3600 3451 -3143 0
34609 4848 3280 -3600 -3451 3143 0
35691 4848 3280 -3600 -3451 -3143 0
11310 4848 -3280 3600 3451 3143 0
20547 4848 -3280 3600 3451 -3143 0
35061 4848 -3280 3600 -3451 3143 0
35985 4848 -3280 3600 -3451 -3143 0
16060 4848 -3280 -3600 3451 3143 0
23634 4848 -3280 -3600 3451 -3143 0
35536 4848 -3280 -3600 -3451 3143 0
36293 4848 -3280 -3600 -3451 -3143 0
28275 -4848 3280 3600 3451 3143 0
31574 -4848 3280 3600 3451 -3143 0
36757 -4848 3280 3600 -3451 3143 0
37087 -4848 3280 3600 -3451 -3143 0
29971 -4848 3280 -3600 3451 3143 0
32676 -4848 3280 -3600 3451 -3143 0
36927 -4848 3280 -3600 -3451 3143 0
37198 -4848 3280 -3600 -3451 -3143 0
31102 -4848 -3280 3600 3451 3143 0
33412 -4848 -3280 3600 3451 -3143 0
37040 -4848 -3280 3600 -3451 3143 0
37271 -4848 -3280 3600 -3451 -3143 0
32290 -4848 -3280 -3600 3451 3143 0
34184 -4848 -3280 -3600 3451 -3143 0
37159 -4848 -3280 -3600 -3451 3143 0
37348 -4848 -3280 -3600 -3451 -3143 0
30160 2507 4340 -1576 0
754 2507 -4340 1576 0
30311 2507 -4340 -1576 0
1885 -2507 4340 1576 0
30537 -2507 4340 -1576 0
2601 -2507 -4340 1576 0
30680 -2507 -4340 -1576 0
3720 2140 -3347 0
3410 -2140 3347 0
5084 -2140 -3347 0
16150 2366 -3573 0
380 -2366 3573 0
16207 -2366 -3573 0
380 -2274 0
32045 2381 -3068 0
16965 -2381 3068 0
34590 -2381 -3068 0
27885 3490 3948 -3641 0
858 3490 -3948 3641 0
28185 3490 -3948 -3641 0
23595 -3490 3948 3641 0
36143 -3490 3948 -3641 0
23981 -3490 -3948 3641 0
36278 -3490 -3948 -3641 0
20735 4202 3691 3585 -3270 0
12064 4202 3691 -3585 3270 0
26164 4202 3691 -3585 -3270 0
28275 4202 -3691 3585 3270 0
33459 4202 -3691 3585 -3270 0
31291 4202 -3691 -3585 3270 0
34816 4202 -3691 -3585 -3270 0
12064 -4202 3691 3585 3270 0
26164 -4202 3691 3585 -3270 0
20268 -4202 3691 -3585 3270 0
29855 -4202 3691 -3585 -3270 0
31291 -4202 -3691 3585 3270 0
34816 -4202 -3691 3585 -3270 0
33342 -4202 -3691 -3585 3270 0
35739 -4202 -3691 -3585 -3270 0
10450 4591 2193 3131 -3693 0
15200 4591 2193 -3131 3693 0
17290 4591 2193 -3131 -3693 0
7600 4591 -2193 3131 3693 0
13870 4591 -2193 3131 -3693 0
16720 4591 -2193 -3131 3693 0
17974 4591 -2193 -3131 -3693 0
950 -4591 2193 3131 3693 0
10878 -4591 2193 3131 -3693 0
15390 -4591 2193 -3131 3693 0
17376 -4591 2193 -3131 -3693 0
8170 -4591 -2193 3131 3693 0
14127 -4591 -2193 3131 -3693 0
16834 -4591 -2193 -3131 3693 0
18025 -4591 -2193 -3131 -3693 0
1885 -1697 0
5885 3156 -4149 0
5350 -3156 4149 0
8292 -3156 -4149 0
10725 2271 -2710 0
36465 -2271 2710 0
38074 -2271 -2710 0
3770 3695 3274 -4770 0
30160 3695 -3274 4770 0
30914 3695 -3274 -4770 0
11310 -3695 3274 4770 0
13949 -3695 3274 -4770 0
32422 -3695 -3274 4770 0
32950 -3695 -3274 -4770 0
950 4706 1599 -4212 0
2850 4706 -1599 4212 0
3658 4706 -1599 -4212 0
16150 -4706 1599 4212 0
16292 -4706 1599 -4212 0
16578 -4706 -1599 4212 0
16699 -4706 -1599 -4212 0
5890 2314 3679 -2862 0
744 2314 -3679 2862 0
5927 2314 -3679 -2862 0
2170 -2314 3679 2862 0
5998 -2314 3679 -2862 0
2654 -2314 -3679 2862 0
6023 -2314 -3679 -2862 0
5148 -2576 0
4750 2752 -2944 0
11400 -2752 2944 0
13300 -2752 -2944 0
6080 -2505 0
4340 4698 -4729 0
1550 -4698 4729 0
4805 -4698 -4729 0
124 3677 4963 -3723 0
124 3677 -4963 3723 0
246 3677 -4963 -3723 0
2356 -3677 4963 3723 0
2433 -3677 4963 -3723 0
2433 -3677 -4963 3723 0
2508 -3677 -4963 -3723 0
1550 5085 -4234 0
2170 -5085 4234 0
3177 -5085 -4234 0
2356 1679 -3802 0
1116 -1679 3802 0
3048 -1679 -3802 0
4280 3469 2718 -4594 0
4066 3469 -2718 4594 0
6720 3469 -2718 -4594 0
8560 -3469 2718 4594 0
9416 -3469 2718 -4594 0
9373 -3469 -2718 4594 0
9904 -3469 -2718 -4594 0
858 4400 -1518 0
2145 -4400 1518 0
2960 -4400 -1518 0
12064 2024 3426 -1513 0
33930 2024 -3426 1513 0
35136 2024 -3426 -1513 0
20735 -2024 3426 1513 0
26164 -2024 3426 -1513 0
36004 -2024 -3426 1513 0
36546 -2024 -3426 -1513 0
6080 3488 -4761 0
12350 -3488 4761 0
14478 -3488 -4761 0
21450 -2065 0
535 1667 3564 -2677 0
4066 1667 -3564 2677 0
4398 1667 -3564 -2677 0
214 -1667 3564 2677 0
738 -1667 3564 -2677 0
4199 -1667 -3564 2677 0
4524 -1667 -3564 -2677 0
930 4336 -2151 0
1984 -4336 2151 0
2616 -4336 -2151 0
7220 4855 -3589 0
9500 -4855 3589 0
13110 -4855 -3589 0
5655 2000 -2354 0
11310 -2000 2354 0
15269 -2000 -2354 0
13300 4233 -3815 0
7220 -4233 3815 0
15466 -4233 -3815 0
28275 4831 4880 -3555 0
28275 4831 -4880 3555 0
35344 4831 -4880 -3555 0
35815 -4831 4880 3555 0
37229 -4831 4880 -3555 0
37229 -4831 -4880 3555 0
37582 -4831 -4880 -3555 0
32175 3279 -3406 0
34320 -3279 3406 0
40755 -3279 -3406 0
2145 -2996 0
6420 1747 -2488 0
1284 -1747 2488 0
6934 -1747 -2488 0
14326 2414 4359 -3657 0
9425 2414 -4359 3657 0
20170 2414 -4359 -3657 0
12064 -2414 4359 3657 0
21806 -2414 4359 -3657 0
18473 -2414 -4359 3657 0
25779 -2414 -4359 -3657 0
9425 3842 -1745 0
15080 -3842 1745 0
20735 -3842 -1745 0
11400 2421 4510 -1502 0
18050 2421 -4510 1502 0
18620 2421 -4510 -1502 0
8550 -2421 4510 1502 0
14820 -2421 4510 -1502 0
18477 -2421 -4510 1502 0
18791 -2421 -4510 -1502 0
930 2931 1510 -1584 0
620 2931 -1510 1584 0
1457 2931 -1510 -1584 0
310 -2931 1510 1584 0
1194 -2931 1510 -1584 0
899 -2931 -1510 1584 0
1694 -2931 -1510 -1584 0
30030 3738 -3436 0
23595 -3738 3436 0
37108 -3738 -3436 0
32045 1570 -3379 0
35815 -1570 3379 0
37417 -1570 -3379 0
1550 -1737 0
1284 2146 2145 3420 -3098 0
8560 2146 2145 -3420 3098 0
8817 2146 2145 -3420 -3098 0
1926 2146 -2145 3420 3098 0
2979 2146 -2145 3420 -3098 0
8945 2146 -2145 -3420 3098 0
9156 2146 -2145 -3420 -3098 0
1070 -2146 2145 3420 3098 0
2226 -2146 2145 3420 -3098 0
8774 -2146 2145 -3420 3098 0
9005 -2146 2145 -3420 -3098 0
2803 -2146 -2145 3420 3098 0
3751 -2146 -2145 3420 -3098 0
9121 -2146 -2145 -3420 3098 0
9310 -2146 -2145 -3420 -3098 0
5580 3910 1641 -4410 0
2480 3910 -1641 4410 0
5828 3910 -1641 -4410 0
5270 -3910 1641 4410 0
6107 -3910 1641 -4410 0
5642 -3910 -1641 4410 0
6144 -3910 -1641 -4410 0
5655 2257 -4171 0
11310 -2257 4171 0
15269 -2257 -4171 0
10725 4515 -3310 0
25740 -4515 3310 0
30030 -4515 -3310 0
30030 4140 4849 3841 2854 -1762 0
8580 4140 4849 3841 -2854 1762 0
32604 4140 4849 3841 -2854 -1762 0
30030 4140 4849 -3841 2854 1762 0
39039 4140 4849 -3841 2854 -1762 0
32604 4140 4849 -3841 -2854 1762 0
39811 4140 4849 -3841 -2854 -1762 0
23595 4140 -4849 3841 2854 1762 0
37108 4140 -4849 3841 2854 -1762 0
27456 4140 -4849 3841 -2854 1762 0
38267 4140 -4849 3841 -2854 -1762 0
37108 4140 -4849 -3841 2854 1762 0
41163 4140 -4849 -3841 2854 -1762 0
38267 4140 -4849 -3841 -2854 1762 0
41510 4140 -4849 -3841 -2854 -1762 0
8580 -4140 4849 3841 2854 1762 0
32604 -4140 4849 3841 2854 -1762 0
15444 -4140 4849 3841 -2854 1762 0
34663 -4140 4849 3841 -2854 -1762 0
32604 -4140 4849 -3841 2854 1762 0
39811 -4140 4849 -3841 2854 -1762 0
34663 -4140 4849 -3841 -2854 1762 0
40429 -4140 4849 -3841 -2854 -1762 0
27456 -4140 -4849 3841 2854 1762 0
38267 -4140 -4849 3841 2854 -1762 0
30545 -4140 -4849 3841 -2854 1762 0
39193 -4140 -4849 3841 -2854 -1762 0
38267 -4140 -4849 -3841 2854 1762 0
41510 -4140 -4849 -3841 2854 -1762 0
39193 -4140 -4849 -3841 -2854 1762 0
41788 -4140 -4849 -3841 -2854 -1762 0
214 2565 -4581 0
1284 -2565 4581 0
1472 -2565 -4581 0
620 2340 -1863 0
744 -2340 1863 0
1290 -2340 -1863 0
33930 2747 5002 3172 -4341 0
9425 2747 5002 -3172 4341 0
34873 2747 5002 -3172 -4341 0
6786 2747 -5002 3172 4341 0
34609 2747 -5002 3172 -4341 0
14515 2747 -5002 -3172 4341 0
35381 2747 -5002 -3172 -4341 0
4524 -2747 5002 3172 4341 0
34382 -2747 5002 3172 -4341 0
12818 -2747 5002 -3172 4341 0
35212 -2747 5002 -3172 -4341 0
10496 -2747 -5002 3172 4341 0
34980 -2747 -5002 3172 -4341 0
17297 -2747 -5002 -3172 4341 0
35660 -2747 -5002 -3172 -4341 0
16302 3692 -4089 0
15015 -3692 4089 0
25611 -3692 -4089 0
4030 1801 2603 -4049 0
310 1801 -2603 4049 0
4138 1801 -2603 -4049 0
124 -1801 2603 4049 0
4073 -1801 2603 -4049 0
428 -1801 -2603 4049 0
4180 -1801 -2603 -4049 0
13300 1533 5047 -4347 0
7600 1533 -5047 4347 0
15580 1533 -5047 -4347 0
12350 -1533 5047 4347 0
17005 -1533 5047 -4347 0
15010 -1533 -5047 4347 0
17803 -1533 -5047 -4347 0
21450 5086 -2168 0
6435 -5086 2168 0
24667 -5086 -2168 0
17160 3761 4220 1607 -4325 0
15015 3761 4220 -1607 4325 0
26169 3761 4220 -1607 -4325 0
5148 3761 -4220 1607 4325 0
20249 3761 -4220 1607 -4325 0
18361 3761 -4220 -1607 4325 0
28177 3761 -4220 -1607 -4325 0
12870 -3761 4220 1607 4325 0
24882 -3761 4220 1607 -4325 0
23381 -3761 4220 -1607 4325 0
31188 -3761 4220 -1607 -4325 0
16474 -3761 -4220 1607 4325 0
27044 -3761 -4220 1607 -4325 0
25723 -3761 -4220 -1607 4325 0
32594 -3761 -4220 -1607 -4325 0
1240 3878 3578 3886 -5071 0
124 3878 3578 -3886 5071 0
1339 3878 3578 -3886 -5071 0
3720 3878 -3578 3886 5071 0
4216 3878 -3578 3886 -5071 0
3770 3878 -3578 -3886 5071 0
4256 3878 -3578 -3886 -5071 0
1116 -3878 3578 3886 5071 0
2133 -3878 3578 3886 -5071 0
1218 -3878 3578 -3886 5071 0
2214 -3878 3578 -3886 -5071 0
4166 -3878 -3578 3886 5071 0
4573 -3878 -3578 3886 -5071 0
4207 -3878 -3578 -3886 5071 0
4606 -3878 -3578 -3886 -5071 0
6650 -4387 0
1240 4455 -3813 0
3720 -4455 3813 0
4216 -4455 -3813 0
28275 -3357 0
7600 4288 -3431 0
17100 -4288 3431 0
17860 -4288 -3431 0
5655 3371 -2003 0
6786 -3371 2003 0
11423 -3371 -2003 0
1550 -3259 0
1926 4556 -1759 0
4280 -4556 1759 0
5436 -4556 -1759 0
1284 4452 -4559 0
6955 -4452 4559 0
7404 -4452 -4559 0
18850 4741 -3503 0
9425 -4741 3503 0
23562 -4741 -3503 0
1284 2769 -3411 0
1605 -2769 3411 0
2696 -2769 -3411 0
1860 2064 -1694 0
3720 -2064 1694 0
4464 -2064 -1694 0
6420 -2943 0
4280 2438 4625 -2984 0
8560 2438 -4625 2984 0
9416 2438 -4625 -2984 0
7490 -2438 4625 2984 0
8774 -2438 4625 -2984 0
10058 -2438 -4625 2984 0
10315 -2438 -4625 -2984 0
5885 -4577 0
18850 -2353 0
19305 2763 -2351 0
25740 -2763 2351 0
33462 -2763 -2351 0
2850 4305 2858 3617 -3415 0
7600 4305 2858 -3617 3415 0
9310 4305 2858 -3617 -3415 0
9500 4305 -2858 3617 3415 0
10925 4305 -2858 3617 -3415 0
13300 4305 -2858 -3617 3415 0
14155 4305 -2858 -3617 -3415 0
12350 -4305 2858 3617 3415 0
13347 -4305 2858 3617 -3415 0
15010 -4305 2858 -3617 3415 0
15609 -4305 2858 -3617 -3415 0
15675 -4305 -2858 3617 3415 0
16174 -4305 -2858 3617 -3415 0
17005 -4305 -2858 -3617 3415 0
17304 -4305 -2858 -3617 -3415 0
17160 3814 4897 1637 3839 4098 3634 -2383 0
36465 3814 4897 1637 3839 4098 -3634 2383 0
39039 3814 4897 1637 3839 4098 -3634 -2383 0
858 3814 4897 1637 3839 -4098 3634 2383 0
17675 3814 4897 1637 3839 -4098 3634 -2383 0
36594 3814 4897 1637 3839 -4098 -3634 2383 0
39116 3814 4897 1637 3839 -4098 -3634 -2383 0
34320 3814 4897 1637 -3839 4098 3634 2383 0
37752 3814 4897 1637 -3839 4098 3634 -2383 0
41613 3814 4897 1637 -3839 4098 -3634 2383 0
42128 3814 4897 1637 -3839 4098 -3634 -2383 0
34492 3814 4897 1637 -3839 -4098 3634 2383 0
37855 3814 4897 1637 -3839 -4098 3634 -2383 0
41639 3814 4897 1637 -3839 -4098 -3634 2383 0
42143 3814 4897 1637 -3839 -4098 -3634 -2383 0
13728 3814 4897 -1637 3839 4098 3634 2383 0
25397 3814 4897 -1637 3839 4098 3634 -2383 0
38524 3814 4897 -1637 3839 4098 -3634 2383 0
40275 3814 4897 -1637 3839 4098 -3634 -2383 0
14311 3814 4897 -1637 3839 -4098 3634 2383 0
25747 3814 4897 -1637 3839 -4098 3634 -2383 0
38612 3814 4897 -1637 3839 -4098 -3634 2383 0
40327 3814 4897 -1637 3839 -4098 -3634 -2383 0
37066 3814 4897 -1637 -3839 4098 3634 2383 0
39399 3814 4897 -1637 -3839 4098 3634 -2383 0
42025 3814 4897 -1637 -3839 4098 -3634 2383 0
42375 3814 4897 -1637 -3839 4098 -3634 -2383 0
37182 3814 4897 -1637 -3839 -4098 3634 2383 0
39469 3814 4897 -1637 -3839 -4098 3634 -2383 0
42042 3814 4897 -1637 -3839 -4098 -3634 2383 0
42385 3814 4897 -1637 -3839 -4098 -3634 -2383 0
27885 3814 -4897 1637 3839 4098 3634 2383 0
33891 3814 -4897 1637 3839 4098 3634 -2383 0
40648 3814 -4897 1637 3839 4098 -3634 2383 0
41549 3814 -4897 1637 3839 4098 -3634 -2383 0
28185 3814 -4897 1637 3839 -4098 3634 2383 0
34071 3814 -4897 1637 3839 -4098 3634 -2383 0
40693 3814 -4897 1637 3839 -4098 -3634 2383 0
41576 3814 -4897 1637 3839 -4098 -3634 -2383 0
39897 3814 -4897 1637 -3839 4098 3634 2383 0
41098 3814 -4897 1637 -3839 4098 3634 -2383 0
42450 3814 -4897 1637 -3839 4098 -3634 2383 0
42630 3814 -4897 1637 -3839 4098 -3634 -2383 0
39957 3814 -4897 1637 -3839 -4098 3634 2383 0
41134 3814 -4897 1637 -3839 -4098 3634 -2383 0
42459 3814 -4897 1637 -3839 -4098 -3634 2383 0
42635 3814 -4897 1637 -3839 -4098 -3634 -2383 0
32690 3814 -4897 -1637 3839 4098 3634 2383 0
36774 3814 -4897 -1637 3839 4098 3634 -2383 0
41368 3814 -4897 -1637 3839 4098 -3634 2383 0
41981 3814 -4897 -1637 3839 4098 -3634 -2383 0
32894 3814 -4897 -1637 3839 -4098 3634 2383 0
36896 3814 -4897 -1637 3839 -4098 3634 -2383 0
41399 3814 -4897 -1637 3839 -4098 -3634 2383 0
41999 3814 -4897 -1637 3839 -4098 -3634 -2383 0
40858 3814 -4897 -1637 -3839 4098 3634 2383 0
41675 3814 -4897 -1637 -3839 4098 3634 -2383 0
42594 3814 -4897 -1637 -3839 4098 -3634 2383 0
42716 3814 -4897 -1637 -3839 4098 -3634 -2383 0
40899 3814 -4897 -1637 -3839 -4098 3634 2383 0
41699 3814 -4897 -1637 -3839 -4098 3634 -2383 0
42600 3814 -4897 -1637 -3839 -4098 -3634 2383 0
42720 3814 -4897 -1637 -3839 -4098 -3634 -2383 0
30030 -3814 4897 1637 3839 4098 3634 2383 0
35178 -3814 4897 1637 3839 4098 3634 -2383 0
40969 -3814 4897 1637 3839 4098 -3634 2383 0
41742 -3814 4897 1637 3839 4098 -3634 -2383 0
30287 -3814 4897 1637 3839 -4098 3634 2383 0
35332 -3814 4897 1637 3839 -4098 3634 -2383 0
41008 -3814 4897 1637 3839 -4098 -3634 2383 0
41765 -3814 4897 1637 3839 -4098 -3634 -2383 0
40326 -3814 4897 1637 -3839 4098 3634 2383 0
41356 -3814 4897 1637 -3839 4098 3634 -2383 0
42514 -3814 4897 1637 -3839 4098 -3634 2383 0
42668 -3814 4897 1637 -3839 4098 -3634 -2383 0
40377 -3814 4897 1637 -3839 -4098 3634 2383 0
41386 -3814 4897 1637 -3839 -4098 3634 -2383 0
42522 -3814 4897 1637 -3839 -4098 -3634 2383 0
42673 -3814 4897 1637 -3839 -4098 -3634 -2383 0
34148 -3814 4897 -1637 3839 4098 3634 2383 0
37649 -3814 4897 -1637 3839 4098 3634 -2383 0
41587 -3814 4897 -1637 3839 4098 -3634 2383 0
42112 -3814 4897 -1637 3839 4098 -3634 -2383 0
34323 -3814 4897 -1637 3839 -4098 3634 2383 0
37754 -3814 4897 -1637 3839 -4098 3634 -2383 0
41614 -3814 4897 -1637 3839 -4098 -3634 2383 0
42128 -3814 4897 -1637 3839 -4098 -3634 -2383 0
41150 -3814 4897 -1637 -3839 4098 3634 2383 0
41850 -3814 4897 -1637 -3839 4098 3634 -2383 0
42637 -3814 4897 -1637 -3839 4098 -3634 2383 0
42742 -3814 4897 -1637 -3839 4098 -3634 -2383 0
41185 -3814 4897 -1637 -3839 -4098 3634 2383 0
41871 -3814 4897 -1637 -3839 -4098 3634 -2383 0
42643 -3814 4897 -1637 -3839 -4098 -3634 2383 0
42746 -3814 4897 -1637 -3839 -4098 -3634 -2383 0
38395 -3814 -4897 1637 3839 4098 3634 2383 0
40197 -3814 -4897 1637 3839 4098 3634 -2383 0
42224 -3814 -4897 1637 3839 4098 -3634 2383 0
42495 -3814 -4897 1637 3839 4098 -3634 -2383 0
38486 -3814 -4897 1637 3839 -4098 3634 2383 0
40251 -3814 -4897 1637 3839 -4098 3634 -2383 0
42238 -3814 -4897 1637 3839 -4098 -3634 2383 0
42503 -3814 -4897 1637 3839 -4098 -3634 -2383 0
41999 -3814 -4897 1637 -3839 4098 3634 2383 0
42359 -3814 -4897 1637 -3839 4098 3634 -2383 0
42765 -3814 -4897 1637 -3839 4098 -3634 2383 0
42819 -3814 -4897 1637 -3839 4098 -3634 -2383 0
42017 -3814 -4897 1637 -3839 -4098 3634 2383 0
42370 -3814 -4897 1637 -3839 -4098 3634 -2383 0
42768 -3814 -4897 1637 -3839 -4098 -3634 2383 0
42821 -3814 -4897 1637 -3839 -4098 -3634 -2383 0
39837 -3814 -4897 -1637 3839 4098 3634 2383 0
41062 -3814 -4897 -1637 3839 4098 3634 -2383 0
42441 -3814 -4897 -1637 3839 4098 -3634 2383 0
42624 -3814 -4897 -1637 3839 4098 -3634 -2383 0
39898 -3814 -4897 -1637 3839 -4098 3634 2383 0
41099 -3814 -4897 -1637 3839 -4098 3634 -2383 0
42450 -3814 -4897 -1637 3839 -4098 -3634 2383 0
42630 -3814 -4897 -1637 3839 -4098 -3634 -2383 0
42287 -3814 -4897 -1637 -3839 4098 3634 2383 0
42532 -3814 -4897 -1637 -3839 4098 3634 -2383 0
42808 -3814 -4897 -1637 -3839 4098 -3634 2383 0
42845 -3814 -4897 -1637 -3839 4098 -3634 -2383 0
42300 -3814 -4897 -1637 -3839 -4098 3634 2383 0
42540 -3814 -4897 -1637 -3839 -4098 3634 -2383 0
42810 -3814 -4897 -1637 -3839 -4098 -3634 2383 0
42846 -3814 -4897 -1637 -3839 -4098 -3634 -2383 0
16150 1836 2582 3952 3196 1831 -3159 0
14250 1836 2582 3952 3196 -1831 3159 0
18288 1836 2582 3952 3196 -1831 -3159 0
5700 1836 2582 3952 -3196 1831 3159 0
17005 1836 2582 3952 -3196 1831 -3159 0
15675 1836 2582 3952 -3196 -1831 3159 0
18501 1836 2582 3952 -3196 -1831 -3159 0
7220 1836 2582 -3952 3196 1831 3159 0
17233 1836 2582 -3952 3196 1831 -3159 0
16055 1836 2582 -3952 3196 -1831 3159 0
18558 1836 2582 -3952 3196 -1831 -3159 0
10754 1836 2582 -3952 -3196 1831 3159 0
17763 1836 2582 -3952 -3196 1831 -3159 0
16938 1836 2582 -3952 -3196 -1831 3159 0
18691 1836 2582 -3952 -3196 -1831 -3159 0
2280 1836 -2582 3952 3196 1831 3159 0
16492 1836 -2582 3952 3196 1831 -3159 0
14820 1836 -2582 3952 3196 -1831 3159 0
18373 1836 -2582 3952 3196 -1831 -3159 0
7296 1836 -2582 3952 -3196 1831 3159 0
17244 1836 -2582 3952 -3196 1831 -3159 0
16074 1836 -2582 3952 -3196 -1831 3159 0
18561 1836 -2582 3952 -3196 -1831 -3159 0
8634 1836 -2582 -3952 3196 1831 3159 0
17445 1836 -2582 -3952 3196 1831 -3159 0
16408 1836 -2582 -3952 3196 -1831 3159 0
18611 1836 -2582 -3952 3196 -1831 -3159 0
11744 1836 -2582 -3952 -3196 1831 3159 0
17912 1836 -2582 -3952 -3196 1831 -3159 0
17186 1836 -2582 -3952 -3196 -1831 3159 0
18728 1836 -2582 -3952 -3196 -1831 -3159 0
3420 -1836 2582 3952 3196 1831 3159 0
16663 -1836 2582 3952 3196 1831 -3159 0
15105 -1836 2582 3952 3196 -1831 3159 0
18416 -1836 2582 3952 3196 -1831 -3159 0
8094 -1836 2582 3952 -3196 1831 3159 0
17364 -1836 2582 3952 -3196 1831 -3159 0
16274 -1836 2582 3952 -3196 -1831 3159 0
18591 -1836 2582 3952 -3196 -1831 -3159 0
9340 -1836 2582 -3952 3196 1831 3159 0
17551 -1836 2582 -3952 3196 1831 -3159 0
16585 -1836 2582 -3952 3196 -1831 3159 0
18638 -1836 2582 -3952 3196 -1831 -3159 0
12238 -1836 2582 -3952 -3196 1831 3159 0
17986 -1836 2582 -3952 -3196 1831 -3159 0
17310 -1836 2582 -3952 -3196 -1831 3159 0
18746 -1836 2582 -3952 -3196 -1831 -3159 0
5290 -1836 -2582 3952 3196 1831 3159 0
16943 -1836 -2582 3952 3196 1831 -3159 0
15572 -1836 -2582 3952 3196 -1831 3159 0
18486 -1836 -2582 3952 3196 -1831 -3159 0
9403 -1836 -2582 3952 -3196 1831 3159 0
17560 -1836 -2582 3952 -3196 1831 -3159 0
16601 -1836 -2582 3952 -3196 -1831 3159 0
18640 -1836 -2582 3952 -3196 -1831 -3159 0
10500 -1836 -2582 -3952 3196 1831 3159 0
17725 -1836 -2582 -3952 3196 1831 -3159 0
16875 -1836 -2582 -3952 3196 -1831 3159 0
18681 -1836 -2582 -3952 3196 -1831 -3159 0
13050 -1836 -2582 -3952 -3196 1831 3159 0
18107 -1836 -2582 -3952 -3196 1831 -3159 0
17512 -1836 -2582 -3952 -3196 -1831 3159 0
18777 -1836 -2582 -3952 -3196 -1831 -3159 0
2280 -2493 0
124 2777 4747 -1928 0
4030 2777 -4747 1928 0
4073 2777 -4747 -1928 0
2480 -2777 4747 1928 0
2554 -2777 4747 -1928 0
4898 -2777 -4747 1928 0
4924 -2777 -4747 -1928 0
4524 -3880 0
4650 -2099 0
14250 -4378 0
950 -2927 0
5148 3889 2335 -4083 0
32175 3889 -2335 4083 0
33462 3889 -2335 -4083 0
4290 -3889 2335 4083 0
8923 -3889 2335 -4083 0
33248 -3889 -2335 4083 0
34406 -3889 -2335 -4083 0
28275 1716 2159 -2805 0
9425 1716 -2159 2805 0
30631 1716 -2159 -2805 0
22620 -1716 2159 2805 0
33930 -1716 2159 -2805 0
26390 -1716 -2159 2805 0
34873 -1716 -2159 -2805 0
1984 4693 -3072 0
3410 -4693 3072 0
4303 -4693 -3072 0
3770 4430 -4464 0
20735 -4430 4464 0
22431 -4430 -4464 0
12350 -4152 0
2850 2398 1986 -3341 0
12350 2398 -1986 3341 0
13347 2398 -1986 -3341 0
18050 -2398 1986 3341 0
18193 -2398 1986 -3341 0
18667 -2398 -1986 3341 0
18717 -2398 -1986 -3341 0
12064 1714 1821 2221 -4002 0
33930 1714 1821 -2221 4002 0
35136 1714 1821 -2221 -4002 0
35815 1714 -1821 2221 4002 0
36418 1714 -1821 2221 -4002 0
37512 1714 -1821 -2221 4002 0
37572 1714 -1821 -2221 -4002 0
7540 -1714 1821 2221 4002 0
17191 -1714 1821 2221 -4002 0
34684 -1714 1821 -2221 4002 0
35649 -1714 1821 -2221 -4002 0
36192 -1714 -1821 2221 4002 0
36675 -1714 -1821 2221 -4002 0
37549 -1714 -1821 -2221 4002 0
37597 -1714 -1821 -2221 -4002 0
7600 -4544 0
124 -2711 0
2280 -2770 0
20735 -1981 0
3410 1543 -4444 0
5580 -1543 4444 0
5921 -1543 -4444 0
24505 2792 -4343 0
35815 -2792 4343 0
37040 -2792 -4343 0
1605 4091 -4112 0
9095 -4091 4112 0
9336 -4091 -4112 0
19305 5074 -3177 0
25740 -5074 3177 0
33462 -5074 -3177 0
7600 4153 3806 4838 -3712 0
3800 4153 3806 -4838 3712 0
9880 4153 3806 -4838 -3712 0
7220 4153 -3806 4838 3712 0
11932 4153 -3806 4838 -3712 0
9576 4153 -3806 -4838 3712 0
13346 4153 -3806 -4838 -3712 0
6080 -4153 3806 4838 3712 0
11248 -4153 3806 4838 -3712 0
8664 -4153 3806 -4838 3712 0
12798 -4153 3806 -4838 -3712 0
10990 -4153 -3806 4838 3712 0
14194 -4153 -3806 4838 -3712 0
12592 -4153 -3806 -4838 3712 0
15155 -4153 -3806 -4838 -3712 0
1070 2518 4268 -3311 0
4280 2518 -4268 3311 0
4922 2518 -4268 -3311 0
1070 -2518 4268 3311 0
2033 -2518 4268 -3311 0
4922 -2518 -4268 3311 0
5500 -2518 -4268 -3311 0
2480 4029 -3973 0
620 -4029 3973 0
2852 -4029 -3973 0
5270 2687 1868 2455 5038 -3419 0
1860 2687 1868 2455 -5038 3419 0
5549 2687 1868 2455 -5038 -3419 0
744 2687 1868 -2455 5038 3419 0
5382 2687 1868 -2455 5038 -3419 0
2381 2687 1868 -2455 -5038 3419 0
5627 2687 1868 -2455 -5038 -3419 0
4960 2687 -1868 2455 5038 3419 0
6014 2687 -1868 2455 5038 -3419 0
5332 2687 -1868 2455 -5038 3419 0
6070 2687 -1868 2455 -5038 -3419 0
5109 2687 -1868 -2455 5038 3419 0
6036 2687 -1868 -2455 5038 -3419 0
5436 2687 -1868 -2455 -5038 3419 0
6085 2687 -1868 -2455 -5038 -3419 0
4030 -2687 1868 2455 5038 3419 0
5874 -2687 1868 2455 5038 -3419 0
4681 -2687 1868 2455 -5038 3419 0
5972 -2687 1868 2455 -5038 -3419 0
4290 -2687 1868 -2455 5038 3419 0
5914 -2687 1868 -2455 5038 -3419 0
4863 -2687 1868 -2455 -5038 3419 0
5999 -2687 1868 -2455 -5038 -3419 0
5766 -2687 -1868 2455 5038 3419 0
6135 -2687 -1868 2455 5038 -3419 0
5896 -2687 -1868 2455 -5038 3419 0
6154 -2687 -1868 2455 -5038 -3419 0
5818 -2687 -1868 -2455 5038 3419 0
6143 -2687 -1868 -2455 5038 -3419 0
5933 -2687 -1868 -2455 -5038 3419 0
6160 -2687 -1868 -2455 -5038 -3419 0
7540 2165 4713 -3998 0
20735 2165 -4713 3998 0
24128 2165 -4713 -3998 0
7540 -2165 4713 3998 0
13572 -2165 4713 -3998 0
24128 -2165 -4713 3998 0
26842 -2165 -4713 -3998 0
3100 -4966 0
26390 3753 -2286 0
6786 -3753 2286 0
28426 -3753 -2286 0
23595 2367 1939 3635 -2585 0
38610 2367 1939 -3635 2585 0
40970 2367 1939 -3635 -2585 0
8580 2367 -1939 3635 2585 0
27456 2367 -1939 3635 -2585 0
39468 2367 -1939 -3635 2585 0
41356 2367 -1939 -3635 -2585 0
21450 -2367 1939 3635 2585 0
33248 -2367 1939 3635 -2585 0
40755 -2367 1939 -3635 2585 0
41935 -2367 1939 -3635 -2585 0
25740 -2367 -1939 3635 2585 0
35178 -2367 -1939 3635 -2585 0
41184 -2367 -1939 -3635 2585 0
42128 -2367 -1939 -3635 -2585 0
12350 4016 -3080 0
950 -4016 3080 0
12683 -4016 -3080 0
2790 3510 4638 -4035 0
930 3510 -4638 4035 0
3302 3510 -4638 -4035 0
2170 -3510 4638 4035 0
3984 -3510 4638 -4035 0
2775 -3510 -4638 4035 0
4316 -3510 -4638 -4035 0
214 -2066 0
310 -3533 0
13728 -3646 0
13195 1710 -2819 0
11310 -1710 2819 0
20547 -1710 -2819 0
25740 1709 -4749 0
4290 -1709 4749 0
27456 -1709 -4749 0
4650 2462 -4482 0
3100 -2462 4482 0
5425 -2462 -4482 0
10450 3375 -3220 0
2850 -3375 3220 0
11733 -3375 -3220 0
21450 -2227 0
15080 1920 2320 4469 3803 -4814 0
24505 1920 2320 4469 -3803 4814 0
29783 1920 2320 4469 -3803 -4814 0
14326 1920 2320 -4469 3803 4814 0
23676 1920 2320 -4469 3803 -4814 0
29519 1920 2320 -4469 -3803 4814 0
32791 1920 2320 -4469 -3803 -4814 0
35815 1920 -2320 4469 3803 4814 0
36569 1920 -2320 4469 3803 -4814 0
37040 1920 -2320 4469 -3803 4814 0
37304 1920 -2320 4469 -3803 -4814 0
36531 1920 -2320 -4469 3803 4814 0
36999 1920 -2320 -4469 3803 -4814 0
37291 1920 -2320 -4469 -3803 4814 0
37455 1920 -2320 -4469 -3803 -4814 0
3770 -1920 2320 4469 3803 4814 0
17342 -1920 2320 4469 3803 -4814 0
25825 -1920 2320 4469 -3803 4814 0
30575 -1920 2320 4469 -3803 -4814 0
16663 -1920 2320 -4469 3803 4814 0
25078 -1920 2320 -4469 3803 -4814 0
30337 -1920 2320 -4469 -3803 4814 0
33282 -1920 2320 -4469 -3803 -4814 0
36003 -1920 -2320 4469 3803 4814 0
36682 -1920 -2320 4469 3803 -4814 0
37106 -1920 -2320 4469 -3803 4814 0
37344 -1920 -2320 4469 -3803 -4814 0
36648 -1920 -2320 -4469 3803 4814 0
37069 -1920 -2320 -4469 3803 -4814 0
37332 -1920 -2320 -4469 -3803 4814 0
37479 -1920 -2320 -4469 -3803 -4814 0
5350 1695 -3028 0
5350 -1695 3028 0
8025 -1695 -3028 0
2790 3493 -2011 0
4340 -3493 2011 0
5177 -3493 -2011 0
32175 -3532 0
6420 -3422 0
310 3417 1841 -5093 0
1984 3417 -1841 5093 0
2195 3417 -1841 -5093 0
4030 -3417 1841 5093 0
4138 -3417 1841 -5093 0
4724 -3417 -1841 5093 0
4798 -3417 -1841 -5093 0
28275 -4301 0
10450 3805 -2599 0
5700 -3805 2599 0
13015 -3805 -2599 0
18050 3236 2513 -4494 0
6650 3236 -2513 4494 0
18383 3236 -2513 -4494 0
11400 -3236 2513 4494 0
18620 -3236 2513 -4494 0
14060 -3236 -2513 4494 0
18753 -3236 -2513 -4494 0
4960 4298 -3147 0
5270 -4298 3147 0
6014 -4298 -3147 0
380 -2838 0
2145 3071 -4869 0
4290 -3071 4869 0
6221 -3071 -4869 0
8025 -4941 0
12350 2405 3276 1905 -2716 0
3420 2405 3276 -1905 2716 0
13547 2405 3276 -1905 -2716 0
2280 2405 -3276 1905 2716 0
13148 2405 -3276 1905 -2716 0
5290 2405 -3276 -1905 2716 0
14201 2405 -3276 -1905 -2716 0
2280 -2405 3276 1905 2716 0
13148 -2405 3276 1905 -2716 0
5290 -2405 3276 -1905 2716 0
14201 -2405 3276 -1905 -2716 0
4286 -2405 -3276 1905 2716 0
13850 -2405 -3276 1905 -2716 0
6935 -2405 -3276 -1905 2716 0
14777 -2405 -3276 -1905 -2716 0
7490 1790 3336 3252 1541 -4463 0
4066 1790 3336 3252 -1541 4463 0
8710 1790 3336 3252 -1541 -4463 0
10165 1790 3336 -3252 1541 4463 0
10539 1790 3336 -3252 1541 -4463 0
10368 1790 3336 -3252 -1541 4463 0
10600 1790 3336 -3252 -1541 -4463 0
8560 1790 -3336 3252 1541 4463 0
10058 1790 -3336 3252 1541 -4463 0
9373 1790 -3336 3252 -1541 4463 0
10302 1790 -3336 3252 -1541 -4463 0
10593 1790 -3336 -3252 1541 4463 0
10668 1790 -3336 -3252 1541 -4463 0
10634 1790 -3336 -3252 -1541 4463 0
10680 1790 -3336 -3252 -1541 -4463 0
5885 -1790 3336 3252 1541 4463 0
9255 -1790 3336 3252 1541 -4463 0
7715 -1790 3336 3252 -1541 4463 0
9804 -1790 3336 3252 -1541 -4463 0
10459 -1790 3336 -3252 1541 4463 0
10628 -1790 3336 -3252 1541 -4463 0
10551 -1790 3336 -3252 -1541 4463 0
10655 -1790 3336 -3252 -1541 -4463 0
9737 -1790 -3336 3252 1541 4463 0
10411 -1790 -3336 3252 1541 -4463 0
10103 -1790 -3336 3252 -1541 4463 0
10521 -1790 -3336 3252 -1541 -4463 0
10652 -1790 -3336 -3252 1541 4463 0
10686 -1790 -3336 -3252 1541 -4463 0
10670 -1790 -3336 -3252 -1541 4463 0
10691 -1790 -3336 -3252 -1541 -4463 0
20735 3988 1845 1505 4885 -4687 0
4524 3988 1845 1505 -4885 4687 0
22771 3988 1845 1505 -4885 -4687 0
6786 3988 1845 -1505 4885 4687 0
23789 3988 1845 -1505 4885 -4687 0
10496 3988 1845 -1505 -4885 4687 0
25458 3988 1845 -1505 -4885 -4687 0
754 3988 -1845 1505 4885 4687 0
21074 3988 -1845 1505 4885 -4687 0
5188 3988 -1845 1505 -4885 4687 0
23069 3988 -1845 1505 -4885 -4687 0
7404 3988 -1845 -1505 4885 4687 0
24067 3988 -1845 -1505 4885 -4687 0
11040 3988 -1845 -1505 -4885 4687 0
25703 3988 -1845 -1505 -4885 -4687 0
28275 -3988 1845 1505 4885 4687 0
33459 -3988 1845 1505 4885 -4687 0
29406 -3988 1845 1505 -4885 4687 0
33968 -3988 1845 1505 -4885 -4687 0
29971 -3988 1845 -1505 4885 4687 0
34222 -3988 1845 -1505 4885 -4687 0
30899 -3988 1845 -1505 -4885 4687 0
34640 -3988 1845 -1505 -4885 -4687 0
28463 -3988 -1845 1505 4885 4687 0
33544 -3988 -1845 1505 4885 -4687 0
29572 -3988 -1845 1505 -4885 4687 0
34042 -3988 -1845 1505 -4885 -4687 0
30126 -3988 -1845 -1505 4885 4687 0
34292 -3988 -1845 -1505 4885 -4687 0
31035 -3988 -1845 -1505 -4885 4687 0
34701 -3988 -1845 -1505 -4885 -4687 0
1284 2120 3307 -2122 0
1605 2120 -3307 2122 0
2696 2120 -3307 -2122 0
9630 -2120 3307 2122 0
9758 -2120 3307 -2122 0
9791 -2120 -3307 2122 0
9900 -2120 -3307 -2122 0
7600 4490 4126 -2658 0
15200 4490 -4126 2658 0
16720 4490 -4126 -2658 0
2850 -4490 4126 2658 0
9310 -4490 4126 -2658 0
15770 -4490 -4126 2658 0
17062 -4490 -4126 -2658 0
40755 1668 3644 -4281 0
12870 1668 -3644 4281 0
41399 1668 -3644 -4281 0
4290 -1668 3644 4281 0
40969 -1668 3644 -4281 0
15873 -1668 -3644 4281 0
41549 -1668 -3644 -4281 0
3424 3191 4316 2017 5073 -3188 0
5350 3191 4316 2017 -5073 3188 0
7062 3191 4316 2017 -5073 -3188 0
6420 3191 4316 -2017 5073 3188 0
7790 3191 4316 -2017 5073 -3188 0
8560 3191 4316 -2017 -5073 3188 0
9245 3191 4316 -2017 -5073 -3188 0
6955 3191 -4316 2017 5073 3188 0
8153 3191 -4316 2017 5073 -3188 0
8827 3191 -4316 2017 -5073 3188 0
9427 3191 -4316 2017 -5073 -3188 0
9202 3191 -4316 -2017 5073 3188 0
9681 3191 -4316 -2017 5073 -3188 0
9951 3191 -4316 -2017 -5073 3188 0
10191 3191 -4316 -2017 -5073 -3188 0
1284 -3191 4316 2017 5073 3188 0
4297 -3191 4316 2017 5073 -3188 0
5992 -3191 4316 2017 -5073 3188 0
7499 -3191 4316 2017 -5073 -3188 0
6934 -3191 4316 -2017 5073 3188 0
8139 -3191 4316 -2017 5073 -3188 0
8817 -3191 4316 -2017 -5073 3188 0
9419 -3191 4316 -2017 -5073 -3188 0
7404 -3191 -4316 2017 5073 3188 0
8459 -3191 -4316 2017 5073 -3188 0
9052 -3191 -4316 2017 -5073 3188 0
9579 -3191 -4316 2017 -5073 -3188 0
9382 -3191 -4316 -2017 5073 3188 0
9804 -3191 -4316 -2017 5073 -3188 0
10041 -3191 -4316 -2017 -5073 3188 0
10252 -3191 -4316 -2017 -5073 -3188 0
10725 1553 -3559 0
8580 -1553 3559 0
17160 -1553 -3559 0
4280 -4181 0
3800 3418 -2049 0
380 -3418 2049 0
4104 -3418 -2049 0
12870 -1595 0
27885 5050 -4867 0
5148 -5050 4867 0
29687 -5050 -4867 0
25740 3069 1818 -2870 0
15015 3069 -1818 2870 0
31746 3069 -1818 -2870 0
13728 -3069 1818 2870 0
31231 -3069 1818 -2870 0
23938 -3069 -1818 2870 0
35315 -3069 -1818 -2870 0
3210 4942 -3353 0
3745 -4942 3353 0
5832 -4942 -3353 0
2675 -2532 0
3770 1839 4976 -4118 0
14326 1839 -4976 4118 0
16663 1839 -4976 -4118 0
35815 -1839 4976 4118 0
36003 -1839 4976 -4118 0
36531 -1839 -4976 4118 0
36648 -1839 -4976 -4118 0
930 3601 4627 -3769 0
4340 3601 -4627 3769 0
4619 3601 -4627 -3769 0
2790 -3601 4627 3769 0
3302 -3601 4627 -3769 0
5177 -3601 -4627 3769 0
5330 -3601 -4627 -3769 0
12064 -4036 0
6650 3136 3461 -3651 0
3800 3136 -3461 3651 0
9120 3136 -3461 -3651 0
1900 -3136 3461 3651 0
7885 -3136 3461 -3651 0
5320 -3136 -3461 3651 0
10108 -3136 -3461 -3651 0
310 1503 -4699 0
5270 -1503 4699 0
5316 -1503 -4699 0
535 -4215 0
2850 2965 2312 -5011 0
3420 2965 -2312 5011 0
5757 2965 -2312 -5011 0
11400 -2965 2312 5011 0
12540 -2965 2312 -5011 0
12768 -2965 -2312 5011 0
13703 -2965 -2312 -5011 0
7722 3265 2290 -2410 0
38610 3265 -2290 2410 0
39382 3265 -2290 -2410 0
36465 -3265 2290 2410 0
37623 -3265 2290 -2410 0
42256 -3265 -2290 2410 0
42372 -3265 -2290 -2410 0
9630 3975 -4894 0
1926 -3975 4894 0
9823 -3975 -4894 0
2170 4668 -1923 0
4650 -4668 1923 0
5193 -4668 -1923 0
30030 -2076 0
14250 4307 -4453 0
7220 -4307 4453 0
16055 -4307 -4453 0
36465 2020 -5006 0
36465 -2020 5006 0
41935 -2020 -5006 0
5580 3516 -1623 0
310 -3516 1623 0
5611 -3516 -1623 0
1860 2225 2945 -4342 0
1116 2225 -2945 4342 0
2641 2225 -2945 -4342 0
2480 -2225 2945 4342 0
3596 -2225 2945 -4342 0
3150 -2225 -2945 4342 0
4065 -2225 -2945 -4342 0
5890 3538 4759 2270 2963 -2527 0
1240 3538 4759 2270 -2963 2527 0
5952 3538 4759 2270 -2963 -2527 0
2170 3538 4759 -2270 2963 2527 0
5998 3538 4759 -2270 2963 -2527 0
2976 3538 4759 -2270 -2963 2527 0
6039 3538 4759 -2270 -2963 -2527 0
1116 3538 -4759 2270 2963 2527 0
5946 3538 -4759 2270 2963 -2527 0
2133 3538 -4759 2270 -2963 2527 0
5997 3538 -4759 2270 -2963 -2527 0
2895 3538 -4759 -2270 2963 2527 0
6035 3538 -4759 -2270 2963 -2527 0
3556 3538 -4759 -2270 -2963 2527 0
6068 3538 -4759 -2270 -2963 -2527 0
4960 -3538 4759 2270 2963 2527 0
6138 -3538 4759 2270 2963 -2527 0
5208 -3538 4759 2270 -2963 2527 0
6150 -3538 4759 2270 -2963 -2527 0
5394 -3538 4759 -2270 2963 2527 0
6160 -3538 4759 -2270 2963 -2527 0
5555 -3538 4759 -2270 -2963 2527 0
6168 -3538 4759 -2270 -2963 -2527 0
5183 -3538 -4759 2270 2963 2527 0
6149 -3538 -4759 2270 2963 -2527 0
5387 -3538 -4759 2270 -2963 2527 0
6159 -3538 -4759 2270 -2963 -2527 0
5539 -3538 -4759 -2270 2963 2527 0
6167 -3538 -4759 -2270 2963 -2527 0
5671 -3538 -4759 -2270 -2963 2527 0
6174 -3538 -4759 -2270 -2963 -2527 0
5350 2358 2898 -3616 0
8025 2358 -2898 3616 0
9362 2358 -2898 -3616 0
1070 -2358 2898 3616 0
5885 -2358 2898 -3616 0
8292 -2358 -2898 3616 0
9496 -2358 -2898 -3616 0
16302 4587 5040 -2142 0
15015 4587 -5040 2142 0
25611 4587 -5040 -2142 0
13728 -4587 5040 2142 0
24813 -4587 5040 -2142 0
23938 -4587 -5040 2142 0
31144 -4587 -5040 -2142 0
10165 2900 4466 3387 -3327 0
8025 2900 4466 -3387 3327 0
10566 2900 4466 -3387 -3327 0
9095 2900 -4466 3387 3327 0
10620 2900 -4466 3387 -3327 0
10299 2900 -4466 -3387 3327 0
10680 2900 -4466 -3387 -3327 0
10165 -2900 4466 3387 3327 0
10673 -2900 4466 3387 -3327 0
10566 -2900 4466 -3387 3327 0
10693 -2900 4466 -3387 -3327 0
10620 -2900 -4466 3387 3327 0
10696 -2900 -4466 3387 -3327 0
10680 -2900 -4466 -3387 3327 0
10699 -2900 -4466 -3387 -3327 0
19305 4067 -4655 0
5148 -4067 4655 0
22136 -4067 -4655 0
24505 3014 -5028 0
32045 -3014 5028 0
35721 -3014 -5028 0
5655 1551 2239 3838 -3946 0
16965 1551 2239 -3838 3946 0
20075 1551 2239 -3838 -3946 0
22620 1551 -2239 3838 3946 0
24882 1551 -2239 3838 -3946 0
29406 1551 -2239 -3838 3946 0
30650 1551 -2239 -3838 -3946 0
12064 -1551 2239 3838 3946 0
15909 -1551 2239 3838 -3946 0
23600 -1551 2239 -3838 3946 0
25715 -1551 2239 -3838 -3946 0
27446 -1551 -2239 3838 3946 0
28984 -1551 -2239 3838 -3946 0
32060 -1551 -2239 -3838 3946 0
32906 -1551 -2239 -3838 -3946 0
7490 -2937 0
4750 4352 -3974 0
7220 -4352 3974 0
10165 -4352 -3974 0
35815 3949 -2273 0
754 -3949 2273 0
35853 -3949 -2273 0
5350 3708 1927 -4758 0
9630 3708 -1927 4758 0
10165 3708 -1927 -4758 0
6955 -3708 1927 4758 0
8827 -3708 1927 -4758 0
10325 -3708 -1927 4758 0
10513 -3708 -1927 -4758 0
24505 2067 -3687 0
33930 -2067 3687 0
36381 -2067 -3687 0
5700 4168 -3699 0
3420 -4168 3699 0
8094 -4168 -3699 0
18850 1619 2892 -2038 0
33930 1619 -2892 2038 0
35815 1619 -2892 -2038 0
6786 -1619 2892 2038 0
22243 -1619 2892 -2038 0
34609 -1619 -2892 2038 0
36154 -1619 -2892 -2038 0
16302 1880 -2961 0
38610 -1880 2961 0
40240 -1880 -2961 0
35815 2983 4921 -4278 0
16965 2983 -4921 4278 0
36663 2983 -4921 -4278 0
4524 -2983 4921 4278 0
36041 -2983 4921 -4278 0
19453 -2983 -4921 4278 0
36788 -2983 -4921 -4278 0
15200 4413 -2714 0
950 -4413 2714 0
15390 -4413 -2714 0
4066 -2402 0
15080 1549 -3287 0
35815 -1549 3287 0
36569 -1549 -3287 0
1926 3160 3233 3667 3133 1715 -5044 0
8560 3160 3233 3667 3133 -1715 5044 0
8945 3160 3233 3667 3133 -1715 -5044 0
1070 3160 3233 3667 -3133 1715 5044 0
2803 3160 3233 3667 -3133 1715 -5044 0
8774 3160 3233 3667 -3133 -1715 5044 0
9121 3160 3233 3667 -3133 -1715 -5044 0
2140 3160 3233 -3667 3133 1715 5044 0
3681 3160 3233 -3667 3133 1715 -5044 0
8988 3160 3233 -3667 3133 -1715 5044 0
9296 3160 3233 -3667 3133 -1715 -5044 0
2996 3160 3233 -3667 -3133 1715 5044 0
4383 3160 3233 -3667 -3133 1715 -5044 0
9159 3160 3233 -3667 -3133 -1715 5044 0
9437 3160 3233 -3667 -3133 -1715 -5044 0
1070 3160 -3233 3667 3133 1715 5044 0
2803 3160 -3233 3667 3133 1715 -5044 0
8774 3160 -3233 3667 3133 -1715 5044 0
9121 3160 -3233 3667 3133 -1715 -5044 0
2033 3160 -3233 3667 -3133 1715 5044 0
3593 3160 -3233 3667 -3133 1715 -5044 0
8967 3160 -3233 3667 -3133 -1715 5044 0
9279 3160 -3233 3667 -3133 -1715 -5044 0
2996 3160 -3233 -3667 3133 1715 5044 0
4383 3160 -3233 -3667 3133 1715 -5044 0
9159 3160 -3233 -3667 3133 -1715 5044 0
9437 3160 -3233 -3667 3133 -1715 -5044 0
3766 3160 -3233 -3667 -3133 1715 5044 0
5014 3160 -3233 -3667 -3133 1715 -5044 0
9313 3160 -3233 -3667 -3133 -1715 5044 0
9563 3160 -3233 -3667 -3133 -1715 -5044 0
3424 -3160 3233 3667 3133 1715 5044 0
4734 -3160 3233 3667 3133 1715 -5044 0
9245 -3160 3233 3667 3133 -1715 5044 0
9507 -3160 3233 3667 3133 -1715 -5044 0
4152 -3160 3233 3667 -3133 1715 5044 0
5330 -3160 3233 3667 -3133 1715 -5044 0
9390 -3160 3233 3667 -3133 -1715 5044 0
9626 -3160 3233 3667 -3133 -1715 -5044 0
4879 -3160 3233 -3667 3133 1715 5044 0
5927 -3160 3233 -3667 3133 1715 -5044 0
9536 -3160 3233 -3667 3133 -1715 5044 0
9745 -3160 3233 -3667 3133 -1715 -5044 0
5461 -3160 3233 -3667 -3133 1715 5044 0
6404 -3160 3233 -3667 -3133 1715 -5044 0
9652 -3160 3233 -3667 -3133 -1715 5044 0
9841 -3160 3233 -3667 -3133 -1715 -5044 0
4152 -3160 -3233 3667 3133 1715 5044 0
5330 -3160 -3233 3667 3133 1715 -5044 0
9390 -3160 -3233 3667 3133 -1715 5044 0
9626 -3160 -3233 3667 3133 -1715 -5044 0
4806 -3160 -3233 3667 -3133 1715 5044 0
5867 -3160 -3233 3667 -3133 1715 -5044 0
9521 -3160 -3233 3667 -3133 -1715 5044 0
9733 -3160 -3233 3667 -3133 -1715 -5044 0
5461 -3160 -3233 -3667 3133 1715 5044 0
6404 -3160 -3233 -3667 3133 1715 -5044 0
9652 -3160 -3233 -3667 3133 -1715 5044 0
9841 -3160 -3233 -3667 3133 -1715 -5044 0
5985 -3160 -3233 -3667 -3133 1715 5044 0
6834 -3160 -3233 -3667 -3133 1715 -5044 0
9757 -3160 -3233 -3667 -3133 -1715 5044 0
9927 -3160 -3233 -3667 -3133 -1715 -5044 0
9095 2070 -4272 0
6420 -2070 4272 0
10058 -2070 -4272 0
7540 2717 2817 -1938 0
33930 2717 -2817 1938 0
34684 2717 -2817 -1938 0
22620 -2717 2817 1938 0
25636 -2717 2817 -1938 0
36192 -2717 -2817 1938 0
36494 -2717 -2817 -1938 0
2790 4384 3797 3231 -3468 0
3720 4384 3797 -3231 3468 0
4836 4384 3797 -3231 -3468 0
3100 4384 -3797 3231 3468 0
4495 4384 -3797 3231 -3468 0
4960 4384 -3797 -3231 3468 0
5518 4384 -3797 -3231 -3468 0
2480 -4384 3797 3231 3468 0
4154 -4384 3797 3231 -3468 0
4712 -4384 3797 -3231 3468 0
5382 -4384 3797 -3231 -3468 0
4340 -4384 -3797 3231 3468 0
5177 -4384 -3797 3231 -3468 0
5456 -4384 -3797 -3231 3468 0
5791 -4384 -3797 -3231 -3468 0
7220 5088 4557 -2693 0
11400 5088 -4557 2693 0
14288 5088 -4557 -2693 0
11400 -5088 4557 2693 0
14288 -5088 4557 -2693 0
15960 -5088 -4557 2693 0
17115 -5088 -4557 -2693 0
1900 3246 -3023 0
3420 -3246 3023 0
4978 -3246 -3023 0
30030 5008 -2663 0
23595 -5008 2663 0
37108 -5008 -2663 0
13195 4417 -3000 0
18850 -4417 3000 0
25448 -4417 -3000 0
2170 3810 -2923 0
2356 -3810 2923 0
3701 -3810 -2923 0
28275 4407 4338 4017 -4006 0
24505 4407 4338 -4017 4006 0
34401 4407 4338 -4017 -4006 0
7540 4407 -4338 4017 4006 0
30160 4407 -4338 4017 -4006 0
27144 4407 -4338 -4017 4006 0
35061 4407 -4338 -4017 -4006 0
5655 -4407 4338 4017 4006 0
29689 -4407 4338 4017 -4006 0
26484 -4407 4338 -4017 4006 0
34896 -4407 4338 -4017 -4006 0
12064 -4407 -4338 4017 4006 0
31291 -4407 -4338 4017 -4006 0
28727 -4407 -4338 -4017 4006 0
35457 -4407 -4338 -4017 -4006 0
6786 1919 3459 -2846 0
15080 1919 -3459 2846 0
19152 1919 -3459 -2846 0
35815 -1919 3459 2846 0
36154 -1919 3459 -2846 0
36569 -1919 -3459 2846 0
36773 -1919 -3459 -2846 0
11310 1774 4620 -3660 0
13195 1774 -4620 3660 0
20547 1774 -4620 -3660 0
5655 -1774 4620 3660 0
15269 -1774 4620 -3660 0
16871 -1774 -4620 3660 0
23120 -1774 -4620 -3660 0
4650 1924 2292 3896 -4762 0
2480 1924 2292 -3896 4762 0
5270 1924 2292 -3896 -4762 0
5270 1924 -2292 3896 4762 0
5968 1924 -2292 3896 -4762 0
5642 1924 -2292 -3896 4762 0
6061 1924 -2292 -3896 -4762 0
4650 -1924 2292 3896 4762 0
5812 -1924 2292 3896 -4762 0
5270 -1924 2292 -3896 4762 0
5968 -1924 2292 -3896 -4762 0
5968 -1924 -2292 3896 4762 0
6142 -1924 -2292 3896 -4762 0
6061 -1924 -2292 -3896 4762 0
6165 -1924 -2292 -3896 -4762 0
1984 4337 1781 -1978 0
3410 4337 -1781 1978 0
4303 4337 -1781 -1978 0
1550 -4337 1781 1978 0
3038 -4337 1781 -1978 0
4108 -4337 -1781 1978 0
4777 -4337 -1781 -1978 0
4280 2680 4558 2451 -3356 0
535 2680 4558 -2451 3356 0
4601 2680 4558 -2451 -3356 0
9630 2680 -4558 2451 3356 0
10058 2680 -4558 2451 -3356 0
9684 2680 -4558 -2451 3356 0
10090 2680 -4558 -2451 -3356 0
214 -2680 4558 2451 3356 0
4408 -2680 4558 2451 -3356 0
738 -2680 4558 -2451 3356 0
4723 -2680 4558 -2451 -3356 0
9651 -2680 -4558 2451 3356 0
10071 -2680 -4558 2451 -3356 0
9704 -2680 -4558 -2451 3356 0
10102 -2680 -4558 -2451 -3356 0
5148 3941 2882 -3138 0
2145 3941 -2882 3138 0
7036 3941 -2882 -3138 0
21450 -3941 2882 3138 0
24024 -3941 2882 -3138 0
22523 -3941 -2882 3138 0
24968 -3941 -2882 -3138 0
5148 3560 -1647 0
32175 -3560 1647 0
33462 -3560 -1647 0
3210 -4546 0
16302 -1743 0
2675 3186 4435 -2175 0
4280 3186 -4435 2175 0
5885 3186 -4435 -2175 0
5350 -3186 4435 2175 0
6688 -3186 4435 -2175 0
7490 -3186 -4435 2175 0
8292 -3186 -4435 -2175 0
5350 2997 -1613 0
3424 -2997 1613 0
7062 -2997 -1613 0
5270 3548 -2101 0
124 -3548 2101 0
5289 -3548 -2101 0
1900 -3260 0
12350 4630 4437 2628 -3784 0
4750 4630 4437 -2628 3784 0
14012 4630 4437 -2628 -3784 0
1900 4630 -4437 2628 3784 0
13015 4630 -4437 2628 -3784 0
6175 4630 -4437 -2628 3784 0
14511 4630 -4437 -2628 -3784 0
3800 -4630 4437 2628 3784 0
13680 -4630 4437 2628 -3784 0
7600 -4630 4437 -2628 3784 0
15010 -4630 4437 -2628 -3784 0
5320 -4630 -4437 2628 3784 0
14212 -4630 -4437 2628 -3784 0
8740 -4630 -4437 -2628 3784 0
15409 -4630 -4437 -2628 -3784 0
9425 2765 -3673 0
33930 -2765 3673 0
34873 -2765 -3673 0
10165 -2612 0
5655 3009 2524 -4348 0
3770 3009 -2524 4348 0
8859 3009 -2524 -4348 0
3770 -3009 2524 4348 0
8859 -3009 2524 -4348 0
7163 -3009 -2524 4348 0
11744 -3009 -2524 -4348 0
744 4376 4983 -2970 0
5580 4376 -4983 2970 0
5654 4376 -4983 -2970 0
4340 -4376 4983 2970 0
4563 -4376 4983 -2970 0
6014 -4376 -4983 2970 0
6036 -4376 -4983 -2970 0
744 1797 -2669 0
5580 -1797 2669 0
5654 -1797 -2669 0
32175 5010 2394 -4812 0
858 5010 -2394 4812 0
32389 5010 -2394 -4812 0
34320 -5010 2394 4812 0
40755 -5010 2394 -4812 0
34492 -5010 -2394 4812 0
40798 -5010 -2394 -4812 0
40755 3773 -1644 0
19305 -3773 1644 0
41720 -3773 -1644 0
9630 4478 -2702 0
1926 -4478 2702 0
9823 -4478 -2702 0
23595 3330 3828 -2295 0
4290 3330 -3828 2295 0
25525 3330 -3828 -2295 0
36465 -3330 3828 2295 0
40004 -3330 3828 -2295 0
37108 -3330 -3828 2295 0
40294 -3330 -3828 -2295 0
7600 4901 3352 2652 -4755 0
950 4901 3352 -2652 4755 0
8170 4901 3352 -2652 -4755 0
3420 4901 -3352 2652 4755 0
9652 4901 -3352 2652 -4755 0
4199 4901 -3352 -2652 4755 0
10119 4901 -3352 -2652 -4755 0
13300 -4901 3352 2652 4755 0
15580 -4901 3352 2652 -4755 0
13585 -4901 3352 -2652 4755 0
15751 -4901 3352 -2652 -4755 0
14326 -4901 -3352 2652 4755 0
16196 -4901 -3352 2652 -4755 0
14560 -4901 -3352 -2652 4755 0
16336 -4901 -3352 -2652 -4755 0
24505 3983 -2293 0
3770 -3983 2293 0
25825 -3983 -2293 0
6786 -3742 0
6955 -4731 0
2790 -4940 0
5270 2902 -4210 0
1984 -2902 4210 0
5568 -2902 -4210 0
4030 1546 1673 -3018 0
620 1546 -1673 3018 0
4247 1546 -1673 -3018 0
124 -1546 1673 3018 0
4073 -1546 1673 -3018 0
732 -1546 -1673 3018 0
4286 -1546 -1673 -3018 0
34320 4744 -3993 0
17160 -4744 3993 0
37752 -4744 -3993 0
38610 2782 -1870 0
12870 -2782 1870 0
39897 -2782 -1870 0
35815 3565 -1550 0
9425 -3565 1550 0
36286 -3565 -1550 0
2790 -4703 0
13728 4442 4811 -4757 0
25740 4442 -4811 4757 0
31231 4442 -4811 -4757 0
6435 -4442 4811 4757 0
18104 -4442 4811 -4757 0
28314 -4442 -4811 4757 0
32982 -4442 -4811 -4757 0
6786 2681 3383 3864 3859 3829 -4099 0
15080 2681 3383 3864 3859 -3829 4099 0
19152 2681 3383 3864 3859 -3829 -4099 0
14326 2681 3383 3864 -3859 3829 4099 0
18533 2681 3383 3864 -3859 3829 -4099 0
23676 2681 3383 3864 -3859 -3829 4099 0
26200 2681 3383 3864 -3859 -3829 -4099 0
16965 2681 3383 -3864 3859 3829 4099 0
20697 2681 3383 -3864 3859 3829 -4099 0
25259 2681 3383 -3864 3859 -3829 4099 0
27498 2681 3383 -3864 3859 -3829 -4099 0
24844 2681 3383 -3864 -3859 3829 4099 0
27158 2681 3383 -3864 -3859 3829 -4099 0
29987 2681 3383 -3864 -3859 -3829 4099 0
31375 2681 3383 -3864 -3859 -3829 -4099 0
35815 2681 -3383 3864 3859 3829 4099 0
36154 2681 -3383 3864 3859 3829 -4099 0
36569 2681 -3383 3864 3859 -3829 4099 0
36773 2681 -3383 3864 3859 -3829 -4099 0
36531 2681 -3383 3864 -3859 3829 4099 0
36742 2681 -3383 3864 -3859 3829 -4099 0
36999 2681 -3383 3864 -3859 -3829 4099 0
37125 2681 -3383 3864 -3859 -3829 -4099 0
36663 2681 -3383 -3864 3859 3829 4099 0
36850 2681 -3383 -3864 3859 3829 -4099 0
37078 2681 -3383 -3864 3859 -3829 4099 0
37190 2681 -3383 -3864 3859 -3829 -4099 0
37057 2681 -3383 -3864 -3859 3829 4099 0
37173 2681 -3383 -3864 -3859 3829 -4099 0
37314 2681 -3383 -3864 -3859 -3829 4099 0
37384 2681 -3383 -3864 -3859 -3829 -4099 0
3770 -2681 3383 3864 3859 3829 4099 0
9877 -2681 3383 3864 3859 3829 -4099 0
17342 -2681 3383 3864 3859 -3829 4099 0
21006 -2681 3383 3864 3859 -3829 -4099 0
16663 -2681 3383 3864 -3859 3829 4099 0
20450 -2681 3383 3864 -3859 3829 -4099 0
25078 -2681 3383 3864 -3859 -3829 4099 0
27350 -2681 3383 3864 -3859 -3829 -4099 0
19038 -2681 3383 -3864 3859 3829 4099 0
22398 -2681 3383 -3864 3859 3829 -4099 0
26503 -2681 3383 -3864 3859 -3829 4099 0
28519 -2681 3383 -3864 3859 -3829 -4099 0
26130 -2681 3383 -3864 -3859 3829 4099 0
28212 -2681 3383 -3864 -3859 3829 -4099 0
30758 -2681 3383 -3864 -3859 -3829 4099 0
32007 -2681 3383 -3864 -3859 -3829 -4099 0
36003 -2681 -3383 3864 3859 3829 4099 0
36309 -2681 -3383 3864 3859 3829 -4099 0
36682 -2681 -3383 3864 3859 -3829 4099 0
36865 -2681 -3383 3864 3859 -3829 -4099 0
36648 -2681 -3383 3864 -3859 3829 4099 0
36837 -2681 -3383 3864 -3859 3829 -4099 0
37069 -2681 -3383 3864 -3859 -3829 4099 0
37182 -2681 -3383 3864 -3859 -3829 -4099 0
36767 -2681 -3383 -3864 3859 3829 4099 0
36935 -2681 -3383 -3864 3859 3829 -4099 0
37140 -2681 -3383 -3864 3859 -3829 4099 0
37241 -2681 -3383 -3864 3859 -3829 -4099 0
37121 -2681 -3383 -3864 -3859 3829 4099 0
37226 -2681 -3383 -3864 -3859 3829 -4099 0
37353 -2681 -3383 -3864 -3859 -3829 4099 0
37415 -2681 -3383 -3864 -3859 -3829 -4099 0
5148 2460 -4056 0
5148 -2460 4056 0
9678 -2460 -4056 0
10165 3581 3999 2080 -4660 0
1284 3581 3999 -2080 4660 0
10229 3581 3999 -2080 -4660 0
1070 3581 -3999 2080 4660 0
10219 3581 -3999 2080 -4660 0
2226 3581 -3999 -2080 4660 0
10276 3581 -3999 -2080 -4660 0
9630 -3581 3999 2080 4660 0
10647 -3581 3999 2080 -4660 0
9758 -3581 3999 -2080 4660 0
10653 -3581 3999 -2080 -4660 0
9737 -3581 -3999 2080 4660 0
10652 -3581 -3999 2080 -4660 0
9853 -3581 -3999 -2080 4660 0
10658 -3581 -3999 -2080 -4660 0
5885 -4226 0
19305 -4973 0
18850 2487 -1569 0
4524 -2487 1569 0
21112 -2487 -1569 0
4650 3716 3759 -5049 0
744 3716 -3759 5049 0
4836 3716 -3759 -5049 0
744 -3716 3759 5049 0
4836 -3716 3759 -5049 0
1399 -3716 -3759 5049 0
5000 -3716 -3759 -5049 0
16150 2511 4090 -3238 0
950 2511 -4090 3238 0
16292 2511 -4090 -3238 0
17100 -2511 4090 3238 0
18715 -2511 4090 -3238 0
17195 -2511 -4090 3238 0
18729 -2511 -4090 -3238 0
6955 2741 -3938 0
1284 -2741 3938 0
7404 -2741 -3938 0
2356 -2389 0
4524 -2491 0
15200 -1930 0
3410 4719 3550 2590 1890 -3655 0
5890 4719 3550 2590 -1890 3655 0
6061 4719 3550 2590 -1890 -3655 0
4650 4719 3550 -2590 1890 3655 0
5502 4719 3550 -2590 1890 -3655 0
6123 4719 3550 -2590 -1890 3655 0
6165 4719 3550 -2590 -1890 -3655 0
5270 4719 -3550 2590 1890 3655 0
5781 4719 -3550 2590 1890 -3655 0
6153 4719 -3550 2590 -1890 3655 0
6179 4719 -3550 2590 -1890 -3655 0
5968 4719 -3550 -2590 1890 3655 0
6095 4719 -3550 -2590 1890 -3655 0
6188 4719 -3550 -2590 -1890 3655 0
6195 4719 -3550 -2590 -1890 -3655 0
2480 -4719 3550 2590 1890 3655 0
4526 -4719 3550 2590 1890 -3655 0
6014 -4719 3550 2590 -1890 3655 0
6116 -4719 3550 2590 -1890 -3655 0
5270 -4719 3550 -2590 1890 3655 0
5781 -4719 3550 -2590 1890 -3655 0
6153 -4719 3550 -2590 -1890 3655 0
6179 -4719 3550 -2590 -1890 -3655 0
5642 -4719 -3550 2590 1890 3655 0
5949 -4719 -3550 2590 1890 -3655 0
6172 -4719 -3550 2590 -1890 3655 0
6187 -4719 -3550 2590 -1890 -3655 0
6061 -4719 -3550 -2590 1890 3655 0
6137 -4719 -3550 -2590 1890 -3655 0
6193 -4719 -3550 -2590 -1890 3655 0
6197 -4719 -3550 -2590 -1890 -3655 0
1926 4146 2977 -2428 0
8025 4146 -2977 2428 0
8506 4146 -2977 -2428 0
1605 -4146 2977 2428 0
3242 -4146 2977 -2428 0
8426 -4146 -2977 2428 0
8836 -4146 -2977 -2428 0
4524 -2494 0
7722 4501 -1972 0
15015 -4501 1972 0
20034 -4501 -1972 0
13300 4243 -2284 0
9500 -4243 2284 0
16150 -4243 -2284 0
310 3820 3867 4898 1670 -3688 0
4960 3820 3867 4898 -1670 3688 0
5022 3820 3867 4898 -1670 -3688 0
1116 3820 3867 -4898 1670 3688 0
1370 3820 3867 -4898 1670 -3688 0
5183 3820 3867 -4898 -1670 3688 0
5234 3820 3867 -4898 -1670 -3688 0
124 3820 -3867 4898 1670 3688 0
428 3820 -3867 4898 1670 -3688 0
4985 3820 -3867 4898 -1670 3688 0
5046 3820 -3867 4898 -1670 -3688 0
1218 3820 -3867 -4898 1670 3688 0
1467 3820 -3867 -4898 1670 -3688 0
5204 3820 -3867 -4898 -1670 3688 0
5253 3820 -3867 -4898 -1670 -3688 0
1984 -3820 3867 4898 1670 3688 0
2195 -3820 3867 4898 1670 -3688 0
5357 -3820 3867 4898 -1670 3688 0
5399 -3820 3867 4898 -1670 -3688 0
2743 -3820 3867 -4898 1670 3688 0
2916 -3820 3867 -4898 1670 -3688 0
5509 -3820 3867 -4898 -1670 3688 0
5543 -3820 3867 -4898 -1670 -3688 0
2068 -3820 -3867 4898 1670 3688 0
2275 -3820 -3867 4898 1670 -3688 0
5374 -3820 -3867 4898 -1670 3688 0
5415 -3820 -3867 4898 -1670 -3688 0
2812 -3820 -3867 -4898 1670 3688 0
2981 -3820 -3867 -4898 1670 -3688 0
5522 -3820 -3867 -4898 -1670 3688 0
5556 -3820 -3867 -4898 -1670 -3688 0
1284 1581 -3328 0
535 -1581 3328 0
1755 -1581 -3328 0
2170 4563 2285 4182 -2650 0
5890 4563 2285 -4182 2650 0
5998 4563 2285 -4182 -2650 0
5580 4563 -2285 4182 2650 0
5797 4563 -2285 4182 -2650 0
6169 4563 -2285 -4182 2650 0
6180 4563 -2285 -4182 -2650 0
4030 -4563 2285 4182 2650 0
4789 -4563 2285 4182 -2650 0
6091 -4563 2285 -4182 2650 0
6129 -4563 2285 -4182 -2650 0
5983 -4563 -2285 4182 2650 0
6059 -4563 -2285 4182 -2650 0
6189 -4563 -2285 -4182 2650 0
6193 -4563 -2285 -4182 -2650 0
36465 4593 -3623 0
12870 -4593 3623 0
38395 -4593 -3623 0
2675 2349 3599 -1526 0
3210 2349 -3599 1526 0
5083 2349 -3599 -1526 0
2140 -2349 3599 1526 0
4280 -2349 3599 -1526 0
4708 -2349 -3599 1526 0
6206 -2349 -3599 -1526 0
25740 3242 4895 -4922 0
32175 3242 -4895 4922 0
38610 3242 -4895 -4922 0
7722 -3242 4895 4922 0
28829 -3242 4895 -4922 0
34105 -3242 -4895 4922 0
39382 -3242 -4895 -4922 0
17160 -4054 0
930 3496 -2635 0
2480 -3496 2635 0
3038 -3496 -2635 0
16965 2344 2829 -1681 0
16965 2344 -2829 1681 0
26296 2344 -2829 -1681 0
12064 -2344 2829 1681 0
23600 -2344 2829 -1681 0
23600 -2344 -2829 1681 0
29945 -2344 -2829 -1681 0
620 3298 4868 -3038 0
1240 3298 -4868 3038 0
1736 3298 -4868 -3038 0
3720 -3298 4868 3038 0
3968 -3298 4868 -3038 0
4216 -3298 -4868 3038 0
4414 -3298 -4868 -3038 0
3424 4204 2045 2979 -4424 0
535 4204 2045 -2979 4424 0
3788 4204 2045 -2979 -4424 0
4815 4204 -2045 2979 4424 0
6698 4204 -2045 2979 -4424 0
5109 4204 -2045 -2979 4424 0
6898 4204 -2045 -2979 -4424 0
4815 -4204 2045 2979 4424 0
6698 -4204 2045 2979 -4424 0
5109 -4204 2045 -2979 4424 0
6898 -4204 2045 -2979 -4424 0
7463 -4204 -2045 2979 4424 0
8499 -4204 -2045 2979 -4424 0
7625 -4204 -2045 -2979 4424 0
8609 -4204 -2045 -2979 -4424 0
535 3267 -1935 0
6420 -3267 1935 0
6634 -3267 -1935 0
7600 -2058 0
1284 -2237 0
1926 1588 2855 1848 4321 -3486 0
3210 1588 2855 1848 -4321 3486 0
4558 1588 2855 1848 -4321 -3486 0
4280 1588 2855 -1848 4321 3486 0
5436 1588 2855 -1848 4321 -3486 0
6206 1588 2855 -1848 -4321 3486 0
7015 1588 2855 -1848 -4321 -3486 0
6955 1588 -2855 1848 4321 3486 0
7629 1588 -2855 1848 4321 -3486 0
8078 1588 -2855 1848 -4321 3486 0
8550 1588 -2855 1848 -4321 -3486 0
8453 1588 -2855 -1848 4321 3486 0
8857 1588 -2855 -1848 4321 -3486 0
9127 1588 -2855 -1848 -4321 3486 0
9410 1588 -2855 -1848 -4321 -3486 0
3745 -1588 2855 1848 4321 3486 0
4997 -1588 2855 1848 4321 -3486 0
5832 -1588 2855 1848 -4321 3486 0
6708 -1588 2855 1848 -4321 -3486 0
6527 -1588 2855 -1848 4321 3486 0
7278 -1588 2855 -1848 4321 -3486 0
7779 -1588 2855 -1848 -4321 3486 0
8305 -1588 2855 -1848 -4321 -3486 0
8266 -1588 -2855 1848 4321 3486 0
8704 -1588 -2855 1848 4321 -3486 0
8996 -1588 -2855 1848 -4321 3486 0
9303 -1588 -2855 1848 -4321 -3486 0
9239 -1588 -2855 -1848 4321 3486 0
9502 -1588 -2855 -1848 4321 -3486 0
9678 -1588 -2855 -1848 -4321 3486 0
9862 -1588 -2855 -1848 -4321 -3486 0
32045 2401 4192 -3990 0
32045 2401 -4192 3990 0
36852 2401 -4192 -3990 0
33930 -2401 4192 3990 0
37134 -2401 4192 -3990 0
37134 -2401 -4192 3990 0
37615 -2401 -4192 -3990 0
15200 3846 4526 4137 -2574 0
7220 3846 4526 -4137 2574 0
16644 3846 4526 -4137 -2574 0
7600 3846 -4526 4137 2574 0
16720 3846 -4526 4137 -2574 0
11932 3846 -4526 -4137 2574 0
17586 3846 -4526 -4137 -2574 0
6650 -3846 4526 4137 2574 0
16530 -3846 4526 4137 -2574 0
11343 -3846 4526 -4137 2574 0
17469 -3846 4526 -4137 -2574 0
11590 -3846 -4526 4137 2574 0
17518 -3846 -4526 4137 -2574 0
14406 -3846 -4526 -4137 2574 0
18081 -3846 -4526 -4137 -2574 0
18050 -1524 0
13195 3050 2275 4360 1990 -1874 0
15080 3050 2275 4360 -1990 1874 0
22997 3050 2275 4360 -1990 -1874 0
11310 3050 2275 -4360 1990 1874 0
20547 3050 2275 -4360 1990 -1874 0
21866 3050 2275 -4360 -1990 1874 0
27408 3050 2275 -4360 -1990 -1874 0
30160 3050 -2275 4360 1990 1874 0
32799 3050 -2275 4360 1990 -1874 0
33176 3050 -2275 4360 -1990 1874 0
34759 3050 -2275 4360 -1990 -1874 0
32422 3050 -2275 -4360 1990 1874 0
34269 3050 -2275 -4360 1990 -1874 0
34533 3050 -2275 -4360 -1990 1874 0
35642 3050 -2275 -4360 -1990 -1874 0
15080 -3050 2275 4360 1990 1874 0
22997 -3050 2275 4360 1990 -1874 0
24128 -3050 2275 4360 -1990 1874 0
28878 -3050 2275 4360 -1990 -1874 0
21866 -3050 2275 -4360 1990 1874 0
27408 -3050 2275 -4360 1990 -1874 0
28200 -3050 2275 -4360 -1990 1874 0
31525 -3050 2275 -4360 -1990 -1874 0
33176 -3050 -2275 4360 1990 1874 0
34759 -3050 -2275 4360 1990 -1874 0
34986 -3050 -2275 4360 -1990 1874 0
35936 -3050 -2275 4360 -1990 -1874 0
34533 -3050 -2275 -4360 1990 1874 0
35642 -3050 -2275 -4360 1990 -1874 0
35800 -3050 -2275 -4360 -1990 1874 0
36465 -3050 -2275 -4360 -1990 -1874 0
13728 -2409 0
15015 1884 4839 -2355 0
858 1884 -4839 2355 0
15573 1884 -4839 -2355 0
5148 -1884 4839 2355 0
18361 -1884 4839 -2355 0
5903 -1884 -4839 2355 0
18852 -1884 -4839 -2355 0
25740 -1729 0
30160 4447 -4397 0
20735 -4447 4397 0
34307 -4447 -4397 0
1984 -5084 0
15015 3194 3020 2479 -4339 0
36465 3194 3020 -2479 4339 0
38717 3194 3020 -2479 -4339 0
40755 3194 -3020 2479 4339 0
41506 3194 -3020 2479 -4339 0
42578 3194 -3020 -2479 4339 0
42691 3194 -3020 -2479 -4339 0
32175 -3194 3020 2479 4339 0
35929 -3194 3020 2479 -4339 0
41291 -3194 3020 -2479 4339 0
41854 -3194 3020 -2479 -4339 0
42364 -3194 -3020 2479 4339 0
42551 -3194 -3020 2479 -4339 0
42820 -3194 -3020 -2479 4339 0
42848 -3194 -3020 -2479 -4339 0
9500 2849 -2588 0
5700 -2849 2588 0
12350 -2849 -2588 0
380 -2474 0
4280 -1683 0
8025 -4958 0
6786 4023 -2907 0
5655 -4023 2907 0
11423 -4023 -2907 0
380 3513 2627 -1685 0
18050 3513 -2627 1685 0
18069 3513 -2627 -1685 0
17100 -3513 2627 1685 0
17138 -3513 2627 -1685 0
18905 -3513 -2627 1685 0
18907 -3513 -2627 -1685 0
3745 -3848 0
2675 2053 -2108 0
3210 -2053 2108 0
5083 -2053 -2108 0
16150 -3241 0
24505 2949 -4815 0
6786 -2949 4815 0
26880 -2949 -4815 0
12350 2705 -2449 0
17100 -2705 2449 0
18335 -2705 -2449 0
1550 1579 4229 1587 1885 -2659 0
5890 1579 4229 1587 -1885 2659 0
5967 1579 4229 1587 -1885 -2659 0
1860 1579 4229 -1587 1885 2659 0
2945 1579 4229 -1587 1885 -2659 0
5983 1579 4229 -1587 -1885 2659 0
6037 1579 4229 -1587 -1885 -2659 0
5580 1579 -4229 1587 1885 2659 0
5735 1579 -4229 1587 1885 -2659 0
6169 1579 -4229 1587 -1885 2659 0
6177 1579 -4229 1587 -1885 -2659 0
5766 1579 -4229 -1587 1885 2659 0
5874 1579 -4229 -1587 1885 -2659 0
6178 1579 -4229 -1587 -1885 2659 0
6184 1579 -4229 -1587 -1885 -2659 0
4340 -1579 4229 1587 1885 2659 0
4805 -1579 4229 1587 1885 -2659 0
6107 -1579 4229 1587 -1885 2659 0
6130 -1579 4229 1587 -1885 -2659 0
4898 -1579 4229 -1587 1885 2659 0
5223 -1579 4229 -1587 1885 -2659 0
6135 -1579 4229 -1587 -1885 2659 0
6151 -1579 4229 -1587 -1885 -2659 0
6014 -1579 -4229 1587 1885 2659 0
6061 -1579 -4229 1587 1885 -2659 0
6191 -1579 -4229 1587 -1885 2659 0
6193 -1579 -4229 1587 -1885 -2659 0
6070 -1579 -4229 -1587 1885 2659 0
6102 -1579 -4229 -1587 1885 -2659 0
6193 -1579 -4229 -1587 -1885 2659 0
6195 -1579 -4229 -1587 -1885 -2659 0
7540 1857 -5064 0
26390 -1857 5064 0
28652 -1857 -5064 0
10165 -3869 0
18050 -3860 0
14250 4258 -3102 0
1900 -4258 3102 0
14725 -4258 -3102 0
3420 -1931 0
2280 2453 -4928 0
950 -2453 4928 0
3116 -2453 -4928 0
30160 3563 5066 1733 -4004 0
6786 3563 5066 -1733 4004 0
31517 3563 5066 -1733 -4004 0
12064 3563 -5066 1733 4004 0
32573 3563 -5066 1733 -4004 0
16678 3563 -5066 -1733 4004 0
33496 3563 -5066 -1733 -4004 0
1885 -3563 5066 1733 4004 0
30537 -3563 5066 1733 -4004 0
8332 -3563 5066 -1733 4004 0
31826 -3563 5066 -1733 -4004 0
13346 -3563 -5066 1733 4004 0
32829 -3563 -5066 1733 -4004 0
17730 -3563 -5066 -1733 4004 0
33706 -3563 -5066 -1733 -4004 0
6650 2157 -4919 0
3800 -2157 4919 0
9120 -2157 -4919 0
3745 4569 2962 -1792 0
3424 4569 -2962 1792 0
5971 4569 -2962 -1792 0
6955 -4569 2962 1792 0
8266 -4569 2962 -1792 0
8153 -4569 -2962 1792 0
9045 -4569 -2962 -1792 0
4290 2809 3443 -3647 0
4290 2809 -3443 3647 0
8151 2809 -3443 -3647 0
16302 -2809 3443 3647 0
18962 -2809 3443 -3647 0
18962 -2809 -3443 3647 0
21356 -2809 -3443 -3647 0
20735 3924 -4854 0
28275 -3924 4854 0
33459 -3924 -4854 0
10450 4320 2757 -2337 0
18050 4320 -2757 2337 0
18572 4320 -2757 -2337 0
18050 -4320 2757 2337 0
18572 -4320 2757 -2337 0
18952 -4320 -2757 2337 0
18979 -4320 -2757 -2337 0
310 -3543 0
8580 -1794 0
22620 4653 -3207 0
13195 -4653 3207 0
27898 -4653 -3207 0
6420 3295 4592 -3931 0
8560 3295 -4592 3931 0
9844 3295 -4592 -3931 0
3210 -3295 4592 3931 0
7704 -3295 4592 -3931 0
9202 -3295 -4592 3931 0
10101 -3295 -4592 -3931 0
32175 1933 4354 -4187 0
6435 1933 -4354 4187 0
33784 1933 -4354 -4187 0
19305 -1933 4354 4187 0
37001 -1933 4354 -4187 0
22844 -1933 -4354 4187 0
37886 -1933 -4354 -4187 0
5270 4565 1562 -4119 0
620 4565 -1562 4119 0
5363 4565 -1562 -4119 0
1116 -4565 1562 4119 0
5437 -4565 1562 -4119 0
1624 -4565 -1562 4119 0
5514 -4565 -1562 -4119 0
5890 -2055 0
2790 -1566 0
4960 3851 -2968 0
1984 -3851 2968 0
5357 -3851 -2968 0
2675 1853 -4704 0
3745 -1853 4704 0
5484 -1853 -4704 0
13300 1934 3440 -2371 0
5700 1934 -3440 2371 0
15010 1934 -3440 -2371 0
3420 -1934 3440 2371 0
14326 -1934 3440 -2371 0
8094 -1934 -3440 2371 0
15728 -1934 -3440 -2371 0
5270 -1547 0
22620 4615 -4952 0
26390 -4615 4952 0
33176 -4615 -4952 0
9630 -4633 0
9425 2253 -3040 0
11310 -2253 3040 0
17908 -2253 -3040 0
19305 3343 4851 -3428 0
8580 3343 -4851 3428 0
24024 3343 -4851 -3428 0
30030 -3343 4851 3428 0
35821 -3343 4851 -3428 0
32604 -3343 -4851 3428 0
37237 -3343 -4851 -3428 0
858 3108 -1886 0
8580 -3108 1886 0
9266 -3108 -1886 0
2675 4692 3500 -2432 0
1284 4692 -3500 2432 0
3638 4692 -3500 -2432 0
4280 -4692 3500 2432 0
5885 -4692 3500 -2432 0
5050 -4692 -3500 2432 0
6463 -4692 -3500 -2432 0
2280 -3680 0
1070 -4604 0
32175 1973 1565 4425 -2930 0
17160 1973 1565 -4425 2930 0
36465 1973 1565 -4425 -2930 0
25740 1973 -1565 4425 2930 0
38610 1973 -1565 4425 -2930 0
32604 1973 -1565 -4425 2930 0
40326 1973 -1565 -4425 -2930 0
34320 -1973 1565 4425 2930 0
40755 -1973 1565 4425 -2930 0
37752 -1973 1565 -4425 2930 0
41613 -1973 1565 -4425 -2930 0
39468 -1973 -1565 4425 2930 0
42042 -1973 -1565 4425 -2930 0
40841 -1973 -1565 -4425 2930 0
42385 -1973 -1565 -4425 -2930 0
16302 4788 4904 -4125 0
4290 4788 -4904 4125 0
18962 4788 -4904 -4125 0
8580 -4788 4904 4125 0
21622 -4788 4904 -4125 0
12012 -4788 -4904 4125 0
23749 -4788 -4904 -4125 0
2356 2834 4326 -4907 0
124 2834 -4326 4907 0
2433 2834 -4326 -4907 0
2790 -2834 4326 4907 0
4086 -2834 4326 -4907 0
2858 -2834 -4326 4907 0
4128 -2834 -4326 -4907 0
12064 4458 3217 -2327 0
11310 4458 -3217 2327 0
19755 4458 -3217 -2327 0
3770 -4458 3217 2327 0
14628 -4458 3217 -2327 0
13949 -4458 -3217 2327 0
21549 -4458 -3217 -2327 0
380 -5039 0
6955 4523 -3971 0
9630 -4523 3971 0
10325 -4523 -3971 0
2170 -4013 0
930 1560 3961 -1602 0
124 1560 -3961 1602 0
1035 1560 -3961 -1602 0
5580 -1560 3961 1602 0
5673 -1560 3961 -1602 0
5592 -1560 -3961 1602 0
5684 -1560 -3961 -1602 0
15015 2303 -5017 0
7722 -2303 5017 0
20034 -2303 -5017 0
13195 4386 -4121 0
1885 -4386 4121 0
14420 -4386 -4121 0
12870 2500 -3732 0
25740 -2500 3732 0
30888 -2500 -3732 0
124 2262 -2608 0
1240 -2262 2608 0
1339 -2262 -2608 0
23595 3006 1636 -1777 0
36465 3006 -1636 1777 0
40004 3006 -1636 -1777 0
27885 -3006 1636 1777 0
36143 -3006 1636 -1777 0
40648 -3006 -1636 1777 0
41886 -3006 -1636 -1777 0
23595 2694 4605 -3958 0
40755 2694 -4605 3958 0
41935 2694 -4605 -3958 0
2145 -2694 4605 3958 0
24560 -2694 4605 -3958 0
40862 -2694 -4605 3958 0
41983 -2694 -4605 -3958 0
6080 3879 2625 2264 -3963 0
11400 3879 2625 -2264 3963 0
13832 3879 2625 -2264 -3963 0
8550 3879 -2625 2264 3963 0
11894 3879 -2625 2264 -3963 0
14820 3879 -2625 -2264 3963 0
16158 3879 -2625 -2264 -3963 0
7600 -3879 2625 2264 3963 0
11248 -3879 2625 2264 -3963 0
14440 -3879 2625 -2264 3963 0
15899 -3879 2625 -2264 -3963 0
12730 -3879 -2625 2264 3963 0
14736 -3879 -2625 2264 -3963 0
16492 -3879 -2625 -2264 3963 0
17295 -3879 -2625 -2264 -3963 0
4750 3166 3501 -4614 0
18050 3166 -3501 4614 0
18287 3166 -3501 -4614 0
7220 -3166 3501 4614 0
10165 -3166 3501 -4614 0
18411 -3166 -3501 4614 0
18558 -3166 -3501 -4614 0
13728 1989 -4913 0
16302 -1989 4913 0
24813 -1989 -4913 0
11400 -4332 0
14250 2909 3244 -4946 0
2850 2909 -3244 4946 0
14962 2909 -3244 -4946 0
18050 -2909 3244 4946 0
18762 -2909 3244 -4946 0
18193 -2909 -3244 4946 0
18798 -2909 -3244 -4946 0
24505 -3037 0
11310 1960 -4459 0
754 -1960 4459 0
11838 -1960 -4459 0
930 5030 3077 -2098 0
124 5030 -3077 2098 0
1035 5030 -3077 -2098 0
124 -5030 3077 2098 0
1035 -5030 3077 -2098 0
246 -5030 -3077 2098 0
1139 -5030 -3077 -2098 0
124 2126 4951 4190 -2238 0
5890 2126 4951 -4190 2238 0
5896 2126 4951 -4190 -2238 0
3410 2126 -4951 4190 2238 0
3466 2126 -4951 4190 -2238 0
6061 2126 -4951 -4190 2238 0
6063 2126 -4951 -4190 -2238 0
5890 -2126 4951 4190 2238 0
5896 -2126 4951 4190 -2238 0
6184 -2126 4951 -4190 2238 0
6185 -2126 4951 -4190 -2238 0
6061 -2126 -4951 4190 2238 0
6063 -2126 -4951 4190 -2238 0
6193 -2126 -4951 -4190 2238 0
6193 -2126 -4951 -4190 -2238 0
1926 3004 2499 -4818 0
3210 3004 -2499 4818 0
4558 3004 -2499 -4818 0
1926 -3004 2499 4818 0
3505 -3004 2499 -4818 0
4558 -3004 -2499 4818 0
5664 -3004 -2499 -4818 0
12870 3403 2467 -3137 0
23595 3403 -2467 3137 0
29387 3403 -2467 -3137 0
5148 -3403 2467 3137 0
16474 -3403 2467 -3137 0
25912 -3403 -2467 3137 0
31008 -3403 -2467 -3137 0
3770 1620 -4492 0
32045 -1620 4492 0
32611 -1620 -4492 0
744 1953 1964 -5098 0
5270 1953 -1964 5098 0
5382 1953 -1964 -5098 0
2480 -1953 1964 5098 0
2926 -1953 1964 -5098 0
5642 -1953 -1964 5098 0
5709 -1953 -1964 -5098 0
5700 -4841 0
7600 4193 2375 4947 -4438 0
7220 4193 2375 -4947 4438 0
11932 4193 2375 -4947 -4438 0
2850 4193 -2375 4947 4438 0
9310 4193 -2375 4947 -4438 0
8987 4193 -2375 -4947 4438 0
12992 4193 -2375 -4947 -4438 0
12350 -4193 2375 4947 4438 0
15010 -4193 2375 4947 -4438 0
14877 -4193 2375 -4947 4438 0
16526 -4193 2375 -4947 -4438 0
13347 -4193 -2375 4947 4438 0
15609 -4193 -2375 4947 -4438 0
15495 -4193 -2375 -4947 4438 0
16897 -4193 -2375 -4947 -4438 0
3210 -4985 0
11400 -4255 0
17160 -3980 0
4960 4231 -2050 0
1860 -4231 2050 0
5332 -4231 -2050 0
11400 3235 -2815 0
7220 -3235 2815 0
14288 -3235 -2815 0
16150 4416 -3514 0
7600 -4416 3514 0
17290 -4416 -3514 0
9500 -3902 0
28275 3466 -4201 0
4524 -3466 4201 0
29406 -3466 -4201 0
14326 4465 2622 -2324 0
33930 4465 -2622 2324 0
35363 4465 -2622 -2324 0
4524 -4465 2622 2324 0
17131 -4465 2622 -2324 0
34382 -4465 -2622 2324 0
35643 -4465 -2622 -2324 0
4750 3036 4454 4513 -1855 0
3800 3036 4454 -4513 1855 0
7600 3036 4454 -4513 -1855 0
18050 3036 -4454 4513 1855 0
18287 3036 -4454 4513 -1855 0
18240 3036 -4454 -4513 1855 0
18430 3036 -4454 -4513 -1855 0
5700 -3036 4454 4513 1855 0
9025 -3036 4454 4513 -1855 0
8360 -3036 4454 -4513 1855 0
11020 -3036 4454 -4513 -1855 0
18335 -3036 -4454 4513 1855 0
18501 -3036 -4454 4513 -1855 0
18468 -3036 -4454 -4513 1855 0
18601 -3036 -4454 -4513 -1855 0
22620 -4920 0
310 2254 1615 -4763 0
3100 2254 -1615 4763 0
3255 2254 -1615 -4763 0
4960 -2254 1615 4763 0
5022 -2254 1615 -4763 0
5580 -2254 -1615 4763 0
5611 -2254 -1615 -4763 0
1900 5070 -3032 0
950 -5070 3032 0
2755 -5070 -3032 0
1885 4540 -2549 0
18850 -4540 2549 0
19793 -4540 -2549 0
2675 1672 4912 -4115 0
1070 1672 -4912 4115 0
3477 1672 -4912 -4115 0
1605 -1672 4912 4115 0
3879 -1672 4912 -4115 0
2514 -1672 -4912 4115 0
4561 -1672 -4912 -4115 0
11400 -4402 0
21450 -4025 0
2140 -2041 0
1885 -1958 0
23595 -5076 0
1284 3812 -4291 0
8025 -3812 4291 0
8346 -3812 -4291 0
3424 -2715 0
6650 3064 4562 -3621 0
14250 3064 -4562 3621 0
15912 3064 -4562 -3621 0
7220 -3064 4562 3621 0
11343 -3064 4562 -3621 0
16055 -3064 -4562 3621 0
17086 -3064 -4562 -3621 0
754 1947 4671 1651 -4055 0
4524 1947 4671 -1651 4055 0
5188 1947 4671 -1651 -4055 0
28275 1947 -4671 1651 4055 0
28463 1947 -4671 1651 -4055 0
29406 1947 -4671 -1651 4055 0
29572 1947 -4671 -1651 -4055 0
32045 -1947 4671 1651 4055 0
32158 -1947 4671 1651 -4055 0
32724 -1947 4671 -1651 4055 0
32823 -1947 4671 -1651 -4055 0
36286 -1947 -4671 1651 4055 0
36315 -1947 -4671 1651 -4055 0
36456 -1947 -4671 -1651 4055 0
36481 -1947 -4671 -1651 -4055 0
9500 -4899 0
744 4545 3822 -2734 0
2170 4545 -3822 2734 0
2654 4545 -3822 -2734 0
5270 -4545 3822 2734 0
5382 -4545 3822 -2734 0
5595 -4545 -3822 2734 0
5668 -4545 -3822 -2734 0
2145 3857 3865 -1754 0
7722 3857 -3865 1754 0
9481 3857 -3865 -1754 0
12870 -3857 3865 1754 0
14372 -3857 3865 -1754 0
18275 -3857 -3865 1754 0
19507 -3857 -3865 -1754 0
3720 2613 4103 3502 -3556 0
1550 2613 4103 -3502 3556 0
4340 2613 4103 -3502 -3556 0
2480 2613 -4103 3502 3556 0
4712 2613 -4103 3502 -3556 0
3410 2613 -4103 -3502 3556 0
5084 2613 -4103 -3502 -3556 0
4340 -2613 4103 3502 3556 0
5456 -2613 4103 3502 -3556 0
4805 -2613 4103 -3502 3556 0
5642 -2613 4103 -3502 -3556 0
5084 -2613 -4103 3502 3556 0
5754 -2613 -4103 3502 -3556 0
5363 -2613 -4103 -3502 3556 0
5865 -2613 -4103 -3502 -3556 0
17160 2742 -5041 0
19305 -2742 5041 0
28743 -2742 -5041 0
4650 3558 2656 -4712 0
4960 3558 -2656 4712 0
5890 3558 -2656 -4712 0
5580 -3558 2656 4712 0
6045 -3558 2656 -4712 0
6076 -3558 -2656 4712 0
6169 -3558 -2656 -4712 0
3410 3945 1871 -3913 0
5270 3945 -1871 3913 0
5781 3945 -1871 -3913 0
1860 -3945 1871 3913 0
4247 -3945 1871 -3913 0
5549 -3945 -1871 3913 0
5907 -3945 -1871 -3913 0
1070 3978 2322 -4790 0
4815 3978 -2322 4790 0
5403 3978 -2322 -4790 0
8560 -3978 2322 4790 0
8774 -3978 2322 -4790 0
9523 -3978 -2322 4790 0
9641 -3978 -2322 -4790 0
620 4647 -4800 0
744 -4647 4800 0
1290 -4647 -4800 0
5885 3393 -2276 0
1605 -3393 2276 0
6607 -3393 -2276 0
3100 2631 -3367 0
5270 -2631 3367 0
5735 -2631 -3367 0
2140 5061 -2435 0
4066 -5061 2435 0
5393 -5061 -2435 0
25740 3075 -1634 0
17160 -3075 1634 0
32604 -3075 -1634 0
1984 3591 -2219 0
1860 -3591 2219 0
3249 -3591 -2219 0
3410 1957 3819 -1926 0
1116 1957 -3819 1926 0
3912 1957 -3819 -1926 0
930 -1957 3819 1926 0
3829 -1957 3819 -1926 0
1879 -1957 -3819 1926 0
4255 -1957 -3819 -1926 0
8550 -3021 0
36465 3720 2596 -4892 0
40755 3720 -2596 4892 0
42578 3720 -2596 -4892 0
15015 -3720 2596 4892 0
38717 -3720 2596 -4892 0
41506 -3720 -2596 4892 0
42691 -3720 -2596 -4892 0
34320 3449 4470 -2606 0
16302 3449 -4470 2606 0
37580 3449 -4470 -2606 0
8580 -3449 4470 2606 0
36036 -3449 4470 -2606 0
21622 -3449 -4470 2606 0
38644 -3449 -4470 -2606 0
8560 3681 5090 2786 -3055 0
5350 3681 5090 -2786 3055 0
9630 3681 5090 -2786 -3055 0
1605 3681 -5090 2786 3055 0
8881 3681 -5090 2786 -3055 0
6152 3681 -5090 -2786 3055 0
9791 3681 -5090 -2786 -3055 0
1070 -3681 5090 2786 3055 0
8774 -3681 5090 2786 -3055 0
5885 -3681 5090 -2786 3055 0
9737 -3681 5090 -2786 -3055 0
2514 -3681 -5090 2786 3055 0
9063 -3681 -5090 2786 -3055 0
6607 -3681 -5090 -2786 3055 0
9881 -3681 -5090 -2786 -3055 0
310 4421 3463 -2283 0
2170 4421 -3463 2283 0
2372 4421 -3463 -2283 0
620 -4421 3463 2283 0
899 -4421 3463 -2283 0
2573 -4421 -3463 2283 0
2754 -4421 -3463 -2283 0
15080 -3224 0
4290 3363 3801 -3582 0
16302 3363 -3801 3582 0
18962 3363 -3801 -3582 0
36465 -3363 3801 3582 0
37108 -3363 3801 -3582 0
38910 -3363 -3801 3582 0
39309 -3363 -3801 -3582 0
7722 -4835 0
7600 2881 3027 2778 4319 -2982 0
12350 2881 3027 2778 -4319 2982 0
15010 2881 3027 2778 -4319 -2982 0
8550 2881 3027 -2778 4319 2982 0
12730 2881 3027 -2778 4319 -2982 0
15343 2881 3027 -2778 -4319 2982 0
16806 2881 3027 -2778 -4319 -2982 0
380 2881 -3027 2778 4319 2982 0
7828 2881 -3027 2778 4319 -2982 0
12483 2881 -3027 2778 -4319 2982 0
15090 2881 -3027 2778 -4319 -2982 0
8759 2881 -3027 -2778 4319 2982 0
12855 2881 -3027 -2778 4319 -2982 0
15416 2881 -3027 -2778 -4319 2982 0
16849 2881 -3027 -2778 -4319 -2982 0
12350 -2881 3027 2778 4319 2982 0
15010 -2881 3027 2778 4319 -2982 0
16673 -2881 3027 2778 -4319 2982 0
17603 -2881 3027 2778 -4319 -2982 0
15343 -2881 3027 -2778 4319 2982 0
16806 -2881 3027 -2778 4319 -2982 0
17720 -2881 3027 -2778 -4319 2982 0
18232 -2881 3027 -2778 -4319 -2982 0
12483 -2881 -3027 2778 4319 2982 0
15090 -2881 -3027 2778 4319 -2982 0
16719 -2881 -3027 2778 -4319 2982 0
17631 -2881 -3027 2778 -4319 -2982 0
15416 -2881 -3027 -2778 4319 2982 0
16849 -2881 -3027 -2778 4319 -2982 0
17745 -2881 -3027 -2778 -4319 2982 0
18247 -2881 -3027 -2778 -4319 -2982 0
3800 1727 4373 4534 4994 3380 -2393 0
11400 1727 4373 4534 4994 -3380 2393 0
12920 1727 4373 4534 4994 -3380 -2393 0
16150 1727 4373 4534 -4994 3380 2393 0
16720 1727 4373 4534 -4994 3380 -2393 0
17860 1727 4373 4534 -4994 -3380 2393 0
18088 1727 4373 4534 -4994 -3380 -2393 0
6080 1727 4373 -4534 4994 3380 2393 0
8664 1727 4373 -4534 4994 3380 -2393 0
13832 1727 4373 -4534 4994 -3380 2393 0
14866 1727 4373 -4534 4994 -3380 -2393 0
17062 1727 4373 -4534 -4994 3380 2393 0
17450 1727 4373 -4534 -4994 3380 -2393 0
18225 1727 4373 -4534 -4994 -3380 2393 0
18380 1727 4373 -4534 -4994 -3380 -2393 0
10450 1727 -4373 4534 4994 3380 2393 0
12160 1727 -4373 4534 4994 3380 -2393 0
15580 1727 -4373 4534 4994 -3380 2393 0
16264 1727 -4373 4534 4994 -3380 -2393 0
17718 1727 -4373 4534 -4994 3380 2393 0
17974 1727 -4373 4534 -4994 3380 -2393 0
18487 1727 -4373 4534 -4994 -3380 2393 0
18590 1727 -4373 4534 -4994 -3380 -2393 0
13186 1727 -4373 -4534 4994 3380 2393 0
14349 1727 -4373 -4534 4994 3380 -2393 0
16674 1727 -4373 -4534 4994 -3380 2393 0
17140 1727 -4373 -4534 4994 -3380 -2393 0
18128 1727 -4373 -4534 -4994 3380 2393 0
18302 1727 -4373 -4534 -4994 3380 -2393 0
18651 1727 -4373 -4534 -4994 -3380 2393 0
18721 1727 -4373 -4534 -4994 -3380 -2393 0
7220 -1727 4373 4534 4994 3380 2393 0
9576 -1727 4373 4534 4994 3380 -2393 0
14288 -1727 4373 4534 4994 -3380 2393 0
15230 -1727 4373 4534 4994 -3380 -2393 0
17233 -1727 4373 4534 -4994 3380 2393 0
17586 -1727 4373 4534 -4994 3380 -2393 0
18293 -1727 4373 4534 -4994 -3380 2393 0
18435 -1727 4373 4534 -4994 -3380 -2393 0
10990 -1727 4373 -4534 4994 3380 2393 0
12592 -1727 4373 -4534 4994 3380 -2393 0
15796 -1727 4373 -4534 4994 -3380 2393 0
16437 -1727 4373 -4534 4994 -3380 -2393 0
17798 -1727 4373 -4534 -4994 3380 2393 0
18039 -1727 4373 -4534 -4994 3380 -2393 0
18519 -1727 4373 -4534 -4994 -3380 2393 0
18616 -1727 4373 -4534 -4994 -3380 -2393 0
13699 -1727 -4373 4534 4994 3380 2393 0
14759 -1727 -4373 4534 4994 3380 -2393 0
16880 -1727 -4373 4534 4994 -3380 2393 0
17304 -1727 -4373 4534 4994 -3380 -2393 0
18205 -1727 -4373 4534 -4994 3380 2393 0
18364 -1727 -4373 4534 -4994 3380 -2393 0
18682 -1727 -4373 4534 -4994 -3380 2393 0
18746 -1727 -4373 4534 -4994 -3380 -2393 0
15395 -1727 -4373 -4534 4994 3380 2393 0
16116 -1727 -4373 -4534 4994 3380 -2393 0
17558 -1727 -4373 -4534 4994 -3380 2393 0
17847 -1727 -4373 -4534 4994 -3380 -2393 0
18459 -1727 -4373 -4534 -4994 3380 2393 0
18567 -1727 -4373 -4534 -4994 3380 -2393 0
18784 -1727 -4373 -4534 -4994 -3380 2393 0
18827 -1727 -4373 -4534 -4994 -3380 -2393 0
10165 -2130 0
5700 -1877 0
13195 2666 5057 2726 -2420 0
35815 2666 5057 -2726 2420 0
36475 2666 5057 -2726 -2420 0
16965 2666 -5057 2726 2420 0
24222 2666 -5057 2726 -2420 0
36663 2666 -5057 -2726 2420 0
37026 2666 -5057 -2726 -2420 0
20735 -2666 5057 2726 2420 0
26673 -2666 5057 2726 -2420 0
36852 -2666 5057 -2726 2420 0
37149 -2666 5057 -2726 -2420 0
28369 -2666 -5057 2726 2420 0
31635 -2666 -5057 2726 -2420 0
37233 -2666 -5057 -2726 2420 0
37397 -2666 -5057 -2726 -2420 0
15200 -2744 0
2140 2553 -4979 0
8560 -2553 4979 0
8988 -2553 -4979 0
12870 -2917 0
6435 1621 -2043 0
13728 -1621 2043 0
18104 -1621 -2043 0
1070 4040 4092 -1629 0
2140 4040 -4092 1629 0
2996 4040 -4092 -1629 0
9630 -4040 4092 1629 0
9737 -4040 4092 -1629 0
9844 -4040 -4092 1629 0
9930 -4040 -4092 -1629 0
14250 3861 1819 -4480 0
2850 3861 -1819 4480 0
14962 3861 -1819 -4480 0
13300 -3861 1819 4480 0
17575 -3861 1819 -4480 0
14155 -3861 -1819 4480 0
17789 -3861 -1819 -4480 0
5350 3811 3709 2086 -4164 0
4815 3811 3709 -2086 4164 0
7758 3811 3709 -2086 -4164 0
535 3811 -3709 2086 4164 0
5618 3811 -3709 2086 -4164 0
5109 3811 -3709 -2086 4164 0
7905 3811 -3709 -2086 -4164 0
9095 -3811 3709 2086 4164 0
9898 -3811 3709 2086 -4164 0
9817 -3811 3709 -2086 4164 0
10259 -3811 3709 -2086 -4164 0
9175 -3811 -3709 2086 4164 0
9938 -3811 -3709 2086 -4164 0
9861 -3811 -3709 -2086 4164 0
10281 -3811 -3709 -2086 -4164 0
32175 4576 -4418 0
15015 -4576 4418 0
35929 -4576 -4418 0
4280 3318 3603 -2953 0
1284 3318 -3603 2953 0
5050 3318 -3603 -2953 0
1926 -3318 3603 2953 0
5436 -3318 3603 -2953 0
2979 -3318 -3603 2953 0
6067 -3318 -3603 -2953 0
3720 3916 -2417 0
1860 -3916 2417 0
4464 -3916 -2417 0
26390 2112 -3213 0
11310 -2112 3213 0
29783 -2112 -3213 0
9425 4881 2015 -1717 0
1885 4881 -2015 1717 0
10839 4881 -2015 -1717 0
12064 -4881 2015 1717 0
18473 -4881 2015 -1717 0
13346 -4881 -2015 1717 0
19434 -4881 -2015 -1717 0
4280 2203 -3765 0
3210 -2203 3765 0
6206 -2203 -3765 0
13195 1916 3535 -4996 0
15080 1916 -3535 4996 0
22997 1916 -3535 -4996 0
6786 -1916 3535 4996 0
17606 -1916 3535 -4996 0
19152 -1916 -3535 4996 0
25644 -1916 -3535 -4996 0
1284 4602 -3003 0
9095 -4602 3003 0
9288 -4602 -3003 0
3424 3313 2958 -2321 0
9095 3313 -2958 2321 0
9609 3313 -2958 -2321 0
8560 -3313 2958 2321 0
9245 -3313 2958 -2321 0
10379 -3313 -2958 2321 0
10482 -3313 -2958 -2321 0
24505 4253 -2938 0
28275 -4253 2938 0
34401 -4253 -2938 0
16302 2974 -3300 0
10725 -2974 3300 0
22952 -2974 -3300 0
4066 2369 -2184 0
2140 -2369 2184 0
5393 -2369 -2184 0
4650 -4891 0
5655 3602 -4822 0
22620 -3602 4822 0
24882 -3602 -4822 0
1900 -4169 0
3100 1869 -3925 0
620 -1869 3925 0
3410 -1869 -3925 0
18050 5027 3923 4584 3444 4993 -4651 0
2280 5027 3923 4584 3444 -4993 4651 0
18164 5027 3923 4584 3444 -4993 -4651 0
6080 5027 3923 4584 -3444 4993 4651 0
18354 5027 3923 4584 -3444 4993 -4651 0
7630 5027 3923 4584 -3444 -4993 4651 0
18432 5027 3923 4584 -3444 -4993 -4651 0
7220 5027 3923 -4584 3444 4993 4651 0
18411 5027 3923 -4584 3444 4993 -4651 0
8634 5027 3923 -4584 3444 -4993 4651 0
18482 5027 3923 -4584 3444 -4993 -4651 0
10990 5027 3923 -4584 -3444 4993 4651 0
18599 5027 3923 -4584 -3444 4993 -4651 0
11951 5027 3923 -4584 -3444 -4993 4651 0
18648 5027 3923 -4584 -3444 -4993 -4651 0
13300 5027 -3923 4584 3444 4993 4651 0
18715 5027 -3923 4584 3444 4993 -4651 0
13984 5027 -3923 4584 3444 -4993 4651 0
18749 5027 -3923 4584 3444 -4993 -4651 0
15124 5027 -3923 4584 -3444 4993 4651 0
18806 5027 -3923 4584 -3444 4993 -4651 0
15589 5027 -3923 4584 -3444 -4993 4651 0
18829 5027 -3923 4584 -3444 -4993 -4651 0
15466 5027 -3923 -4584 3444 4993 4651 0
18823 5027 -3923 -4584 3444 4993 -4651 0
15890 5027 -3923 -4584 3444 -4993 4651 0
18845 5027 -3923 -4584 3444 -4993 -4651 0
16597 5027 -3923 -4584 -3444 4993 4651 0
18880 5027 -3923 -4584 -3444 4993 -4651 0
16885 5027 -3923 -4584 -3444 -4993 4651 0
18894 5027 -3923 -4584 -3444 -4993 -4651 0
6650 -5027 3923 4584 3444 4993 4651 0
18383 -5027 3923 4584 3444 4993 -4651 0
8132 -5027 3923 4584 3444 -4993 4651 0
18457 -5027 3923 4584 3444 -4993 -4651 0
10602 -5027 3923 4584 -3444 4993 4651 0
18580 -5027 3923 4584 -3444 4993 -4651 0
11610 -5027 3923 4584 -3444 -4993 4651 0
18630 -5027 3923 4584 -3444 -4993 -4651 0
11343 -5027 3923 -4584 3444 4993 4651 0
18617 -5027 3923 -4584 3444 4993 -4651 0
12262 -5027 3923 -4584 3444 -4993 4651 0
18663 -5027 3923 -4584 3444 -4993 -4651 0
13793 -5027 3923 -4584 -3444 4993 4651 0
18740 -5027 3923 -4584 -3444 4993 -4651 0
14418 -5027 3923 -4584 -3444 -4993 4651 0
18771 -5027 3923 -4584 -3444 -4993 -4651 0
15295 -5027 -3923 4584 3444 4993 4651 0
18815 -5027 -3923 4584 3444 4993 -4651 0
15740 -5027 -3923 4584 3444 -4993 4651 0
18837 -5027 -3923 4584 3444 -4993 -4651 0
16481 -5027 -3923 4584 -3444 4993 4651 0
18874 -5027 -3923 4584 -3444 4993 -4651 0
16783 -5027 -3923 4584 -3444 -4993 4651 0
18889 -5027 -3923 4584 -3444 -4993 -4651 0
16703 -5027 -3923 -4584 3444 4993 4651 0
18885 -5027 -3923 -4584 3444 4993 -4651 0
16979 -5027 -3923 -4584 3444 -4993 4651 0
18899 -5027 -3923 -4584 3444 -4993 -4651 0
17438 -5027 -3923 -4584 -3444 4993 4651 0
18922 -5027 -3923 -4584 -3444 4993 -4651 0
17625 -5027 -3923 -4584 -3444 -4993 4651 0
18931 -5027 -3923 -4584 -3444 -4993 -4651 0
8025 -2790 0
2145 2941 3701 -4877 0
10725 2941 -3701 4877 0
12334 2941 -3701 -4877 0
38610 -2941 3701 4877 0
38825 -2941 3701 -4877 0
39683 -2941 -3701 4877 0
39843 -2941 -3701 -4877 0
754 3586 -2755 0
35815 -3586 2755 0
35853 -3586 -2755 0
25740 2906 -3705 0
4290 -2906 3705 0
27456 -2906 -3705 0
3210 3110 3858 -1616 0
5350 3110 -3858 1616 0
6955 3110 -3858 -1616 0
10165 -3110 3858 1616 0
10325 -3110 3858 -1616 0
10433 -3110 -3858 1616 0
10513 -3110 -3858 -1616 0
5270 -3414 0
10450 2925 1983 -3329 0
5700 2925 -1983 3329 0
13015 2925 -1983 -3329 0
17100 -2925 1983 3329 0
18145 -2925 1983 -3329 0
17670 -2925 -1983 3329 0
18402 -2925 -1983 -3329 0
4815 1875 -3015 0
5350 -1875 3015 0
7758 -1875 -3015 0
21450 -5094 0
2280 3169 -4799 0
3420 -3169 4799 0
5290 -3169 -4799 0
38610 -4793 0
8560 2986 4939 2035 4167 -4639 0
6955 2986 4939 2035 -4167 4639 0
9951 2986 4939 2035 -4167 -4639 0
8025 2986 4939 -2035 4167 4639 0
10165 2986 4939 -2035 4167 -4639 0
9764 2986 4939 -2035 -4167 4639 0
10513 2986 4939 -2035 -4167 -4639 0
3424 2986 -4939 2035 4167 4639 0
9245 2986 -4939 2035 4167 -4639 0
8153 2986 -4939 2035 -4167 4639 0
10191 2986 -4939 2035 -4167 -4639 0
8881 2986 -4939 -2035 4167 4639 0
10336 2986 -4939 -2035 4167 -4639 0
10063 2986 -4939 -2035 -4167 4639 0
10573 2986 -4939 -2035 -4167 -4639 0
6955 -2986 4939 2035 4167 4639 0
9951 -2986 4939 2035 4167 -4639 0
9389 -2986 4939 2035 -4167 4639 0
10438 -2986 4939 2035 -4167 -4639 0
9764 -2986 4939 -2035 4167 4639 0
10513 -2986 4939 -2035 4167 -4639 0
10372 -2986 4939 -2035 -4167 4639 0
10634 -2986 4939 -2035 -4167 -4639 0
8153 -2986 -4939 2035 4167 4639 0
10191 -2986 -4939 2035 4167 -4639 0
9809 -2986 -4939 2035 -4167 4639 0
10522 -2986 -4939 2035 -4167 -4639 0
10063 -2986 -4939 -2035 4167 4639 0
10573 -2986 -4939 -2035 4167 -4639 0
10477 -2986 -4939 -2035 -4167 4639 0
10655 -2986 -4939 -2035 -4167 -4639 0
12870 4908 3545 -2278 0
34320 4908 -3545 2278 0
36894 4908 -3545 -2278 0
17160 -4908 3545 2278 0
24882 -4908 3545 -2278 0
37752 -4908 -3545 2278 0
39296 -4908 -3545 -2278 0
2675 2771 2723 -3257 0
5885 2771 -2723 3257 0
7089 2771 -2723 -3257 0
4280 -2771 2723 3257 0
5885 -2771 2723 -3257 0
7811 -2771 -2723 3257 0
8533 -2771 -2723 -3257 0
16302 2837 -2163 0
5148 -2837 2163 0
19494 -2837 -2163 0
4030 4353 2403 4631 -3612 0
930 4353 2403 -4631 3612 0
4355 4353 2403 -4631 -3612 0
1984 4353 -2403 4631 3612 0
4724 4353 -2403 4631 -3612 0
2616 4353 -2403 -4631 3612 0
4946 4353 -2403 -4631 -3612 0
930 -4353 2403 4631 3612 0
4355 -4353 2403 4631 -3612 0
1721 -4353 2403 -4631 3612 0
4632 -4353 2403 -4631 -3612 0
2616 -4353 -2403 4631 3612 0
4946 -4353 -2403 4631 -3612 0
3154 -4353 -2403 -4631 3612 0
5134 -4353 -2403 -4631 -3612 0
1860 1788 -2256 0
124 -1788 2256 0
1947 -1788 -2256 0
12350 4626 2969 2894 -2867 0
7220 4626 2969 -2894 2867 0
14877 4626 2969 -2894 -2867 0
380 4626 -2969 2894 2867 0
12483 4626 -2969 2894 -2867 0
7456 4626 -2969 -2894 2867 0
14959 4626 -2969 -2894 -2867 0
2850 -4626 2969 2894 2867 0
13347 -4626 2969 2894 -2867 0
8987 -4626 2969 -2894 2867 0
15495 -4626 2969 -2894 -2867 0
3173 -4626 -2969 2894 2867 0
13461 -4626 -2969 2894 -2867 0
9187 -4626 -2969 -2894 2867 0
15566 -4626 -2969 -2894 -2867 0
930 4216 2200 -1696 0
1550 4216 -2200 1696 0
2248 4216 -2200 -1696 0
1240 -4216 2200 1696 0
1984 -4216 2200 -1696 0
2480 -4216 -2200 1696 0
3038 -4216 -2200 -1696 0
7540 -2732 0
40755 3671 4583 -2546 0
36465 3671 -4583 2546 0
42578 3671 -4583 -2546 0
12870 -3671 4583 2546 0
41399 -3671 4583 -2546 0
38395 -3671 -4583 2546 0
42675 -3671 -4583 -2546 0
15015 4282 3608 -4097 0
15015 4282 -3608 4097 0
24775 4282 -3608 -4097 0
5148 -4282 3608 4097 0
18361 -4282 3608 -4097 0
18361 -4282 -3608 4097 0
26950 -4282 -3608 -4097 0
5890 -4810 0
310 3491 -2331 0
1860 -3491 2331 0
2077 -3491 -2331 0
3210 1690 2856 1782 -3528 0
535 1690 2856 -1782 3528 0
3585 1690 2856 -1782 -3528 0
535 1690 -2856 1782 3528 0
3585 1690 -2856 1782 -3528 0
1043 1690 -2856 -1782 3528 0
3940 1690 -2856 -1782 -3528 0
4066 -1690 2856 1782 3528 0
6056 -1690 2856 1782 -3528 0
4398 -1690 2856 -1782 3528 0
6288 -1690 2856 -1782 -3528 0
4398 -1690 -2856 1782 3528 0
6288 -1690 -2856 1782 -3528 0
4713 -1690 -2856 -1782 3528 0
6509 -1690 -2856 -1782 -3528 0
7490 5081 -4419 0
5885 -5081 4419 0
9255 -5081 -4419 0
10725 3744 -3339 0
19305 -3744 3339 0
25204 -3744 -3339 0
6080 -2191 0
13300 -1529 0
17100 2268 2567 -4128 0
7600 2268 -2567 4128 0
17860 2268 -2567 -4128 0
7600 -2268 2567 4128 0
17860 -2268 2567 -4128 0
12160 -2268 -2567 4128 0
18316 -2268 -2567 -4128 0
5350 4024 2027 2832 3243 5075 -1993 0
214 4024 2027 2832 3243 -5075 1993 0
5457 4024 2027 2832 3243 -5075 -1993 0
6420 4024 2027 2832 -3243 5075 1993 0
8560 4024 2027 2832 -3243 5075 -1993 0
6506 4024 2027 2832 -3243 -5075 1993 0
8603 4024 2027 2832 -3243 -5075 -1993 0
6955 4024 2027 -2832 3243 5075 1993 0
8827 4024 2027 -2832 3243 5075 -1993 0
7030 4024 2027 -2832 3243 -5075 1993 0
8865 4024 2027 -2832 3243 -5075 -1993 0
9202 4024 2027 -2832 -3243 5075 1993 0
9951 4024 2027 -2832 -3243 5075 -1993 0
9232 4024 2027 -2832 -3243 -5075 1993 0
9966 4024 2027 -2832 -3243 -5075 -1993 0
4280 4024 -2027 2832 3243 5075 1993 0
7490 4024 -2027 2832 3243 5075 -1993 0
4408 4024 -2027 2832 3243 -5075 1993 0
7554 4024 -2027 2832 3243 -5075 -1993 0
8132 4024 -2027 2832 -3243 5075 1993 0
9416 4024 -2027 2832 -3243 5075 -1993 0
8183 4024 -2027 2832 -3243 -5075 1993 0
9442 4024 -2027 2832 -3243 -5075 -1993 0
8453 4024 -2027 -2832 3243 5075 1993 0
9577 4024 -2027 -2832 3243 5075 -1993 0
8498 4024 -2027 -2832 3243 -5075 1993 0
9599 4024 -2027 -2832 3243 -5075 -1993 0
9801 4024 -2027 -2832 -3243 5075 1993 0
10251 4024 -2027 -2832 -3243 5075 -1993 0
9819 4024 -2027 -2832 -3243 -5075 1993 0
10260 4024 -2027 -2832 -3243 -5075 -1993 0
9630 -4024 2027 2832 3243 5075 1993 0
10165 -4024 2027 2832 3243 5075 -1993 0
9651 -4024 2027 2832 3243 -5075 1993 0
10176 -4024 2027 2832 3243 -5075 -1993 0
10272 -4024 2027 2832 -3243 5075 1993 0
10486 -4024 2027 2832 -3243 5075 -1993 0
10281 -4024 2027 2832 -3243 -5075 1993 0
10490 -4024 2027 2832 -3243 -5075 -1993 0
10325 -4024 2027 -2832 3243 5075 1993 0
10513 -4024 2027 -2832 3243 5075 -1993 0
10333 -4024 2027 -2832 3243 -5075 1993 0
10516 -4024 2027 -2832 3243 -5075 -1993 0
10550 -4024 2027 -2832 -3243 5075 1993 0
10625 -4024 2027 -2832 -3243 5075 -1993 0
10553 -4024 2027 -2832 -3243 -5075 1993 0
10627 -4024 2027 -2832 -3243 -5075 -1993 0
10058 -4024 -2027 2832 3243 5075 1993 0
10379 -4024 -2027 2832 3243 5075 -1993 0
10071 -4024 -2027 2832 3243 -5075 1993 0
10385 -4024 -2027 2832 3243 -5075 -1993 0
10443 -4024 -2027 2832 -3243 5075 1993 0
10572 -4024 -2027 2832 -3243 5075 -1993 0
10448 -4024 -2027 2832 -3243 -5075 1993 0
10574 -4024 -2027 2832 -3243 -5075 -1993 0
10475 -4024 -2027 -2832 3243 5075 1993 0
10588 -4024 -2027 -2832 3243 5075 -1993 0
10480 -4024 -2027 -2832 3243 -5075 1993 0
10590 -4024 -2027 -2832 3243 -5075 -1993 0
10610 -4024 -2027 -2832 -3243 5075 1993 0
10655 -4024 -2027 -2832 -3243 5075 -1993 0
10612 -4024 -2027 -2832 -3243 -5075 1993 0
10656 -4024 -2027 -2832 -3243 -5075 -1993 0
3420 2440 -3382 0
3420 -2440 3382 0
6224 -2440 -3382 0
9425 4598 1948 -3847 0
12064 4598 -1948 3847 0
18473 4598 -1948 -3847 0
9425 -4598 1948 3847 0
16494 -4598 1948 -3847 0
18473 -4598 -1948 3847 0
23280 -4598 -1948 -3847 0
14250 -2178 0
15080 2359 1731 1909 -3596 0
12064 2359 1731 -1909 3596 0
22318 2359 1731 -1909 -3596 0
15080 2359 -1731 1909 3596 0
24128 2359 -1731 1909 -3596 0
22318 2359 -1731 -1909 3596 0
28471 2359 -1731 -1909 -3596 0
20735 -2359 1731 1909 3596 0
27521 -2359 1731 1909 -3596 0
26164 -2359 1731 -1909 3596 0
30778 -2359 1731 -1909 -3596 0
27521 -2359 -1731 1909 3596 0
31593 -2359 -1731 1909 -3596 0
30778 -2359 -1731 -1909 3596 0
33547 -2359 -1731 -1909 -3596 0
754 1895 4570 -1910 0
33930 1895 -4570 1910 0
34005 1895 -4570 -1910 0
15080 -1895 4570 1910 0
15532 -1895 4570 -1910 0
35438 -1895 -4570 1910 0
35483 -1895 -4570 -1910 0
9500 2501 -3185 0
3800 -2501 3185 0
11400 -2501 -3185 0
10165 2459 -2579 0
9630 -2459 2579 0
10647 -2459 -2579 0
4815 2722 2365 -4910 0
535 2722 -2365 4910 0
5109 2722 -2365 -4910 0
1926 -2722 2365 4910 0
5874 -2722 2365 -4910 0
2365 -2722 -2365 4910 0
6116 -2722 -2365 -4910 0
16150 4173 -3399 0
6080 -4173 3399 0
17062 -4173 -3399 0
2140 4529 -2899 0
6420 -4529 2899 0
7276 -4529 -2899 0
10725 3322 2668 -2431 0
15015 3322 -2668 2431 0
21986 3322 -2668 -2431 0
5148 -3322 2668 2431 0
14586 -3322 2668 -2431 0
18361 -3322 -2668 2431 0
24496 -3322 -2668 -2431 0
2280 2131 4073 4552 -4503 0
6080 2131 4073 -4552 4503 0
7630 2131 4073 -4552 -4503 0
16150 2131 -4073 4552 4503 0
16492 2131 -4073 4552 -4503 0
17062 2131 -4073 -4552 4503 0
17295 2131 -4073 -4552 -4503 0
8550 -2131 4073 4552 4503 0
9804 -2131 4073 4552 -4503 0
11894 -2131 4073 -4552 4503 0
12747 -2131 4073 -4552 -4503 0
17432 -2131 -4073 4552 4503 0
17621 -2131 -4073 4552 -4503 0
17934 -2131 -4073 -4552 4503 0
18062 -2131 -4073 -4552 -4503 0
13195 1586 3374 5056 -4560 0
11310 1586 3374 -5056 4560 0
20547 1586 3374 -5056 -4560 0
28275 1586 -3374 5056 4560 0
31574 1586 -3374 5056 -4560 0
31102 1586 -3374 -5056 4560 0
33412 1586 -3374 -5056 -4560 0
12064 -1586 3374 5056 4560 0
21037 -1586 3374 5056 -4560 0
19755 -1586 3374 -5056 4560 0
26036 -1586 3374 -5056 -4560 0
31291 -1586 -3374 5056 4560 0
33534 -1586 -3374 5056 -4560 0
33214 -1586 -3374 -5056 4560 0
34784 -1586 -3374 -5056 -4560 0
1900 -4114 0
4750 3719 -3668 0
9500 -3719 3668 0
11875 -3719 -3668 0
16302 4889 -1519 0
36465 -4889 1519 0
38910 -4889 -1519 0
1860 2844 2106 -2730 0
2170 2844 -2106 2730 0
3379 2844 -2106 -2730 0
1240 -2844 2106 2730 0
2728 -2844 2106 -2730 0
2976 -2844 -2106 2730 0
3943 -2844 -2106 -2730 0
858 3497 2445 -4525 0
2145 3497 -2445 4525 0
2960 3497 -2445 -4525 0
40755 -3497 2445 4525 0
40798 -3497 2445 -4525 0
40862 -3497 -2445 4525 0
40903 -3497 -2445 -4525 0
30160 4157 4110 -3292 0
33930 4157 -4110 3292 0
36946 4157 -4110 -3292 0
7540 -4157 4110 3292 0
31668 -4157 4110 -3292 0
34684 -4157 -4110 3292 0
37097 -4157 -4110 -3292 0
380 -2515 0
23595 -4011 0
22620 4267 4071 -2152 0
20735 4267 -4071 2152 0
30914 4267 -4071 -2152 0
24505 -4267 4071 2152 0
32422 -4267 4071 -2152 0
31762 -4267 -4071 2152 0
35325 -4267 -4071 -2152 0
35815 3061 4766 3706 -3994 0
16965 3061 4766 -3706 3994 0
36663 3061 4766 -3706 -3994 0
5655 3061 -4766 3706 3994 0
36098 3061 -4766 3706 -3994 0
20075 3061 -4766 -3706 3994 0
36819 3061 -4766 -3706 -3994 0
1885 -3061 4766 3706 3994 0
35909 -3061 4766 3706 -3994 0
18002 -3061 4766 -3706 3994 0
36715 -3061 4766 -3706 -3994 0
7257 -3061 -4766 3706 3994 0
36178 -3061 -4766 3706 -3994 0
20956 -3061 -4766 -3706 3994 0
36863 -3061 -4766 -3706 -3994 0
12064 4882 4702 1882 2396 -5023 0
754 4882 4702 1882 -2396 5023 0
12577 4882 4702 1882 -2396 -5023 0
14326 4882 4702 -1882 2396 5023 0
21806 4882 4702 -1882 2396 -5023 0
14793 4882 4702 -1882 -2396 5023 0
22124 4882 4702 -1882 -2396 -5023 0
11310 4882 -4702 1882 2396 5023 0
19755 4882 -4702 1882 2396 -5023 0
11838 4882 -4702 1882 -2396 5023 0
20114 4882 -4702 1882 -2396 -5023 0
21338 4882 -4702 -1882 2396 5023 0
26574 4882 -4702 -1882 2396 -5023 0
21665 4882 -4702 -1882 -2396 5023 0
26796 4882 -4702 -1882 -2396 -5023 0
13195 -4882 4702 1882 2396 5023 0
21037 -4882 4702 1882 2396 -5023 0
13685 -4882 4702 1882 -2396 5023 0
21370 -4882 4702 1882 -2396 -5023 0
22507 -4882 4702 -1882 2396 5023 0
27369 -4882 4702 -1882 2396 -5023 0
22811 -4882 4702 -1882 -2396 5023 0
27575 -4882 4702 -1882 -2396 -5023 0
20547 -4882 -4702 1882 2396 5023 0
26036 -4882 -4702 1882 2396 -5023 0
20890 -4882 -4702 1882 -2396 5023 0
26269 -4882 -4702 1882 -2396 -5023 0
27065 -4882 -4702 -1882 2396 5023 0
30468 -4882 -4702 -1882 2396 -5023 0
27278 -4882 -4702 -1882 -2396 5023 0
30613 -4882 -4702 -1882 -2396 -5023 0
34320 2639 3907 -4398 0
7722 2639 -3907 4398 0
35864 2639 -3907 -4398 0
858 -2639 3907 4398 0
34492 -2639 3907 -4398 0
8426 -2639 -3907 4398 0
36005 -2639 -3907 -4398 0
2145 1577 3389 -3786 0
4290 1577 -3389 3786 0
6221 1577 -3389 -3786 0
17160 -1577 3389 3786 0
18447 -1577 3389 -3786 0
19734 -1577 -3389 3786 0
20892 -1577 -3389 -3786 0
3210 3747 -1665 0
9630 -3747 1665 0
9951 -3747 -1665 0
23595 -1684 0
38610 4527 4537 -1622 0
32175 4527 -4537 1622 0
41827 4527 -4537 -1622 0
30030 -4527 4537 1622 0
41613 -4527 4537 -1622 0
39683 -4527 -4537 1622 0
42578 -4527 -4537 -1622 0
15015 4077 -2929 0
34320 -4077 2929 0
37323 -4077 -2929 0
4750 4283 -3986 0
15200 -4283 3986 0
16150 -4283 -3986 0
4960 -2089 0
8550 -3047 0
10165 3421 -4935 0
4815 -3421 4935 0
10406 -3421 -4935 0
8025 -3368 0
33930 -3976 0
8580 1856 -2803 0
34320 -1856 2803 0
36036 -1856 -2803 0
16150 3145 4368 -4528 0
1900 3145 -4368 4528 0
16435 3145 -4368 -4528 0
2850 -3145 4368 4528 0
16578 -3145 4368 -4528 0
4465 -3145 -4368 4528 0
16820 -3145 -4368 -4528 0
27885 2363 2601 3534 -3198 0
40755 2363 2601 -3534 3198 0
42149 2363 2601 -3534 -3198 0
19305 2363 -2601 3534 3198 0
34642 2363 -2601 3534 -3198 0
41720 2363 -2601 -3534 3198 0
42487 2363 -2601 -3534 -3198 0
15015 -2363 2601 3534 3198 0
33140 -2363 2601 3534 -3198 0
41506 -2363 2601 -3534 3198 0
42412 -2363 2601 -3534 -3198 0
27563 -2363 -2601 3534 3198 0
37532 -2363 -2601 3534 -3198 0
42133 -2363 -2601 -3534 3198 0
42632 -2363 -2601 -3534 -3198 0
1605 2212 3919 -4015 0
1605 2212 -3919 4015 0
2969 2212 -3919 -4015 0
8560 -2212 3919 4015 0
8881 -2212 3919 -4015 0
8881 -2212 -3919 4015 0
9154 -2212 -3919 -4015 0
2140 -3153 0
12064 -4334 0
2145 2347 -3340 0
6435 -2347 3340 0
8258 -2347 -3340 0
5655 -4426 0
754 4676 1798 2990 -3100 0
22620 4676 1798 -2990 3100 0
22922 4676 1798 -2990 -3100 0
6786 4676 -1798 2990 3100 0
7404 4676 -1798 2990 -3100 0
25334 4676 -1798 -2990 3100 0
25582 4676 -1798 -2990 -3100 0
9425 -4676 1798 2990 3100 0
9991 -4676 1798 2990 -3100 0
26390 -4676 1798 -2990 3100 0
26616 -4676 1798 -2990 -3100 0
14515 -4676 -1798 2990 3100 0
14978 -4676 -1798 2990 -3100 0
28426 -4676 -1798 -2990 3100 0
28611 -4676 -1798 -2990 -3100 0
12064 2308 1977 -4632 0
4524 2308 -1977 4632 0
15140 2308 -1977 -4632 0
35815 -2308 1977 4632 0
36418 -2308 1977 -4632 0
36041 -2308 -1977 4632 0
36572 -2308 -1977 -4632 0
12064 1723 -1963 0
14326 -1723 1963 0
21806 -1723 -1963 0
24505 4113 5089 -1706 0
32045 4113 -5089 1706 0
35721 4113 -5089 -1706 0
14326 -4113 5089 1706 0
29519 -4113 5089 -1706 0
34194 -4113 -5089 1706 0
36473 -4113 -5089 -1706 0
5350 4208 4607 -2748 0
6420 4208 -4607 2748 0
8560 4208 -4607 -2748 0
1284 -4208 4607 2748 0
5992 -4208 4607 -2748 0
6934 -4208 -4607 2748 0
8817 -4208 -4607 -2748 0
4524 2217 -4130 0
11310 -2217 4130 0
14477 -2217 -4130 0
4650 1991 1504 -3593 0
310 1991 -1504 3593 0
4727 1991 -1504 -3593 0
2356 -1991 1504 3593 0
5239 -1991 1504 -3593 0
2548 -1991 -1504 3593 0
5287 -1991 -1504 -3593 0
3420 4139 -4796 0
18050 -4139 4796 0
18221 -4139 -4796 0
380 3351 -3395 0
950 -3351 3395 0
1311 -3351 -3395 0
1550 2057 4434 4617 -1539 0
2790 2057 4434 -4617 1539 0
3642 2057 4434 -4617 -1539 0
4030 2057 -4434 4617 1539 0
4573 2057 -4434 4617 -1539 0
5006 2057 -4434 -4617 1539 0
5305 2057 -4434 -4617 -1539 0
620 -2057 4434 4617 1539 0
2015 -2057 4434 4617 -1539 0
3131 -2057 4434 -4617 1539 0
3898 -2057 4434 -4617 -1539 0
4247 -2057 -4434 4617 1539 0
4735 -2057 -4434 4617 -1539 0
5126 -2057 -4434 -4617 1539 0
5394 -2057 -4434 -4617 -1539 0
5885 -3743 0
9500 -4481 0
4030 -5016 0
6650 3277 -4203 0
17100 -3277 4203 0
17765 -3277 -4203 0
3745 3195 2482 4382 -3799 0
10165 3195 2482 -4382 3799 0
10352 3195 2482 -4382 -3799 0
8025 3195 -2482 4382 3799 0
8961 3195 -2482 4382 -3799 0
10566 3195 -2482 -4382 3799 0
10613 3195 -2482 -4382 -3799 0
1070 -3195 2482 4382 3799 0
4440 -3195 2482 4382 -3799 0
10219 -3195 2482 -4382 3799 0
10387 -3195 2482 -4382 -3799 0
8292 -3195 -2482 4382 3799 0
9135 -3195 -2482 4382 -3799 0
10580 -3195 -2482 -4382 3799 0
10622 -3195 -2482 -4382 -3799 0
27885 1580 -4863 0
30030 -1580 4863 0
38395 -1580 -4863 0
1885 3410 1945 -2385 0
24505 3410 -1945 2385 0
25165 3410 -1945 -2385 0
22620 -3410 1945 2385 0
23374 -3410 1945 -2385 0
32422 -3410 -1945 2385 0
32686 -3410 -1945 -2385 0
23595 3780 -2210 0
15015 -3780 2210 0
30352 -3780 -2210 0
744 3618 -2707 0
4340 -3618 2707 0
4563 -3618 -2707 0
10725 2621 -3173 0
38610 -2621 3173 0
39683 -2621 -3173 0
858 2634 -2989 0
17160 -2634 2989 0
17675 -2634 -2989 0
4750 3611 -4273 0
5700 -3611 4273 0
9025 -3611 -4273 0
8025 3222 -1966 0
1605 -3222 1966 0
8426 -3222 -1966 0
8560 4522 1959 -4205 0
4066 4522 -1959 4205 0
9373 4522 -1959 -4205 0
9630 -4522 1959 4205 0
10486 -4522 1959 -4205 0
10037 -4522 -1959 4205 0
10567 -4522 -1959 -4205 0
35815 2309 -1873 0
11310 -2309 1873 0
36381 -2309 -1873 0
25740 1741 -3718 0
23595 -1741 3718 0
35178 -1741 -3718 0
3745 3951 4507 -2692 0
214 3951 -4507 2692 0
3884 3951 -4507 -2692 0
1605 -3951 4507 2692 0
4788 -3951 4507 -2692 0
1787 -3951 -4507 2692 0
4906 -3951 -4507 -2692 0
4030 4601 2247 -4511 0
1984 4601 -2247 4511 0
4724 4601 -2247 -4511 0
2480 -4601 2247 4511 0
4898 -4601 2247 -4511 0
3670 -4601 -2247 4511 0
5315 -4601 -2247 -4511 0
30160 1912 2090 -4095 0
20735 1912 -2090 4095 0
34307 1912 -2090 -4095 0
11310 -1912 2090 4095 0
32422 -1912 2090 -4095 0
25825 -1912 -2090 4095 0
35325 -1912 -2090 -4095 0
4650 4111 2745 5065 -3445 0
3720 4111 2745 -5065 3445 0
5580 4111 2745 -5065 -3445 0
5270 4111 -2745 5065 3445 0
5968 4111 -2745 5065 -3445 0
5828 4111 -2745 -5065 3445 0
6107 4111 -2745 -5065 -3445 0
4650 -4111 2745 5065 3445 0
5812 -4111 2745 5065 -3445 0
5580 -4111 2745 -5065 3445 0
6045 -4111 2745 -5065 -3445 0
5968 -4111 -2745 5065 3445 0
6142 -4111 -2745 5065 -3445 0
6107 -4111 -2745 -5065 3445 0
6177 -4111 -2745 -5065 -3445 0
9095 3696 -4629 0
5885 -3696 4629 0
9978 -3696 -4629 0
27885 -4081 0
12350 4214 -3096 0
3420 -4214 3096 0
13547 -4214 -3096 0
20735 2708 2502 -3184 0
14326 2708 -2502 3184 0
27182 2708 -2502 -3184 0
4524 -2708 2502 3184 0
22771 -2708 2502 -3184 0
17131 -2708 -2502 3184 0
28444 -2708 -2502 -3184 0
6650 3798 3266 1826 -2648 0
6650 3798 3266 -1826 2648 0
10972 3798 3266 -1826 -2648 0
3800 3798 -3266 1826 2648 0
9120 3798 -3266 1826 -2648 0
9120 3798 -3266 -1826 2648 0
12578 3798 -3266 -1826 -2648 0
18050 -3798 3266 1826 2648 0
18383 -3798 3266 1826 -2648 0
18383 -3798 3266 -1826 2648 0
18599 -3798 3266 -1826 -2648 0
18240 -3798 -3266 1826 2648 0
18506 -3798 -3266 1826 -2648 0
18506 -3798 -3266 -1826 2648 0
18679 -3798 -3266 -1826 -2648 0
7600 4427 2063 -2877 0
5700 4427 -2063 2877 0
11020 4427 -2063 -2877 0
2850 -4427 2063 2877 0
9310 -4427 2063 -2877 0
7695 -4427 -2063 2877 0
12217 -4427 -2063 -2877 0
1926 -2908 0
2790 2678 -1961 0
4030 -2678 1961 0
5006 -2678 -1961 0
35815 3402 4394 -2433 0
30160 3402 -4394 2433 0
37323 3402 -4394 -2433 0
28275 -3402 4394 2433 0
37229 -3402 4394 -2433 0
35815 -3402 -4394 2433 0
37606 -3402 -4394 -2433 0
2675 2368 4805 -4959 0
4066 2368 -4805 4959 0
5725 2368 -4805 -4959 0
3210 -2368 4805 4959 0
5083 -2368 4805 -4959 0
6056 -2368 -4805 4959 0
7217 -2368 -4805 -4959 0
24505 2005 4174 -3446 0
11310 2005 -4174 3446 0
28463 2005 -4174 -3446 0
32045 -2005 4174 3446 0
35721 -2005 4174 -3446 0
33742 -2005 -4174 3446 0
36315 -2005 -4174 -3446 0
2145 1799 3164 4961 1561 4864 -3273 0
12870 1799 3164 4961 1561 -4864 3273 0
14372 1799 3164 4961 1561 -4864 -3273 0
12870 1799 3164 4961 -1561 4864 3273 0
14372 1799 3164 4961 -1561 4864 -3273 0
21879 1799 3164 4961 -1561 -4864 3273 0
22930 1799 3164 4961 -1561 -4864 -3273 0
13728 1799 3164 -4961 1561 4864 3273 0
15187 1799 3164 -4961 1561 4864 -3273 0
22480 1799 3164 -4961 1561 -4864 3273 0
23501 1799 3164 -4961 1561 -4864 -3273 0
22480 1799 3164 -4961 -1561 4864 3273 0
23501 1799 3164 -4961 -1561 4864 -3273 0
28606 1799 3164 -4961 -1561 -4864 3273 0
29320 1799 3164 -4961 -1561 -4864 -3273 0
30030 1799 -3164 4961 1561 4864 3273 0
30674 1799 -3164 4961 1561 4864 -3273 0
33891 1799 -3164 4961 1561 -4864 3273 0
34341 1799 -3164 4961 1561 -4864 -3273 0
33891 1799 -3164 4961 -1561 4864 3273 0
34341 1799 -3164 4961 -1561 4864 -3273 0
36594 1799 -3164 4961 -1561 -4864 3273 0
36909 1799 -3164 4961 -1561 -4864 -3273 0
34148 1799 -3164 -4961 1561 4864 3273 0
34586 1799 -3164 -4961 1561 4864 -3273 0
36774 1799 -3164 -4961 1561 -4864 3273 0
37080 1799 -3164 -4961 1561 -4864 -3273 0
36774 1799 -3164 -4961 -1561 4864 3273 0
37080 1799 -3164 -4961 -1561 4864 -3273 0
38612 1799 -3164 -4961 -1561 -4864 3273 0
38826 1799 -3164 -4961 -1561 -4864 -3273 0
15015 -1799 3164 4961 1561 4864 3273 0
16409 -1799 3164 4961 1561 4864 -3273 0
23381 -1799 3164 4961 1561 -4864 3273 0
24356 -1799 3164 4961 1561 -4864 -3273 0
23381 -1799 3164 4961 -1561 4864 3273 0
24356 -1799 3164 4961 -1561 4864 -3273 0
29236 -1799 3164 4961 -1561 -4864 3273 0
29920 -1799 3164 4961 -1561 -4864 -3273 0
23938 -1799 3164 -4961 1561 4864 3273 0
24886 -1799 3164 -4961 1561 4864 -3273 0
29627 -1799 3164 -4961 1561 -4864 3273 0
30290 -1799 3164 -4961 1561 -4864 -3273 0
29627 -1799 3164 -4961 -1561 4864 3273 0
30290 -1799 3164 -4961 -1561 4864 -3273 0
33609 -1799 3164 -4961 -1561 -4864 3273 0
34073 -1799 3164 -4961 -1561 -4864 -3273 0
34534 -1799 -3164 4961 1561 4864 3273 0
34953 -1799 -3164 4961 1561 4864 -3273 0
37044 -1799 -3164 4961 1561 -4864 3273 0
37337 -1799 -3164 4961 1561 -4864 -3273 0
37044 -1799 -3164 4961 -1561 4864 3273 0
37337 -1799 -3164 4961 -1561 4864 -3273 0
38801 -1799 -3164 4961 -1561 -4864 3273 0
39006 -1799 -3164 4961 -1561 -4864 -3273 0
37211 -1799 -3164 -4961 1561 4864 3273 0
37496 -1799 -3164 -4961 1561 4864 -3273 0
38918 -1799 -3164 -4961 1561 -4864 3273 0
39117 -1799 -3164 -4961 1561 -4864 -3273 0
38918 -1799 -3164 -4961 -1561 4864 3273 0
39117 -1799 -3164 -4961 -1561 4864 -3273 0
40113 -1799 -3164 -4961 -1561 -4864 3273 0
40252 -1799 -3164 -4961 -1561 -4864 -3273 0
13300 3134 -4406 0
6080 -3134 4406 0
15124 -3134 -4406 0
21450 -2737 0
9500 3715 -3547 0
9500 -3715 3547 0
14250 -3715 -3547 0
3720 -3065 0
3800 2246 -2202 0
6080 -2246 2202 0
8664 -2246 -2202 0
310 4007 2592 -4232 0
2356 4007 -2592 4232 0
2548 4007 -2592 -4232 0
3100 -4007 2592 4232 0
3255 -4007 2592 -4232 0
4278 -4007 -2592 4232 0
4374 -4007 -2592 -4232 0
3420 -3661 0
40755 4222 -4722 0
30030 -4222 4722 0
42256 -4222 -4722 0
34320 1992 -3932 0
7722 -1992 3932 0
35864 -1992 -3932 0
930 4306 3392 -3251 0
2480 4306 -3392 3251 0
3038 4306 -3392 -3251 0
2170 -4306 3392 3251 0
2775 -4306 3392 -3251 0
3782 -4306 -3392 3251 0
4145 -4306 -3392 -3251 0
5890 3530 -2884 0
2356 -3530 2884 0
6008 -3530 -2884 0
16965 -4389 0
3424 -3492 0
4524 3713 -3609 0
32045 -3713 3609 0
32724 -3713 -3609 0
6080 -4504 0
30030 4076 4249 2655 -4284 0
27885 4076 4249 -2655 4284 0
38395 4076 4249 -2655 -4284 0
19305 4076 -4249 2655 4284 0
35821 4076 -4249 2655 -4284 0
34642 4076 -4249 -2655 4284 0
40423 4076 -4249 -2655 -4284 0
7722 -4076 4249 2655 4284 0
32347 -4076 4249 2655 -4284 0
30588 -4076 4249 -2655 4284 0
39206 -4076 4249 -2655 -4284 0
23552 -4076 -4249 2655 4284 0
37096 -4076 -4249 2655 -4284 0
36128 -4076 -4249 -2655 4284 0
40868 -4076 -4249 -2655 -4284 0
4815 1765 1614 -4654 0
3424 1765 -1614 4654 0
6698 1765 -1614 -4654 0
9630 -1765 1614 4654 0
10112 -1765 1614 -4654 0
9972 -1765 -1614 4654 0
10300 -1765 -1614 -4654 0
5148 3170 2466 -4916 0
12870 3170 -2466 4916 0
16474 3170 -2466 -4916 0
858 -3170 2466 4916 0
5903 -3170 2466 -4916 0
13471 -3170 -2466 4916 0
17002 -3170 -2466 -4916 0
10165 3128 -2528 0
535 -3128 2528 0
10192 -3128 -2528 0
1240 3804 4955 -4033 0
3410 3804 -4955 4033 0
3968 3804 -4955 -4033 0
4030 -3804 4955 4033 0
4464 -3804 4955 -4033 0
5223 -3804 -4955 4033 0
5419 -3804 -4955 -4033 0
30030 3106 3881 -3283 0
5148 3106 -3881 3283 0
31574 3106 -3881 -3283 0
4290 -3106 3881 3283 0
31317 -3106 3881 -3283 0
8923 -3106 -3881 3283 0
32707 -3106 -3881 -3283 0
858 2346 -2215 0
2145 -2346 2215 0
2960 -2346 -2215 0
5580 2454 -1811 0
5270 -2454 1811 0
6107 -2454 -1811 0
18050 3206 -4163 0
380 -3206 4163 0
18069 -3206 -4163 0
950 4178 1955 -2143 0
12350 4178 -1955 2143 0
12683 4178 -1955 -2143 0
380 -4178 1955 2143 0
1311 -4178 1955 -2143 0
12483 -4178 -1955 2143 0
12809 -4178 -1955 -2143 0
7540 -3549 0
30160 2266 4754 3911 3281 -4086 0
35815 2266 4754 3911 -3281 4086 0
37323 2266 4754 3911 -3281 -4086 0
14326 2266 4754 -3911 3281 4086 0
33025 2266 4754 -3911 3281 -4086 0
36531 2266 4754 -3911 -3281 4086 0
37466 2266 4754 -3911 -3281 -4086 0
18850 2266 -4754 3911 3281 4086 0
33930 2266 -4754 3911 3281 -4086 0
36757 2266 -4754 3911 -3281 4086 0
37512 2266 -4754 3911 -3281 -4086 0
26013 2266 -4754 -3911 3281 4086 0
35363 2266 -4754 -3911 3281 -4086 0
37116 2266 -4754 -3911 -3281 4086 0
37583 2266 -4754 -3911 -3281 -4086 0
1885 -2266 4754 3911 3281 4086 0
30537 -2266 4754 3911 3281 -4086 0
35909 -2266 4754 3911 -3281 4086 0
37342 -2266 4754 3911 -3281 -4086 0
15495 -2266 4754 -3911 3281 4086 0
33259 -2266 4754 -3911 3281 -4086 0
36590 -2266 4754 -3911 -3281 4086 0
37478 -2266 4754 -3911 -3281 -4086 0
19793 -2266 -4754 3911 3281 4086 0
34119 -2266 -4754 3911 3281 -4086 0
36805 -2266 -4754 3911 -3281 4086 0
37521 -2266 -4754 3911 -3281 -4086 0
26597 -2266 -4754 -3911 3281 4086 0
35479 -2266 -4754 -3911 3281 -4086 0
37145 -2266 -4754 -3911 -3281 4086 0
37589 -2266 -4754 -3911 -3281 -4086 0
33930 1891 4995 -2148 0
13195 1891 -4995 2148 0
35250 1891 -4995 -2148 0
16965 -1891 4995 2148 0
35627 -1891 4995 -2148 0
24222 -1891 -4995 2148 0
36352 -1891 -4995 -2148 0
23595 2443 2136 3483 2728 -1726 0
19305 2443 2136 3483 -2728 1726 0
32282 2443 2136 3483 -2728 -1726 0
27885 2443 2136 -3483 2728 1726 0
36143 2443 2136 -3483 2728 -1726 0
34642 2443 2136 -3483 -2728 1726 0
39184 2443 2136 -3483 -2728 -1726 0
21450 2443 -2136 3483 2728 1726 0
33248 2443 -2136 3483 2728 -1726 0
31102 2443 -2136 3483 -2728 1726 0
37591 2443 -2136 3483 -2728 -1726 0
35392 2443 -2136 -3483 2728 1726 0
39522 2443 -2136 -3483 2728 -1726 0
38771 2443 -2136 -3483 -2728 1726 0
41042 2443 -2136 -3483 -2728 -1726 0
38610 -2443 2136 3483 2728 1726 0
40970 -2443 2136 3483 2728 -1726 0
40541 -2443 2136 3483 -2728 1726 0
41838 -2443 2136 3483 -2728 -1726 0
41399 -2443 2136 -3483 2728 1726 0
42224 -2443 2136 -3483 2728 -1726 0
42074 -2443 2136 -3483 -2728 1726 0
42528 -2443 2136 -3483 -2728 -1726 0
40755 -2443 -2136 3483 2728 1726 0
41935 -2443 -2136 3483 2728 -1726 0
41720 -2443 -2136 3483 -2728 1726 0
42369 -2443 -2136 3483 -2728 -1726 0
42149 -2443 -2136 -3483 2728 1726 0
42562 -2443 -2136 -3483 2728 -1726 0
42487 -2443 -2136 -3483 -2728 1726 0
42714 -2443 -2136 -3483 -2728 -1726 0
4280 -4143 0
5350 2452 2181 -1997 0
5885 2452 -2181 1997 0
8292 2452 -2181 -1997 0
8025 -2452 2181 1997 0
9362 -2452 2181 -1997 0
9496 -2452 -2181 1997 0
10098 -2452 -2181 -1997 0
5700 1606 -3448 0
9500 -1606 3448 0
12350 -1606 -3448 0
26390 3526 -4640 0
3770 -3526 4640 0
27521 -3526 -4640 0
950 -3348 0
30030 2853 -3625 0
13728 -2853 3625 0
34148 -2853 -3625 0
17100 3522 2468 -2484 0
17100 3522 -2468 2484 0
18810 3522 -2468 -2484 0
2850 -3522 2468 2484 0
17385 -3522 2468 -2484 0
17385 -3522 -2468 2484 0
18839 -3522 -2468 -2484 0
14326 3694 3317 3741 -1832 0
14326 3694 3317 -3741 1832 0
23208 3694 3317 -3741 -1832 0
6786 3694 -3317 3741 1832 0
18533 3694 -3317 3741 -1832 0
18533 3694 -3317 -3741 1832 0
25817 3694 -3317 -3741 -1832 0
26390 -3694 3317 3741 1832 0
30688 -3694 3317 3741 -1832 0
30688 -3694 3317 -3741 1832 0
33352 -3694 3317 -3741 -1832 0
28426 -3694 -3317 3741 1832 0
31950 -3694 -3317 3741 -1832 0
31950 -3694 -3317 -3741 1832 0
34135 -3694 -3317 -3741 -1832 0
124 4634 3557 2887 -2174 0
4650 4634 3557 -2887 2174 0
4681 4634 3557 -2887 -2174 0
3720 4634 -3557 2887 2174 0
3770 4634 -3557 2887 -2174 0
5580 4634 -3557 -2887 2174 0
5592 4634 -3557 -2887 -2174 0
5580 -4634 3557 2887 2174 0
5592 -4634 3557 2887 -2174 0
6045 -4634 3557 -2887 2174 0
6048 -4634 3557 -2887 -2174 0
5952 -4634 -3557 2887 2174 0
5957 -4634 -3557 2887 -2174 0
6138 -4634 -3557 -2887 2174 0
6139 -4634 -3557 -2887 -2174 0
4340 1540 3316 2044 -2001 0
310 1540 3316 -2044 2001 0
4433 1540 3316 -2044 -2001 0
930 1540 -3316 2044 2001 0
4619 1540 -3316 2044 -2001 0
1194 1540 -3316 -2044 2001 0
4698 1540 -3316 -2044 -2001 0
4030 -1540 3316 2044 2001 0
5549 -1540 3316 2044 -2001 0
4138 -1540 3316 -2044 2001 0
5582 -1540 3316 -2044 -2001 0
4355 -1540 -3316 2044 2001 0
5647 -1540 -3316 2044 -2001 0
4448 -1540 -3316 -2044 2001 0
5674 -1540 -3316 -2044 -2001 0
27885 2404 3823 -1516 0
36465 2404 -3823 1516 0
40648 2404 -3823 -1516 0
6435 -2404 3823 1516 0
30137 -2404 3823 -1516 0
37430 -2404 -3823 1516 0
40986 -2404 -3823 -1516 0
10165 3017 -3175 0
2140 -3017 3175 0
10272 -3017 -3175 0
30160 3955 2559 4355 -3817 0
11310 3955 2559 -4355 3817 0
32422 3955 2559 -4355 -3817 0
11310 3955 -2559 4355 3817 0
32422 3955 -2559 4355 -3817 0
19227 3955 -2559 -4355 3817 0
34005 3955 -2559 -4355 -3817 0
24505 -3955 2559 4355 3817 0
35061 -3955 2559 4355 -3817 0
28463 -3955 2559 -4355 3817 0
35853 -3955 2559 -4355 -3817 0
28463 -3955 -2559 4355 3817 0
35853 -3955 -2559 4355 -3817 0
31234 -3955 -2559 -4355 3817 0
36407 -3955 -2559 -4355 -3817 0
6955 4155 -3917 0
9630 -4155 3917 0
10325 -4155 -3917 0
12350 2464 -1725 0
2280 -2464 1725 0
13148 -2464 -1725 0
3100 -2179 0
36465 2255 -3090 0
15015 -2255 3090 0
38717 -2255 -3090 0
6435 4170 4423 2964 -1535 0
32175 4170 4423 -2964 1535 0
33784 4170 4423 -2964 -1535 0
19305 4170 -4423 2964 1535 0
22844 4170 -4423 2964 -1535 0
37001 4170 -4423 -2964 1535 0
37886 4170 -4423 -2964 -1535 0
25740 -4170 4423 2964 1535 0
28314 -4170 4423 2964 -1535 0
38610 -4170 4423 -2964 1535 0
39254 -4170 4423 -2964 -1535 0
33462 -4170 -4423 2964 1535 0
34878 -4170 -4423 2964 -1535 0
40540 -4170 -4423 -2964 1535 0
40894 -4170 -4423 -2964 -1535 0
8560 2415 -2473 0
5350 -2415 2473 0
9630 -2415 -2473 0
214 -2114 0
22620 1608 -2653 0
16965 -1608 2653 0
29406 -1608 -2653 0
3770 5095 -2316 0
15080 -5095 2316 0
17342 -5095 -2316 0
21450 -4738 0
32175 -4519 0
13195 4596 4970 -3385 0
7540 4596 -4970 3385 0
18096 4596 -4970 -3385 0
24505 -4596 4970 3385 0
29123 -4596 4970 -3385 0
27144 -4596 -4970 3385 0
30839 -4596 -4970 -3385 0
33930 2604 -2189 0
3770 -2604 2189 0
34307 -2604 -2189 0
34320 2113 -5042 0
16302 -2113 5042 0
37580 -2113 -5042 0
744 2305 -3437 0
744 -2305 3437 0
1399 -2305 -3437 0
9425 -3633 0
35815 3163 -3977 0
5655 -3163 3977 0
36098 -3163 -3977 0
7220 3117 3212 4053 -5035 0
5700 3117 3212 -4053 5035 0
10754 3117 3212 -4053 -5035 0
7600 3117 -3212 4053 5035 0
11932 3117 -3212 4053 -5035 0
11020 3117 -3212 -4053 5035 0
14052 3117 -3212 -4053 -5035 0
2850 -3117 3212 4053 5035 0
8987 -3117 3212 4053 -5035 0
7695 -3117 3212 -4053 5035 0
11991 -3117 3212 -4053 -5035 0
9310 -3117 -3212 4053 5035 0
12992 -3117 -3212 4053 -5035 0
12217 -3117 -3212 -4053 5035 0
14795 -3117 -3212 -4053 -5035 0
15080 4506 -3750 0
20735 -4506 3750 0
27521 -4506 -3750 0
5580 1823 3043 -4808 0
2480 1823 -3043 4808 0
5828 1823 -3043 -4808 0
4960 -1823 3043 4808 0
6076 -1823 3043 -4808 0
5456 -1823 -3043 4808 0
6126 -1823 -3043 -4808 0
6080 2966 1806 -2025 0
2280 2966 -1806 2025 0
7630 2966 -1806 -2025 0
10450 -2966 1806 2025 0
13186 -2966 1806 -2025 0
11476 -2966 -1806 2025 0
13884 -2966 -1806 -2025 0
3210 4735 2109 -4100 0
535 4735 -2109 4100 0
3585 4735 -2109 -4100 0
535 -4735 2109 4100 0
3585 -4735 2109 -4100 0
1043 -4735 -2109 4100 0
3940 -4735 -2109 -4100 0
3410 4861 3574 -1530 0
2480 4861 -3574 1530 0
4526 4861 -3574 -1530 0
124 -4861 3574 1530 0
3466 -4861 3574 -1530 0
2554 -4861 -3574 1530 0
4559 -4861 -3574 -1530 0
9630 4514 2244 -2471 0
8025 4514 -2244 2471 0
10433 4514 -2244 -2471 0
6955 -4514 2244 2471 0
10325 -4514 2244 -2471 0
9764 -4514 -2244 2471 0
10606 -4514 -2244 -2471 0
34320 2423 4769 -4834 0
21450 2423 -4769 4834 0
38610 2423 -4769 -4834 0
6435 -2423 4769 4834 0
35607 -2423 4769 -4834 0
24667 -2423 -4769 4834 0
39254 -2423 -4769 -4834 0
310 3877 2329 1795 -4148 0
930 3877 2329 -1795 4148 0
1194 3877 2329 -1795 -4148 0
744 3877 -2329 1795 4148 0
1017 3877 -2329 1795 -4148 0
1562 3877 -2329 -1795 4148 0
1794 3877 -2329 -1795 -4148 0
1240 -3877 2329 1795 4148 0
1488 -3877 2329 1795 -4148 0
1984 -3877 2329 -1795 4148 0
2195 -3877 2329 -1795 -4148 0
1835 -3877 -2329 1795 4148 0
2053 -3877 -2329 1795 -4148 0
2490 -3877 -2329 -1795 4148 0
2675 -3877 -2329 -1795 -4148 0
4066 2207 -4303 0
214 -2207 4303 0
4199 -2207 -4303 0
34320 4479 -3022 0
16302 -4479 3022 0
37580 -4479 -3022 0
16150 4683 -1583 0
10450 -4683 1583 0
17718 -4683 -1583 0
2675 4830 2517 4944 3891 -4188 0
3210 4830 2517 4944 -3891 4188 0
5083 4830 2517 4944 -3891 -4188 0
6420 4830 2517 -4944 3891 4188 0
7490 4830 2517 -4944 3891 -4188 0
7704 4830 2517 -4944 -3891 4188 0
8453 4830 2517 -4944 -3891 -4188 0
9095 4830 -2517 4944 3891 4188 0
9496 4830 -2517 4944 3891 -4188 0
9577 4830 -2517 4944 -3891 4188 0
9857 4830 -2517 4944 -3891 -4188 0
10058 4830 -2517 -4944 3891 4188 0
10219 4830 -2517 -4944 3891 -4188 0
10251 4830 -2517 -4944 -3891 4188 0
10363 4830 -2517 -4944 -3891 -4188 0
3424 -4830 2517 4944 3891 4188 0
5243 -4830 2517 4944 3891 -4188 0
5607 -4830 2517 4944 -3891 4188 0
6880 -4830 2517 4944 -3891 -4188 0
7790 -4830 2517 -4944 3891 4188 0
8517 -4830 2517 -4944 3891 -4188 0
8663 -4830 2517 -4944 -3891 4188 0
9172 -4830 2517 -4944 -3891 -4188 0
9609 -4830 -2517 4944 3891 4188 0
9881 -4830 -2517 4944 3891 -4188 0
9936 -4830 -2517 4944 -3891 4188 0
10127 -4830 -2517 4944 -3891 -4188 0
10263 -4830 -2517 -4944 3891 4188 0
10373 -4830 -2517 -4944 3891 -4188 0
10394 -4830 -2517 -4944 -3891 4188 0
10471 -4830 -2517 -4944 -3891 -4188 0
18850 3793 3619 -3073 0
20735 3793 -3619 3073 0
29218 3793 -3619 -3073 0
11310 -3793 3619 3073 0
24505 -3793 3619 -3073 0
25825 -3793 -3619 3073 0
31762 -3793 -3619 -3073 0
2790 2543 1711 4297 -3325 0
2170 2543 1711 -4297 3325 0
3984 2543 1711 -4297 -3325 0
2480 2543 -1711 4297 3325 0
4154 2543 -1711 4297 -3325 0
3782 2543 -1711 -4297 3325 0
4870 2543 -1711 -4297 -3325 0
5270 -2543 1711 4297 3325 0
5688 -2543 1711 4297 -3325 0
5595 -2543 1711 -4297 3325 0
5868 -2543 1711 -4297 -3325 0
5642 -2543 -1711 4297 3325 0
5893 -2543 -1711 4297 -3325 0
5837 -2543 -1711 -4297 3325 0
6001 -2543 -1711 -4297 -3325 0
27885 1908 -4517 0
2145 -1908 4517 0
28636 -1908 -4517 0
13195 3710 4357 -1796 0
26390 3710 -4357 1796 0
30348 3710 -4357 -1796 0
22620 -3710 4357 1796 0
27898 -3710 4357 -1796 0
33176 -3710 -4357 1796 0
34759 -3710 -4357 -1796 0
2280 1738 -2249 0
380 -1738 2249 0
2614 -1738 -2249 0
13728 2170 2971 4826 1987 -4361 0
17160 2170 2971 4826 -1987 4361 0
25397 2170 2971 4826 -1987 -4361 0
38610 2170 2971 -4826 1987 4361 0
39983 2170 2971 -4826 1987 -4361 0
40326 2170 2971 -4826 -1987 4361 0
41150 2170 2971 -4826 -1987 -4361 0
36465 2170 -2971 4826 1987 4361 0
38524 2170 -2971 4826 1987 -4361 0
39039 2170 -2971 4826 -1987 4361 0
40275 2170 -2971 4826 -1987 -4361 0
42256 2170 -2971 -4826 1987 4361 0
42462 2170 -2971 -4826 1987 -4361 0
42514 2170 -2971 -4826 -1987 4361 0
42637 2170 -2971 -4826 -1987 -4361 0
17160 -2170 2971 4826 1987 4361 0
25397 -2170 2971 4826 1987 -4361 0
27456 -2170 2971 4826 -1987 4361 0
32398 -2170 2971 4826 -1987 -4361 0
40326 -2170 2971 -4826 1987 4361 0
41150 -2170 2971 -4826 1987 -4361 0
41356 -2170 2971 -4826 -1987 4361 0
41850 -2170 2971 -4826 -1987 -4361 0
39039 -2170 -2971 4826 1987 4361 0
40275 -2170 -2971 4826 1987 -4361 0
40583 -2170 -2971 4826 -1987 4361 0
41325 -2170 -2971 4826 -1987 -4361 0
42514 -2170 -2971 -4826 1987 4361 0
42637 -2170 -2971 -4826 1987 -4361 0
42668 -2170 -2971 -4826 -1987 4361 0
42742 -2170 -2971 -4826 -1987 -4361 0
124 4600 -1538 0
2170 -4600 1538 0
2251 -4600 -1538 0
2170 3084 -2797 0
2480 -3084 2797 0
3782 -3084 -2797 0
6435 -2307 0
4030 4248 -4300 0
5890 -4248 4300 0
6091 -4248 -4300 0
30030 2903 3899 1746 4371 4642 -4896 0
15015 2903 3899 1746 4371 -4642 4896 0
34534 2903 3899 1746 4371 -4642 -4896 0
23595 2903 3899 1746 -4371 4642 4896 0
37108 2903 3899 1746 -4371 4642 -4896 0
30352 2903 3899 1746 -4371 -4642 4896 0
39136 2903 3899 1746 -4371 -4642 -4896 0
7722 2903 3899 -1746 4371 4642 4896 0
32347 2903 3899 -1746 4371 4642 -4896 0
20034 2903 3899 -1746 4371 -4642 4896 0
36040 2903 3899 -1746 4371 -4642 -4896 0
27070 2903 3899 -1746 -4371 4642 4896 0
38151 2903 3899 -1746 -4371 4642 -4896 0
32610 2903 3899 -1746 -4371 -4642 4896 0
39813 2903 3899 -1746 -4371 -4642 -4896 0
10725 2903 -3899 1746 4371 4642 4896 0
33247 2903 -3899 1746 4371 4642 -4896 0
21986 2903 -3899 1746 4371 -4642 4896 0
36626 2903 -3899 1746 4371 -4642 -4896 0
28421 2903 -3899 1746 -4371 4642 4896 0
38556 2903 -3899 1746 -4371 4642 -4896 0
33489 2903 -3899 1746 -4371 -4642 4896 0
40077 2903 -3899 1746 -4371 -4642 -4896 0
16516 2903 -3899 -1746 4371 4642 4896 0
34985 2903 -3899 -1746 4371 4642 -4896 0
25751 2903 -3899 -1746 4371 -4642 4896 0
37755 2903 -3899 -1746 4371 -4642 -4896 0
31027 2903 -3899 -1746 -4371 4642 4896 0
39338 2903 -3899 -1746 -4371 4642 -4896 0
35183 2903 -3899 -1746 -4371 -4642 4896 0
40585 2903 -3899 -1746 -4371 -4642 -4896 0
21450 -2903 3899 1746 4371 4642 4896 0
36465 -2903 3899 1746 4371 4642 -4896 0
28958 -2903 3899 1746 4371 -4642 4896 0
38717 -2903 3899 1746 4371 -4642 -4896 0
33248 -2903 3899 1746 -4371 4642 4896 0
40004 -2903 3899 1746 -4371 4642 -4896 0
36626 -2903 3899 1746 -4371 -4642 4896 0
41018 -2903 3899 1746 -4371 -4642 -4896 0
25311 -2903 3899 -1746 4371 4642 4896 0
37623 -2903 3899 -1746 4371 4642 -4896 0
31467 -2903 3899 -1746 4371 -4642 4896 0
39470 -2903 3899 -1746 4371 -4642 -4896 0
34985 -2903 3899 -1746 -4371 4642 4896 0
40525 -2903 3899 -1746 -4371 4642 -4896 0
37755 -2903 3899 -1746 -4371 -4642 4896 0
41357 -2903 3899 -1746 -4371 -4642 -4896 0
26812 -2903 -3899 1746 4371 4642 4896 0
38074 -2903 -3899 1746 4371 4642 -4896 0
32443 -2903 -3899 1746 4371 -4642 4896 0
39763 -2903 -3899 1746 4371 -4642 -4896 0
35661 -2903 -3899 1746 -4371 4642 4896 0
40728 -2903 -3899 1746 -4371 4642 -4896 0
38194 -2903 -3899 1746 -4371 -4642 4896 0
41488 -2903 -3899 1746 -4371 -4642 -4896 0
29708 -2903 -3899 -1746 4371 4642 4896 0
38942 -2903 -3899 -1746 4371 4642 -4896 0
34325 -2903 -3899 -1746 4371 -4642 4896 0
40328 -2903 -3899 -1746 4371 -4642 -4896 0
36964 -2903 -3899 -1746 -4371 4642 4896 0
41119 -2903 -3899 -1746 -4371 4642 -4896 0
39041 -2903 -3899 -1746 -4371 -4642 4896 0
41742 -2903 -3899 -1746 -4371 -4642 -4896 0
13300 -1744 0
20735 4860 -1976 0
28275 -4860 1976 0
33459 -4860 -1976 0
3720 -2993 0
33930 -4936 0
5350 1809 3205 -2533 0
1070 1809 -3205 2533 0
5885 1809 -3205 -2533 0
1070 -1809 3205 2533 0
5885 -1809 3205 -2533 0
2033 -1809 -3205 2533 0
6366 -1809 -3205 -2533 0
9095 1655 3013 -3025 0
2140 1655 -3013 3025 0
9416 1655 -3013 -3025 0
1605 -1655 3013 3025 0
9336 -1655 3013 -3025 0
3424 -1655 -3013 3025 0
9609 -1655 -3013 -3025 0
4340 4972 -4999 0
2790 -4972 4999 0
5177 -4972 -4999 0
28275 -2092 0
930 -4623 0
310 -4530 0
16965 -3746 0
17160 3991 2876 1965 -3074 0
34320 3991 2876 -1965 3074 0
37752 3991 2876 -1965 -3074 0
17160 3991 -2876 1965 3074 0
27456 3991 -2876 1965 -3074 0
37752 3991 -2876 -1965 3074 0
39811 3991 -2876 -1965 -3074 0
12870 -3991 2876 1965 3074 0
24882 -3991 2876 1965 -3074 0
36894 -3991 2876 -1965 3074 0
39296 -3991 2876 -1965 -3074 0
24882 -3991 -2876 1965 3074 0
32089 -3991 -2876 1965 -3074 0
39296 -3991 -2876 -1965 3074 0
40738 -3991 -2876 -1965 -3074 0
380 3509 1914 4662 -4701 0
2850 3509 1914 -4662 4701 0
3173 3509 1914 -4662 -4701 0
1900 3509 -1914 4662 4701 0
2242 3509 -1914 4662 -4701 0
4465 3509 -1914 -4662 4701 0
4756 3509 -1914 -4662 -4701 0
7600 -3509 1914 4662 4701 0
7828 -3509 1914 4662 -4701 0
9310 -3509 1914 -4662 4701 0
9504 -3509 1914 -4662 -4701 0
8740 -3509 -1914 4662 4701 0
8945 -3509 -1914 4662 -4701 0
10279 -3509 -1914 -4662 4701 0
10453 -3509 -1914 -4662 -4701 0
18850 1892 2640 -1605 0
30160 1892 -2640 1605 0
33930 1892 -2640 -1605 0
6786 -1892 2640 1605 0
22243 -1892 2640 -1605 0
31517 -1892 -2640 1605 0
34609 -1892 -2640 -1605 0
13300 2124 -3475 0
2850 -2124 3475 0
14155 -2124 -3475 0
6650 2701 4238 -1593 0
380 2701 -4238 1593 0
6897 2701 -4238 -1593 0
10450 -2701 4238 1593 0
13443 -2701 4238 -1593 0
10621 -2701 -4238 1593 0
13554 -2701 -4238 -1593 0
30030 4856 3669 -4346 0
40755 4856 -3669 4346 0
42256 4856 -3669 -4346 0
19305 -4856 3669 4346 0
35821 -4856 3669 -4346 0
41720 -4856 -3669 4346 0
42546 -4856 -3669 -4346 0
25740 2326 -2439 0
30030 -2326 2439 0
37752 -2326 -2439 0
6786 2250 4691 -4957 0
6786 2250 -4691 4957 0
12351 2250 -4691 -4957 0
20735 -2250 4691 4957 0
23789 -2250 4691 -4957 0
23789 -2250 -4691 4957 0
26293 -2250 -4691 -4957 0
3800 -3792 0
7490 2315 3627 -1756 0
5885 2315 -3627 1756 0
9255 2315 -3627 -1756 0
8560 -2315 3627 1756 0
10058 -2315 3627 -1756 0
9737 -2315 -3627 1756 0
10411 -2315 -3627 -1756 0
3424 3480 -3901 0
4280 -3480 3901 0
6334 -3480 -3901 0
4280 4134 -1721 0
3745 -4134 1721 0
6527 -4134 -1721 0
3100 2610 -1517 0
5270 -2610 1517 0
5735 -2610 -1517 0
1284 4225 -4093 0
9095 -4225 4093 0
9288 -4225 -4093 0
7722 3663 3777 4801 -3035 0
5148 3663 3777 -4801 3035 0
11943 3663 3777 -4801 -3035 0
25740 3663 -3777 4801 3035 0
28829 3663 -3777 4801 -3035 0
27799 3663 -3777 -4801 3035 0
30517 3663 -3777 -4801 -3035 0
36465 -3663 3777 4801 3035 0
37623 -3663 3777 4801 -3035 0
37237 -3663 3777 -4801 3035 0
38257 -3663 3777 -4801 -3035 0
40326 -3663 -3777 4801 3035 0
40789 -3663 -3777 4801 -3035 0
40635 -3663 -3777 -4801 3035 0
41043 -3663 -3777 -4801 -3035 0
310 1775 -4740 0
4340 -1775 4740 0
4433 -1775 -4740 0
3770 4142 2586 2288 -3844 0
13195 4142 2586 -2288 3844 0
15645 4142 2586 -2288 -3844 0
26390 4142 -2586 2288 3844 0
27521 4142 -2586 2288 -3844 0
30348 4142 -2586 -2288 3844 0
31084 4142 -2586 -2288 -3844 0
33930 -4142 2586 2288 3844 0
34307 -4142 2586 2288 -3844 0
35250 -4142 2586 -2288 3844 0
35495 -4142 2586 -2288 -3844 0
36569 -4142 -2586 2288 3844 0
36682 -4142 -2586 2288 -3844 0
36965 -4142 -2586 -2288 3844 0
37038 -4142 -2586 -2288 -3844 0
2675 2804 -2514 0
2140 -2804 2514 0
4280 -2804 -2514 0
40755 4102 3778 -3666 0
27885 4102 -3778 3666 0
42149 4102 -3778 -3666 0
5148 -4102 3778 3666 0
41012 -4102 3778 -3666 0
29687 -4102 -3778 3666 0
42239 -4102 -3778 -3666 0
8560 4199 4335 2617 3124 -2893 0
1284 4199 4335 2617 -3124 2893 0
8817 4199 4335 2617 -3124 -2893 0
9095 4199 4335 -2617 3124 2893 0
10379 4199 4335 -2617 3124 -2893 0
9288 4199 4335 -2617 -3124 2893 0
10418 4199 4335 -2617 -3124 -2893 0
214 4199 -4335 2617 3124 2893 0
8603 4199 -4335 2617 3124 -2893 0
1472 4199 -4335 2617 -3124 2893 0
8854 4199 -4335 2617 -3124 -2893 0
9127 4199 -4335 -2617 3124 2893 0
10385 4199 -4335 -2617 3124 -2893 0
9316 4199 -4335 -2617 -3124 2893 0
10423 4199 -4335 -2617 -3124 -2893 0
6955 -4199 4335 2617 3124 2893 0
9951 -4199 4335 2617 3124 -2893 0
7404 -4199 4335 2617 -3124 2893 0
10041 -4199 4335 2617 -3124 -2893 0
10138 -4199 4335 -2617 3124 2893 0
10588 -4199 4335 -2617 3124 -2893 0
10206 -4199 4335 -2617 -3124 2893 0
10601 -4199 4335 -2617 -3124 -2893 0
7030 -4199 -4335 2617 3124 2893 0
9966 -4199 -4335 2617 3124 -2893 0
7470 -4199 -4335 2617 -3124 2893 0
10054 -4199 -4335 2617 -3124 -2893 0
10149 -4199 -4335 -2617 3124 2893 0
10590 -4199 -4335 -2617 3124 -2893 0
10216 -4199 -4335 -2617 -3124 2893 0
10603 -4199 -4335 -2617 -3124 -2893 0
7490 -1600 0
13728 2158 -2988 0
2145 -2158 2988 0
15187 -2158 -2988 0
4750 -2695 0
4960 2047 1941 -2171 0
5580 2047 -1941 2171 0
6076 2047 -1941 -2171 0
5270 -2047 1941 2171 0
6014 -2047 1941 -2171 0
6107 -2047 -1941 2171 0
6181 -2047 -1941 -2171 0
7722 3982 4931 -2764 0
34320 3982 -4931 2764 0
35864 3982 -4931 -2764 0
12870 -3982 4931 2764 0
18275 -3982 4931 -2764 0
36894 -3982 -4931 2764 0
37975 -3982 -4931 -2764 0
3800 3123 -1598 0
3800 -3123 1598 0
6840 -3123 -1598 0
3100 -2536 0
5885 2056 -2306 0
1070 -2056 2306 0
6366 -2056 -2306 0
7490 1925 3935 3770 -3388 0
5885 1925 3935 -3770 3388 0
9255 1925 3935 -3770 -3388 0
3424 1925 -3935 3770 3388 0
8517 1925 -3935 3770 -3388 0
7426 1925 -3935 -3770 3388 0
9718 1925 -3935 -3770 -3388 0
8025 -1925 3935 3770 3388 0
9898 -1925 3935 3770 -3388 0
9496 -1925 3935 -3770 3388 0
10339 -1925 3935 -3770 -3388 0
8881 -1925 -3935 3770 3388 0
10154 -1925 -3935 3770 -3388 0
9881 -1925 -3935 -3770 3388 0
10454 -1925 -3935 -3770 -3388 0
2356 4924 1852 -2426 0
4650 4924 -1852 2426 0
5239 4924 -1852 -2426 0
5580 -4924 1852 2426 0
5816 -4924 1852 -2426 0
6045 -4924 -1852 2426 0
6104 -4924 -1852 -2426 0
16302 2457 -3730 0
858 -2457 3730 0
16834 -2457 -3730 0
9095 2132 -2232 0
8025 -2132 2232 0
10299 -2132 -2232 0
3410 2111 -2522 0
3410 -2111 2522 0
4945 -2111 -2522 0
17160 2570 3912 1676 4412 -4816 0
6435 2570 3912 1676 -4412 4816 0
21021 2570 3912 1676 -4412 -4816 0
2145 2570 3912 -1676 4412 4816 0
18447 2570 3912 -1676 4412 -4816 0
8258 2570 3912 -1676 -4412 4816 0
22115 2570 3912 -1676 -4412 -4816 0
15015 2570 -3912 1676 4412 4816 0
26169 2570 -3912 1676 4412 -4816 0
19198 2570 -3912 1676 -4412 4816 0
28679 2570 -3912 1676 -4412 -4816 0
16409 2570 -3912 -1676 4412 4816 0
27006 2570 -3912 -1676 4412 -4816 0
20383 2570 -3912 -1676 -4412 4816 0
29390 2570 -3912 -1676 -4412 -4816 0
17160 -2570 3912 1676 4412 4816 0
27456 -2570 3912 1676 4412 -4816 0
21021 -2570 3912 1676 -4412 4816 0
29773 -2570 3912 1676 -4412 -4816 0
18447 -2570 3912 -1676 4412 4816 0
28228 -2570 3912 -1676 4412 -4816 0
22115 -2570 3912 -1676 -4412 4816 0
30429 -2570 3912 -1676 -4412 -4816 0
26169 -2570 -3912 1676 4412 4816 0
32861 -2570 -3912 1676 4412 -4816 0
28679 -2570 -3912 1676 -4412 4816 0
34367 -2570 -3912 1676 -4412 -4816 0
27006 -2570 -3912 -1676 4412 4816 0
33363 -2570 -3912 -1676 4412 -4816 0
29390 -2570 -3912 -1676 -4412 4816 0
34794 -2570 -3912 -1676 -4412 -4816 0
2850 -2788 0
13300 4415 1749 -3470 0
16150 4415 -1749 3470 0
18145 4415 -1749 -3470 0
18050 -4415 1749 3470 0
18715 -4415 1749 -3470 0
18857 -4415 -1749 3470 0
18957 -4415 -1749 -3470 0
8550 1742 -5019 0
11400 -1742 5019 0
14820 -1742 -5019 0
21450 3675 -1889 0
10725 -3675 1889 0
26812 -3675 -1889 0
4815 4018 2220 1750 2534 -4440 0
3424 4018 2220 1750 -2534 4440 0
6698 4018 2220 1750 -2534 -4440 0
2675 4018 2220 -1750 2534 4440 0
6286 4018 2220 -1750 2534 -4440 0
5243 4018 2220 -1750 -2534 4440 0
7699 4018 2220 -1750 -2534 -4440 0
9630 4018 -2220 1750 2534 4440 0
10112 4018 -2220 1750 2534 -4440 0
9972 4018 -2220 1750 -2534 4440 0
10300 4018 -2220 1750 -2534 -4440 0
9898 4018 -2220 -1750 2534 4440 0
10259 4018 -2220 -1750 2534 -4440 0
10154 4018 -2220 -1750 -2534 4440 0
10400 4018 -2220 -1750 -2534 -4440 0
214 -4018 2220 1750 2534 4440 0
4933 -4018 2220 1750 2534 -4440 0
3570 -4018 2220 1750 -2534 4440 0
6778 -4018 2220 1750 -2534 -4440 0
2836 -4018 2220 -1750 2534 4440 0
6375 -4018 2220 -1750 2534 -4440 0
5352 -4018 2220 -1750 -2534 4440 0
7759 -4018 2220 -1750 -2534 -4440 0
9651 -4018 -2220 1750 2534 4440 0
10123 -4018 -2220 1750 2534 -4440 0
9987 -4018 -2220 1750 -2534 4440 0
10308 -4018 -2220 1750 -2534 -4440 0
9914 -4018 -2220 -1750 2534 4440 0
10267 -4018 -2220 -1750 2534 -4440 0
10165 -4018 -2220 -1750 -2534 4440 0
10406 -4018 -2220 -1750 -2534 -4440 0
5890 2684 -3204 0
4960 -2684 3204 0
6138 -2684 -3204 0
26390 2446 -4274 0
15080 -2446 4274 0
30914 -2446 -4274 0
34320 2810 -2975 0
36465 -2810 2975 0
41613 -2810 -2975 0
4066 4250 2475 2412 -2009 0
535 4250 2475 -2412 2009 0
4398 4250 2475 -2412 -2009 0
3424 4250 -2475 2412 2009 0
6189 4250 -2475 2412 -2009 0
3788 4250 -2475 -2412 2009 0
6414 4250 -2475 -2412 -2009 0
4066 -4250 2475 2412 2009 0
6587 -4250 2475 2412 -2009 0
4398 -4250 2475 -2412 2009 0
6793 -4250 2475 -2412 -2009 0
6189 -4250 -2475 2412 2009 0
7903 -4250 -2475 2412 -2009 0
6414 -4250 -2475 -2412 2009 0
8043 -4250 -2475 -2412 -2009 0
2675 2357 -1585 0
1926 -2357 1585 0
4120 -2357 -1585 0
2140 4218 -3664 0
5885 -4218 3664 0
6848 -4218 -3664 0
8580 3508 -2287 0
25740 -3508 2287 0
29172 -3508 -2287 0
2280 -2911 0
7722 4276 2756 -1604 0
25740 4276 -2756 1604 0
28829 4276 -2756 -1604 0
7722 -4276 2756 1604 0
14054 -4276 2756 -1604 0
28829 -4276 -2756 1604 0
31362 -4276 -2756 -1604 0
32175 1944 4923 -1699 0
8580 1944 -4923 1699 0
34320 1944 -4923 -1699 0
40755 -1944 4923 1699 0
42364 -1944 4923 -1699 0
41184 -1944 -4923 1699 0
42471 -1944 -4923 -1699 0
3720 3707 -1789 0
3410 -3707 1789 0
5084 -3707 -1789 0
13300 4275 3674 -2012 0
3800 4275 -3674 2012 0
14440 4275 -3674 -2012 0
15200 -4275 3674 2012 0
17860 -4275 3674 -2012 0
15960 -4275 -3674 2012 0
18088 -4275 -3674 -2012 0
33930 -4795 0
3210 3728 2048 -3735 0
4815 3728 -2048 3735 0
6580 3728 -2048 -3735 0
1284 -3728 2048 3735 0
4109 -3728 2048 -3735 0
5521 -3728 -2048 3735 0
7075 -3728 -2048 -3735 0
1860 -1751 0
15200 -2456 0
23595 3113 4971 -4694 0
32175 3113 -4971 4694 0
38074 3113 -4971 -4694 0
8580 -3113 4971 4694 0
27456 -3113 4971 -4694 0
34320 -3113 -4971 4694 0
39039 -3113 -4971 -4694 0
4340 3333 -3929 0
1240 -3333 3929 0
4712 -3333 -3929 0
34320 4637 1703 -1718 0
13728 4637 -1703 1718 0
37066 4637 -1703 -1718 0
19305 -4637 1703 1718 0
38181 -4637 1703 -1718 0
26855 -4637 -1703 1718 0
39691 -4637 -1703 -1718 0
6786 2936 -2370 0
20735 -2936 2370 0
23789 -2936 -2370 0
6650 4450 -2555 0
13300 -4450 2555 0
15295 -4450 -2555 0
12350 -4160 0
6080 4845 -5100 0
10450 -4845 5100 0
13186 -4845 -5100 0
124 3215 1829 4292 -4783 0
1116 3215 1829 -4292 4783 0
1218 3215 1829 -4292 -4783 0
4030 3215 -1829 4292 4783 0
4073 3215 -1829 4292 -4783 0
4421 3215 -1829 -4292 4783 0
4456 3215 -1829 -4292 -4783 0
310 -3215 1829 4292 4783 0
428 -3215 1829 4292 -4783 0
1370 -3215 1829 -4292 4783 0
1467 -3215 1829 -4292 -4783 0
4138 -3215 -1829 4292 4783 0
4180 -3215 -1829 4292 -4783 0
4510 -3215 -1829 -4292 4783 0
4543 -3215 -1829 -4292 -4783 0
15200 2208 4246 -4978 0
7220 2208 -4246 4978 0
16644 2208 -4246 -4978 0
16150 -2208 4246 4978 0
18430 -2208 4246 -4978 0
17233 -2208 -4246 4978 0
18647 -2208 -4246 -4978 0
2675 4878 -5060 0
9095 -4878 5060 0
9496 -4878 -5060 0
22620 -2141 0
5890 -3111 0
1885 4498 2733 -2743 0
7540 4498 -2733 2743 0
9048 4498 -2733 -2743 0
5655 -4498 2733 2743 0
7257 -4498 2733 -2743 0
12064 -4498 -2733 2743 0
13346 -4498 -2733 -2743 0
3424 4131 -1523 0
1605 -4131 1523 0
4515 -4131 -1523 0
124 4260 3067 2562 -3360 0
2356 4260 3067 -2562 3360 0
2433 4260 3067 -2562 -3360 0
1984 4260 -3067 2562 3360 0
2068 4260 -3067 2562 -3360 0
3586 4260 -3067 -2562 3360 0
3638 4260 -3067 -2562 -3360 0
620 -4260 3067 2562 3360 0
732 -4260 3067 2562 -3360 0
2740 -4260 3067 -2562 3360 0
2810 -4260 3067 -2562 -3360 0
2406 -4260 -3067 2562 3360 0
2481 -4260 -3067 2562 -3360 0
3847 -4260 -3067 -2562 3360 0
3895 -4260 -3067 -2562 -3360 0
8025 3060 -2376 0
7490 -3060 2376 0
9898 -3060 -2376 0
1984 2127 2972 4295 5000 -2492 0
4650 2127 2972 4295 -5000 2492 0
5146 2127 2972 4295 -5000 -2492 0
2480 2127 2972 -4295 5000 2492 0
3670 2127 2972 -4295 5000 -2492 0
5270 2127 2972 -4295 -5000 2492 0
5568 2127 2972 -4295 -5000 -2492 0
2356 2127 -2972 4295 5000 2492 0
3586 2127 -2972 4295 5000 -2492 0
5239 2127 -2972 4295 -5000 2492 0
5547 2127 -2972 4295 -5000 -2492 0
3894 2127 -2972 -4295 5000 2492 0
4632 2127 -2972 -4295 5000 -2492 0
5623 2127 -2972 -4295 -5000 2492 0
5808 2127 -2972 -4295 -5000 -2492 0
3100 -2127 2972 4295 5000 2492 0
4092 -2127 2972 4295 5000 -2492 0
5425 -2127 2972 4295 -5000 2492 0
5673 -2127 2972 4295 -5000 -2492 0
4340 -2127 2972 -4295 5000 2492 0
4935 -2127 2972 -4295 5000 -2492 0
5735 -2127 2972 -4295 -5000 2492 0
5884 -2127 2972 -4295 -5000 -2492 0
4278 -2127 -2972 4295 5000 2492 0
4893 -2127 -2972 4295 5000 -2492 0
5720 -2127 -2972 4295 -5000 2492 0
5873 -2127 -2972 4295 -5000 -2492 0
5047 -2127 -2972 -4295 5000 2492 0
5416 -2127 -2972 -4295 5000 -2492 0
5912 -2127 -2972 -4295 -5000 2492 0
6004 -2127 -2972 -4295 -5000 -2492 0
13728 -4087 0
40755 4980 -3024 0
858 -4980 3024 0
40798 -4980 -3024 0
1240 2919 3850 -3315 0
4960 2919 -3850 3315 0
5208 2919 -3850 -3315 0
1116 -2919 3850 3315 0
2133 -2919 3850 -3315 0
5183 -2919 -3850 3315 0
5387 -2919 -3850 -3315 0
22620 -5083 0
930 2767 -1650 0
1116 -2767 1650 0
1879 -2767 -1650 0
5885 3409 2429 -3774 0
4280 3409 -2429 3774 0
7811 3409 -2429 -3774 0
6955 -3409 2429 3774 0
9015 -3409 2429 -3774 0
8453 -3409 -2429 3774 0
9689 -3409 -2429 -3774 0
1926 2110 -3845 0
10165 -2110 3845 0
10261 -2110 -3845 0
3420 4789 5004 3193 -3377 0
15200 4789 5004 -3193 3377 0
15884 4789 5004 -3193 -3377 0
6650 4789 -5004 3193 3377 0
8873 4789 -5004 3193 -3377 0
16530 4789 -5004 -3193 3377 0
16975 4789 -5004 -3193 -3377 0
9500 -4789 5004 3193 3377 0
11210 -4789 5004 3193 -3377 0
17100 -4789 5004 -3193 3377 0
17442 -4789 5004 -3193 -3377 0
12825 -4789 -5004 3193 3377 0
13937 -4789 -5004 3193 -3377 0
17765 -4789 -5004 -3193 3377 0
17987 -4789 -5004 -3193 -3377 0
7600 2002 -3575 0
950 -2002 3575 0
8170 -2002 -3575 0
21450 2490 2645 -2661 0
7722 2490 -2645 2661 0
25311 2490 -2645 -2661 0
32175 -2490 2645 2661 0
37538 -2490 2645 -2661 0
34105 -2490 -2645 2661 0
38503 -2490 -2645 -2661 0
23595 -2119 0
6955 2094 1639 3758 -1921 0
2675 2094 1639 -3758 1921 0
7891 2094 1639 -3758 -1921 0
1926 2094 -1639 3758 1921 0
7629 2094 -1639 3758 -1921 0
4120 2094 -1639 -3758 1921 0
8397 2094 -1639 -3758 -1921 0
535 -2094 1639 3758 1921 0
7142 -2094 1639 3758 -1921 0
3076 -2094 1639 -3758 1921 0
8032 -2094 1639 -3758 -1921 0
2365 -2094 -1639 3758 1921 0
7783 -2094 -1639 3758 -1921 0
4449 -2094 -1639 -3758 1921 0
8512 -2094 -1639 -3758 -1921 0
858 -3007 0
7600 3416 2785 -2566 0
6080 3416 -2785 2566 0
11248 3416 -2785 -2566 0
14250 -3416 2785 2566 0
16150 -3416 2785 -2566 0
15770 -3416 -2785 2566 0
17062 -3416 -2785 -2566 0
25740 2520 3620 -4932 0
10725 2520 -3620 4932 0
30030 2520 -3620 -4932 0
30030 -2520 3620 4932 0
37752 -2520 3620 -4932 0
33247 -2520 -3620 4932 0
39039 -2520 -3620 -4932 0
4290 2051 -3894 0
6435 -2051 3894 0
10081 -2051 -3894 0
8560 5003 4710 -3836 0
1926 5003 -4710 3836 0
8945 5003 -4710 -3836 0
2140 -5003 4710 3836 0
8988 -5003 4710 -3836 0
3681 -5003 -4710 3836 0
9296 -5003 -4710 -3836 0
35815 3254 2556 3093 -1844 0
14326 3254 2556 -3093 1844 0
36531 3254 2556 -3093 -1844 0
14326 3254 -2556 3093 1844 0
36531 3254 -2556 3093 -1844 0
23208 3254 -2556 -3093 1844 0
36975 3254 -2556 -3093 -1844 0
20735 -3254 2556 3093 1844 0
36852 -3254 2556 3093 -1844 0
27182 -3254 2556 -3093 1844 0
37174 -3254 2556 -3093 -1844 0
27182 -3254 -2556 3093 1844 0
37174 -3254 -2556 3093 -1844 0
31179 -3254 -2556 -3093 1844 0
37374 -3254 -2556 -3093 -1844 0
7600 -3103 0
1116 1772 2672 -3835 0
4960 1772 -2672 3835 0
5183 1772 -2672 -3835 0
4340 -1772 2672 3835 0
4675 -1772 2672 -3835 0
5828 -1772 -2672 3835 0
5895 -1772 -2672 -3835 0
28275 3541 3342 -1932 0
26390 3541 -3342 1932 0
34873 3541 -3342 -1932 0
33930 -3541 3342 1932 0
36757 -3541 3342 -1932 0
36569 -3541 -3342 1932 0
37417 -3541 -3342 -1932 0
27885 5021 -2952 0
2145 -5021 2952 0
28636 -5021 -2952 0
744 2519 3076 2682 -4003 0
4650 2519 3076 -2682 4003 0
4836 2519 3076 -2682 -4003 0
5270 2519 -3076 2682 4003 0
5382 2519 -3076 2682 -4003 0
5968 2519 -3076 -2682 4003 0
5995 2519 -3076 -2682 -4003 0
744 -2519 3076 2682 4003 0
1399 -2519 3076 2682 -4003 0
4836 -2519 3076 -2682 4003 0
5000 -2519 3076 -2682 -4003 0
5382 -2519 -3076 2682 4003 0
5480 -2519 -3076 2682 -4003 0
5995 -2519 -3076 -2682 4003 0
6020 -2519 -3076 -2682 -4003 0
18050 4720 -4026 0
950 -4720 4026 0
18097 -4720 -4026 0
11310 1594 3662 -2569 0
35815 1594 -3662 2569 0
36381 1594 -3662 -2569 0
18850 -1594 3662 2569 0
24505 -1594 3662 -2569 0
36757 -1594 -3662 2569 0
37040 -1594 -3662 -2569 0
858 4887 2540 3384 4778 1807 2595 -1652 0
36465 4887 2540 3384 4778 1807 -2595 1652 0
36594 4887 2540 3384 4778 1807 -2595 -1652 0
25740 4887 2540 3384 4778 -1807 2595 1652 0
26083 4887 2540 3384 4778 -1807 2595 -1652 0
40326 4887 2540 3384 4778 -1807 -2595 1652 0
40377 4887 2540 3384 4778 -1807 -2595 -1652 0
6435 4887 2540 3384 -4778 1807 2595 1652 0
7164 4887 2540 3384 -4778 1807 2595 -1652 0
37430 4887 2540 3384 -4778 1807 -2595 1652 0
37540 4887 2540 3384 -4778 1807 -2595 -1652 0
28314 4887 2540 3384 -4778 -1807 2595 1652 0
28606 4887 2540 3384 -4778 -1807 2595 -1652 0
40712 4887 2540 3384 -4778 -1807 -2595 1652 0
40756 4887 2540 3384 -4778 -1807 -2595 -1652 0
36465 4887 2540 -3384 4778 1807 2595 1652 0
36594 4887 2540 -3384 4778 1807 2595 -1652 0
41935 4887 2540 -3384 4778 1807 -2595 1652 0
41954 4887 2540 -3384 4778 1807 -2595 -1652 0
40326 4887 2540 -3384 4778 -1807 2595 1652 0
40377 4887 2540 -3384 4778 -1807 2595 -1652 0
42514 4887 2540 -3384 4778 -1807 -2595 1652 0
42522 4887 2540 -3384 4778 -1807 -2595 -1652 0
37430 4887 2540 -3384 -4778 1807 2595 1652 0
37540 4887 2540 -3384 -4778 1807 2595 -1652 0
42080 4887 2540 -3384 -4778 1807 -2595 1652 0
42096 4887 2540 -3384 -4778 1807 -2595 -1652 0
40712 4887 2540 -3384 -4778 -1807 2595 1652 0
40756 4887 2540 -3384 -4778 -1807 2595 -1652 0
42572 4887 2540 -3384 -4778 -1807 -2595 1652 0
42578 4887 2540 -3384 -4778 -1807 -2595 -1652 0
2145 4887 -2540 3384 4778 1807 2595 1652 0
2960 4887 -2540 3384 4778 1807 2595 -1652 0
36787 4887 -2540 3384 4778 1807 -2595 1652 0
36909 4887 -2540 3384 4778 1807 -2595 -1652 0
26598 4887 -2540 3384 4778 -1807 2595 1652 0
26924 4887 -2540 3384 4778 -1807 2595 -1652 0
40455 4887 -2540 3384 4778 -1807 -2595 1652 0
40504 4887 -2540 3384 4778 -1807 -2595 -1652 0
8258 4887 -2540 3384 -4778 1807 2595 1652 0
8951 4887 -2540 3384 -4778 1807 2595 -1652 0
37704 4887 -2540 3384 -4778 1807 -2595 1652 0
37808 4887 -2540 3384 -4778 1807 -2595 -1652 0
29043 4887 -2540 3384 -4778 -1807 2595 1652 0
29320 4887 -2540 3384 -4778 -1807 2595 -1652 0
40821 4887 -2540 3384 -4778 -1807 -2595 1652 0
40863 4887 -2540 3384 -4778 -1807 -2595 -1652 0
36787 4887 -2540 -3384 4778 1807 2595 1652 0
36909 4887 -2540 -3384 4778 1807 2595 -1652 0
41983 4887 -2540 -3384 4778 1807 -2595 1652 0
42001 4887 -2540 -3384 4778 1807 -2595 -1652 0
40455 4887 -2540 -3384 4778 -1807 2595 1652 0
40504 4887 -2540 -3384 4778 -1807 2595 -1652 0
42533 4887 -2540 -3384 4778 -1807 -2595 1652 0
42541 4887 -2540 -3384 4778 -1807 -2595 -1652 0
37704 4887 -2540 -3384 -4778 1807 2595 1652 0
37808 4887 -2540 -3384 -4778 1807 2595 -1652 0
42121 4887 -2540 -3384 -4778 1807 -2595 1652 0
42136 4887 -2540 -3384 -4778 1807 -2595 -1652 0
40821 4887 -2540 -3384 -4778 -1807 2595 1652 0
40863 4887 -2540 -3384 -4778 -1807 2595 -1652 0
42588 4887 -2540 -3384 -4778 -1807 -2595 1652 0
42594 4887 -2540 -3384 -4778 -1807 -2595 -1652 0
7722 -4887 2540 3384 4778 1807 2595 1652 0
8426 -4887 2540 3384 4778 1807 2595 -1652 0
37623 -4887 2540 3384 4778 1807 -2595 1652 0
37729 -4887 2540 3384 4778 1807 -2595 -1652 0
28829 -4887 2540 3384 4778 -1807 2595 1652 0
29110 -4887 2540 3384 4778 -1807 2595 -1652 0
40789 -4887 2540 3384 4778 -1807 -2595 1652 0
40832 -4887 2540 3384 4778 -1807 -2595 -1652 0
12999 -4887 2540 3384 -4778 1807 2595 1652 0
13597 -4887 2540 3384 -4778 1807 2595 -1652 0
38415 -4887 2540 3384 -4778 1807 -2595 1652 0
38505 -4887 2540 3384 -4778 1807 -2595 -1652 0
30939 -4887 2540 3384 -4778 -1807 2595 1652 0
31179 -4887 2540 3384 -4778 -1807 2595 -1652 0
41106 -4887 2540 3384 -4778 -1807 -2595 1652 0
41142 -4887 2540 3384 -4778 -1807 -2595 -1652 0
37623 -4887 2540 -3384 4778 1807 2595 1652 0
37729 -4887 2540 -3384 4778 1807 2595 -1652 0
42108 -4887 2540 -3384 4778 1807 -2595 1652 0
42124 -4887 2540 -3384 4778 1807 -2595 -1652 0
40789 -4887 2540 -3384 4778 -1807 2595 1652 0
40832 -4887 2540 -3384 4778 -1807 2595 -1652 0
42583 -4887 2540 -3384 4778 -1807 -2595 1652 0
42590 -4887 2540 -3384 4778 -1807 -2595 -1652 0
38415 -4887 2540 -3384 -4778 1807 2595 1652 0
38505 -4887 2540 -3384 -4778 1807 2595 -1652 0
42227 -4887 2540 -3384 -4778 1807 -2595 1652 0
42241 -4887 2540 -3384 -4778 1807 -2595 -1652 0
41106 -4887 2540 -3384 -4778 -1807 2595 1652 0
41142 -4887 2540 -3384 -4778 -1807 2595 -1652 0
42631 -4887 2540 -3384 -4778 -1807 -2595 1652 0
42636 -4887 2540 -3384 -4778 -1807 -2595 -1652 0
9481 -4887 -2540 3384 4778 1807 2595 1652 0
10149 -4887 -2540 3384 4778 1807 2595 -1652 0
37887 -4887 -2540 3384 4778 1807 -2595 1652 0
37987 -4887 -2540 3384 4778 1807 -2595 -1652 0
29532 -4887 -2540 3384 4778 -1807 2595 1652 0
29800 -4887 -2540 3384 4778 -1807 2595 -1652 0
40895 -4887 -2540 3384 4778 -1807 -2595 1652 0
40935 -4887 -2540 3384 4778 -1807 -2595 -1652 0
14494 -4887 -2540 3384 -4778 1807 2595 1652 0
15062 -4887 -2540 3384 -4778 1807 2595 -1652 0
38639 -4887 -2540 3384 -4778 1807 -2595 1652 0
38724 -4887 -2540 3384 -4778 1807 -2595 -1652 0
31538 -4887 -2540 3384 -4778 -1807 2595 1652 0
31765 -4887 -2540 3384 -4778 -1807 2595 -1652 0
41196 -4887 -2540 3384 -4778 -1807 -2595 1652 0
41230 -4887 -2540 3384 -4778 -1807 -2595 -1652 0
37887 -4887 -2540 -3384 4778 1807 2595 1652 0
37987 -4887 -2540 -3384 4778 1807 2595 -1652 0
42148 -4887 -2540 -3384 4778 1807 -2595 1652 0
42163 -4887 -2540 -3384 4778 1807 -2595 -1652 0
40895 -4887 -2540 -3384 4778 -1807 2595 1652 0
40935 -4887 -2540 -3384 4778 -1807 2595 -1652 0
42599 -4887 -2540 -3384 4778 -1807 -2595 1652 0
42605 -4887 -2540 -3384 4778 -1807 -2595 -1652 0
38639 -4887 -2540 -3384 -4778 1807 2595 1652 0
38724 -4887 -2540 -3384 -4778 1807 2595 -1652 0
42261 -4887 -2540 -3384 -4778 1807 -2595 1652 0
42274 -4887 -2540 -3384 -4778 1807 -2595 -1652 0
41196 -4887 -2540 -3384 -4778 -1807 2595 1652 0
41230 -4887 -2540 -3384 -4778 -1807 2595 -1652 0
42644 -4887 -2540 -3384 -4778 -1807 -2595 1652 0
42649 -4887 -2540 -3384 -4778 -1807 -2595 -1652 0
930 -1559 0
2850 2153 4927 -2469 0
950 2153 -4927 2469 0
3658 2153 -4927 -2469 0
13300 -2153 4927 2469 0
14155 -2153 4927 -2469 0
13585 -2153 -4927 2469 0
14397 -2153 -4927 -2469 0
3424 4487 3429 -3960 0
2675 4487 -3429 3960 0
5243 4487 -3429 -3960 0
2140 -4487 3429 3960 0
4879 -4487 3429 -3960 0
4280 -4487 -3429 3960 0
6334 -4487 -3429 -3960 0
5885 2192 -3781 0
214 -2192 3781 0
5981 -2192 -3781 0
2675 2959 4257 -2616 0
10165 2959 -4257 2616 0
10299 2959 -4257 -2616 0
3745 -2959 4257 2616 0
5484 -2959 4257 -2616 0
10352 -2959 -4257 2616 0
10439 -2959 -4257 -2616 0
9630 3230 4356 2779 -2102 0
8025 3230 4356 -2779 2102 0
10433 3230 4356 -2779 -2102 0
4066 3230 -4356 2779 2102 0
10037 3230 -4356 2779 -2102 0
9041 3230 -4356 -2779 2102 0
10534 3230 -4356 -2779 -2102 0
5350 -3230 4356 2779 2102 0
10165 -3230 4356 2779 -2102 0
9362 -3230 4356 -2779 2102 0
10566 -3230 4356 -2779 -2102 0
7383 -3230 -4356 2779 2102 0
10368 -3230 -4356 2779 -2102 0
9871 -3230 -4356 -2779 2102 0
10617 -3230 -4356 -2779 -2102 0
36465 2665 3570 -4197 0
12870 2665 -3570 4197 0
38395 2665 -3570 -4197 0
4290 -2665 3570 4197 0
37108 -2665 3570 -4197 0
15873 -2665 -3570 4197 0
38846 -2665 -3570 -4197 0
16150 3258 -3250 0
10450 -3258 3250 0
17718 -3258 -3250 0
2675 2620 2690 -3372 0
9095 2620 -2690 3372 0
9496 2620 -2690 -3372 0
6420 -2620 2690 3372 0
7490 -2620 2690 -3372 0
10058 -2620 -2690 3372 0
10219 -2620 -2690 -3372 0
7220 2374 -2713 0
1900 -2374 2713 0
8398 -2374 -2713 0
9630 -1846 0
34320 -2813 0
8025 2864 2019 1850 -1525 0
535 2864 2019 -1850 1525 0
8159 2864 2019 -1850 -1525 0
6955 2864 -2019 1850 1525 0
9764 2864 -2019 1850 -1525 0
7142 2864 -2019 -1850 1525 0
9811 2864 -2019 -1850 -1525 0
2675 -2864 2019 1850 1525 0
8694 -2864 2019 1850 -1525 0
3076 -2864 2019 -1850 1525 0
8794 -2864 2019 -1850 -1525 0
7891 -2864 -2019 1850 1525 0
9998 -2864 -2019 1850 -1525 0
8032 -2864 -2019 -1850 1525 0
10033 -2864 -2019 -1850 -1525 0
12870 -4516 0
5890 1929 4568 -1764 0
3100 1929 -4568 1764 0
6045 1929 -4568 -1764 0
2790 -1929 4568 1764 0
6029 -1929 4568 -1764 0
4495 -1929 -4568 1764 0
6115 -1929 -4568 -1764 0
19305 3255 2399 2759 4675 -3474 0
32175 3255 2399 2759 -4675 3474 0
37001 3255 2399 2759 -4675 -3474 0
27885 3255 2399 -2759 4675 3474 0
34642 3255 2399 -2759 4675 -3474 0
39146 3255 2399 -2759 -4675 3474 0
40835 3255 2399 -2759 -4675 -3474 0
10725 3255 -2399 2759 4675 3474 0
25204 3255 -2399 2759 4675 -3474 0
34856 3255 -2399 2759 -4675 3474 0
38476 3255 -2399 2759 -4675 -3474 0
31639 3255 -2399 -2759 4675 3474 0
36706 3255 -2399 -2759 4675 -3474 0
40085 3255 -2399 -2759 -4675 3474 0
41352 3255 -2399 -2759 -4675 -3474 0
16302 -3255 2399 2759 4675 3474 0
28271 -3255 2399 2759 4675 -3474 0
36250 -3255 2399 2759 -4675 3474 0
39243 -3255 2399 2759 -4675 -3474 0
33591 -3255 2399 -2759 4675 3474 0
37780 -3255 2399 -2759 4675 -3474 0
40573 -3255 2399 -2759 -4675 3474 0
41620 -3255 2399 -2759 -4675 -3474 0
22952 -3255 -2399 2759 4675 3474 0
31928 -3255 -2399 2759 4675 -3474 0
37913 -3255 -2399 2759 -4675 3474 0
40157 -3255 -2399 2759 -4675 -3474 0
35918 -3255 -2399 -2759 4675 3474 0
39060 -3255 -2399 -2759 4675 -3474 0
41155 -3255 -2399 -2759 -4675 3474 0
41940 -3255 -2399 -2759 -4675 -3474 0
25740 2261 2828 3408 -2149 0
2145 2261 2828 -3408 2149 0
26598 2261 2828 -3408 -2149 0
38610 2261 -2828 3408 2149 0
41184 2261 -2828 3408 -2149 0
38825 2261 -2828 -3408 2149 0
41270 2261 -2828 -3408 -2149 0
13728 -2261 2828 3408 2149 0
31231 -2261 2828 3408 -2149 0
15187 -2261 2828 -3408 2149 0
31815 -2261 2828 -3408 -2149 0
39983 -2261 -2828 3408 2149 0
41733 -2261 -2828 3408 -2149 0
40129 -2261 -2828 -3408 2149 0
41791 -2261 -2828 -3408 -2149 0
14250 3632 -3477 0
15200 -3632 3477 0
18050 -3632 -3477 0
38610 -5052 0
40755 4369 2378 2985 -2671 0
12870 4369 2378 -2985 2671 0
41399 4369 2378 -2985 -2671 0
34320 4369 -2378 2985 2671 0
42471 4369 -2378 2985 -2671 0
36894 4369 -2378 -2985 2671 0
42600 4369 -2378 -2985 -2671 0
40755 -4369 2378 2985 2671 0
42793 -4369 2378 2985 -2671 0
41399 -4369 2378 -2985 2671 0
42825 -4369 2378 -2985 -2671 0
42471 -4369 -2378 2985 2671 0
42879 -4369 -2378 2985 -2671 0
42600 -4369 -2378 -2985 2671 0
42885 -4369 -2378 -2985 -2671 0
30030 4290 2873 2629 -2825 0
23595 4290 2873 -2629 2825 0
37108 4290 2873 -2629 -2825 0
38610 4290 -2873 2629 2825 0
41613 4290 -2873 2629 -2825 0
40970 4290 -2873 -2629 2825 0
42321 4290 -2873 -2629 -2825 0
19305 -4290 2873 2629 2825 0
35821 -4290 2873 2629 -2825 0
32282 -4290 2873 -2629 2825 0
39715 -4290 2873 -2629 -2825 0
40541 -4290 -2873 2629 2825 0
42192 -4290 -2873 2629 -2825 0
41838 -4290 -2873 -2629 2825 0
42581 -4290 -2873 -2629 -2825 0
22620 2801 -3455 0
30160 -2801 3455 0
34684 -2801 -3455 0
8560 3525 1903 -3928 0
9095 3525 -1903 3928 0
10379 3525 -1903 -3928 0
4815 -3525 1903 3928 0
9523 -3525 1903 -3928 0
9817 -3525 -1903 3928 0
10523 -3525 -1903 -3928 0
4030 3485 -2014 0
3410 -3485 2014 0
5223 -3485 -2014 0
4030 -4279 0
10725 -3324 0
15015 4186 4840 -2563 0
32175 4186 -4840 2563 0
35929 4186 -4840 -2563 0
16302 -4186 4840 2563 0
25611 -4186 4840 -2563 0
36250 -4186 -4840 2563 0
38578 -4186 -4840 -2563 0
20735 2703 2209 3697 4162 4948 -4085 0
5655 2703 2209 3697 4162 -4948 4085 0
23280 2703 2209 3697 4162 -4948 -4085 0
13195 2703 2209 3697 -4162 4948 4085 0
26673 2703 2209 3697 -4162 4948 -4085 0
16871 2703 2209 3697 -4162 -4948 4085 0
28327 2703 2209 3697 -4162 -4948 -4085 0
6786 2703 2209 -3697 4162 4948 4085 0
23789 2703 2209 -3697 4162 4948 -4085 0
11423 2703 2209 -3697 4162 -4948 4085 0
25875 2703 2209 -3697 4162 -4948 -4085 0
17606 2703 2209 -3697 -4162 4948 4085 0
28658 2703 2209 -3697 -4162 4948 -4085 0
20620 2703 2209 -3697 -4162 -4948 4085 0
30014 2703 2209 -3697 -4162 -4948 -4085 0
754 2703 -2209 3697 4162 4948 4085 0
21074 2703 -2209 3697 4162 4948 -4085 0
6296 2703 -2209 3697 4162 -4948 4085 0
23568 2703 -2209 3697 4162 -4948 -4085 0
13685 2703 -2209 3697 -4162 4948 4085 0
26893 2703 -2209 3697 -4162 4948 -4085 0
17287 2703 -2209 3697 -4162 -4948 4085 0
28514 2703 -2209 3697 -4162 -4948 -4085 0
7404 2703 -2209 -3697 4162 4948 4085 0
24067 2703 -2209 -3697 4162 4948 -4085 0
11949 2703 -2209 -3697 4162 -4948 4085 0
26112 2703 -2209 -3697 4162 -4948 -4085 0
18008 2703 -2209 -3697 -4162 4948 4085 0
28839 2703 -2209 -3697 -4162 4948 -4085 0
20962 2703 -2209 -3697 -4162 -4948 4085 0
30168 2703 -2209 -3697 -4162 -4948 -4085 0
32045 -2703 2209 3697 4162 4948 4085 0
35155 -2703 2209 3697 4162 4948 -4085 0
32893 -2703 2209 3697 4162 -4948 4085 0
35537 -2703 2209 3697 4162 -4948 -4085 0
34024 -2703 2209 3697 -4162 4948 4085 0
36046 -2703 2209 3697 -4162 4948 -4085 0
34576 -2703 2209 3697 -4162 -4948 4085 0
36294 -2703 2209 3697 -4162 -4948 -4085 0
33063 -2703 2209 -3697 4162 4948 4085 0
35613 -2703 2209 -3697 4162 4948 -4085 0
33758 -2703 2209 -3697 4162 -4948 4085 0
35926 -2703 2209 -3697 4162 -4948 -4085 0
34686 -2703 2209 -3697 -4162 4948 4085 0
36344 -2703 2209 -3697 -4162 4948 -4085 0
35138 -2703 2209 -3697 -4162 -4948 4085 0
36547 -2703 2209 -3697 -4162 -4948 -4085 0
32158 -2703 -2209 3697 4162 4948 4085 0
35206 -2703 -2209 3697 4162 4948 -4085 0
32989 -2703 -2209 3697 4162 -4948 4085 0
35580 -2703 -2209 3697 4162 -4948 -4085 0
34098 -2703 -2209 3697 -4162 4948 4085 0
36079 -2703 -2209 3697 -4162 4948 -4085 0
34638 -2703 -2209 3697 -4162 -4948 4085 0
36322 -2703 -2209 3697 -4162 -4948 -4085 0
33156 -2703 -2209 -3697 4162 4948 4085 0
35655 -2703 -2209 -3697 4162 4948 -4085 0
33837 -2703 -2209 -3697 4162 -4948 4085 0
35962 -2703 -2209 -3697 4162 -4948 -4085 0
34746 -2703 -2209 -3697 -4162 4948 4085 0
36371 -2703 -2209 -3697 -4162 4948 -4085 0
35189 -2703 -2209 -3697 -4162 -4948 4085 0
36570 -2703 -2209 -3697 -4162 -4948 -4085 0
620 3364 -1962 0
1984 -3364 1962 0
2406 -3364 -1962 0
4340 2161 4975 1687 1802 -4315 0
930 2161 4975 1687 -1802 4315 0
4619 2161 4975 1687 -1802 -4315 0
5270 2161 4975 -1687 1802 4315 0
5921 2161 4975 -1687 1802 -4315 0
5410 2161 4975 -1687 -1802 4315 0
5963 2161 4975 -1687 -1802 -4315 0
2170 2161 -4975 1687 1802 4315 0
4991 2161 -4975 1687 1802 -4315 0
2775 2161 -4975 1687 -1802 4315 0
5172 2161 -4975 1687 -1802 -4315 0
5595 2161 -4975 -1687 1802 4315 0
6019 2161 -4975 -1687 1802 -4315 0
5686 2161 -4975 -1687 -1802 4315 0
6046 2161 -4975 -1687 -1802 -4315 0
3100 -2161 4975 1687 1802 4315 0
5270 -2161 4975 1687 1802 -4315 0
3565 -2161 4975 1687 -1802 4315 0
5410 -2161 4975 1687 -1802 -4315 0
5735 -2161 4975 -1687 1802 4315 0
6061 -2161 4975 -1687 1802 -4315 0
5805 -2161 4975 -1687 -1802 4315 0
6081 -2161 4975 -1687 -1802 -4315 0
4185 -2161 -4975 1687 1802 4315 0
5595 -2161 -4975 1687 1802 -4315 0
4487 -2161 -4975 1687 -1802 4315 0
5686 -2161 -4975 1687 -1802 -4315 0
5898 -2161 -4975 -1687 1802 4315 0
6109 -2161 -4975 -1687 1802 -4315 0
5943 -2161 -4975 -1687 -1802 4315 0
6123 -2161 -4975 -1687 -1802 -4315 0
11310 4105 3840 4331 5032 4648 2874 -1995 0
32045 4105 3840 4331 5032 4648 -2874 1995 0
33742 4105 3840 4331 5032 4648 -2874 -1995 0
6786 4105 3840 4331 5032 -4648 2874 1995 0
16060 4105 3840 4331 5032 -4648 2874 -1995 0
33063 4105 3840 4331 5032 -4648 -2874 1995 0
34454 4105 3840 4331 5032 -4648 -2874 -1995 0
26390 4105 3840 4331 -5032 4648 2874 1995 0
29783 4105 3840 4331 -5032 4648 2874 -1995 0
36003 4105 3840 4331 -5032 4648 -2874 1995 0
36512 4105 3840 4331 -5032 4648 -2874 -1995 0
28426 4105 3840 4331 -5032 -4648 2874 1995 0
31208 4105 3840 4331 -5032 -4648 2874 -1995 0
36309 4105 3840 4331 -5032 -4648 -2874 1995 0
36726 4105 3840 4331 -5032 -4648 -2874 -1995 0
754 4105 3840 -4331 5032 4648 2874 1995 0
11838 4105 3840 -4331 5032 4648 2874 -1995 0
32158 4105 3840 -4331 5032 4648 -2874 1995 0
33821 4105 3840 -4331 5032 4648 -2874 -1995 0
7404 4105 3840 -4331 5032 -4648 2874 1995 0
16493 4105 3840 -4331 5032 -4648 2874 -1995 0
33156 4105 3840 -4331 5032 -4648 -2874 1995 0
34519 4105 3840 -4331 5032 -4648 -2874 -1995 0
26616 4105 3840 -4331 -5032 4648 2874 1995 0
29941 4105 3840 -4331 -5032 4648 2874 -1995 0
36037 4105 3840 -4331 -5032 4648 -2874 1995 0
36536 4105 3840 -4331 -5032 4648 -2874 -1995 0
28611 4105 3840 -4331 -5032 -4648 2874 1995 0
31338 4105 3840 -4331 -5032 -4648 2874 -1995 0
36337 4105 3840 -4331 -5032 -4648 -2874 1995 0
36746 4105 3840 -4331 -5032 -4648 -2874 -1995 0
28275 4105 -3840 4331 5032 4648 2874 1995 0
31102 4105 -3840 4331 5032 4648 2874 -1995 0
36286 4105 -3840 4331 5032 4648 -2874 1995 0
36710 4105 -3840 4331 5032 4648 -2874 -1995 0
29971 4105 -3840 4331 5032 -4648 2874 1995 0
32290 4105 -3840 4331 5032 -4648 2874 -1995 0
36541 4105 -3840 4331 5032 -4648 -2874 1995 0
36889 4105 -3840 4331 5032 -4648 -2874 -1995 0
34873 4105 -3840 4331 -5032 4648 2874 1995 0
35721 4105 -3840 4331 -5032 4648 2874 -1995 0
37276 4105 -3840 4331 -5032 4648 -2874 1995 0
37403 4105 -3840 4331 -5032 4648 -2874 -1995 0
35381 4105 -3840 4331 -5032 -4648 2874 1995 0
36077 4105 -3840 4331 -5032 -4648 2874 -1995 0
37352 4105 -3840 4331 -5032 -4648 -2874 1995 0
37457 4105 -3840 4331 -5032 -4648 -2874 -1995 0
28463 4105 -3840 -4331 5032 4648 2874 1995 0
31234 4105 -3840 -4331 5032 4648 2874 -1995 0
36315 4105 -3840 -4331 5032 4648 -2874 1995 0
36730 4105 -3840 -4331 5032 4648 -2874 -1995 0
30126 4105 -3840 -4331 5032 -4648 2874 1995 0
32398 4105 -3840 -4331 5032 -4648 2874 -1995 0
36564 4105 -3840 -4331 5032 -4648 -2874 1995 0
36905 4105 -3840 -4331 5032 -4648 -2874 -1995 0
34929 4105 -3840 -4331 -5032 4648 2874 1995 0
35760 4105 -3840 -4331 -5032 4648 2874 -1995 0
37284 4105 -3840 -4331 -5032 4648 -2874 1995 0
37409 4105 -3840 -4331 -5032 4648 -2874 -1995 0
35428 4105 -3840 -4331 -5032 -4648 2874 1995 0
36109 4105 -3840 -4331 -5032 -4648 2874 -1995 0
37359 4105 -3840 -4331 -5032 -4648 -2874 1995 0
37461 4105 -3840 -4331 -5032 -4648 -2874 -1995 0
754 -4105 3840 4331 5032 4648 2874 1995 0
11838 -4105 3840 4331 5032 4648 2874 -1995 0
32158 -4105 3840 4331 5032 4648 -2874 1995 0
33821 -4105 3840 4331 5032 4648 -2874 -1995 0
7404 -4105 3840 4331 5032 -4648 2874 1995 0
16493 -4105 3840 4331 5032 -4648 2874 -1995 0
33156 -4105 3840 4331 5032 -4648 -2874 1995 0
34519 -4105 3840 4331 5032 -4648 -2874 -1995 0
26616 -4105 3840 4331 -5032 4648 2874 1995 0
29941 -4105 3840 4331 -5032 4648 2874 -1995 0
36037 -4105 3840 4331 -5032 4648 -2874 1995 0
36536 -4105 3840 4331 -5032 4648 -2874 -1995 0
28611 -4105 3840 4331 -5032 -4648 2874 1995 0
31338 -4105 3840 4331 -5032 -4648 2874 -1995 0
36337 -4105 3840 4331 -5032 -4648 -2874 1995 0
36746 -4105 3840 4331 -5032 -4648 -2874 -1995 0
1493 -4105 3840 -4331 5032 4648 2874 1995 0
12355 -4105 3840 -4331 5032 4648 2874 -1995 0
32269 -4105 3840 -4331 5032 4648 -2874 1995 0
33898 -4105 3840 -4331 5032 4648 -2874 -1995 0
8010 -4105 3840 -4331 5032 -4648 2874 1995 0
16917 -4105 3840 -4331 5032 -4648 2874 -1995 0
33247 -4105 3840 -4331 5032 -4648 -2874 1995 0
34583 -4105 3840 -4331 5032 -4648 -2874 -1995 0
26838 -4105 3840 -4331 -5032 4648 2874 1995 0
30097 -4105 3840 -4331 -5032 4648 2874 -1995 0
36071 -4105 3840 -4331 -5032 4648 -2874 1995 0
36559 -4105 3840 -4331 -5032 4648 -2874 -1995 0
28793 -4105 3840 -4331 -5032 -4648 2874 1995 0
31465 -4105 3840 -4331 -5032 -4648 2874 -1995 0
36364 -4105 3840 -4331 -5032 -4648 -2874 1995 0
36765 -4105 3840 -4331 -5032 -4648 -2874 -1995 0
28463 -4105 -3840 4331 5032 4648 2874 1995 0
31234 -4105 -3840 4331 5032 4648 2874 -1995 0
36315 -4105 -3840 4331 5032 4648 -2874 1995 0
36730 -4105 -3840 4331 5032 4648 -2874 -1995 0
30126 -4105 -3840 4331 5032 -4648 2874 1995 0
32398 -4105 -3840 4331 5032 -4648 2874 -1995 0
36564 -4105 -3840 4331 5032 -4648 -2874 1995 0
36905 -4105 -3840 4331 5032 -4648 -2874 -1995 0
34929 -4105 -3840 4331 -5032 4648 2874 1995 0
35760 -4105 -3840 4331 -5032 4648 2874 -1995 0
37284 -4105 -3840 4331 -5032 4648 -2874 1995 0
37409 -4105 -3840 4331 -5032 4648 -2874 -1995 0
35428 -4105 -3840 4331 -5032 -4648 2874 1995 0
36109 -4105 -3840 4331 -5032 -4648 2874 -1995 0
37359 -4105 -3840 4331 -5032 -4648 -2874 1995 0
37461 -4105 -3840 4331 -5032 -4648 -2874 -1995 0
28648 -4105 -3840 -4331 5032 4648 2874 1995 0
31364 -4105 -3840 -4331 5032 4648 2874 -1995 0
36342 -4105 -3840 -4331 5032 4648 -2874 1995 0
36750 -4105 -3840 -4331 5032 4648 -2874 -1995 0
30278 -4105 -3840 -4331 5032 -4648 2874 1995 0
32504 -4105 -3840 -4331 5032 -4648 2874 -1995 0
36587 -4105 -3840 -4331 5032 -4648 -2874 1995 0
36921 -4105 -3840 -4331 5032 -4648 -2874 -1995 0
34984 -4105 -3840 -4331 -5032 4648 2874 1995 0
35799 -4105 -3840 -4331 -5032 4648 2874 -1995 0
37293 -4105 -3840 -4331 -5032 4648 -2874 1995 0
37415 -4105 -3840 -4331 -5032 4648 -2874 -1995 0
35473 -4105 -3840 -4331 -5032 -4648 2874 1995 0
36141 -4105 -3840 -4331 -5032 -4648 2874 -1995 0
37366 -4105 -3840 -4331 -5032 -4648 -2874 1995 0
37466 -4105 -3840 -4331 -5032 -4648 -2874 -1995 0
13728 -1838 0
10725 4893 -2123 0
38610 -4893 2123 0
39683 -4893 -2123 0
9095 2841 3571 2434 -4286 0
1605 2841 3571 -2434 4286 0
9336 2841 3571 -2434 -4286 0
4280 2841 -3571 2434 4286 0
9737 2841 -3571 2434 -4286 0
5243 2841 -3571 -2434 4286 0
9881 2841 -3571 -2434 -4286 0
535 -2841 3571 2434 4286 0
9175 -2841 3571 2434 -4286 0
2060 -2841 3571 -2434 4286 0
9404 -2841 3571 -2434 -4286 0
4601 -2841 -3571 2434 4286 0
9785 -2841 -3571 2434 -4286 0
5516 -2841 -3571 -2434 4286 0
9922 -2841 -3571 -2434 -4286 0
4524 4396 -1936 0
754 -4396 1936 0
5188 -4396 -1936 0
3720 3029 -2642 0
5580 -3029 2642 0
5952 -3029 -2642 0
1885 -4539 0
6786 3208 -3544 0
30160 -3208 3544 0
31517 -3208 -3544 0
7490 5059 -4158 0
5885 -5059 4158 0
9255 -5059 -4158 0
2850 -4127 0
950 4943 4393 -4221 0
18050 4943 -4393 4221 0
18097 4943 -4393 -4221 0
5700 -4943 4393 4221 0
6365 -4943 4393 -4221 0
18335 -4943 -4393 4221 0
18368 -4943 -4393 -4221 0
4066 -2704 0
1605 3884 -2811 0
6955 -3884 2811 0
7517 -3884 -2811 0
28275 -2976 0
1900 4541 4836 -2954 0
2280 4541 -4836 2954 0
3952 4541 -4836 -2954 0
15200 -4541 4836 2954 0
15580 -4541 4836 -2954 0
15656 -4541 -4836 2954 0
15990 -4541 -4836 -2954 0
16150 2206 -2934 0
11400 -2206 2934 0
17860 -2206 -2934 0
930 2544 1704 2560 -3767 0
5890 2544 1704 -2560 3767 0
5937 2544 1704 -2560 -3767 0
3410 2544 -1704 2560 3767 0
3829 2544 -1704 2560 -3767 0
6061 2544 -1704 -2560 3767 0
6081 2544 -1704 -2560 -3767 0
2170 -2544 1704 2560 3767 0
2775 -2544 1704 2560 -3767 0
5998 -2544 1704 -2560 3767 0
6029 -2544 1704 -2560 -3767 0
4387 -2544 -1704 2560 3767 0
4659 -2544 -1704 2560 -3767 0
6109 -2544 -1704 -2560 3767 0
6123 -2544 -1704 -2560 -3767 0
2356 3704 -4144 0
310 -3704 4144 0
2548 -3704 -4144 0
10450 -5007 0
33930 3942 2880 4367 2377 -1722 0
16965 3942 2880 4367 -2377 1722 0
35627 3942 2880 4367 -2377 -1722 0
35815 3942 2880 -4367 2377 1722 0
37512 3942 2880 -4367 2377 -1722 0
36663 3942 2880 -4367 -2377 1722 0
37596 3942 2880 -4367 -2377 -1722 0
13195 3942 -2880 4367 2377 1722 0
35250 3942 -2880 4367 2377 -1722 0
24222 3942 -2880 4367 -2377 1722 0
36352 3942 -2880 4367 -2377 -1722 0
36475 3942 -2880 -4367 2377 1722 0
37577 3942 -2880 -4367 2377 -1722 0
37026 3942 -2880 -4367 -2377 1722 0
37633 3942 -2880 -4367 -2377 -1722 0
12064 -3942 2880 4367 2377 1722 0
35136 -3942 2880 4367 2377 -1722 0
23600 -3942 2880 4367 -2377 1722 0
36290 -3942 2880 4367 -2377 -1722 0
36418 -3942 2880 -4367 2377 1722 0
37572 -3942 2880 -4367 2377 -1722 0
36995 -3942 2880 -4367 -2377 1722 0
37630 -3942 2880 -4367 -2377 -1722 0
21037 -3942 -2880 4367 2377 1722 0
36034 -3942 -2880 4367 2377 -1722 0
28535 -3942 -2880 4367 -2377 1722 0
36784 -3942 -2880 4367 -2377 -1722 0
36867 -3942 -2880 -4367 2377 1722 0
37617 -3942 -2880 -4367 2377 -1722 0
37242 -3942 -2880 -4367 -2377 1722 0
37654 -3942 -2880 -4367 -2377 -1722 0
21450 4317 -4005 0
8580 -4317 4005 0
25740 -4317 -4005 0
310 4853 2150 2022 -1887 0
4340 4853 2150 -2022 1887 0
4433 4853 2150 -2022 -1887 0
2480 4853 -2150 2022 1887 0
2666 4853 -2150 2022 -1887 0
5084 4853 -2150 -2022 1887 0
5140 4853 -2150 -2022 -1887 0
5270 -4853 2150 2022 1887 0
5316 -4853 2150 2022 -1887 0
5921 -4853 2150 -2022 1887 0
5935 -4853 2150 -2022 -1887 0
5642 -4853 -2150 2022 1887 0
5670 -4853 -2150 2022 -1887 0
6033 -4853 -2150 -2022 1887 0
6041 -4853 -2150 -2022 -1887 0
4280 4198 -1757 0
5885 -4198 1757 0
7811 -4198 -1757 0
3210 3453 -4254 0
214 -3453 4254 0
3360 -3453 -4254 0
3720 2424 4328 -2992 0
310 2424 -4328 2992 0
3844 2424 -4328 -2992 0
2170 -2424 4328 2992 0
4588 -2424 4328 -2992 0
2372 -2424 -4328 2992 0
4669 -2424 -4328 -2992 0
25740 -2339 0
6080 -3831 0
27885 4954 -4645 0
34320 -4954 4645 0
39897 -4954 -4645 0
3770 -3058 0
18850 2947 1833 -4484 0
9425 2947 -1833 4484 0
23562 2947 -1833 -4484 0
3770 -2947 1833 4484 0
20735 -2947 1833 -4484 0
12252 -2947 -1833 4484 0
24976 -2947 -1833 -4484 0
2790 4486 2891 3481 4122 -2914 0
4960 4486 2891 3481 -4122 2914 0
5518 4486 2891 3481 -4122 -2914 0
1240 4486 2891 -3481 4122 2914 0
3472 4486 2891 -3481 4122 -2914 0
5208 4486 2891 -3481 -4122 2914 0
5654 4486 2891 -3481 -4122 -2914 0
5580 4486 -2891 3481 4122 2914 0
5859 4486 -2891 3481 4122 -2914 0
6076 4486 -2891 3481 -4122 2914 0
6132 4486 -2891 3481 -4122 -2914 0
5704 4486 -2891 -3481 4122 2914 0
5927 4486 -2891 -3481 4122 -2914 0
6101 4486 -2891 -3481 -4122 2914 0
6145 4486 -2891 -3481 -4122 -2914 0
1550 -4486 2891 3481 4122 2914 0
3642 -4486 2891 3481 4122 -2914 0
5270 -4486 2891 3481 -4122 2914 0
5688 -4486 2891 3481 -4122 -2914 0
2480 -4486 2891 -3481 4122 2914 0
4154 -4486 2891 -3481 4122 -2914 0
5456 -4486 2891 -3481 -4122 2914 0
5791 -4486 2891 -3481 -4122 -2914 0
5735 -4486 -2891 3481 4122 2914 0
5944 -4486 -2891 3481 4122 -2914 0
6107 -4486 -2891 3481 -4122 2914 0
6149 -4486 -2891 3481 -4122 -2914 0
5828 -4486 -2891 -3481 4122 2914 0
5995 -4486 -2891 -3481 4122 -2914 0
6126 -4486 -2891 -3481 -4122 2914 0
6159 -4486 -2891 -3481 -4122 -2914 0
930 2390 4263 -3180 0
744 2390 -4263 3180 0
1562 2390 -4263 -3180 0
124 -2390 4263 3180 0
1035 -2390 4263 -3180 0
853 -2390 -4263 3180 0
1655 -2390 -4263 -3180 0
21450 1628 3165 -1677 0
30030 1628 -3165 1677 0
36465 1628 -3165 -1677 0
6435 -1628 3165 1677 0
24667 -1628 3165 -1677 0
31961 -1628 -3165 1677 0
37430 -1628 -3165 -1677 0
6786 3871 -4666 0
32045 -3871 4666 0
33063 -3871 -4666 0
14326 -1766 0
16302 -2630 0
2170 2851 -5034 0
310 -2851 5034 0
2372 -2851 -5034 0
380 4772 -3966 0
11400 -4772 3966 0
11552 -4772 -3966 0
36465 3875 4311 4850 2526 3763 -3135 0
27885 3875 4311 4850 2526 -3763 3135 0
40648 3875 4311 4850 2526 -3763 -3135 0
4290 3875 4311 4850 -2526 3763 3135 0
37108 3875 4311 4850 -2526 3763 -3135 0
29387 3875 4311 4850 -2526 -3763 3135 0
40873 3875 4311 4850 -2526 -3763 -3135 0
10725 3875 4311 -4850 2526 3763 3135 0
38074 3875 4311 -4850 2526 3763 -3135 0
31639 3875 4311 -4850 2526 -3763 3135 0
41211 3875 4311 -4850 2526 -3763 -3135 0
13942 3875 4311 -4850 -2526 3763 3135 0
38556 3875 4311 -4850 -2526 3763 -3135 0
32765 3875 4311 -4850 -2526 -3763 3135 0
41380 3875 4311 -4850 -2526 -3763 -3135 0
40755 3875 -4311 4850 2526 3763 3135 0
42578 3875 -4311 4850 2526 3763 -3135 0
42149 3875 -4311 4850 2526 -3763 3135 0
42787 3875 -4311 4850 2526 -3763 -3135 0
40969 3875 -4311 4850 -2526 3763 3135 0
42610 3875 -4311 4850 -2526 3763 -3135 0
42224 3875 -4311 4850 -2526 -3763 3135 0
42799 3875 -4311 4850 -2526 -3763 -3135 0
41291 3875 -4311 -4850 2526 3763 3135 0
42659 3875 -4311 -4850 2526 3763 -3135 0
42337 3875 -4311 -4850 2526 -3763 3135 0
42816 3875 -4311 -4850 2526 -3763 -3135 0
41452 3875 -4311 -4850 -2526 3763 3135 0
42683 3875 -4311 -4850 -2526 3763 -3135 0
42393 3875 -4311 -4850 -2526 -3763 3135 0
42824 3875 -4311 -4850 -2526 -3763 -3135 0
40755 -3875 4311 4850 2526 3763 3135 0
42578 -3875 4311 4850 2526 3763 -3135 0
42149 -3875 4311 4850 2526 -3763 3135 0
42787 -3875 4311 4850 2526 -3763 -3135 0
40969 -3875 4311 4850 -2526 3763 3135 0
42610 -3875 4311 4850 -2526 3763 -3135 0
42224 -3875 4311 4850 -2526 -3763 3135 0
42799 -3875 4311 4850 -2526 -3763 -3135 0
41291 -3875 4311 -4850 2526 3763 3135 0
42659 -3875 4311 -4850 2526 3763 -3135 0
42337 -3875 4311 -4850 2526 -3763 3135 0
42816 -3875 4311 -4850 2526 -3763 -3135 0
41452 -3875 4311 -4850 -2526 3763 3135 0
42683 -3875 4311 -4850 -2526 3763 -3135 0
42393 -3875 4311 -4850 -2526 -3763 3135 0
42824 -3875 4311 -4850 -2526 -3763 -3135 0
42793 -3875 -4311 4850 2526 3763 3135 0
42884 -3875 -4311 4850 2526 3763 -3135 0
42862 -3875 -4311 4850 2526 -3763 3135 0
42894 -3875 -4311 4850 2526 -3763 -3135 0
42803 -3875 -4311 4850 -2526 3763 3135 0
42886 -3875 -4311 4850 -2526 3763 -3135 0
42866 -3875 -4311 4850 -2526 -3763 3135 0
42895 -3875 -4311 4850 -2526 -3763 -3135 0
42820 -3875 -4311 -4850 2526 3763 3135 0
42888 -3875 -4311 -4850 2526 3763 -3135 0
42872 -3875 -4311 -4850 2526 -3763 3135 0
42896 -3875 -4311 -4850 2526 -3763 -3135 0
42828 -3875 -4311 -4850 -2526 3763 3135 0
42889 -3875 -4311 -4850 -2526 3763 -3135 0
42875 -3875 -4311 -4850 -2526 -3763 3135 0
42896 -3875 -4311 -4850 -2526 -3763 -3135 0
7722 3091 -1689 0
40755 -3091 1689 0
41141 -3091 -1689 0
5270 -2240 0
9500 3610 -4151 0
11400 -3610 4151 0
15200 -3610 -4151 0
27885 4236 1713 -3921 0
19305 4236 -1713 3921 0
34642 4236 -1713 -3921 0
38610 -4236 1713 3921 0
41399 -4236 1713 -3921 0
40541 -4236 -1713 3921 0
42074 -4236 -1713 -3921 0
16965 1985 4606 3092 2226 -3984 0
14326 1985 4606 3092 -2226 3984 0
24844 1985 4606 3092 -2226 -3984 0
30160 1985 4606 -3092 2226 3984 0
33553 1985 4606 -3092 2226 -3984 0
33025 1985 4606 -3092 -2226 3984 0
35129 1985 4606 -3092 -2226 -3984 0
15080 1985 -4606 3092 2226 3984 0
25259 1985 -4606 3092 2226 -3984 0
23676 1985 -4606 3092 -2226 3984 0
29987 1985 -4606 3092 -2226 -3984 0
33176 1985 -4606 -3092 2226 3984 0
35212 1985 -4606 -3092 2226 -3984 0
34895 1985 -4606 -3092 -2226 3984 0
36157 1985 -4606 -3092 -2226 -3984 0
30160 -1985 4606 3092 2226 3984 0
33553 -1985 4606 3092 2226 -3984 0
33025 -1985 4606 3092 -2226 3984 0
35129 -1985 4606 3092 -2226 -3984 0
36192 -1985 4606 -3092 2226 3984 0
36871 -1985 4606 -3092 2226 -3984 0
36765 -1985 4606 -3092 -2226 3984 0
37186 -1985 4606 -3092 -2226 -3984 0
33176 -1985 -4606 3092 2226 3984 0
35212 -1985 -4606 3092 2226 -3984 0
34895 -1985 -4606 3092 -2226 3984 0
36157 -1985 -4606 3092 -2226 -3984 0
36795 -1985 -4606 -3092 2226 3984 0
37202 -1985 -4606 -3092 2226 -3984 0
37139 -1985 -4606 -3092 -2226 3984 0
37391 -1985 -4606 -3092 -2226 -3984 0
32175 -3151 0
9095 3870 1786 -3011 0
8025 3870 -1786 3011 0
10299 3870 -1786 -3011 0
2675 -3870 1786 3011 0
9496 -3870 1786 -3011 0
8694 -3870 -1786 3011 0
10399 -3870 -1786 -3011 0
35815 1534 -4728 0
9425 -1534 4728 0
36286 -1534 -4728 0
8580 -4195 0
3210 1597 3471 2387 4621 -3122 0
5350 1597 3471 2387 -4621 3122 0
6955 1597 3471 2387 -4621 -3122 0
2140 1597 3471 -2387 4621 3122 0
4708 1597 3471 -2387 4621 -3122 0
6420 1597 3471 -2387 -4621 3122 0
7704 1597 3471 -2387 -4621 -3122 0
3210 1597 -3471 2387 4621 3122 0
5457 1597 -3471 2387 4621 -3122 0
6955 1597 -3471 2387 -4621 3122 0
8078 1597 -3471 2387 -4621 -3122 0
4708 1597 -3471 -2387 4621 3122 0
6506 1597 -3471 -2387 4621 -3122 0
7704 1597 -3471 -2387 -4621 3122 0
8603 1597 -3471 -2387 -4621 -3122 0
1070 -1597 3471 2387 4621 3122 0
3959 -1597 3471 2387 4621 -3122 0
5885 -1597 3471 2387 -4621 3122 0
7330 -1597 3471 2387 -4621 -3122 0
2996 -1597 3471 -2387 4621 3122 0
5307 -1597 3471 -2387 4621 -3122 0
6848 -1597 3471 -2387 -4621 3122 0
8004 -1597 3471 -2387 -4621 -3122 0
3959 -1597 -3471 2387 4621 3122 0
5981 -1597 -3471 2387 4621 -3122 0
7330 -1597 -3471 2387 -4621 3122 0
8341 -1597 -3471 2387 -4621 -3122 0
5307 -1597 -3471 -2387 4621 3122 0
6925 -1597 -3471 -2387 4621 -3122 0
8004 -1597 -3471 -2387 -4621 3122 0
8813 -1597 -3471 -2387 -4621 -3122 0
930 3232 2269 2204 2241 3245 -4443 0
3100 3232 2269 2204 2241 -3245 4443 0
3565 3232 2269 2204 2241 -3245 -4443 0
2356 3232 2269 2204 -2241 3245 4443 0
2933 3232 2269 2204 -2241 3245 -4443 0
4278 3232 2269 2204 -2241 -3245 4443 0
4566 3232 2269 2204 -2241 -3245 -4443 0
4960 3232 2269 -2204 2241 3245 4443 0
5146 3232 2269 -2204 2241 3245 -4443 0
5580 3232 2269 -2204 2241 -3245 4443 0
5673 3232 2269 -2204 2241 -3245 -4443 0
5431 3232 2269 -2204 -2241 3245 4443 0
5547 3232 2269 -2204 -2241 3245 -4443 0
5816 3232 2269 -2204 -2241 -3245 4443 0
5873 3232 2269 -2204 -2241 -3245 -4443 0
5270 3232 -2269 2204 2241 3245 4443 0
5410 3232 -2269 2204 2241 3245 -4443 0
5735 3232 -2269 2204 2241 -3245 4443 0
5805 3232 -2269 2204 2241 -3245 -4443 0
5623 3232 -2269 2204 -2241 3245 4443 0
5710 3232 -2269 2204 -2241 3245 -4443 0
5912 3232 -2269 2204 -2241 -3245 4443 0
5955 3232 -2269 2204 -2241 -3245 -4443 0
6014 3232 -2269 -2204 2241 3245 4443 0
6042 3232 -2269 -2204 2241 3245 -4443 0
6107 3232 -2269 -2204 2241 -3245 4443 0
6121 3232 -2269 -2204 2241 -3245 -4443 0
6085 3232 -2269 -2204 -2241 3245 4443 0
6102 3232 -2269 -2204 -2241 3245 -4443 0
6142 3232 -2269 -2204 -2241 -3245 4443 0
6151 3232 -2269 -2204 -2241 -3245 -4443 0
3720 -3232 2269 2204 2241 3245 4443 0
4092 -3232 2269 2204 2241 3245 -4443 0
4960 -3232 2269 2204 2241 -3245 4443 0
5146 -3232 2269 2204 2241 -3245 -4443 0
4662 -3232 2269 2204 -2241 3245 4443 0
4893 -3232 2269 2204 -2241 3245 -4443 0
5431 -3232 2269 2204 -2241 -3245 4443 0
5547 -3232 2269 2204 -2241 -3245 -4443 0
5704 -3232 2269 -2204 2241 3245 4443 0
5778 -3232 2269 -2204 2241 3245 -4443 0
5952 -3232 2269 -2204 2241 -3245 4443 0
5989 -3232 2269 -2204 2241 -3245 -4443 0
5892 -3232 2269 -2204 -2241 3245 4443 0
5939 -3232 2269 -2204 -2241 3245 -4443 0
6046 -3232 2269 -2204 -2241 -3245 4443 0
6069 -3232 2269 -2204 -2241 -3245 -4443 0
5828 -3232 -2269 2204 2241 3245 4443 0
5884 -3232 -2269 2204 2241 3245 -4443 0
6014 -3232 -2269 2204 2241 -3245 4443 0
6042 -3232 -2269 2204 2241 -3245 -4443 0
5969 -3232 -2269 2204 -2241 3245 4443 0
6004 -3232 -2269 2204 -2241 3245 -4443 0
6085 -3232 -2269 2204 -2241 -3245 4443 0
6102 -3232 -2269 2204 -2241 -3245 -4443 0
6126 -3232 -2269 -2204 2241 3245 4443 0
6137 -3232 -2269 -2204 2241 3245 -4443 0
6163 -3232 -2269 -2204 2241 -3245 4443 0
6168 -3232 -2269 -2204 2241 -3245 -4443 0
6154 -3232 -2269 -2204 -2241 3245 4443 0
6161 -3232 -2269 -2204 -2241 3245 -4443 0
6177 -3232 -2269 -2204 -2241 -3245 4443 0
6180 -3232 -2269 -2204 -2241 -3245 -4443 0
124 3223 1849 5087 2564 -3642 0
1116 3223 1849 5087 -2564 3642 0
1218 3223 1849 5087 -2564 -3642 0
744 3223 1849 -5087 2564 3642 0
853 3223 1849 -5087 2564 -3642 0
1726 3223 1849 -5087 -2564 3642 0
1816 3223 1849 -5087 -2564 -3642 0
4340 3223 -1849 5087 2564 3642 0
4377 3223 -1849 5087 2564 -3642 0
4675 3223 -1849 5087 -2564 3642 0
4705 3223 -1849 5087 -2564 -3642 0
4563 3223 -1849 -5087 2564 3642 0
4596 3223 -1849 -5087 2564 -3642 0
4858 3223 -1849 -5087 -2564 3642 0
4885 3223 -1849 -5087 -2564 -3642 0
2356 -3223 1849 5087 2564 3642 0
2433 -3223 1849 5087 2564 -3642 0
3048 -3223 1849 5087 -2564 3642 0
3111 -3223 1849 5087 -2564 -3642 0
2817 -3223 1849 -5087 2564 3642 0
2885 -3223 1849 -5087 2564 -3642 0
3426 -3223 1849 -5087 -2564 3642 0
3482 -3223 1849 -5087 -2564 -3642 0
5047 -3223 -1849 5087 2564 3642 0
5070 -3223 -1849 5087 2564 -3642 0
5254 -3223 -1849 5087 -2564 3642 0
5273 -3223 -1849 5087 -2564 -3642 0
5185 -3223 -1849 -5087 2564 3642 0
5205 -3223 -1849 -5087 2564 -3642 0
5368 -3223 -1849 -5087 -2564 3642 0
5384 -3223 -1849 -5087 -2564 -3642 0
124 2807 2427 -1876 0
1240 2807 -2427 1876 0
1339 2807 -2427 -1876 0
1984 -2807 2427 1876 0
2068 -2807 2427 -1876 0
2827 -2807 -2427 1876 0
2895 -2807 -2427 -1876 0
4340 4873 -2584 0
4960 -4873 2584 0
5828 -4873 -2584 0
535 2115 3427 -4872 0
6420 2115 -3427 4872 0
6634 2115 -3427 -4872 0
3745 -2115 3427 4872 0
4093 -2115 3427 -4872 0
7918 -2115 -3427 4872 0
8057 -2115 -3427 -4872 0
1116 3066 3499 -2095 0
5270 3066 -3499 2095 0
5437 3066 -3499 -2095 0
744 -3066 3499 2095 0
1726 -3066 3499 -2095 0
5382 -3066 -3499 2095 0
5529 -3066 -3499 -2095 0
6420 -2611 0
7540 2739 3653 -1669 0
24505 2739 -3653 1669 0
27144 2739 -3653 -1669 0
33930 -2739 3653 1669 0
34684 -2739 3653 -1669 0
36381 -2739 -3653 1669 0
36644 -2739 -3653 -1669 0
15080 -1633 0
22620 2916 4436 4383 -3306 0
26390 2916 4436 -4383 3306 0
33176 2916 4436 -4383 -3306 0
11310 2916 -4436 4383 3306 0
27144 2916 -4436 4383 -3306 0
29783 2916 -4436 -4383 3306 0
34533 2916 -4436 -4383 -3306 0
24505 -2916 4436 4383 3306 0
32422 -2916 4436 4383 -3306 0
33742 -2916 4436 -4383 3306 0
36117 -2916 4436 -4383 -3306 0
28463 -2916 -4436 4383 3306 0
34005 -2916 -4436 4383 -3306 0
34929 -2916 -4436 -4383 3306 0
36592 -2916 -4436 -4383 -3306 0
4280 -2868 0
2145 2155 -2104 0
7722 -2155 2104 0
9481 -2155 -2104 0
4340 -3576 0
30030 1680 -2196 0
30030 -1680 2196 0
39039 -1680 -2196 0
40755 4561 -2897 0
23595 -4561 2897 0
41935 -4561 -2897 0
7722 5025 1860 1907 3203 2709 -3354 0
36465 5025 1860 1907 3203 -2709 3354 0
37623 5025 1860 1907 3203 -2709 -3354 0
4290 5025 1860 1907 -3203 2709 3354 0
11240 5025 1860 1907 -3203 2709 -3354 0
37108 5025 1860 1907 -3203 -2709 3354 0
38151 5025 1860 1907 -3203 -2709 -3354 0
4290 5025 1860 -1907 3203 2709 3354 0
11240 5025 1860 -1907 3203 2709 -3354 0
37108 5025 1860 -1907 3203 -2709 3354 0
38151 5025 1860 -1907 3203 -2709 -3354 0
8151 5025 1860 -1907 -3203 2709 3354 0
14406 5025 1860 -1907 -3203 2709 -3354 0
37688 5025 1860 -1907 -3203 -2709 3354 0
38626 5025 1860 -1907 -3203 -2709 -3354 0
6435 5025 -1860 1907 3203 2709 3354 0
12999 5025 -1860 1907 3203 2709 -3354 0
37430 5025 -1860 1907 3203 -2709 3354 0
38415 5025 -1860 1907 3203 -2709 -3354 0
10081 5025 -1860 1907 -3203 2709 3354 0
15989 5025 -1860 1907 -3203 2709 -3354 0
37977 5025 -1860 1907 -3203 -2709 3354 0
38863 5025 -1860 1907 -3203 -2709 -3354 0
10081 5025 -1860 -1907 3203 2709 3354 0
15989 5025 -1860 -1907 3203 2709 -3354 0
37977 5025 -1860 -1907 3203 -2709 3354 0
38863 5025 -1860 -1907 3203 -2709 -3354 0
13363 5025 -1860 -1907 -3203 2709 3354 0
18680 5025 -1860 -1907 -3203 2709 -3354 0
38470 5025 -1860 -1907 -3203 -2709 3354 0
39267 5025 -1860 -1907 -3203 -2709 -3354 0
40755 -5025 1860 1907 3203 2709 3354 0
41141 -5025 1860 1907 3203 2709 -3354 0
42578 -5025 1860 1907 3203 -2709 3354 0
42636 -5025 1860 1907 3203 -2709 -3354 0
40969 -5025 1860 1907 -3203 2709 3354 0
41317 -5025 1860 1907 -3203 2709 -3354 0
42610 -5025 1860 1907 -3203 -2709 3354 0
42663 -5025 1860 1907 -3203 -2709 -3354 0
40969 -5025 1860 -1907 3203 2709 3354 0
41317 -5025 1860 -1907 3203 2709 -3354 0
42610 -5025 1860 -1907 3203 -2709 3354 0
42663 -5025 1860 -1907 3203 -2709 -3354 0
41163 -5025 1860 -1907 -3203 2709 3354 0
41475 -5025 1860 -1907 -3203 2709 -3354 0
42639 -5025 1860 -1907 -3203 -2709 3354 0
42686 -5025 1860 -1907 -3203 -2709 -3354 0
41077 -5025 -1860 1907 3203 2709 3354 0
41405 -5025 -1860 1907 3203 2709 -3354 0
42627 -5025 -1860 1907 3203 -2709 3354 0
42676 -5025 -1860 1907 3203 -2709 -3354 0
41259 -5025 -1860 1907 -3203 2709 3354 0
41554 -5025 -1860 1907 -3203 2709 -3354 0
42654 -5025 -1860 1907 -3203 -2709 3354 0
42698 -5025 -1860 1907 -3203 -2709 -3354 0
41259 -5025 -1860 -1907 3203 2709 3354 0
41554 -5025 -1860 -1907 3203 2709 -3354 0
42654 -5025 -1860 -1907 3203 -2709 3354 0
42698 -5025 -1860 -1907 3203 -2709 -3354 0
41423 -5025 -1860 -1907 -3203 2709 3354 0
41689 -5025 -1860 -1907 -3203 2709 -3354 0
42678 -5025 -1860 -1907 -3203 -2709 3354 0
42718 -5025 -1860 -1907 -3203 -2709 -3354 0
22620 4588 -3398 0
9425 -4588 3398 0
26390 -4588 -3398 0
930 -3401 0
214 1778 3484 -1791 0
6955 1778 -3484 1791 0
7030 1778 -3484 -1791 0
6955 -1778 3484 1791 0
7030 -1778 3484 -1791 0
9389 -1778 -3484 1791 0
9415 -1778 -3484 -1791 0
6955 -1752 0
2675 4673 4070 -1701 0
2140 4673 -4070 1701 0
4280 4673 -4070 -1701 0
8025 -4673 4070 1701 0
8694 -4673 4070 -1701 0
8560 -4673 -4070 1701 0
9095 -4673 -4070 -1701 0
15200 2939 4531 -4223 0
5700 2939 -4531 4223 0
16340 2939 -4531 -4223 0
7220 -2939 4531 4223 0
16644 -2939 4531 -4223 0
10754 -2939 -4531 4223 0
17351 -2939 -4531 -4223 0
1070 2922 4365 -3583 0
7490 2922 -4365 3583 0
7811 2922 -4365 -3583 0
214 -2922 4365 3583 0
1263 -2922 4365 -3583 0
7554 -2922 -4365 3583 0
7869 -2922 -4365 -3583 0
535 2085 -4533 0
4066 -2085 4533 0
4398 -2085 -4533 0
5885 -2754 0
2280 2598 1940 -2072 0
8550 2598 -1940 2072 0
9804 2598 -1940 -2072 0
10450 -2598 1940 2072 0
11476 -2598 1940 -2072 0
14297 -2598 -1940 2072 0
14862 -2598 -1940 -2072 0
8560 -2998 0
5655 2034 -3229 0
32045 -2034 3229 0
32893 -2034 -3229 0
5655 3876 -4030 0
3770 -3876 4030 0
8859 -3876 -4030 0
6435 2458 4700 4460 -4824 0
19305 2458 4700 -4460 4824 0
22844 2458 4700 -4460 -4824 0
19305 2458 -4700 4460 4824 0
22844 2458 -4700 4460 -4824 0
29923 2458 -4700 -4460 4824 0
31869 2458 -4700 -4460 -4824 0
2145 -2458 4700 4460 4824 0
8258 -2458 4700 4460 -4824 0
20485 -2458 4700 -4460 4824 0
23847 -2458 4700 -4460 -4824 0
20485 -2458 -4700 4460 4824 0
23847 -2458 -4700 4460 -4824 0
30572 -2458 -4700 -4460 4824 0
32421 -2458 -4700 -4460 -4824 0
4290 2940 2651 5026 -4909 0
36465 2940 2651 -5026 4909 0
37108 2940 2651 -5026 -4909 0
12870 2940 -2651 5026 4909 0
15873 2940 -2651 5026 -4909 0
38395 2940 -2651 -5026 4909 0
38846 2940 -2651 -5026 -4909 0
4290 -2940 2651 5026 4909 0
8151 -2940 2651 5026 -4909 0
37108 -2940 2651 -5026 4909 0
37688 -2940 2651 -5026 -4909 0
15873 -2940 -2651 5026 4909 0
18576 -2940 -2651 5026 -4909 0
38846 -2940 -2651 -5026 4909 0
39251 -2940 -2651 -5026 -4909 0
4815 3085 1740 4141 -2676 0
214 3085 1740 -4141 2676 0
4933 3085 1740 -4141 -2676 0
535 3085 -1740 4141 2676 0
5109 3085 -1740 4141 -2676 0
738 3085 -1740 -4141 2676 0
5221 3085 -1740 -4141 -2676 0
6955 -3085 1740 4141 2676 0
8640 -3085 1740 4141 -2676 0
7030 -3085 1740 -4141 2676 0
8681 -3085 1740 -4141 -2676 0
7142 -3085 -1740 4141 2676 0
8743 -3085 -1740 4141 -2676 0
7213 -3085 -1740 -4141 2676 0
8782 -3085 -1740 -4141 -2676 0
3770 3264 5051 4477 3649 -2561 0
32045 3264 5051 4477 -3649 2561 0
32611 3264 5051 4477 -3649 -2561 0
12064 3264 5051 -4477 3649 2561 0
14628 3264 5051 -4477 3649 -2561 0
33855 3264 5051 -4477 -3649 2561 0
34239 3264 5051 -4477 -3649 -2561 0
12064 3264 -5051 4477 3649 2561 0
14628 3264 -5051 4477 3649 -2561 0
33855 3264 -5051 4477 -3649 2561 0
34239 3264 -5051 4477 -3649 -2561 0
20268 3264 -5051 -4477 3649 2561 0
22011 3264 -5051 -4477 3649 -2561 0
35085 3264 -5051 -4477 -3649 2561 0
35347 3264 -5051 -4477 -3649 -2561 0
1885 -3264 5051 4477 3649 2561 0
5467 -3264 5051 4477 3649 -2561 0
32328 -3264 5051 4477 -3649 2561 0
32865 -3264 5051 4477 -3649 -2561 0
13346 -3264 5051 -4477 3649 2561 0
15781 -3264 5051 -4477 3649 -2561 0
34047 -3264 5051 -4477 -3649 2561 0
34412 -3264 5051 -4477 -3649 -2561 0
13346 -3264 -5051 4477 3649 2561 0
15781 -3264 -5051 4477 3649 -2561 0
34047 -3264 -5051 4477 -3649 2561 0
34412 -3264 -5051 4477 -3649 -2561 0
21139 -3264 -5051 -4477 3649 2561 0
22795 -3264 -5051 -4477 3649 -2561 0
35216 -3264 -5051 -4477 -3649 2561 0
35464 -3264 -5051 -4477 -3649 -2561 0
11400 -4589 0
4750 -3981 0
26390 1554 4244 3511 -1954 0
24505 1554 4244 -3511 1954 0
33742 1554 4244 -3511 -1954 0
30160 1554 -4244 3511 1954 0
35438 1554 -4244 3511 -1954 0
35061 1554 -4244 -3511 1954 0
36908 1554 -4244 -3511 -1954 0
22620 -1554 4244 3511 1954 0
33176 -1554 4244 3511 -1954 0
32422 -1554 4244 -3511 1954 0
36117 -1554 4244 -3511 -1954 0
34684 -1554 -4244 3511 1954 0
36795 -1554 -4244 3511 -1954 0
36644 -1554 -4244 -3511 1954 0
37383 -1554 -4244 -3511 -1954 0
1550 -4717 0
7220 4395 5037 2442 -1896 0
7220 4395 5037 -2442 1896 0
11696 4395 5037 -2442 -1896 0
2850 4395 -5037 2442 1896 0
8987 4395 -5037 2442 -1896 0
8987 4395 -5037 -2442 1896 0
12792 4395 -5037 -2442 -1896 0
14250 -4395 5037 2442 1896 0
16055 -4395 5037 2442 -1896 0
16055 -4395 5037 -2442 1896 0
17174 -4395 5037 -2442 -1896 0
14962 -4395 -5037 2442 1896 0
16497 -4395 -5037 2442 -1896 0
16497 -4395 -5037 -2442 1896 0
17448 -4395 -5037 -2442 -1896 0
19305 3654 2675 4409 -2071 0
25740 3654 2675 -4409 2071 0
33462 3654 2675 -4409 -2071 0
17160 3654 -2675 4409 2071 0
28743 3654 -2675 4409 -2071 0
32604 3654 -2675 -4409 2071 0
37237 3654 -2675 -4409 -2071 0
7722 -3654 2675 4409 2071 0
23552 -3654 2675 4409 -2071 0
28829 -3654 2675 -4409 2071 0
35161 -3654 2675 -4409 -2071 0
21793 -3654 -2675 4409 2071 0
31291 -3654 -2675 4409 -2071 0
34457 -3654 -2675 -4409 2071 0
38257 -3654 -2675 -4409 -2071 0
35815 1943 2156 -2831 0
7540 1943 -2156 2831 0
36192 1943 -2156 -2831 0
35815 -1943 2156 2831 0
37606 -1943 2156 -2831 0
36192 -1943 -2156 2831 0
37625 -1943 -2156 -2831 0
6420 -4082 0
16965 -3042 0
3420 -4774 0
16965 4960 -3808 0
33930 -4960 3808 0
35627 -4960 -3808 0
2356 3989 -3749 0
5580 -3989 3749 0
5816 -3989 -3749 0
14250 5018 3760 -4474 0
18050 5018 -3760 4474 0
18762 5018 -3760 -4474 0
9500 -5018 3760 4474 0
16625 -5018 3760 -4474 0
18525 -5018 -3760 4474 0
18881 -5018 -3760 -4474 0
6080 1835 -4988 0
13300 -1835 4988 0
15124 -1835 -4988 0
15015 4064 -4508 0
8580 -4064 4508 0
20592 -4064 -4508 0
26390 4677 -4879 0
9425 -4677 4879 0
29217 -4677 -4879 0
30160 1787 5072 2731 2023 2712 -2260 0
13195 1787 5072 2731 2023 -2712 2260 0
32799 1787 5072 2731 2023 -2712 -2260 0
9425 1787 5072 2731 -2023 2712 2260 0
32045 1787 5072 2731 -2023 2712 -2260 0
19321 1787 5072 2731 -2023 -2712 2260 0
34024 1787 5072 2731 -2023 -2712 -2260 0
28275 1787 5072 -2731 2023 2712 2260 0
35815 1787 5072 -2731 2023 2712 -2260 0
31574 1787 5072 -2731 2023 -2712 2260 0
36475 1787 5072 -2731 2023 -2712 -2260 0
30631 1787 5072 -2731 -2023 2712 2260 0
36286 1787 5072 -2731 -2023 2712 -2260 0
33105 1787 5072 -2731 -2023 -2712 2260 0
36781 1787 5072 -2731 -2023 -2712 -2260 0
3770 1787 -5072 2731 2023 2712 2260 0
30914 1787 -5072 2731 2023 2712 -2260 0
15645 1787 -5072 2731 2023 -2712 2260 0
33289 1787 -5072 2731 2023 -2712 -2260 0
12252 1787 -5072 2731 -2023 2712 2260 0
32611 1787 -5072 2731 -2023 2712 -2260 0
21159 1787 -5072 2731 -2023 -2712 2260 0
34392 1787 -5072 2731 -2023 -2712 -2260 0
29218 1787 -5072 -2731 2023 2712 2260 0
36003 1787 -5072 -2731 2023 2712 -2260 0
32186 1787 -5072 -2731 2023 -2712 2260 0
36597 1787 -5072 -2731 2023 -2712 -2260 0
31338 1787 -5072 -2731 -2023 2712 2260 0
36428 1787 -5072 -2731 -2023 2712 -2260 0
33565 1787 -5072 -2731 -2023 -2712 2260 0
36873 1787 -5072 -2731 -2023 -2712 -2260 0
9425 -1787 5072 2731 2023 2712 2260 0
32045 -1787 5072 2731 2023 2712 -2260 0
19321 -1787 5072 2731 2023 -2712 2260 0
34024 -1787 5072 2731 2023 -2712 -2260 0
16494 -1787 5072 2731 -2023 2712 2260 0
33459 -1787 5072 2731 -2023 2712 -2260 0
23916 -1787 5072 2731 -2023 -2712 2260 0
34943 -1787 5072 2731 -2023 -2712 -2260 0
30631 -1787 5072 -2731 2023 2712 2260 0
36286 -1787 5072 -2731 2023 2712 -2260 0
33105 -1787 5072 -2731 2023 -2712 2260 0
36781 -1787 5072 -2731 2023 -2712 -2260 0
32398 -1787 5072 -2731 -2023 2712 2260 0
36640 -1787 5072 -2731 -2023 2712 -2260 0
34254 -1787 5072 -2731 -2023 -2712 2260 0
37011 -1787 5072 -2731 -2023 -2712 -2260 0
12252 -1787 -5072 2731 2023 2712 2260 0
32611 -1787 -5072 2731 2023 2712 -2260 0
21159 -1787 -5072 2731 2023 -2712 2260 0
34392 -1787 -5072 2731 2023 -2712 -2260 0
18614 -1787 -5072 2731 -2023 2712 2260 0
33883 -1787 -5072 2731 -2023 2712 -2260 0
25294 -1787 -5072 2731 -2023 -2712 2260 0
35219 -1787 -5072 2731 -2023 -2712 -2260 0
31338 -1787 -5072 -2731 2023 2712 2260 0
36428 -1787 -5072 -2731 2023 2712 -2260 0
33565 -1787 -5072 -2731 2023 -2712 2260 0
36873 -1787 -5072 -2731 2023 -2712 -2260 0
32929 -1787 -5072 -2731 -2023 2712 2260 0
36746 -1787 -5072 -2731 -2023 2712 -2260 0
34599 -1787 -5072 -2731 -2023 -2712 2260 0
37080 -1787 -5072 -2731 -2023 -2712 -2260 0
7490 -3376 0
30160 3678 3423 2186 -3202 0
6786 3678 3423 -2186 3202 0
31517 3678 3423 -2186 -3202 0
16965 3678 -3423 2186 3202 0
33553 3678 -3423 2186 -3202 0
20697 3678 -3423 -2186 3202 0
34299 3678 -3423 -2186 -3202 0
5655 -3678 3423 2186 3202 0
31291 -3678 3423 2186 -3202 0
11423 -3678 3423 -2186 3202 0
32445 -3678 3423 -2186 -3202 0
20075 -3678 -3423 2186 3202 0
34175 -3678 -3423 2186 -3202 0
23248 -3678 -3423 -2186 3202 0
34810 -3678 -3423 -2186 -3202 0
8580 1815 3079 -3745 0
7722 1815 -3079 3745 0
14758 1815 -3079 -3745 0
5148 -1815 3079 3745 0
12698 -1815 3079 -3745 0
11943 -1815 -3079 3745 0
18135 -1815 -3079 -3745 0
1900 3369 -3652 0
10450 -3369 3652 0
11305 -3369 -3652 0
15015 1567 2300 -3183 0
7722 1567 -2300 3183 0
20034 1567 -2300 -3183 0
38610 -1567 2300 3183 0
40112 -1567 2300 -3183 0
39382 -1567 -2300 3183 0
40613 -1567 -2300 -3183 0
18850 2657 5029 -2662 0
24505 2657 -5029 2662 0
31102 2657 -5029 -2662 0
15080 -2657 5029 2662 0
26390 -2657 5029 -2662 0
29783 -2657 -5029 2662 0
33742 -2657 -5029 -2662 0
3420 3350 -4159 0
2850 -3350 4159 0
5757 -3350 -4159 0
1860 3282 3005 -3381 0
4030 3282 -3005 3381 0
4681 3282 -3005 -3381 0
1860 -3282 3005 3381 0
3162 -3282 3005 -3381 0
4681 -3282 -3005 3381 0
5137 -3282 -3005 -3381 0
3770 4751 -2251 0
1885 -4751 2251 0
5467 -4751 -2251 0
214 -3450 0
6955 4969 -2010 0
10165 -4969 2010 0
10513 -4969 -2010 0
12870 3302 -1638 0
23595 -3302 1638 0
29387 -3302 -1638 0
18850 3964 2461 -4351 0
16965 3964 -2461 4351 0
27332 3964 -2461 -4351 0
28275 -3964 2461 4351 0
32988 -3964 2461 -4351 0
32516 -3964 -2461 4351 0
35108 -3964 -2461 -4351 0
10725 2330 1572 -3939 0
30030 2330 -1572 3939 0
33247 2330 -1572 -3939 0
23595 -2330 1572 3939 0
28421 -2330 1572 -3939 0
37108 -2330 -1572 3939 0
38556 -2330 -1572 -3939 0
1284 3218 -3809 0
6955 -3218 3809 0
7404 -3218 -3809 0
14326 -3639 0
12064 -4618 0
6650 5045 4052 -1730 0
3800 5045 -4052 1730 0
9120 5045 -4052 -1730 0
13300 -5045 4052 1730 0
15295 -5045 4052 -1730 0
14440 -5045 -4052 1730 0
16036 -5045 -4052 -1730 0
2675 -1564 0
9630 -1828 0
4066 4145 4764 -3590 0
9630 4145 -4764 3590 0
10037 4145 -4764 -3590 0
10165 -4145 4764 3590 0
10368 -4145 4764 -3590 0
10647 -4145 -4764 3590 0
10667 -4145 -4764 -3590 0
620 2551 2761 1575 -4564 0
930 2551 2761 -1575 4564 0
1457 2551 2761 -1575 -4564 0
4340 2551 -2761 1575 4564 0
4526 2551 -2761 1575 -4564 0
4619 2551 -2761 -1575 4564 0
4777 2551 -2761 -1575 -4564 0
930 -2551 2761 1575 4564 0
1457 -2551 2761 1575 -4564 0
1721 -2551 2761 -1575 4564 0
2168 -2551 2761 -1575 -4564 0
4619 -2551 -2761 1575 4564 0
4777 -2551 -2761 1575 -4564 0
4856 -2551 -2761 -1575 4564 0
4991 -2551 -2761 -1575 -4564 0
1116 2686 3757 4251 -3790 0
5580 2686 3757 -4251 3790 0
5692 2686 3757 -4251 -3790 0
5270 2686 -3757 4251 3790 0
5437 2686 -3757 4251 -3790 0
6107 2686 -3757 -4251 3790 0
6124 2686 -3757 -4251 -3790 0
3720 -2686 3757 4251 3790 0
4166 -2686 3757 4251 -3790 0
5952 -2686 3757 -4251 3790 0
5997 -2686 3757 -4251 -3790 0
5828 -2686 -3757 4251 3790 0
5895 -2686 -3757 4251 -3790 0
6163 -2686 -3757 -4251 3790 0
6169 -2686 -3757 -4251 -3790 0
1605 2332 -5013 0
8560 -2332 5013 0
8881 -2332 -5013 0
930 2400 2806 -3904 0
5580 2400 -2806 3904 0
5673 2400 -2806 -3904 0
1550 -2400 2806 3904 0
2248 -2400 2806 -3904 0
5735 -2400 -2806 3904 0
5805 -2400 -2806 -3904 0
1885 4992 -2875 0
754 -4992 2875 0
2601 -4992 -2875 0
16965 1618 1654 -2878 0
9425 1618 -1654 2878 0
22149 1618 -1654 -2878 0
3770 -1618 1654 2878 0
19038 -1618 1654 -2878 0
12252 -1618 -1654 2878 0
23704 -1618 -1654 -2878 0
6435 4213 -4665 0
6435 -4213 4665 0
11905 -4213 -4665 0
15080 4381 2689 -3726 0
30160 4381 -2689 3726 0
33176 4381 -2689 -3726 0
1885 -4381 2689 3726 0
16211 -4381 2689 -3726 0
30537 -4381 -2689 3726 0
33402 -4381 -2689 -3726 0
7600 -4809 0
36465 4390 2391 -2861 0
15015 4390 -2391 2861 0
38717 4390 -2391 -2861 0
19305 -4390 2391 2861 0
39361 -4390 2391 -2861 0
27563 -4390 -2391 2861 0
40599 -4390 -2391 -2861 0
124 -4571 0
1900 3542 3338 3228 3926 -4806 0
15200 3542 3338 3228 -3926 4806 0
15580 3542 3338 3228 -3926 -4806 0
6080 3542 3338 -3228 3926 4806 0
7372 3542 3338 -3228 3926 -4806 0
16416 3542 3338 -3228 -3926 4806 0
16674 3542 3338 -3228 -3926 -4806 0
380 3542 -3338 3228 3926 4806 0
2242 3542 -3338 3228 3926 -4806 0
15276 3542 -3338 3228 -3926 4806 0
15648 3542 -3338 3228 -3926 -4806 0
6338 3542 -3338 -3228 3926 4806 0
7605 3542 -3338 -3228 3926 -4806 0
16468 3542 -3338 -3228 -3926 4806 0
16721 3542 -3338 -3228 -3926 -4806 0
14250 -3542 3338 3228 3926 4806 0
14725 -3542 3338 3228 3926 -4806 0
18050 -3542 3338 3228 -3926 4806 0
18145 -3542 3338 3228 -3926 -4806 0
15770 -3542 3338 -3228 3926 4806 0
16093 -3542 3338 -3228 3926 -4806 0
18354 -3542 3338 -3228 -3926 4806 0
18419 -3542 3338 -3228 -3926 -4806 0
14345 -3542 -3338 3228 3926 4806 0
14810 -3542 -3338 3228 3926 -4806 0
18069 -3542 -3338 3228 -3926 4806 0
18162 -3542 -3338 3228 -3926 -4806 0
15835 -3542 -3338 -3228 3926 4806 0
16151 -3542 -3338 -3228 3926 -4806 0
18367 -3542 -3338 -3228 -3926 4806 0
18430 -3542 -3338 -3228 -3926 -4806 0
2140 2883 3512 -2496 0
8025 2883 -3512 2496 0
8560 2883 -3512 -2496 0
214 -2883 3512 2496 0
2311 -2883 3512 -2496 0
8078 -2883 -3512 2496 0
8603 -2883 -3512 -2496 0
35815 2550 1653 1768 1769 -2416 0
33930 2550 1653 1768 -1769 2416 0
37512 2550 1653 1768 -1769 -2416 0
754 2550 1653 -1768 1769 2416 0
35853 2550 1653 -1768 1769 -2416 0
34005 2550 1653 -1768 -1769 2416 0
37515 2550 1653 -1768 -1769 -2416 0
1885 2550 -1653 1768 1769 2416 0
35909 2550 -1653 1768 1769 -2416 0
34119 2550 -1653 1768 -1769 2416 0
37521 2550 -1653 1768 -1769 -2416 0
2601 2550 -1653 -1768 1769 2416 0
35945 2550 -1653 -1768 1769 -2416 0
34190 2550 -1653 -1768 -1769 2416 0
37525 2550 -1653 -1768 -1769 -2416 0
754 -2550 1653 1768 1769 2416 0
35853 -2550 1653 1768 1769 -2416 0
34005 -2550 1653 1768 -1769 2416 0
37515 -2550 1653 1768 -1769 -2416 0
1493 -2550 1653 -1768 1769 2416 0
35890 -2550 1653 -1768 1769 -2416 0
34079 -2550 1653 -1768 -1769 2416 0
37519 -2550 1653 -1768 -1769 -2416 0
2601 -2550 -1653 1768 1769 2416 0
35945 -2550 -1653 1768 1769 -2416 0
34190 -2550 -1653 1768 -1769 2416 0
37525 -2550 -1653 1768 -1769 -2416 0
3303 -2550 -1653 -1768 1769 2416 0
35980 -2550 -1653 -1768 1769 -2416 0
34260 -2550 -1653 -1768 -1769 2416 0
37528 -2550 -1653 -1768 -1769 -2416 0
9425 4721 -4862 0
28275 -4721 4862 0
30631 -4721 -4862 0
5700 -3614 0
22620 2472 4612 4616 -4807 0
5655 2472 4612 -4616 4807 0
24882 2472 4612 -4616 -4807 0
9425 2472 -4612 4616 4807 0
26390 2472 -4612 4616 -4807 0
13666 2472 -4612 -4616 4807 0
28087 2472 -4612 -4616 -4807 0
32045 -2472 4612 4616 4807 0
35438 -2472 4612 4616 -4807 0
32893 -2472 4612 -4616 4807 0
35777 -2472 4612 -4616 -4807 0
33459 -2472 -4612 4616 4807 0
36003 -2472 -4612 4616 -4807 0
34095 -2472 -4612 -4616 4807 0
36258 -2472 -4612 -4616 -4807 0
19305 1842 -2138 0
6435 -1842 2138 0
22844 -1842 -2138 0
10165 4667 2889 2182 2373 -4771 0
5885 4667 2889 2182 -2373 4771 0
10459 4667 2889 2182 -2373 -4771 0
7490 4667 2889 -2182 2373 4771 0
10539 4667 2889 -2182 2373 -4771 0
9255 4667 2889 -2182 -2373 4771 0
10628 4667 2889 -2182 -2373 -4771 0
2675 4667 -2889 2182 2373 4771 0
10299 4667 -2889 2182 2373 -4771 0
7089 4667 -2889 2182 -2373 4771 0
10519 4667 -2889 2182 -2373 -4771 0
8292 4667 -2889 -2182 2373 4771 0
10580 4667 -2889 -2182 2373 -4771 0
9617 4667 -2889 -2182 -2373 4771 0
10646 4667 -2889 -2182 -2373 -4771 0
214 -4667 2889 2182 2373 4771 0
10176 -4667 2889 2182 2373 -4771 0
5981 -4667 2889 2182 -2373 4771 0
10464 -4667 2889 2182 -2373 -4771 0
7554 -4667 2889 -2182 2373 4771 0
10543 -4667 2889 -2182 2373 -4771 0
9284 -4667 2889 -2182 -2373 4771 0
10629 -4667 2889 -2182 -2373 -4771 0
2836 -4667 -2889 2182 2373 4771 0
10307 -4667 -2889 2182 2373 -4771 0
7161 -4667 -2889 2182 -2373 4771 0
10523 -4667 -2889 2182 -2373 -4771 0
8341 -4667 -2889 -2182 2373 4771 0
10582 -4667 -2889 -2182 2373 -4771 0
9638 -4667 -2889 -2182 -2373 4771 0
10647 -4667 -2889 -2182 -2373 -4771 0
754 4794 -3722 0
30160 -4794 3722 0
30311 -4794 -3722 0
21450 3319 2772 -1511 0
36465 3319 -2772 1511 0
39683 3319 -2772 -1511 0
16302 -3319 2772 1511 0
29601 -3319 2772 -1511 0
38910 -3319 -2772 1511 0
40905 -3319 -2772 -1511 0
2675 -4555 0
2170 -2128 0
24505 2869 3268 -4743 0
14326 2869 -3268 4743 0
29519 2869 -3268 -4743 0
9425 -2869 3268 4743 0
27804 -2869 3268 -4743 0
20170 -2869 -3268 4743 0
31564 -2869 -3268 -4743 0
