p wcnf 6320 17656 1000000
1000000 533 -3827 -3469 0
1000000 801 -3827 -3469 0
1000000 392 -3715 -4579 -4673 -566 0
1000000 802 -3715 -4579 -4673 -566 0
1000000 396 -4030 -4315 -4535 -4734 0
1000000 803 -4030 -4315 -4535 -4734 0
1000000 514 -4690 -3678 -4387 0
1000000 804 -4690 -3678 -4387 0
1000000 440 -3331 -3520 -3069 -3914 0
1000000 805 -3331 -3520 -3069 -3914 0
1000000 254 -4827 -4058 0
1000000 806 -4827 -4058 0
1000000 308 -4100 -4947 -2764 -4672 0
1000000 807 -4100 -4947 -2764 -4672 0
1000000 372 -3584 -3059 -4288 -3848 0
1000000 808 -3584 -3059 -4288 -3848 0
1000000 630 -4344 -3389 -4631 0
1000000 809 -4344 -3389 -4631 0
1000000 658 -4322 -3184 -3559 -4614 0
1000000 810 -4322 -3184 -3559 -4614 0
1000000 152 -3466 -3661 -3952 -639 0
1000000 811 -3466 -3661 -3952 -639 0
1000000 558 -4115 -4790 0
1000000 812 -4115 -4790 0
1000000 499 -3746 -3911 -4409 0
1000000 813 -3746 -3911 -4409 0
1000000 674 -2921 -3070 -2852 0
1000000 814 -2921 -3070 -2852 0
1000000 361 -4387 -623 0
1000000 815 -4387 -623 0
1000000 725 -4441 -740 0
1000000 816 -4441 -740 0
1000000 147 -3981 -155 0
1000000 817 -3981 -155 0
1000000 179 -4071 -3173 -5080 -282 0
1000000 818 -4071 -3173 -5080 -282 0
1000000 169 -3850 -3872 -2893 -4521 0
1000000 819 -3850 -3872 -2893 -4521 0
1000000 170 -4967 -4442 -2838 0
1000000 820 -4967 -4442 -2838 0
1000000 727 -4060 -4920 -3131 0
1000000 821 -4060 -4920 -3131 0
1000000 568 -4672 -2983 -4527 0
1000000 822 -4672 -2983 -4527 0
1000000 633 -3232 -3739 -3496 -5087 0
1000000 823 -3232 -3739 -3496 -5087 0
1000000 778 -4354 -5056 -4476 0
1000000 824 -4354 -5056 -4476 0
1000000 72 -3134 -3787 -4602 0
1000000 825 -3134 -3787 -4602 0
1000000 76 -4170 -4806 -4189 -4019 0
1000000 826 -4170 -4806 -4189 -4019 0
1000000 260 -4869 -4066 -4525 -5001 0
1000000 827 -4869 -4066 -4525 -5001 0
1000000 239 -2933 -4942 -4780 -243 0
1000000 828 -2933 -4942 -4780 -243 0
1000000 376 -4039 -4508 -3416 -3649 0
1000000 829 -4039 -4508 -3416 -3649 0
1000000 84 -3692 -3551 -2881 0
1000000 830 -3692 -3551 -2881 0
1000000 287 -3037 -3344 0
1000000 831 -3037 -3344 0
1000000 457 -3962 -3184 -2880 0
1000000 832 -3962 -3184 -2880 0
1000000 479 -2949 -4376 0
1000000 833 -2949 -4376 0
1000000 280 -4091 -4618 -4652 -747 0
1000000 834 -4091 -4618 -4652 -747 0
1000000 613 -2804 -2842 -4783 -4050 0
1000000 835 -2804 -2842 -4783 -4050 0
1000000 328 -2896 -4704 -4772 0
1000000 836 -2896 -4704 -4772 0
1000000 703 -5109 -4911 -3683 0
1000000 837 -5109 -4911 -3683 0
1000000 244 -3921 -3791 -4071 0
1000000 838 -3921 -3791 -4071 0
1000000 560 -4330 -791 0
1000000 839 -4330 -791 0
1000000 753 -4012 -2877 -4075 -2817 0
1000000 840 -4012 -2877 -4075 -2817 0
1000000 626 -3812 -5045 -2944 0
1000000 841 -3812 -5045 -2944 0
1000000 284 -3332 -774 0
1000000 842 -3332 -774 0
1000000 119 -3481 -4039 -4415 -4101 0
1000000 843 -3481 -4039 -4415 -4101 0
1000000 657 -4443 -4610 -3232 -4327 0
1000000 844 -4443 -4610 -3232 -4327 0
1000000 745 -4164 -3381 0
1000000 845 -4164 -3381 0
1000000 196 -3588 -2867 0
1000000 846 -3588 -2867 0
1000000 561 -4770 -3250 -3684 0
1000000 847 -4770 -3250 -3684 0
1000000 687 -4898 -4188 -3816 0
1000000 848 -4898 -4188 -3816 0
1000000 253 -4615 -288 0
1000000 849 -4615 -288 0
1000000 391 -3224 -4582 -3098 -464 0
1000000 850 -3224 -4582 -3098 -464 0
1000000 768 -3012 -770 0
1000000 851 -3012 -770 0
1000000 765 -4890 -793 0
1000000 852 -4890 -793 0
1000000 158 -3885 -3086 -4216 -3898 0
1000000 853 -3885 -3086 -4216 -3898 0
1000000 368 -3656 -707 0
1000000 854 -3656 -707 0
1000000 665 -4188 -4733 -3370 0
1000000 855 -4188 -4733 -3370 0
1000000 637 -4635 -4487 -4743 -3471 0
1000000 856 -4635 -4487 -4743 -3471 0
1000000 608 -4260 -4142 -5007 0
1000000 857 -4260 -4142 -5007 0
1000000 685 -4648 -4568 -3476 0
1000000 858 -4648 -4568 -3476 0
1000000 506 -3559 -4629 -4829 -3281 0
1000000 859 -3559 -4629 -4829 -3281 0
1000000 312 -4784 -4440 -3545 -2930 0
1000000 860 -4784 -4440 -3545 -2930 0
1000000 208 -2764 -4414 -3500 -4958 0
1000000 861 -2764 -4414 -3500 -4958 0
1000000 58 -3670 -4885 -571 0
1000000 862 -3670 -4885 -571 0
1000000 532 -4915 -3806 0
1000000 863 -4915 -3806 0
1000000 313 -4971 -4614 -5029 0
1000000 864 -4971 -4614 -5029 0
1000000 611 -4898 -780 0
1000000 865 -4898 -780 0
1000000 7 -5070 -3165 -2787 -3757 0
1000000 866 -5070 -3165 -2787 -3757 0
1000000 36 -4129 -4675 -739 0
1000000 867 -4129 -4675 -739 0
1000000 497 -3631 -3608 -3132 0
1000000 868 -3631 -3608 -3132 0
1000000 35 -3379 -4548 -3914 -4613 0
1000000 869 -3379 -4548 -3914 -4613 0
1000000 8 -3524 -2772 -3429 -3545 0
1000000 870 -3524 -2772 -3429 -3545 0
1000000 701 -4461 -4944 -5070 -2922 0
1000000 871 -4461 -4944 -5070 -2922 0
1000000 777 -3727 -3939 -3336 -3452 0
1000000 872 -3727 -3939 -3336 -3452 0
1000000 663 -2891 -4909 -2946 -696 0
1000000 873 -2891 -4909 -2946 -696 0
1000000 514 -3416 -4838 -4607 -2933 0
1000000 874 -3416 -4838 -4607 -2933 0
1000000 508 -4508 -3552 -3956 -3160 0
1000000 875 -4508 -3552 -3956 -3160 0
1000000 623 -4878 -3420 -4832 -3040 0
1000000 876 -4878 -3420 -4832 -3040 0
1000000 192 -3046 -2762 -3843 0
1000000 877 -3046 -2762 -3843 0
1000000 590 -3204 -3917 -4079 -2726 0
1000000 878 -3204 -3917 -4079 -2726 0
1000000 28 -4988 -4683 -4892 -294 0
1000000 879 -4988 -4683 -4892 -294 0
1000000 441 -4892 -3055 -4042 -2988 0
1000000 880 -4892 -3055 -4042 -2988 0
1000000 672 -3132 -3068 -4131 -752 0
1000000 881 -3132 -3068 -4131 -752 0
1000000 431 -2856 -712 0
1000000 882 -2856 -712 0
1000000 634 -5002 -3492 -4017 0
1000000 883 -5002 -3492 -4017 0
1000000 532 -3705 -3805 -4200 0
1000000 884 -3705 -3805 -4200 0
1000000 658 -4680 -3514 -3259 0
1000000 885 -4680 -3514 -3259 0
1000000 720 -4734 -3645 -5071 -4163 0
1000000 886 -4734 -3645 -5071 -4163 0
1000000 228 -4978 -3424 -3684 -283 0
1000000 887 -4978 -3424 -3684 -283 0
1000000 77 -2987 -4714 -3266 -3088 0
1000000 888 -2987 -4714 -3266 -3088 0
1000000 445 -3035 -3972 -4395 0
1000000 889 -3035 -3972 -4395 0
1000000 502 -3352 -3268 -4170 0
1000000 890 -3352 -3268 -4170 0
1000000 601 -3010 -3246 -3637 -3137 0
1000000 891 -3010 -3246 -3637 -3137 0
1000000 54 -4398 -4070 -2887 0
1000000 892 -4398 -4070 -2887 0
1000000 696 -3107 -3878 0
1000000 893 -3107 -3878 0
1000000 280 -4308 -2968 0
1000000 894 -4308 -2968 0
1000000 594 -4735 -788 0
1000000 895 -4735 -788 0
1000000 228 -4085 -4005 -557 0
1000000 896 -4085 -4005 -557 0
1000000 697 -4992 -3112 -4135 -2980 0
1000000 897 -4992 -3112 -4135 -2980 0
1000000 56 -3611 -2987 -4970 -4210 0
1000000 898 -3611 -2987 -4970 -4210 0
1000000 156 -4676 -3056 -4106 -689 0
1000000 899 -4676 -3056 -4106 -689 0
1000000 617 -4908 -4429 0
1000000 900 -4908 -4429 0
1000000 694 -3022 -2768 -717 0
1000000 901 -3022 -2768 -717 0
1000000 185 -4612 -3017 -4869 -4514 0
1000000 902 -4612 -3017 -4869 -4514 0
1000000 208 -3638 -3086 -505 0
1000000 903 -3638 -3086 -505 0
1000000 640 -2792 -3160 0
1000000 904 -2792 -3160 0
1000000 615 -4844 -3743 -3024 -784 0
1000000 905 -4844 -3743 -3024 -784 0
1000000 371 -2947 -4323 0
1000000 906 -2947 -4323 0
1000000 661 -3367 -4275 -3093 0
1000000 907 -3367 -4275 -3093 0
1000000 612 -4004 -3399 -2966 0
1000000 908 -4004 -3399 -2966 0
1000000 365 -4438 -5006 -530 0
1000000 909 -4438 -5006 -530 0
1000000 641 -2794 -3290 -2819 -3403 0
1000000 910 -2794 -3290 -2819 -3403 0
1000000 684 -2893 -4577 -5065 -3393 0
1000000 911 -2893 -4577 -5065 -3393 0
1000000 79 -2922 -3974 -433 0
1000000 912 -2922 -3974 -433 0
1000000 289 -3319 -4972 -3425 -2983 0
1000000 913 -3319 -4972 -3425 -2983 0
1000000 469 -2748 -4482 0
1000000 914 -2748 -4482 0
1000000 167 -4345 -3937 -538 0
1000000 915 -4345 -3937 -538 0
1000000 353 -4408 -2768 -3656 -740 0
1000000 916 -4408 -2768 -3656 -740 0
1000000 572 -3490 -4126 -3411 -4327 0
1000000 917 -3490 -4126 -3411 -4327 0
1000000 124 -2724 -4021 -3423 0
1000000 918 -2724 -4021 -3423 0
1000000 431 -3094 -4503 -3174 0
1000000 919 -3094 -4503 -3174 0
1000000 782 -3600 -3022 -4545 -4583 0
1000000 920 -3600 -3022 -4545 -4583 0
1000000 641 -3431 -3460 0
1000000 921 -3431 -3460 0
1000000 655 -5035 -2726 -4158 -3877 0
1000000 922 -5035 -2726 -4158 -3877 0
1000000 19 -2754 -3318 -3458 0
1000000 923 -2754 -3318 -3458 0
1000000 94 -4991 -4798 -4737 -3445 0
1000000 924 -4991 -4798 -4737 -3445 0
1000000 765 -4536 -3753 -3964 -773 0
1000000 925 -4536 -3753 -3964 -773 0
1000000 528 -3576 -2926 0
1000000 926 -3576 -2926 0
1000000 579 -4515 -4259 -3415 0
1000000 927 -4515 -4259 -3415 0
1000000 759 -3445 -3501 -4533 0
1000000 928 -3445 -3501 -4533 0
1000000 520 -3666 -5087 -3487 -4937 0
1000000 929 -3666 -5087 -3487 -4937 0
1000000 734 -2832 -4549 -786 0
1000000 930 -2832 -4549 -786 0
1000000 244 -3955 -5026 0
1000000 931 -3955 -5026 0
1000000 101 -3184 -140 0
1000000 932 -3184 -140 0
1000000 30 -5055 -2781 -5022 0
1000000 933 -5055 -2781 -5022 0
1000000 60 -3247 -3145 -3016 -3692 0
1000000 934 -3247 -3145 -3016 -3692 0
1000000 732 -2959 -4036 -4044 -3814 0
1000000 935 -2959 -4036 -4044 -3814 0
1000000 342 -3706 -3645 -4042 -461 0
1000000 936 -3706 -3645 -4042 -461 0
1000000 342 -4963 -4749 -2799 -4141 0
1000000 937 -4963 -4749 -2799 -4141 0
1000000 101 -4141 -115 0
1000000 938 -4141 -115 0
1000000 565 -3763 -3123 0
1000000 939 -3763 -3123 0
1000000 118 -3966 -3012 -2781 -3972 0
1000000 940 -3966 -3012 -2781 -3972 0
1000000 306 -3213 -3404 0
1000000 941 -3213 -3404 0
1000000 315 -3504 -3424 0
1000000 942 -3504 -3424 0
1000000 667 -3066 -4206 -4631 0
1000000 943 -3066 -4206 -4631 0
1000000 311 -3308 -4518 -4079 -2738 0
1000000 944 -3308 -4518 -4079 -2738 0
1000000 589 -2914 -3674 -5048 -2943 0
1000000 945 -2914 -3674 -5048 -2943 0
1000000 182 -4467 -3108 -3407 0
1000000 946 -4467 -3108 -3407 0
1000000 216 -5017 -4663 -4048 0
1000000 947 -5017 -4663 -4048 0
1000000 724 -4911 -3476 -4201 0
1000000 948 -4911 -3476 -4201 0
1000000 440 -3998 -3990 -4959 -2748 0
1000000 949 -3998 -3990 -4959 -2748 0
1000000 380 -3918 -2859 -4410 0
1000000 950 -3918 -2859 -4410 0
1000000 108 -4242 -4440 -4949 -191 0
1000000 951 -4242 -4440 -4949 -191 0
1000000 513 -5041 -4577 0
1000000 952 -5041 -4577 0
1000000 526 -3774 -3995 -777 0
1000000 953 -3774 -3995 -777 0
1000000 89 -3935 -3392 -4839 0
1000000 954 -3935 -3392 -4839 0
1000000 281 -4220 -2870 0
1000000 955 -4220 -2870 0
1000000 446 -3148 -4511 -3912 0
1000000 956 -3148 -4511 -3912 0
1000000 139 -4363 -3197 -4378 0
1000000 957 -4363 -3197 -4378 0
1000000 797 -4225 -3851 -4130 -2817 0
1000000 958 -4225 -3851 -4130 -2817 0
1000000 638 -4220 -3087 -4182 0
1000000 959 -4220 -3087 -4182 0
1000000 370 -3027 -3496 0
1000000 960 -3027 -3496 0
1000000 377 -4108 -2754 -4478 -3659 0
1000000 961 -4108 -2754 -4478 -3659 0
1000000 600 -4445 -2860 -2729 0
1000000 962 -4445 -2860 -2729 0
1000000 406 -2797 -4802 -3741 -3804 0
1000000 963 -2797 -4802 -3741 -3804 0
1000000 575 -3961 -4582 -653 0
1000000 964 -3961 -4582 -653 0
1000000 698 -4290 -2746 0
1000000 965 -4290 -2746 0
1000000 467 -3378 -3570 0
1000000 966 -3378 -3570 0
1000000 434 -4942 -4666 -4077 -4665 0
1000000 967 -4942 -4666 -4077 -4665 0
1000000 189 -4172 -4452 -319 0
1000000 968 -4172 -4452 -319 0
1000000 597 -2819 -3124 0
1000000 969 -2819 -3124 0
1000000 647 -3017 -740 0
1000000 970 -3017 -740 0
1000000 690 -3029 -3282 0
1000000 971 -3029 -3282 0
1000000 218 -3082 -3609 -5090 0
1000000 972 -3082 -3609 -5090 0
1000000 137 -3991 -296 0
1000000 973 -3991 -296 0
1000000 650 -5034 -4384 -5031 -3774 0
1000000 974 -5034 -4384 -5031 -3774 0
1000000 674 -4149 -4139 0
1000000 975 -4149 -4139 0
1000000 728 -3021 -3834 0
1000000 976 -3021 -3834 0
1000000 297 -3110 -5071 -4921 0
1000000 977 -3110 -5071 -4921 0
1000000 565 -2970 -4422 0
1000000 978 -2970 -4422 0
1000000 775 -2789 -4102 -3870 0
1000000 979 -2789 -4102 -3870 0
1000000 685 -2921 -3503 0
1000000 980 -2921 -3503 0
1000000 369 -4395 -4706 -3023 -3281 0
1000000 981 -4395 -4706 -3023 -3281 0
1000000 377 -3447 -4965 -3022 -3588 0
1000000 982 -3447 -4965 -3022 -3588 0
1000000 107 -3472 -4677 -418 0
1000000 983 -3472 -4677 -418 0
1000000 495 -4367 -4103 -2763 -4523 0
1000000 984 -4367 -4103 -2763 -4523 0
1000000 675 -3231 -760 0
1000000 985 -3231 -760 0
1000000 362 -4224 -2773 -799 0
1000000 986 -4224 -2773 -799 0
1000000 367 -3876 -4783 -2818 -3207 0
1000000 987 -3876 -4783 -2818 -3207 0
1000000 57 -4451 -731 0
1000000 988 -4451 -731 0
1000000 357 -4191 -3896 -3749 -4623 0
1000000 989 -4191 -3896 -3749 -4623 0
1000000 675 -4676 -3223 -724 0
1000000 990 -4676 -3223 -724 0
1000000 699 -5104 -3657 0
1000000 991 -5104 -3657 0
1000000 91 -3791 -4123 -3901 -4076 0
1000000 992 -3791 -4123 -3901 -4076 0
1000000 460 -3663 -3294 -636 0
1000000 993 -3663 -3294 -636 0
1000000 461 -3838 -3494 -4654 0
1000000 994 -3838 -3494 -4654 0
1000000 620 -3840 -4702 -4054 0
1000000 995 -3840 -4702 -4054 0
1000000 782 -3492 -3252 -4030 -3976 0
1000000 996 -3492 -3252 -4030 -3976 0
1000000 161 -3681 -2924 0
1000000 997 -3681 -2924 0
1000000 78 -4565 -676 0
1000000 998 -4565 -676 0
1000000 18 -3256 -4793 -2793 0
1000000 999 -3256 -4793 -2793 0
1000000 225 -3975 -5061 -3028 0
1000000 1000 -3975 -5061 -3028 0
1000000 792 -2942 -4901 -3688 -794 0
1000000 1001 -2942 -4901 -3688 -794 0
1000000 129 -4282 -3238 -4478 -697 0
1000000 1002 -4282 -3238 -4478 -697 0
1000000 43 -3053 -4945 -4537 0
1000000 1003 -3053 -4945 -4537 0
1000000 644 -3776 -2796 -3353 0
1000000 1004 -3776 -2796 -3353 0
1000000 732 -4300 -3333 0
1000000 1005 -4300 -3333 0
1000000 27 -3082 -4369 -3600 -2970 0
1000000 1006 -3082 -4369 -3600 -2970 0
1000000 16 -4727 -4688 0
1000000 1007 -4727 -4688 0
1000000 259 -4811 -4528 -787 0
1000000 1008 -4811 -4528 -787 0
1000000 790 -2758 -4136 0
1000000 1009 -2758 -4136 0
1000000 258 -4779 -5104 -698 0
1000000 1010 -4779 -5104 -698 0
1000000 559 -4838 -3684 -3171 0
1000000 1011 -4838 -3684 -3171 0
1000000 412 -2835 -4020 0
1000000 1012 -2835 -4020 0
1000000 580 -4252 -2922 0
1000000 1013 -4252 -2922 0
1000000 258 -2822 -5116 -3399 -3577 0
1000000 1014 -2822 -5116 -3399 -3577 0
1000000 322 -3693 -4853 -4650 0
1000000 1015 -3693 -4853 -4650 0
1000000 483 -3004 -3174 0
1000000 1016 -3004 -3174 0
1000000 129 -3933 -3052 -3554 -4324 0
1000000 1017 -3933 -3052 -3554 -4324 0
1000000 480 -4991 -4949 -3777 -3654 0
1000000 1018 -4991 -4949 -3777 -3654 0
1000000 295 -3573 -4216 0
1000000 1019 -3573 -4216 0
1000000 272 -4333 -569 0
1000000 1020 -4333 -569 0
1000000 426 -4278 -4829 -2824 -776 0
1000000 1021 -4278 -4829 -2824 -776 0
1000000 435 -2862 -4038 -2883 -598 0
1000000 1022 -2862 -4038 -2883 -598 0
1000000 664 -3712 -4119 0
1000000 1023 -3712 -4119 0
1000000 761 -3312 -794 0
1000000 1024 -3312 -794 0
1000000 675 -4743 -3087 -4526 -2952 0
1000000 1025 -4743 -3087 -4526 -2952 0
1000000 23 -3057 -2783 -4974 -86 0
1000000 1026 -3057 -2783 -4974 -86 0
1000000 568 -4759 -3492 -4699 0
1000000 1027 -4759 -3492 -4699 0
1000000 448 -3101 -3460 -2764 -2973 0
1000000 1028 -3101 -3460 -2764 -2973 0
1000000 595 -2877 -4869 -723 0
1000000 1029 -2877 -4869 -723 0
1000000 775 -3847 -4576 0
1000000 1030 -3847 -4576 0
1000000 301 -3570 -5043 0
1000000 1031 -3570 -5043 0
1000000 360 -3412 -783 0
1000000 1032 -3412 -783 0
1000000 697 -3843 -3678 0
1000000 1033 -3843 -3678 0
1000000 134 -3929 -3560 0
1000000 1034 -3929 -3560 0
1000000 37 -4752 -2916 -3483 0
1000000 1035 -4752 -2916 -3483 0
1000000 624 -3537 -4295 -3741 0
1000000 1036 -3537 -4295 -3741 0
1000000 515 -3088 -3647 0
1000000 1037 -3088 -3647 0
1000000 340 -4932 -3423 0
1000000 1038 -4932 -3423 0
1000000 515 -4122 -5108 0
1000000 1039 -4122 -5108 0
1000000 38 -4515 -2958 0
1000000 1040 -4515 -2958 0
1000000 700 -3339 -4792 -4703 0
1000000 1041 -3339 -4792 -4703 0
1000000 537 -4091 -3108 -714 0
1000000 1042 -4091 -3108 -714 0
1000000 640 -3229 -4332 0
1000000 1043 -3229 -4332 0
1000000 478 -3169 -4263 -4115 0
1000000 1044 -3169 -4263 -4115 0
1000000 121 -4382 -518 0
1000000 1045 -4382 -518 0
1000000 10 -4911 -3996 0
1000000 1046 -4911 -3996 0
1000000 668 -3687 -3375 0
1000000 1047 -3687 -3375 0
1000000 60 -3758 -4949 0
1000000 1048 -3758 -4949 0
1000000 366 -4565 -2881 -3923 -3111 0
1000000 1049 -4565 -2881 -3923 -3111 0
1000000 787 -3566 -791 0
1000000 1050 -3566 -791 0
1000000 679 -3471 -2936 -3839 -4502 0
1000000 1051 -3471 -2936 -3839 -4502 0
1000000 450 -4192 -3031 0
1000000 1052 -4192 -3031 0
1000000 45 -3988 -3074 0
1000000 1053 -3988 -3074 0
1000000 20 -2890 -501 0
1000000 1054 -2890 -501 0
1000000 59 -4060 -2771 -4641 0
1000000 1055 -4060 -2771 -4641 0
1000000 114 -3585 -3866 -4647 0
1000000 1056 -3585 -3866 -4647 0
1000000 766 -4235 -4079 0
1000000 1057 -4235 -4079 0
1000000 66 -3646 -3705 -374 0
1000000 1058 -3646 -3705 -374 0
1000000 204 -4971 -4231 -4864 -604 0
1000000 1059 -4971 -4231 -4864 -604 0
1000000 543 -3282 -4775 -4535 0
1000000 1060 -3282 -4775 -4535 0
1000000 545 -4287 -4547 -3279 0
1000000 1061 -4287 -4547 -3279 0
1000000 767 -2772 -2813 0
1000000 1062 -2772 -2813 0
1000000 613 -4991 -3817 0
1000000 1063 -4991 -3817 0
1000000 596 -4056 -3218 -758 0
1000000 1064 -4056 -3218 -758 0
1000000 126 -4825 -2769 -4005 -4722 0
1000000 1065 -4825 -2769 -4005 -4722 0
1000000 140 -2993 -2791 -2882 -4979 0
1000000 1066 -2993 -2791 -2882 -4979 0
1000000 462 -3146 -4085 -722 0
1000000 1067 -3146 -4085 -722 0
1000000 336 -4622 -5052 -3669 -4729 0
1000000 1068 -4622 -5052 -3669 -4729 0
1000000 306 -3613 -3061 -3327 -3558 0
1000000 1069 -3613 -3061 -3327 -3558 0
1000000 482 -3176 -3598 0
1000000 1070 -3176 -3598 0
1000000 90 -2907 -2935 -3723 -619 0
1000000 1071 -2907 -2935 -3723 -619 0
1000000 108 -5040 -3150 0
1000000 1072 -5040 -3150 0
1000000 795 -3059 -796 0
1000000 1073 -3059 -796 0
1000000 223 -3186 -4698 0
1000000 1074 -3186 -4698 0
1000000 186 -2891 -4438 0
1000000 1075 -2891 -4438 0
1000000 214 -4666 -662 0
1000000 1076 -4666 -662 0
1000000 505 -4285 -3634 0
1000000 1077 -4285 -3634 0
1000000 274 -3169 -3237 -4854 0
1000000 1078 -3169 -3237 -4854 0
1000000 753 -4369 -3425 0
1000000 1079 -4369 -3425 0
1000000 791 -4017 -3720 -2753 0
1000000 1080 -4017 -3720 -2753 0
1000000 436 -2780 -4376 0
1000000 1081 -2780 -4376 0
1000000 631 -4023 -4991 -5064 -4009 0
1000000 1082 -4023 -4991 -5064 -4009 0
1000000 776 -3836 -3437 -3949 0
1000000 1083 -3836 -3437 -3949 0
1000000 165 -5025 -4512 0
1000000 1084 -5025 -4512 0
1000000 247 -3655 -4886 0
1000000 1085 -3655 -4886 0
1000000 558 -3758 -3647 0
1000000 1086 -3758 -3647 0
1000000 543 -4838 -4657 -3872 -3732 0
1000000 1087 -4838 -4657 -3872 -3732 0
1000000 736 -4774 -4844 0
1000000 1088 -4774 -4844 0
1000000 180 -2808 -3000 0
1000000 1089 -2808 -3000 0
1000000 800 -3404 -4425 -3817 -3011 0
1000000 1090 -3404 -4425 -3817 -3011 0
1000000 315 -3621 -3277 -3113 0
1000000 1091 -3621 -3277 -3113 0
1000000 191 -4723 -458 0
1000000 1092 -4723 -458 0
1000000 579 -5012 -4309 -4238 -5007 0
1000000 1093 -5012 -4309 -4238 -5007 0
1000000 625 -3396 -2950 -676 0
1000000 1094 -3396 -2950 -676 0
1000000 102 -3836 -652 0
1000000 1095 -3836 -652 0
1000000 672 -4995 -3397 0
1000000 1096 -4995 -3397 0
1000000 245 -3765 -3915 -3971 -756 0
1000000 1097 -3765 -3915 -3971 -756 0
1000000 256 -3124 -4810 -708 0
1000000 1098 -3124 -4810 -708 0
1000000 128 -3610 -4375 0
1000000 1099 -3610 -4375 0
1000000 437 -4790 -4794 -4457 -722 0
1000000 1100 -4790 -4794 -4457 -722 0
1000000 684 -3679 -4507 0
1000000 1101 -3679 -4507 0
1000000 202 -4321 -2858 -3961 0
1000000 1102 -4321 -2858 -3961 0
1000000 9 -4628 -4180 0
1000000 1103 -4628 -4180 0
1000000 686 -4693 -4961 -5060 -4372 0
1000000 1104 -4693 -4961 -5060 -4372 0
1000000 457 -3526 -3124 -752 0
1000000 1105 -3526 -3124 -752 0
1000000 260 -4504 -3223 -2810 -3950 0
1000000 1106 -4504 -3223 -2810 -3950 0
1000000 689 -3309 -762 0
1000000 1107 -3309 -762 0
1000000 371 -4069 -4543 0
1000000 1108 -4069 -4543 0
1000000 128 -3197 -4347 -4731 0
1000000 1109 -3197 -4347 -4731 0
1000000 645 -3157 -4922 0
1000000 1110 -3157 -4922 0
1000000 230 -3772 -3007 0
1000000 1111 -3772 -3007 0
1000000 688 -4634 -749 0
1000000 1112 -4634 -749 0
1000000 329 -2948 -3062 -3933 -4833 0
1000000 1113 -2948 -3062 -3933 -4833 0
1000000 364 -3697 -3252 0
1000000 1114 -3697 -3252 0
1000000 713 -3671 -3814 -4727 -3357 0
1000000 1115 -3671 -3814 -4727 -3357 0
1000000 155 -4924 -4898 -4314 0
1000000 1116 -4924 -4898 -4314 0
1000000 220 -4190 -3711 -4165 0
1000000 1117 -4190 -3711 -4165 0
1000000 319 -4938 -3821 -4939 -3741 0
1000000 1118 -4938 -3821 -4939 -3741 0
1000000 179 -4292 -4067 -3099 0
1000000 1119 -4292 -4067 -3099 0
1000000 439 -4453 -3539 -4079 0
1000000 1120 -4453 -3539 -4079 0
1000000 3 -4222 -3826 -4439 -623 0
1000000 1121 -4222 -3826 -4439 -623 0
1000000 214 -4303 -5038 -2953 -2860 0
1000000 1122 -4303 -5038 -2953 -2860 0
1000000 540 -4929 -4258 -3914 -686 0
1000000 1123 -4929 -4258 -3914 -686 0
1000000 126 -4057 -4311 -3584 -3932 0
1000000 1124 -4057 -4311 -3584 -3932 0
1000000 707 -4729 -2965 -3903 -742 0
1000000 1125 -4729 -2965 -3903 -742 0
1000000 517 -4901 -4980 -3616 -3058 0
1000000 1126 -4901 -4980 -3616 -3058 0
1000000 697 -4732 -3264 -4440 0
1000000 1127 -4732 -3264 -4440 0
1000000 265 -3669 -3749 0
1000000 1128 -3669 -3749 0
1000000 17 -2797 -4467 0
1000000 1129 -2797 -4467 0
1000000 753 -3027 -759 0
1000000 1130 -3027 -759 0
1000000 445 -4195 -2753 -4580 -3388 0
1000000 1131 -4195 -2753 -4580 -3388 0
1000000 541 -3542 -4417 -2798 0
1000000 1132 -3542 -4417 -2798 0
1000000 148 -3587 -4827 0
1000000 1133 -3587 -4827 0
1000000 703 -2896 -4235 -2873 -3176 0
1000000 1134 -2896 -4235 -2873 -3176 0
1000000 388 -3528 -3627 -3743 -5110 0
1000000 1135 -3528 -3627 -3743 -5110 0
1000000 167 -4464 -5103 0
1000000 1136 -4464 -5103 0
1000000 711 -4363 -739 0
1000000 1137 -4363 -739 0
1000000 105 -3044 -3154 0
1000000 1138 -3044 -3154 0
1000000 473 -4942 -4790 -4856 0
1000000 1139 -4942 -4790 -4856 0
1000000 731 -2781 -3235 -2754 0
1000000 1140 -2781 -3235 -2754 0
1000000 281 -5059 -4988 -4098 -432 0
1000000 1141 -5059 -4988 -4098 -432 0
1000000 648 -4381 -4096 -5012 0
1000000 1142 -4381 -4096 -5012 0
1000000 47 -4072 -4736 -628 0
1000000 1143 -4072 -4736 -628 0
1000000 729 -5026 -3230 -3521 0
1000000 1144 -5026 -3230 -3521 0
1000000 21 -3988 -3355 -3383 -3278 0
1000000 1145 -3988 -3355 -3383 -3278 0
1000000 348 -3172 -4529 0
1000000 1146 -3172 -4529 0
1000000 717 -3818 -4534 -4127 -3500 0
1000000 1147 -3818 -4534 -4127 -3500 0
1000000 710 -2993 -4514 0
1000000 1148 -2993 -4514 0
1000000 774 -4008 -3048 -3744 0
1000000 1149 -4008 -3048 -3744 0
1000000 310 -4966 -798 0
1000000 1150 -4966 -798 0
1000000 434 -4289 -4242 -3530 0
1000000 1151 -4289 -4242 -3530 0
1000000 452 -3430 -542 0
1000000 1152 -3430 -542 0
1000000 166 -4556 -3332 -3577 0
1000000 1153 -4556 -3332 -3577 0
1000000 759 -4816 -2812 -764 0
1000000 1154 -4816 -2812 -764 0
1000000 66 -3850 -3355 0
1000000 1155 -3850 -3355 0
1000000 298 -4423 -4879 -4079 0
1000000 1156 -4423 -4879 -4079 0
1000000 145 -3359 -4572 -3924 -4143 0
1000000 1157 -3359 -4572 -3924 -4143 0
1000000 128 -2739 -3727 -3476 -3521 0
1000000 1158 -2739 -3727 -3476 -3521 0
1000000 336 -4055 -2959 0
1000000 1159 -4055 -2959 0
1000000 423 -3217 -5041 -4677 -3176 0
1000000 1160 -3217 -5041 -4677 -3176 0
1000000 681 -2973 -3351 0
1000000 1161 -2973 -3351 0
1000000 58 -5073 -4862 0
1000000 1162 -5073 -4862 0
1000000 747 -3265 -3891 -3521 -3658 0
1000000 1163 -3265 -3891 -3521 -3658 0
1000000 311 -4663 -3023 -4620 0
1000000 1164 -4663 -3023 -4620 0
1000000 449 -4307 -3224 -3437 -510 0
1000000 1165 -4307 -3224 -3437 -510 0
1000000 430 -4682 -4740 -4225 0
1000000 1166 -4682 -4740 -4225 0
1000000 275 -3997 -3457 0
1000000 1167 -3997 -3457 0
1000000 777 -3032 -4322 -2957 0
1000000 1168 -3032 -4322 -2957 0
1000000 145 -3594 -2851 0
1000000 1169 -3594 -2851 0
1000000 417 -3587 -3334 0
1000000 1170 -3587 -3334 0
1000000 723 -3209 -3914 -4867 -4726 0
1000000 1171 -3209 -3914 -4867 -4726 0
1000000 536 -4101 -552 0
1000000 1172 -4101 -552 0
1000000 797 -4104 -3811 -3633 -4961 0
1000000 1173 -4104 -3811 -3633 -4961 0
1000000 611 -3203 -4427 0
1000000 1174 -3203 -4427 0
1000000 601 -3396 -4160 -4231 0
1000000 1175 -3396 -4160 -4231 0
1000000 254 -4158 -3825 0
1000000 1176 -4158 -3825 0
1000000 534 -3228 -2935 -3096 -4968 0
1000000 1177 -3228 -2935 -3096 -4968 0
1000000 393 -3750 -4074 0
1000000 1178 -3750 -4074 0
1000000 389 -3167 -4121 0
1000000 1179 -3167 -4121 0
1000000 576 -4440 -3670 -4475 -3851 0
1000000 1180 -4440 -3670 -4475 -3851 0
1000000 494 -4240 -4093 -3598 0
1000000 1181 -4240 -4093 -3598 0
1000000 480 -5089 -5043 -548 0
1000000 1182 -5089 -5043 -548 0
1000000 382 -4789 -4790 -4105 0
1000000 1183 -4789 -4790 -4105 0
1000000 682 -2910 -4243 -2821 -716 0
1000000 1184 -2910 -4243 -2821 -716 0
1000000 34 -3549 -3759 -2830 0
1000000 1185 -3549 -3759 -2830 0
1000000 358 -2937 -2920 0
1000000 1186 -2937 -2920 0
1000000 755 -4425 -2783 -4406 -4738 0
1000000 1187 -4425 -2783 -4406 -4738 0
1000000 229 -4201 -3550 -4578 -3773 0
1000000 1188 -4201 -3550 -4578 -3773 0
1000000 367 -3903 -468 0
1000000 1189 -3903 -468 0
1000000 778 -3991 -2932 -3781 0
1000000 1190 -3991 -2932 -3781 0
1000000 741 -4053 -3722 -4383 -2735 0
1000000 1191 -4053 -3722 -4383 -2735 0
1000000 162 -3630 -5117 0
1000000 1192 -3630 -5117 0
1000000 174 -3286 -5016 -4905 -2733 0
1000000 1193 -3286 -5016 -4905 -2733 0
1000000 330 -2894 -3825 -5002 0
1000000 1194 -2894 -3825 -5002 0
1000000 795 -4995 -2973 -3193 -3927 0
1000000 1195 -4995 -2973 -3193 -3927 0
1000000 156 -4846 -3656 -4604 -4724 0
1000000 1196 -4846 -3656 -4604 -4724 0
1000000 249 -3755 -4442 -4987 0
1000000 1197 -3755 -4442 -4987 0
1000000 117 -4222 -5115 -2745 0
1000000 1198 -4222 -5115 -2745 0
1000000 757 -2776 -3245 0
1000000 1199 -2776 -3245 0
1000000 188 -3181 -3105 -2971 -3524 0
1000000 1200 -3181 -3105 -2971 -3524 0
1000000 281 -3987 -3122 -5038 -3164 0
1000000 1201 -3987 -3122 -5038 -3164 0
1000000 465 -3764 -3804 0
1000000 1202 -3764 -3804 0
1000000 261 -4141 -4621 -693 0
1000000 1203 -4141 -4621 -693 0
1000000 534 -4916 -4064 -4810 -3134 0
1000000 1204 -4916 -4064 -4810 -3134 0
1000000 583 -3327 -3316 -3469 -3812 0
1000000 1205 -3327 -3316 -3469 -3812 0
1000000 632 -3502 -4061 -4039 0
1000000 1206 -3502 -4061 -4039 0
1000000 517 -4909 -5057 0
1000000 1207 -4909 -5057 0
1000000 597 -2938 -3999 -3386 -2791 0
1000000 1208 -2938 -3999 -3386 -2791 0
1000000 20 -3000 -2747 0
1000000 1209 -3000 -2747 0
1000000 321 -3769 -4503 -5077 -4756 0
1000000 1210 -3769 -4503 -5077 -4756 0
1000000 449 -4213 -4353 0
1000000 1211 -4213 -4353 0
1000000 761 -4055 -2876 -3473 -3323 0
1000000 1212 -4055 -2876 -3473 -3323 0
1000000 775 -4824 -3556 0
1000000 1213 -4824 -3556 0
1000000 562 -4622 -4822 0
1000000 1214 -4622 -4822 0
1000000 296 -4552 -3646 -4050 -4988 0
1000000 1215 -4552 -3646 -4050 -4988 0
1000000 324 -3588 -4421 0
1000000 1216 -3588 -4421 0
1000000 307 -2735 -3112 -4095 -439 0
1000000 1217 -2735 -3112 -4095 -439 0
1000000 462 -3133 -3721 0
1000000 1218 -3133 -3721 0
1000000 620 -4335 -3847 -4760 -4333 0
1000000 1219 -4335 -3847 -4760 -4333 0
1000000 723 -4373 -3066 -4294 -2865 0
1000000 1220 -4373 -3066 -4294 -2865 0
1000000 746 -3093 -3240 0
1000000 1221 -3093 -3240 0
1000000 65 -3538 -2797 0
1000000 1222 -3538 -2797 0
1000000 27 -3881 -3804 -3903 0
1000000 1223 -3881 -3804 -3903 0
1000000 329 -4040 -3455 0
1000000 1224 -4040 -3455 0
1000000 775 -2797 -3609 -3741 -4132 0
1000000 1225 -2797 -3609 -3741 -4132 0
1000000 790 -3782 -3412 -4629 0
1000000 1226 -3782 -3412 -4629 0
1000000 630 -2742 -4359 -3231 -698 0
1000000 1227 -2742 -4359 -3231 -698 0
1000000 28 -4917 -5109 -4115 -2945 0
1000000 1228 -4917 -5109 -4115 -2945 0
1000000 410 -4356 -5056 -4137 0
1000000 1229 -4356 -5056 -4137 0
1000000 45 -4065 -3822 0
1000000 1230 -4065 -3822 0
1000000 489 -3706 -5082 0
1000000 1231 -3706 -5082 0
1000000 304 -2871 -3833 -4592 -3029 0
1000000 1232 -2871 -3833 -4592 -3029 0
1000000 172 -3823 -2988 -3960 -176 0
1000000 1233 -3823 -2988 -3960 -176 0
1000000 4 -3595 -4508 -3915 0
1000000 1234 -3595 -4508 -3915 0
1000000 230 -2805 -3641 -3965 -4529 0
1000000 1235 -2805 -3641 -3965 -4529 0
1000000 613 -4552 -2932 -668 0
1000000 1236 -4552 -2932 -668 0
1000000 771 -3519 -4051 -783 0
1000000 1237 -3519 -4051 -783 0
1000000 525 -5022 -2827 -2754 0
1000000 1238 -5022 -2827 -2754 0
1000000 495 -5021 -4429 0
1000000 1239 -5021 -4429 0
1000000 677 -3284 -4377 -3520 0
1000000 1240 -3284 -4377 -3520 0
1000000 350 -4220 -2854 -3093 0
1000000 1241 -4220 -2854 -3093 0
1000000 681 -2985 -4907 -3247 -4519 0
1000000 1242 -2985 -4907 -3247 -4519 0
1000000 354 -3444 -3522 -4471 -4785 0
1000000 1243 -3444 -3522 -4471 -4785 0
1000000 531 -3924 -2964 -4277 -4898 0
1000000 1244 -3924 -2964 -4277 -4898 0
1000000 695 -4657 -3389 -4601 0
1000000 1245 -4657 -3389 -4601 0
1000000 201 -3218 -4924 -3880 -271 0
1000000 1246 -3218 -4924 -3880 -271 0
1000000 292 -4054 -629 0
1000000 1247 -4054 -629 0
1000000 37 -3425 -397 0
1000000 1248 -3425 -397 0
1000000 700 -2925 -2805 0
1000000 1249 -2925 -2805 0
1000000 660 -4267 -4560 -4163 0
1000000 1250 -4267 -4560 -4163 0
1000000 729 -4509 -750 0
1000000 1251 -4509 -750 0
1000000 561 -3857 -3966 -4483 -3472 0
1000000 1252 -3857 -3966 -4483 -3472 0
1000000 585 -4339 -4514 -696 0
1000000 1253 -4339 -4514 -696 0
1000000 456 -4210 -4122 -4742 -511 0
1000000 1254 -4210 -4122 -4742 -511 0
1000000 691 -3185 -3023 -4499 -3781 0
1000000 1255 -3185 -3023 -4499 -3781 0
1000000 464 -5104 -4007 0
1000000 1256 -5104 -4007 0
1000000 33 -3623 -3626 -3907 0
1000000 1257 -3623 -3626 -3907 0
1000000 455 -4991 -3189 0
1000000 1258 -4991 -3189 0
1000000 347 -3539 -4675 -2897 -3031 0
1000000 1259 -3539 -4675 -2897 -3031 0
1000000 98 -4362 -3651 -4134 0
1000000 1260 -4362 -3651 -4134 0
1000000 575 -4843 -3033 -3696 0
1000000 1261 -4843 -3033 -3696 0
1000000 437 -5005 -3534 0
1000000 1262 -5005 -3534 0
1000000 248 -3977 -4811 -3394 0
1000000 1263 -3977 -4811 -3394 0
1000000 344 -4385 -5109 -2735 -724 0
1000000 1264 -4385 -5109 -2735 -724 0
1000000 196 -4634 -2807 0
1000000 1265 -4634 -2807 0
1000000 286 -4839 -4597 -3777 0
1000000 1266 -4839 -4597 -3777 0
1000000 234 -3364 -4508 -3300 -3647 0
1000000 1267 -3364 -4508 -3300 -3647 0
1000000 786 -3475 -3773 -3687 0
1000000 1268 -3475 -3773 -3687 0
1000000 221 -4976 -3304 0
1000000 1269 -4976 -3304 0
1000000 343 -4732 -4706 -3541 -2891 0
1000000 1270 -4732 -4706 -3541 -2891 0
1000000 660 -4433 -4408 -4382 -3085 0
1000000 1271 -4433 -4408 -4382 -3085 0
1000000 130 -4155 -4021 -3166 -644 0
1000000 1272 -4155 -4021 -3166 -644 0
1000000 721 -4708 -2901 0
1000000 1273 -4708 -2901 0
1000000 484 -3153 -3052 0
1000000 1274 -3153 -3052 0
1000000 86 -3749 -4735 -3146 -3558 0
1000000 1275 -3749 -4735 -3146 -3558 0
1000000 566 -4036 -4816 0
1000000 1276 -4036 -4816 0
1000000 642 -4985 -784 0
1000000 1277 -4985 -784 0
1000000 143 -3349 -5035 -4780 0
1000000 1278 -3349 -5035 -4780 0
1000000 111 -2897 -5003 -3433 0
1000000 1279 -2897 -5003 -3433 0
1000000 361 -3887 -3075 0
1000000 1280 -3887 -3075 0
1000000 300 -4094 -4361 -4384 0
1000000 1281 -4094 -4361 -4384 0
1000000 617 -3081 -3718 0
1000000 1282 -3081 -3718 0
1000000 571 -3883 -3188 0
1000000 1283 -3883 -3188 0
1000000 788 -4690 -4373 -3011 -4337 0
1000000 1284 -4690 -4373 -3011 -4337 0
1000000 421 -3391 -443 0
1000000 1285 -3391 -443 0
1000000 373 -4468 -4972 -496 0
1000000 1286 -4468 -4972 -496 0
1000000 219 -4781 -3906 -4972 -3027 0
1000000 1287 -4781 -3906 -4972 -3027 0
1000000 86 -4183 -5092 -3377 -2829 0
1000000 1288 -4183 -5092 -3377 -2829 0
1000000 698 -3041 -3296 -2762 0
1000000 1289 -3041 -3296 -2762 0
1000000 166 -4976 -4937 0
1000000 1290 -4976 -4937 0
1000000 506 -4498 -3647 -4558 0
1000000 1291 -4498 -3647 -4558 0
1000000 147 -4488 -3237 0
1000000 1292 -4488 -3237 0
1000000 67 -3085 -4908 -4292 -3013 0
1000000 1293 -3085 -4908 -4292 -3013 0
1000000 422 -3884 -3502 -3047 -573 0
1000000 1294 -3884 -3502 -3047 -573 0
1000000 298 -5036 -3500 -3980 -531 0
1000000 1295 -5036 -3500 -3980 -531 0
1000000 760 -5096 -4186 -779 0
1000000 1296 -5096 -4186 -779 0
1000000 230 -3886 -5033 -3921 -2859 0
1000000 1297 -3886 -5033 -3921 -2859 0
1000000 740 -2791 -3338 0
1000000 1298 -2791 -3338 0
1000000 177 -3434 -4242 -3274 -3559 0
1000000 1299 -3434 -4242 -3274 -3559 0
1000000 113 -3466 -3079 -2768 -3431 0
1000000 1300 -3466 -3079 -2768 -3431 0
1000000 688 -3707 -3464 -4423 0
1000000 1301 -3707 -3464 -4423 0
1000000 73 -3847 -3259 -4383 -2899 0
1000000 1302 -3847 -3259 -4383 -2899 0
1000000 133 -3941 -3853 -3750 -3116 0
1000000 1303 -3941 -3853 -3750 -3116 0
1000000 695 -4708 -3495 -3507 -714 0
1000000 1304 -4708 -3495 -3507 -714 0
1000000 310 -4266 -4522 -3112 -5051 0
1000000 1305 -4266 -4522 -3112 -5051 0
1000000 797 -2929 -3847 0
1000000 1306 -2929 -3847 0
1000000 323 -3315 -2793 -2864 0
1000000 1307 -3315 -2793 -2864 0
1000000 498 -2971 -3359 -3112 -3317 0
1000000 1308 -2971 -3359 -3112 -3317 0
1000000 433 -2986 -4059 -5088 0
1000000 1309 -2986 -4059 -5088 0
1000000 449 -5091 -4812 -759 0
1000000 1310 -5091 -4812 -759 0
1000000 50 -3419 -4603 -2778 -3783 0
1000000 1311 -3419 -4603 -2778 -3783 0
1000000 720 -3032 -726 0
1000000 1312 -3032 -726 0
1000000 596 -4330 -5013 -4779 0
1000000 1313 -4330 -5013 -4779 0
1000000 599 -4521 -2953 0
1000000 1314 -4521 -2953 0
1000000 277 -4558 -433 0
1000000 1315 -4558 -433 0
1000000 392 -2827 -4971 -423 0
1000000 1316 -2827 -4971 -423 0
1000000 178 -4132 -420 0
1000000 1317 -4132 -420 0
1000000 376 -3054 -4618 -4805 -731 0
1000000 1318 -3054 -4618 -4805 -731 0
1000000 378 -3044 -3705 0
1000000 1319 -3044 -3705 0
1000000 773 -3356 -4060 0
1000000 1320 -3356 -4060 0
1000000 780 -3227 -794 0
1000000 1321 -3227 -794 0
1000000 311 -3010 -640 0
1000000 1322 -3010 -640 0
1000000 25 -5119 -5102 0
1000000 1323 -5119 -5102 0
1000000 266 -4012 -3798 -4963 -431 0
1000000 1324 -4012 -3798 -4963 -431 0
1000000 356 -4520 -4990 -399 0
1000000 1325 -4520 -4990 -399 0
1000000 132 -3160 -3328 -3469 -749 0
1000000 1326 -3160 -3328 -3469 -749 0
1000000 154 -3298 -3841 0
1000000 1327 -3298 -3841 0
1000000 74 -4779 -4753 -3399 0
1000000 1328 -4779 -4753 -3399 0
1000000 272 -4921 -668 0
1000000 1329 -4921 -668 0
1000000 371 -4733 -4504 -788 0
1000000 1330 -4733 -4504 -788 0
1000000 197 -4010 -4592 -3706 0
1000000 1331 -4010 -4592 -3706 0
1000000 192 -4299 -4403 -278 0
1000000 1332 -4299 -4403 -278 0
1000000 47 -3729 -3692 -674 0
1000000 1333 -3729 -3692 -674 0
1000000 269 -3430 -2906 -3151 -4163 0
1000000 1334 -3430 -2906 -3151 -4163 0
1000000 247 -4180 -4891 -4629 -689 0
1000000 1335 -4180 -4891 -4629 -689 0
1000000 707 -4549 -3309 0
1000000 1336 -4549 -3309 0
1000000 755 -5048 -4778 -2955 0
1000000 1337 -5048 -4778 -2955 0
1000000 68 -3351 -2841 0
1000000 1338 -3351 -2841 0
1000000 651 -4479 -2866 -4222 -671 0
1000000 1339 -4479 -2866 -4222 -671 0
1000000 529 -3008 -4408 -637 0
1000000 1340 -3008 -4408 -637 0
1000000 424 -3345 -700 0
1000000 1341 -3345 -700 0
1000000 495 -4111 -3091 0
1000000 1342 -4111 -3091 0
1000000 650 -2758 -4797 0
1000000 1343 -2758 -4797 0
1000000 354 -3604 -2795 -4877 -581 0
1000000 1344 -3604 -2795 -4877 -581 0
1000000 488 -4768 -3096 -4142 0
1000000 1345 -4768 -3096 -4142 0
1000000 535 -3827 -3993 -3559 0
1000000 1346 -3827 -3993 -3559 0
1000000 721 -3036 -2953 -798 0
1000000 1347 -3036 -2953 -798 0
1000000 338 -4131 -3967 -2763 0
1000000 1348 -4131 -3967 -2763 0
1000000 437 -3854 -3638 0
1000000 1349 -3854 -3638 0
1000000 89 -3619 -3939 0
1000000 1350 -3619 -3939 0
1000000 554 -3172 -579 0
1000000 1351 -3172 -579 0
1000000 761 -3358 -3409 -3234 0
1000000 1352 -3358 -3409 -3234 0
1000000 277 -3913 -3670 -682 0
1000000 1353 -3913 -3670 -682 0
1000000 738 -4056 -4327 0
1000000 1354 -4056 -4327 0
1000000 627 -4212 -4166 0
1000000 1355 -4212 -4166 0
1000000 20 -4420 -3300 -2791 0
1000000 1356 -4420 -3300 -2791 0
1000000 52 -4563 -4056 -3451 -335 0
1000000 1357 -4563 -4056 -3451 -335 0
1000000 370 -4120 -3214 -2815 -687 0
1000000 1358 -4120 -3214 -2815 -687 0
1000000 708 -2773 -3149 0
1000000 1359 -2773 -3149 0
1000000 655 -4518 -5058 -3197 0
1000000 1360 -4518 -5058 -3197 0
1000000 395 -3895 -3559 -3773 0
1000000 1361 -3895 -3559 -3773 0
1000000 141 -2836 -4822 0
1000000 1362 -2836 -4822 0
1000000 257 -3711 -3738 0
1000000 1363 -3711 -3738 0
1000000 766 -3226 -794 0
1000000 1364 -3226 -794 0
1000000 425 -5079 -4023 0
1000000 1365 -5079 -4023 0
1000000 718 -4355 -3142 -4351 0
1000000 1366 -4355 -3142 -4351 0
1000000 772 -3248 -793 0
1000000 1367 -3248 -793 0
1000000 749 -4639 -2975 0
1000000 1368 -4639 -2975 0
1000000 421 -4550 -4002 -4286 -2955 0
1000000 1369 -4550 -4002 -4286 -2955 0
1000000 596 -3776 -2915 -4130 0
1000000 1370 -3776 -2915 -4130 0
1000000 402 -3754 -3060 0
1000000 1371 -3754 -3060 0
1000000 552 -4809 -4037 0
1000000 1372 -4809 -4037 0
1000000 654 -4419 -4149 -3390 -5032 0
1000000 1373 -4419 -4149 -3390 -5032 0
1000000 102 -4169 -4034 0
1000000 1374 -4169 -4034 0
1000000 217 -4036 -4404 -3047 -4217 0
1000000 1375 -4036 -4404 -3047 -4217 0
1000000 121 -3030 -182 0
1000000 1376 -3030 -182 0
1000000 416 -4664 -3933 -4238 0
1000000 1377 -4664 -3933 -4238 0
1000000 85 -4694 -3714 -3086 -3381 0
1000000 1378 -4694 -3714 -3086 -3381 0
1000000 194 -4738 -3276 -3820 -4757 0
1000000 1379 -4738 -3276 -3820 -4757 0
1000000 755 -2932 -3225 0
1000000 1380 -2932 -3225 0
1000000 247 -3471 -4777 -4798 0
1000000 1381 -3471 -4777 -4798 0
1000000 289 -4922 -650 0
1000000 1382 -4922 -650 0
1000000 696 -3746 -5112 -4407 -3071 0
1000000 1383 -3746 -5112 -4407 -3071 0
1000000 573 -2769 -3500 -5045 -4797 0
1000000 1384 -2769 -3500 -5045 -4797 0
1000000 466 -3167 -4553 0
1000000 1385 -3167 -4553 0
1000000 399 -3679 -3732 -2801 0
1000000 1386 -3679 -3732 -2801 0
1000000 424 -4594 -751 0
1000000 1387 -4594 -751 0
1000000 207 -4689 -3176 -3236 -382 0
1000000 1388 -4689 -3176 -3236 -382 0
1000000 636 -3174 -4184 -2845 -3589 0
1000000 1389 -3174 -4184 -2845 -3589 0
1000000 400 -3185 -3052 0
1000000 1390 -3185 -3052 0
1000000 147 -2941 -3693 0
1000000 1391 -2941 -3693 0
1000000 271 -3724 -4728 -4404 0
1000000 1392 -3724 -4728 -4404 0
1000000 283 -3864 -2828 -4800 0
1000000 1393 -3864 -2828 -4800 0
1000000 766 -4446 -5047 -4871 0
1000000 1394 -4446 -5047 -4871 0
1000000 403 -4226 -3107 -4151 0
1000000 1395 -4226 -3107 -4151 0
1000000 165 -3871 -3117 0
1000000 1396 -3871 -3117 0
1000000 381 -4205 -4944 -2775 -628 0
1000000 1397 -4205 -4944 -2775 -628 0
1000000 666 -4924 -3070 -5067 0
1000000 1398 -4924 -3070 -5067 0
1000000 783 -3953 -4579 -3707 0
1000000 1399 -3953 -4579 -3707 0
1000000 630 -3720 -2835 -4046 -3633 0
1000000 1400 -3720 -2835 -4046 -3633 0
1000000 429 -4704 -2732 0
1000000 1401 -4704 -2732 0
1000000 761 -2788 -4878 -4157 0
1000000 1402 -2788 -4878 -4157 0
1000000 90 -4311 -3794 -3525 -4116 0
1000000 1403 -4311 -3794 -3525 -4116 0
1000000 528 -4317 -3153 -3440 -4616 0
1000000 1404 -4317 -3153 -3440 -4616 0
1000000 732 -2847 -4404 -770 0
1000000 1405 -2847 -4404 -770 0
1000000 157 -2776 -3104 -3374 -315 0
1000000 1406 -2776 -3104 -3374 -315 0
1000000 256 -4820 -3274 -3342 -5116 0
1000000 1407 -4820 -3274 -3342 -5116 0
1000000 15 -3303 -3939 -3562 0
1000000 1408 -3303 -3939 -3562 0
1000000 448 -2801 -4097 0
1000000 1409 -2801 -4097 0
1000000 476 -3956 -705 0
1000000 1410 -3956 -705 0
1000000 745 -3477 -5027 0
1000000 1411 -3477 -5027 0
1000000 769 -4484 -2730 -4669 -776 0
1000000 1412 -4484 -2730 -4669 -776 0
1000000 751 -3043 -4957 0
1000000 1413 -3043 -4957 0
1000000 605 -3140 -4926 -2785 -723 0
1000000 1414 -3140 -4926 -2785 -723 0
1000000 515 -3463 -4049 -2976 -3921 0
1000000 1415 -3463 -4049 -2976 -3921 0
1000000 332 -4380 -4238 -3839 0
1000000 1416 -4380 -4238 -3839 0
1000000 42 -2933 -4073 -5106 -786 0
1000000 1417 -2933 -4073 -5106 -786 0
1000000 188 -3989 -3906 -3404 -648 0
1000000 1418 -3989 -3906 -3404 -648 0
1000000 17 -4696 -3667 -658 0
1000000 1419 -4696 -3667 -658 0
1000000 631 -2953 -4105 -4963 0
1000000 1420 -2953 -4105 -4963 0
1000000 362 -3001 -4761 -4514 -4030 0
1000000 1421 -3001 -4761 -4514 -4030 0
1000000 623 -4721 -5060 -4018 -735 0
1000000 1422 -4721 -5060 -4018 -735 0
1000000 629 -3667 -5028 0
1000000 1423 -3667 -5028 0
1000000 242 -3433 -5047 -4082 0
1000000 1424 -3433 -5047 -4082 0
1000000 301 -4410 -3165 0
1000000 1425 -4410 -3165 0
1000000 738 -4396 -3784 -3663 0
1000000 1426 -4396 -3784 -3663 0
1000000 199 -4050 -4139 -4725 0
1000000 1427 -4050 -4139 -4725 0
1000000 463 -4602 -3229 -3180 -3353 0
1000000 1428 -4602 -3229 -3180 -3353 0
1000000 541 -3911 -4877 -4097 -3918 0
1000000 1429 -3911 -4877 -4097 -3918 0
1000000 426 -5020 -3024 -3859 -4508 0
1000000 1430 -5020 -3024 -3859 -4508 0
1000000 174 -4539 -3505 0
1000000 1431 -4539 -3505 0
1000000 374 -4248 -5112 -744 0
1000000 1432 -4248 -5112 -744 0
1000000 702 -3295 -3129 -799 0
1000000 1433 -3295 -3129 -799 0
1000000 341 -4129 -4702 -3961 -4468 0
1000000 1434 -4129 -4702 -3961 -4468 0
1000000 669 -3368 -674 0
1000000 1435 -3368 -674 0
1000000 298 -3758 -4411 -4170 -3143 0
1000000 1436 -3758 -4411 -4170 -3143 0
1000000 533 -3347 -4818 -3996 -3877 0
1000000 1437 -3347 -4818 -3996 -3877 0
1000000 170 -4240 -4799 0
1000000 1438 -4240 -4799 0
1000000 633 -3349 -4697 -4458 -777 0
1000000 1439 -3349 -4697 -4458 -777 0
1000000 397 -3046 -4238 -3566 -4900 0
1000000 1440 -3046 -4238 -3566 -4900 0
1000000 435 -3498 -2807 -3309 0
1000000 1441 -3498 -2807 -3309 0
1000000 706 -3510 -3648 -3169 -3958 0
1000000 1442 -3510 -3648 -3169 -3958 0
1000000 358 -3885 -4423 -741 0
1000000 1443 -3885 -4423 -741 0
1000000 62 -4516 -3250 0
1000000 1444 -4516 -3250 0
1000000 367 -3832 -4266 -4279 -3108 0
1000000 1445 -3832 -4266 -4279 -3108 0
1000000 396 -3405 -421 0
1000000 1446 -3405 -421 0
1000000 631 -4862 -4335 -3586 0
1000000 1447 -4862 -4335 -3586 0
1000000 580 -3047 -3651 -2736 0
1000000 1448 -3047 -3651 -2736 0
1000000 693 -2966 -4810 0
1000000 1449 -2966 -4810 0
1000000 95 -3916 -2936 -3197 0
1000000 1450 -3916 -2936 -3197 0
1000000 440 -3778 -3255 -2869 0
1000000 1451 -3778 -3255 -2869 0
1000000 404 -4513 -4618 -3000 0
1000000 1452 -4513 -4618 -3000 0
1000000 443 -3351 -4673 0
1000000 1453 -3351 -4673 0
1000000 662 -4070 -2813 -2931 0
1000000 1454 -4070 -2813 -2931 0
1000000 147 -4224 -157 0
1000000 1455 -4224 -157 0
1000000 227 -4887 -3306 -566 0
1000000 1456 -4887 -3306 -566 0
1000000 168 -4933 -4624 -645 0
1000000 1457 -4933 -4624 -645 0
1000000 264 -4124 -3570 -660 0
1000000 1458 -4124 -3570 -660 0
1000000 201 -4072 -3188 0
1000000 1459 -4072 -3188 0
1000000 352 -3926 -697 0
1000000 1460 -3926 -697 0
1000000 627 -4925 -4503 0
1000000 1461 -4925 -4503 0
1000000 176 -3584 -3456 0
1000000 1462 -3584 -3456 0
1000000 110 -4346 -3173 -4691 0
1000000 1463 -4346 -3173 -4691 0
1000000 151 -4092 -4193 0
1000000 1464 -4092 -4193 0
1000000 480 -4103 -3292 -3973 0
1000000 1465 -4103 -3292 -3973 0
1000000 143 -4230 -3209 -749 0
1000000 1466 -4230 -3209 -749 0
1000000 83 -3861 -4756 -4785 -719 0
1000000 1467 -3861 -4756 -4785 -719 0
1000000 427 -4702 -3991 0
1000000 1468 -4702 -3991 0
1000000 542 -4840 -4711 -4285 0
1000000 1469 -4840 -4711 -4285 0
1000000 348 -4309 -441 0
1000000 1470 -4309 -441 0
1000000 30 -5055 -4650 -4268 -3103 0
1000000 1471 -5055 -4650 -4268 -3103 0
1000000 319 -3454 -2950 -2942 -3167 0
1000000 1472 -3454 -2950 -2942 -3167 0
1000000 652 -4477 -4899 -711 0
1000000 1473 -4477 -4899 -711 0
1000000 263 -4273 -3043 -3815 -4474 0
1000000 1474 -4273 -3043 -3815 -4474 0
1000000 76 -5051 -4927 -211 0
1000000 1475 -5051 -4927 -211 0
1000000 765 -3286 -3188 -4439 -793 0
1000000 1476 -3286 -3188 -4439 -793 0
1000000 68 -3061 -3400 0
1000000 1477 -3061 -3400 0
1000000 787 -2897 -5014 -5025 0
1000000 1478 -2897 -5014 -5025 0
1000000 238 -3498 -3365 -2918 0
1000000 1479 -3498 -3365 -2918 0
1000000 739 -3279 -5067 -3427 0
1000000 1480 -3279 -5067 -3427 0
1000000 497 -4332 -4566 0
1000000 1481 -4332 -4566 0
1000000 62 -3120 -3472 -4334 -192 0
1000000 1482 -3120 -3472 -4334 -192 0
1000000 637 -3686 -4229 -3522 -4236 0
1000000 1483 -3686 -4229 -3522 -4236 0
1000000 513 -4698 -4753 -4971 0
1000000 1484 -4698 -4753 -4971 0
1000000 17 -3133 -2816 0
1000000 1485 -3133 -2816 0
1000000 162 -4169 -2937 -4452 -4956 0
1000000 1486 -4169 -2937 -4452 -4956 0
1000000 527 -5110 -3556 0
1000000 1487 -5110 -3556 0
1000000 102 -4629 -3795 -5013 0
1000000 1488 -4629 -3795 -5013 0
1000000 299 -4547 -3228 -4800 -5117 0
1000000 1489 -4547 -3228 -4800 -5117 0
1000000 707 -3777 -3037 -4869 -729 0
1000000 1490 -3777 -3037 -4869 -729 0
1000000 651 -3286 -3826 0
1000000 1491 -3286 -3826 0
1000000 624 -4284 -3418 -3642 -4425 0
1000000 1492 -4284 -3418 -3642 -4425 0
1000000 551 -2861 -3189 0
1000000 1493 -2861 -3189 0
1000000 52 -3924 -4800 0
1000000 1494 -3924 -4800 0
1000000 560 -5043 -3704 -3603 -4838 0
1000000 1495 -5043 -3704 -3603 -4838 0
1000000 609 -4961 -4070 0
1000000 1496 -4961 -4070 0
1000000 401 -4561 -3135 0
1000000 1497 -4561 -3135 0
1000000 179 -3299 -5079 -315 0
1000000 1498 -3299 -5079 -315 0
1000000 463 -4347 -3263 -4028 0
1000000 1499 -4347 -3263 -4028 0
1000000 555 -3370 -3493 -4922 -3870 0
1000000 1500 -3370 -3493 -4922 -3870 0
1000000 518 -4909 -4868 0
1000000 1501 -4909 -4868 0
1000000 467 -3531 -3127 0
1000000 1502 -3531 -3127 0
1000000 44 -4721 -3834 -3710 -239 0
1000000 1503 -4721 -3834 -3710 -239 0
1000000 772 -4667 -3444 0
1000000 1504 -4667 -3444 0
1000000 684 -3065 -2837 -3148 -3316 0
1000000 1505 -3065 -2837 -3148 -3316 0
1000000 410 -4772 -2780 0
1000000 1506 -4772 -2780 0
1000000 438 -4815 -4190 0
1000000 1507 -4815 -4190 0
1000000 320 -3114 -3246 -3046 0
1000000 1508 -3114 -3246 -3046 0
1000000 204 -4198 -4202 -3211 -2734 0
1000000 1509 -4198 -4202 -3211 -2734 0
1000000 715 -4889 -2901 -3325 0
1000000 1510 -4889 -2901 -3325 0
1000000 469 -4258 -4297 -3281 -3183 0
1000000 1511 -4258 -4297 -3281 -3183 0
1000000 567 -3984 -3987 -3651 -4953 0
1000000 1512 -3984 -3987 -3651 -4953 0
1000000 257 -4365 -5092 -3135 -418 0
1000000 1513 -4365 -5092 -3135 -418 0
1000000 531 -3319 -3271 -4161 -4868 0
1000000 1514 -3319 -3271 -4161 -4868 0
1000000 55 -4615 -4216 -4726 -3523 0
1000000 1515 -4615 -4216 -4726 -3523 0
1000000 29 -3420 -4016 -56 0
1000000 1516 -3420 -4016 -56 0
1000000 117 -4124 -3455 -3186 0
1000000 1517 -4124 -3455 -3186 0
1000000 431 -4515 -4322 -4036 0
1000000 1518 -4515 -4322 -4036 0
1000000 422 -3383 -3484 -4778 -4756 0
1000000 1519 -3383 -3484 -4778 -4756 0
1000000 179 -4842 -2933 -4243 -3232 0
1000000 1520 -4842 -2933 -4243 -3232 0
1000000 429 -3279 -3234 -4629 -3997 0
1000000 1521 -3279 -3234 -4629 -3997 0
1000000 354 -3173 -4411 -3625 0
1000000 1522 -3173 -4411 -3625 0
1000000 792 -4717 -3130 -3670 -4714 0
1000000 1523 -4717 -3130 -3670 -4714 0
1000000 49 -3918 -4704 0
1000000 1524 -3918 -4704 0
1000000 507 -3305 -519 0
1000000 1525 -3305 -519 0
1000000 168 -3522 -4191 -3559 -4461 0
1000000 1526 -3522 -4191 -3559 -4461 0
1000000 521 -3619 -3244 0
1000000 1527 -3619 -3244 0
1000000 87 -4732 -4284 0
1000000 1528 -4732 -4284 0
1000000 360 -3665 -2888 0
1000000 1529 -3665 -2888 0
1000000 728 -3726 -3705 -4980 -3665 0
1000000 1530 -3726 -3705 -4980 -3665 0
1000000 334 -4265 -3981 -4120 0
1000000 1531 -4265 -3981 -4120 0
1000000 359 -4960 -390 0
1000000 1532 -4960 -390 0
1000000 567 -3425 -3878 -4311 -4693 0
1000000 1533 -3425 -3878 -4311 -4693 0
1000000 795 -4508 -3745 0
1000000 1534 -4508 -3745 0
1000000 447 -4581 -3063 -4336 0
1000000 1535 -4581 -3063 -4336 0
1000000 172 -2935 -4053 0
1000000 1536 -2935 -4053 0
1000000 53 -4514 -4403 0
1000000 1537 -4514 -4403 0
1000000 362 -4552 -3004 0
1000000 1538 -4552 -3004 0
1000000 40 -4869 -4712 0
1000000 1539 -4869 -4712 0
1000000 666 -3091 -2967 -4075 0
1000000 1540 -3091 -2967 -4075 0
1000000 561 -4208 -4756 -3651 -3361 0
1000000 1541 -4208 -4756 -3651 -3361 0
1000000 606 -4466 -4701 0
1000000 1542 -4466 -4701 0
1000000 441 -4886 -4388 0
1000000 1543 -4886 -4388 0
1000000 91 -3974 -4298 -3547 0
1000000 1544 -3974 -4298 -3547 0
1000000 203 -5048 -4777 0
1000000 1545 -5048 -4777 0
1000000 350 -4889 -4795 0
1000000 1546 -4889 -4795 0
1000000 582 -4600 -658 0
1000000 1547 -4600 -658 0
1000000 671 -4038 -800 0
1000000 1548 -4038 -800 0
1000000 638 -4651 -4418 -3179 -4081 0
1000000 1549 -4651 -4418 -3179 -4081 0
1000000 63 -4617 -2950 -3218 0
1000000 1550 -4617 -2950 -3218 0
1000000 539 -3433 -3372 0
1000000 1551 -3433 -3372 0
1000000 91 -3793 -3283 -4839 0
1000000 1552 -3793 -3283 -4839 0
1000000 70 -3318 -123 0
1000000 1553 -3318 -123 0
1000000 242 -4318 -3289 0
1000000 1554 -4318 -3289 0
1000000 273 -3308 -4914 -5078 0
1000000 1555 -3308 -4914 -5078 0
1000000 232 -4054 -3322 -4824 -4446 0
1000000 1556 -4054 -3322 -4824 -4446 0
1000000 241 -3057 -2829 -4437 0
1000000 1557 -3057 -2829 -4437 0
1000000 559 -4086 -3018 0
1000000 1558 -4086 -3018 0
1000000 214 -4559 -691 0
1000000 1559 -4559 -691 0
1000000 14 -3559 -4082 -652 0
1000000 1560 -3559 -4082 -652 0
1000000 260 -5019 -4673 -3959 -285 0
1000000 1561 -5019 -4673 -3959 -285 0
1000000 327 -4102 -4572 -4341 0
1000000 1562 -4102 -4572 -4341 0
1000000 158 -4319 -4790 0
1000000 1563 -4319 -4790 0
1000000 545 -3464 -3869 -4427 -4699 0
1000000 1564 -3464 -3869 -4427 -4699 0
1000000 465 -4727 -653 0
1000000 1565 -4727 -653 0
1000000 144 -3051 -3807 0
1000000 1566 -3051 -3807 0
1000000 702 -4777 -4268 -3001 0
1000000 1567 -4777 -4268 -3001 0
1000000 432 -4625 -3005 0
1000000 1568 -4625 -3005 0
1000000 129 -3910 -4922 -3165 0
1000000 1569 -3910 -4922 -3165 0
1000000 332 -4332 -4389 0
1000000 1570 -4332 -4389 0
1000000 512 -3413 -3871 -3671 -3073 0
1000000 1571 -3413 -3871 -3671 -3073 0
1000000 215 -3305 -3726 -3482 -634 0
1000000 1572 -3305 -3726 -3482 -634 0
1000000 504 -3967 -3221 -4211 -3437 0
1000000 1573 -3967 -3221 -4211 -3437 0
1000000 159 -3474 -3980 0
1000000 1574 -3474 -3980 0
1000000 88 -3538 -4409 -5072 -3942 0
1000000 1575 -3538 -4409 -5072 -3942 0
1000000 562 -3855 -4913 -4522 -4185 0
1000000 1576 -3855 -4913 -4522 -4185 0
1000000 733 -4720 -4736 -5060 -749 0
1000000 1577 -4720 -4736 -5060 -749 0
1000000 291 -4719 -2936 0
1000000 1578 -4719 -2936 0
1000000 308 -3702 -2930 -4695 0
1000000 1579 -3702 -2930 -4695 0
1000000 211 -4708 -4564 -601 0
1000000 1580 -4708 -4564 -601 0
1000000 398 -5016 -4690 -3614 -399 0
1000000 1581 -5016 -4690 -3614 -399 0
1000000 265 -3459 -2889 -624 0
1000000 1582 -3459 -2889 -624 0
1000000 446 -3569 -3507 0
1000000 1583 -3569 -3507 0
1000000 161 -4425 -2860 -3397 -267 0
1000000 1584 -4425 -2860 -3397 -267 0
1000000 250 -4433 -3377 -4849 0
1000000 1585 -4433 -3377 -4849 0
1000000 726 -4569 -767 0
1000000 1586 -4569 -767 0
1000000 273 -5023 -3559 -4590 0
1000000 1587 -5023 -3559 -4590 0
1000000 207 -3495 -3115 -4261 -3147 0
1000000 1588 -3495 -3115 -4261 -3147 0
1000000 626 -3582 -3750 0
1000000 1589 -3582 -3750 0
1000000 606 -3620 -3344 -2985 -3105 0
1000000 1590 -3620 -3344 -2985 -3105 0
1000000 598 -3155 -3631 -4273 0
1000000 1591 -3155 -3631 -4273 0
1000000 745 -4347 -3459 0
1000000 1592 -4347 -3459 0
1000000 105 -4924 -4307 -4875 -3096 0
1000000 1593 -4924 -4307 -4875 -3096 0
1000000 244 -4330 -4643 -3069 0
1000000 1594 -4330 -4643 -3069 0
1000000 455 -4974 -4116 -592 0
1000000 1595 -4974 -4116 -592 0
1000000 153 -4611 -3517 -3121 -4884 0
1000000 1596 -4611 -3517 -3121 -4884 0
1000000 664 -4149 -3555 -3158 -4456 0
1000000 1597 -4149 -3555 -3158 -4456 0
1000000 323 -4665 -4773 -3045 0
1000000 1598 -4665 -4773 -3045 0
1000000 164 -3357 -4312 -3908 0
1000000 1599 -3357 -4312 -3908 0
1000000 95 -3217 -3710 -4323 -4365 0
1000000 1600 -3217 -3710 -4323 -4365 0
1000000 413 -4161 -4246 -3298 -584 0
1000000 1601 -4161 -4246 -3298 -584 0
1000000 197 -3168 -587 0
1000000 1602 -3168 -587 0
1000000 131 -3989 -3913 -4674 -3920 0
1000000 1603 -3989 -3913 -4674 -3920 0
1000000 544 -3103 -4030 0
1000000 1604 -3103 -4030 0
1000000 757 -4900 -4103 -4101 -763 0
1000000 1605 -4900 -4103 -4101 -763 0
1000000 582 -2764 -3260 -4505 0
1000000 1606 -2764 -3260 -4505 0
1000000 430 -5084 -3681 -4923 0
1000000 1607 -5084 -3681 -4923 0
1000000 350 -3446 -4838 -2857 -4325 0
1000000 1608 -3446 -4838 -2857 -4325 0
1000000 221 -3019 -267 0
1000000 1609 -3019 -267 0
1000000 44 -2820 -4451 -433 0
1000000 1610 -2820 -4451 -433 0
1000000 754 -4586 -4448 -2970 -4444 0
1000000 1611 -4586 -4448 -2970 -4444 0
1000000 491 -2806 -4041 -2727 -3441 0
1000000 1612 -2806 -4041 -2727 -3441 0
1000000 57 -4581 -3353 -3260 0
1000000 1613 -4581 -3353 -3260 0
1000000 688 -5058 -4298 -3339 -4448 0
1000000 1614 -5058 -4298 -3339 -4448 0
1000000 114 -3752 -4273 -3549 -216 0
1000000 1615 -3752 -4273 -3549 -216 0
1000000 85 -3965 -2870 0
1000000 1616 -3965 -2870 0
1000000 400 -4738 -2839 0
1000000 1617 -4738 -2839 0
1000000 250 -4717 -4890 -4604 -663 0
1000000 1618 -4717 -4890 -4604 -663 0
1000000 54 -3250 -4677 0
1000000 1619 -3250 -4677 0
1000000 610 -4707 -4838 -3624 -3866 0
1000000 1620 -4707 -4838 -3624 -3866 0
1000000 88 -4961 -3969 -4787 -4575 0
1000000 1621 -4961 -3969 -4787 -4575 0
1000000 209 -4043 -3329 -3220 0
1000000 1622 -4043 -3329 -3220 0
1000000 210 -3100 -2843 0
1000000 1623 -3100 -2843 0
1000000 324 -3311 -3345 -671 0
1000000 1624 -3311 -3345 -671 0
1000000 337 -4767 -3989 -3191 0
1000000 1625 -4767 -3989 -3191 0
1000000 652 -3651 -2824 0
1000000 1626 -3651 -2824 0
1000000 321 -4207 -2911 -3132 -3626 0
1000000 1627 -4207 -2911 -3132 -3626 0
1000000 796 -4489 -4868 -3239 -2921 0
1000000 1628 -4489 -4868 -3239 -2921 0
1000000 562 -3781 -3472 -3518 0
1000000 1629 -3781 -3472 -3518 0
1000000 183 -4774 -484 0
1000000 1630 -4774 -484 0
1000000 373 -3167 -723 0
1000000 1631 -3167 -723 0
1000000 524 -3777 -3739 -700 0
1000000 1632 -3777 -3739 -700 0
1000000 7 -4496 -3923 -589 0
1000000 1633 -4496 -3923 -589 0
1000000 611 -4224 -3880 -4053 0
1000000 1634 -4224 -3880 -4053 0
1000000 383 -4552 -3713 -4513 0
1000000 1635 -4552 -3713 -4513 0
1000000 299 -3859 -3416 -4158 -5079 0
1000000 1636 -3859 -3416 -4158 -5079 0
1000000 148 -4337 -5111 -2736 0
1000000 1637 -4337 -5111 -2736 0
1000000 320 -3739 -743 0
1000000 1638 -3739 -743 0
1000000 16 -3437 -4070 -4913 -4935 0
1000000 1639 -3437 -4070 -4913 -4935 0
1000000 312 -3823 -3111 0
1000000 1640 -3823 -3111 0
1000000 122 -3614 -4738 -297 0
1000000 1641 -3614 -4738 -297 0
1000000 146 -2959 -2984 -4821 0
1000000 1642 -2959 -2984 -4821 0
1000000 557 -4171 -5069 -4978 -3007 0
1000000 1643 -4171 -5069 -4978 -3007 0
1000000 645 -3716 -4888 -4030 0
1000000 1644 -3716 -4888 -4030 0
1000000 65 -3180 -3565 0
1000000 1645 -3180 -3565 0
1000000 167 -3461 -4123 -4245 -3713 0
1000000 1646 -3461 -4123 -4245 -3713 0
1000000 734 -3742 -4005 -4228 0
1000000 1647 -3742 -4005 -4228 0
1000000 578 -4563 -3388 0
1000000 1648 -4563 -3388 0
1000000 796 -3358 -4311 -3733 -4826 0
1000000 1649 -3358 -4311 -3733 -4826 0
1000000 533 -2845 -4547 -2775 0
1000000 1650 -2845 -4547 -2775 0
1000000 40 -4243 -693 0
1000000 1651 -4243 -693 0
1000000 356 -5055 -3670 -4691 -618 0
1000000 1652 -5055 -3670 -4691 -618 0
1000000 337 -4650 -658 0
1000000 1653 -4650 -658 0
1000000 224 -2945 -3822 -3110 0
1000000 1654 -2945 -3822 -3110 0
1000000 367 -3344 -4454 -4892 0
1000000 1655 -3344 -4454 -4892 0
1000000 736 -4073 -4903 -2790 0
1000000 1656 -4073 -4903 -2790 0
1000000 45 -3384 -4068 -4887 -4122 0
1000000 1657 -3384 -4068 -4887 -4122 0
1000000 677 -3198 -4379 -5004 0
1000000 1658 -3198 -4379 -5004 0
1000000 452 -3482 -5057 0
1000000 1659 -3482 -5057 0
1000000 196 -3939 -2828 -4988 -3912 0
1000000 1660 -3939 -2828 -4988 -3912 0
1000000 742 -4729 -3124 -3432 0
1000000 1661 -4729 -3124 -3432 0
1000000 347 -3602 -4087 -3545 0
1000000 1662 -3602 -4087 -3545 0
1000000 130 -3526 -4103 0
1000000 1663 -3526 -4103 0
1000000 679 -3851 -3430 -4115 0
1000000 1664 -3851 -3430 -4115 0
1000000 501 -3507 -4688 -3117 0
1000000 1665 -3507 -4688 -3117 0
1000000 271 -3070 -2914 -694 0
1000000 1666 -3070 -2914 -694 0
1000000 239 -3346 -5108 0
1000000 1667 -3346 -5108 0
1000000 535 -3362 -2847 -4699 -3449 0
1000000 1668 -3362 -2847 -4699 -3449 0
1000000 509 -4410 -5102 -3009 -574 0
1000000 1669 -4410 -5102 -3009 -574 0
1000000 49 -3343 -3954 -660 0
1000000 1670 -3343 -3954 -660 0
1000000 489 -2936 -3518 -3450 -4877 0
1000000 1671 -2936 -3518 -3450 -4877 0
1000000 205 -4538 -4109 0
1000000 1672 -4538 -4109 0
1000000 103 -3438 -4512 -4863 -382 0
1000000 1673 -3438 -4512 -4863 -382 0
1000000 517 -4031 -4587 0
1000000 1674 -4031 -4587 0
1000000 386 -4103 -4665 -5089 0
1000000 1675 -4103 -4665 -5089 0
1000000 304 -4280 -4975 -4709 -2805 0
1000000 1676 -4280 -4975 -4709 -2805 0
1000000 738 -3156 -2983 -3402 -3212 0
1000000 1677 -3156 -2983 -3402 -3212 0
1000000 340 -2736 -4797 0
1000000 1678 -2736 -4797 0
1000000 248 -4495 -3575 -5012 0
1000000 1679 -4495 -3575 -5012 0
1000000 673 -3842 -4416 -2964 0
1000000 1680 -3842 -4416 -2964 0
1000000 725 -4101 -4605 -2828 -3829 0
1000000 1681 -4101 -4605 -2828 -3829 0
1000000 482 -2722 -3567 0
1000000 1682 -2722 -3567 0
1000000 504 -4265 -4208 -2739 0
1000000 1683 -4265 -4208 -2739 0
1000000 623 -3926 -4513 -3074 -748 0
1000000 1684 -3926 -4513 -3074 -748 0
1000000 9 -4235 -4698 -2779 -3616 0
1000000 1685 -4235 -4698 -2779 -3616 0
1000000 742 -4720 -4389 -3966 0
1000000 1686 -4720 -4389 -3966 0
1000000 649 -2763 -4920 -2937 -2754 0
1000000 1687 -2763 -4920 -2937 -2754 0
1000000 76 -3928 -4739 -4664 -3603 0
1000000 1688 -3928 -4739 -4664 -3603 0
1000000 524 -4679 -4906 -4622 -5084 0
1000000 1689 -4679 -4906 -4622 -5084 0
1000000 763 -4109 -3938 -2840 -779 0
1000000 1690 -4109 -3938 -2840 -779 0
1000000 33 -2904 -4424 0
1000000 1691 -2904 -4424 0
1000000 422 -3044 -4687 -768 0
1000000 1692 -3044 -4687 -768 0
1000000 253 -4806 -3609 -4561 0
1000000 1693 -4806 -3609 -4561 0
1000000 438 -4106 -4086 0
1000000 1694 -4106 -4086 0
1000000 460 -4994 -4055 -4867 -3984 0
1000000 1695 -4994 -4055 -4867 -3984 0
1000000 736 -3252 -4911 -3135 -2791 0
1000000 1696 -3252 -4911 -3135 -2791 0
1000000 486 -4634 -2907 -3095 -4022 0
1000000 1697 -4634 -2907 -3095 -4022 0
1000000 580 -5100 -2961 -3435 -2896 0
1000000 1698 -5100 -2961 -3435 -2896 0
1000000 270 -4896 -4663 -707 0
1000000 1699 -4896 -4663 -707 0
1000000 250 -4460 -2972 -4711 0
1000000 1700 -4460 -2972 -4711 0
1000000 435 -4027 -3712 0
1000000 1701 -4027 -3712 0
1000000 44 -3497 -3303 -3366 -2772 0
1000000 1702 -3497 -3303 -3366 -2772 0
1000000 34 -3124 -793 0
1000000 1703 -3124 -793 0
1000000 396 -4037 -4856 -4662 -4764 0
1000000 1704 -4037 -4856 -4662 -4764 0
1000000 220 -3713 -4977 0
1000000 1705 -3713 -4977 0
1000000 102 -3237 -451 0
1000000 1706 -3237 -451 0
1000000 24 -4105 -4967 -557 0
1000000 1707 -4105 -4967 -557 0
1000000 12 -5053 -2950 0
1000000 1708 -5053 -2950 0
1000000 173 -4510 -4854 -2965 -410 0
1000000 1709 -4510 -4854 -2965 -410 0
1000000 198 -4598 -4349 -3347 -5039 0
1000000 1710 -4598 -4349 -3347 -5039 0
1000000 106 -3799 -4912 -3721 -487 0
1000000 1711 -3799 -4912 -3721 -487 0
1000000 593 -4599 -655 0
1000000 1712 -4599 -655 0
1000000 559 -4181 -5024 -2903 0
1000000 1713 -4181 -5024 -2903 0
1000000 534 -3856 -4122 0
1000000 1714 -3856 -4122 0
1000000 591 -3512 -4081 -2818 -3137 0
1000000 1715 -3512 -4081 -2818 -3137 0
1000000 92 -2997 -576 0
1000000 1716 -2997 -576 0
1000000 99 -3841 -3137 -493 0
1000000 1717 -3841 -3137 -493 0
1000000 684 -2746 -3745 -3656 0
1000000 1718 -2746 -3745 -3656 0
1000000 130 -4184 -5084 0
1000000 1719 -4184 -5084 0
1000000 598 -4397 -4264 -4615 -726 0
1000000 1720 -4397 -4264 -4615 -726 0
1000000 650 -2722 -4647 -4517 -741 0
1000000 1721 -2722 -4647 -4517 -741 0
1000000 792 -4504 -3570 -3605 -4478 0
1000000 1722 -4504 -3570 -3605 -4478 0
1000000 468 -3594 -4815 -4588 -5106 0
1000000 1723 -3594 -4815 -4588 -5106 0
1000000 378 -3888 -2764 -3613 -4671 0
1000000 1724 -3888 -2764 -3613 -4671 0
1000000 508 -4706 -754 0
1000000 1725 -4706 -754 0
1000000 278 -3564 -3303 0
1000000 1726 -3564 -3303 0
1000000 333 -4277 -3672 -2771 -4400 0
1000000 1727 -4277 -3672 -2771 -4400 0
1000000 294 -2778 -606 0
1000000 1728 -2778 -606 0
1000000 238 -4546 -4578 -3087 -296 0
1000000 1729 -4546 -4578 -3087 -296 0
1000000 211 -3713 -4833 0
1000000 1730 -3713 -4833 0
1000000 735 -4202 -3587 -5019 -3678 0
1000000 1731 -4202 -3587 -5019 -3678 0
1000000 565 -2816 -3450 0
1000000 1732 -2816 -3450 0
1000000 420 -5065 -3791 -4583 -550 0
1000000 1733 -5065 -3791 -4583 -550 0
1000000 4 -3061 -635 0
1000000 1734 -3061 -635 0
1000000 606 -2722 -3881 -3198 0
1000000 1735 -2722 -3881 -3198 0
1000000 222 -4029 -3506 0
1000000 1736 -4029 -3506 0
1000000 512 -3300 -4018 -4373 -4968 0
1000000 1737 -3300 -4018 -4373 -4968 0
1000000 10 -4005 -3062 -344 0
1000000 1738 -4005 -3062 -344 0
1000000 594 -3491 -4012 -4189 0
1000000 1739 -3491 -4012 -4189 0
1000000 54 -4678 -4928 -4730 0
1000000 1740 -4678 -4928 -4730 0
1000000 385 -4609 -2990 -607 0
1000000 1741 -4609 -2990 -607 0
1000000 421 -4931 -4283 -2853 0
1000000 1742 -4931 -4283 -2853 0
1000000 201 -3294 -3476 -5003 0
1000000 1743 -3294 -3476 -5003 0
1000000 581 -4874 -3446 0
1000000 1744 -4874 -3446 0
1000000 747 -4087 -4300 -4085 -798 0
1000000 1745 -4087 -4300 -4085 -798 0
1000000 595 -4535 -3537 -4329 -3527 0
1000000 1746 -4535 -3537 -4329 -3527 0
1000000 230 -2872 -4641 -787 0
1000000 1747 -2872 -4641 -787 0
1000000 396 -4967 -4057 -751 0
1000000 1748 -4967 -4057 -751 0
1000000 143 -4545 -3994 0
1000000 1749 -4545 -3994 0
1000000 124 -4640 -3227 -3506 -4534 0
1000000 1750 -4640 -3227 -3506 -4534 0
1000000 770 -4740 -4103 -3451 0
1000000 1751 -4740 -4103 -3451 0
1000000 514 -3576 -5075 0
1000000 1752 -3576 -5075 0
1000000 392 -3032 -3806 -3229 0
1000000 1753 -3032 -3806 -3229 0
1000000 664 -4869 -4595 -4372 -696 0
1000000 1754 -4869 -4595 -4372 -696 0
1000000 413 -3939 -3735 -4317 0
1000000 1755 -3939 -3735 -4317 0
1000000 794 -4573 -4405 -4137 0
1000000 1756 -4573 -4405 -4137 0
1000000 237 -4252 -4294 -4020 0
1000000 1757 -4252 -4294 -4020 0
1000000 513 -4097 -3132 -4046 -667 0
1000000 1758 -4097 -3132 -4046 -667 0
1000000 462 -3795 -3588 -3135 -4147 0
1000000 1759 -3795 -3588 -3135 -4147 0
1000000 96 -4788 -4177 -482 0
1000000 1760 -4788 -4177 -482 0
1000000 528 -3247 -4766 0
1000000 1761 -3247 -4766 0
1000000 158 -4269 -4251 -3326 0
1000000 1762 -4269 -4251 -3326 0
1000000 405 -3369 -5048 -3054 0
1000000 1763 -3369 -5048 -3054 0
1000000 327 -5024 -4688 -4500 -4912 0
1000000 1764 -5024 -4688 -4500 -4912 0
1000000 358 -4204 -4229 0
1000000 1765 -4204 -4229 0
1000000 33 -5113 -3578 -5070 -3455 0
1000000 1766 -5113 -3578 -5070 -3455 0
1000000 383 -4485 -3177 -3986 0
1000000 1767 -4485 -3177 -3986 0
1000000 348 -3507 -3869 0
1000000 1768 -3507 -3869 0
1000000 236 -3524 -3837 -3659 0
1000000 1769 -3524 -3837 -3659 0
1000000 637 -3862 -4728 -3633 0
1000000 1770 -3862 -4728 -3633 0
1000000 617 -2934 -4606 -4635 -650 0
1000000 1771 -2934 -4606 -4635 -650 0
1000000 653 -3387 -4525 0
1000000 1772 -3387 -4525 0
1000000 166 -3846 -4197 -4825 -3054 0
1000000 1773 -3846 -4197 -4825 -3054 0
1000000 790 -3549 -3925 -3588 -794 0
1000000 1774 -3549 -3925 -3588 -794 0
1000000 537 -5067 -4967 -3684 0
1000000 1775 -5067 -4967 -3684 0
1000000 727 -3462 -3410 0
1000000 1776 -3462 -3410 0
1000000 508 -4894 -3769 -3965 0
1000000 1777 -4894 -3769 -3965 0
1000000 402 -3703 -4657 -3590 -420 0
1000000 1778 -3703 -4657 -3590 -420 0
1000000 671 -4514 -4288 -4443 -3795 0
1000000 1779 -4514 -4288 -4443 -3795 0
1000000 187 -3668 -4984 -3376 -747 0
1000000 1780 -3668 -4984 -3376 -747 0
1000000 620 -3821 -4002 -3901 0
1000000 1781 -3821 -4002 -3901 0
1000000 180 -3839 -2793 -4518 -3982 0
1000000 1782 -3839 -2793 -4518 -3982 0
1000000 251 -3419 -3117 0
1000000 1783 -3419 -3117 0
1000000 510 -3708 -3657 -3074 0
1000000 1784 -3708 -3657 -3074 0
1000000 487 -3751 -2743 -4493 0
1000000 1785 -3751 -2743 -4493 0
1000000 350 -3626 -3577 0
1000000 1786 -3626 -3577 0
1000000 41 -3993 -3215 -3214 -4806 0
1000000 1787 -3993 -3215 -3214 -4806 0
1000000 331 -2863 -2829 -3532 -3259 0
1000000 1788 -2863 -2829 -3532 -3259 0
1000000 763 -4535 -3258 -4136 0
1000000 1789 -4535 -3258 -4136 0
1000000 762 -4684 -5071 -3779 0
1000000 1790 -4684 -5071 -3779 0
1000000 408 -4907 -3039 -3549 0
1000000 1791 -4907 -3039 -3549 0
1000000 512 -5117 -768 0
1000000 1792 -5117 -768 0
1000000 339 -3286 -4326 0
1000000 1793 -3286 -4326 0
1000000 588 -4495 -4345 0
1000000 1794 -4495 -4345 0
1000000 589 -3042 -3020 0
1000000 1795 -3042 -3020 0
1000000 200 -3918 -5117 -4687 -3067 0
1000000 1796 -3918 -5117 -4687 -3067 0
1000000 621 -4591 -4135 0
1000000 1797 -4591 -4135 0
1000000 627 -4513 -4559 -711 0
1000000 1798 -4513 -4559 -711 0
1000000 125 -4988 -4210 -3129 0
1000000 1799 -4988 -4210 -3129 0
1000000 307 -4226 -3108 0
1000000 1800 -4226 -3108 0
1000000 614 -4331 -3002 -3987 -4131 0
1000000 1801 -4331 -3002 -3987 -4131 0
1000000 492 -4935 -3031 -3897 -4501 0
1000000 1802 -4935 -3031 -3897 -4501 0
1000000 276 -3208 -2905 -3133 0
1000000 1803 -3208 -2905 -3133 0
1000000 325 -3270 -4697 -4232 0
1000000 1804 -3270 -4697 -4232 0
1000000 137 -4826 -3190 -2975 -4467 0
1000000 1805 -4826 -3190 -2975 -4467 0
1000000 356 -3665 -3517 -4661 0
1000000 1806 -3665 -3517 -4661 0
1000000 151 -4570 -4121 0
1000000 1807 -4570 -4121 0
1000000 39 -4418 -415 0
1000000 1808 -4418 -415 0
1000000 469 -3883 -4624 0
1000000 1809 -3883 -4624 0
1000000 737 -4655 -3037 0
1000000 1810 -4655 -3037 0
1000000 268 -3407 -3342 -2741 0
1000000 1811 -3407 -3342 -2741 0
1000000 268 -3421 -3624 0
1000000 1812 -3421 -3624 0
1000000 140 -3781 -3208 0
1000000 1813 -3781 -3208 0
1000000 70 -2823 -2848 -4397 0
1000000 1814 -2823 -2848 -4397 0
1000000 653 -4095 -731 0
1000000 1815 -4095 -731 0
1000000 148 -4300 -3484 0
1000000 1816 -4300 -3484 0
1000000 245 -4541 -4942 0
1000000 1817 -4541 -4942 0
1000000 506 -2791 -4699 -756 0
1000000 1818 -2791 -4699 -756 0
1000000 558 -3395 -5117 -3893 0
1000000 1819 -3395 -5117 -3893 0
1000000 448 -3932 -4464 -4989 -598 0
1000000 1820 -3932 -4464 -4989 -598 0
1000000 211 -2888 -4066 0
1000000 1821 -2888 -4066 0
1000000 446 -3056 -4805 -633 0
1000000 1822 -3056 -4805 -633 0
1000000 786 -4879 -4285 -4952 -3801 0
1000000 1823 -4879 -4285 -4952 -3801 0
1000000 282 -4902 -392 0
1000000 1824 -4902 -392 0
1000000 87 -4201 -2877 -232 0
1000000 1825 -4201 -2877 -232 0
1000000 276 -4992 -585 0
1000000 1826 -4992 -585 0
1000000 656 -4687 -4867 -3099 -3461 0
1000000 1827 -4687 -4867 -3099 -3461 0
1000000 616 -4664 -4576 0
1000000 1828 -4664 -4576 0
1000000 192 -5052 -2890 0
1000000 1829 -5052 -2890 0
1000000 552 -4997 -3999 0
1000000 1830 -4997 -3999 0
1000000 82 -2740 -2859 -4075 0
1000000 1831 -2740 -2859 -4075 0
1000000 570 -3432 -3609 -2960 0
1000000 1832 -3432 -3609 -2960 0
1000000 519 -3753 -3579 -3644 0
1000000 1833 -3753 -3579 -3644 0
1000000 318 -4287 -4167 -3609 0
1000000 1834 -4287 -4167 -3609 0
1000000 71 -4427 -4219 -3990 0
1000000 1835 -4427 -4219 -3990 0
1000000 407 -4803 -3419 -3767 -5023 0
1000000 1836 -4803 -3419 -3767 -5023 0
1000000 353 -4984 -601 0
1000000 1837 -4984 -601 0
1000000 383 -4629 -4862 -4091 -4041 0
1000000 1838 -4629 -4862 -4091 -4041 0
1000000 643 -4771 -770 0
1000000 1839 -4771 -770 0
1000000 607 -2822 -2739 0
1000000 1840 -2822 -2739 0
1000000 593 -3030 -4702 0
1000000 1841 -3030 -4702 0
1000000 529 -4229 -669 0
1000000 1842 -4229 -669 0
1000000 683 -4657 -3216 0
1000000 1843 -4657 -3216 0
1000000 343 -4807 -3785 0
1000000 1844 -4807 -3785 0
1000000 296 -4745 -3850 0
1000000 1845 -4745 -3850 0
1000000 286 -4666 -4044 -4352 -628 0
1000000 1846 -4666 -4044 -4352 -628 0
1000000 124 -3844 -3696 -2916 0
1000000 1847 -3844 -3696 -2916 0
1000000 709 -3652 -3184 -786 0
1000000 1848 -3652 -3184 -786 0
1000000 676 -3340 -4527 -4325 -680 0
1000000 1849 -3340 -4527 -4325 -680 0
1000000 485 -4965 -3272 0
1000000 1850 -4965 -3272 0
1000000 120 -4649 -3626 -3382 0
1000000 1851 -4649 -3626 -3382 0
1000000 499 -3721 -4706 0
1000000 1852 -3721 -4706 0
1000000 627 -3056 -2921 0
1000000 1853 -3056 -2921 0
1000000 550 -4683 -3547 0
1000000 1854 -4683 -3547 0
1000000 750 -3704 -4339 -3856 0
1000000 1855 -3704 -4339 -3856 0
1000000 575 -4364 -4472 -616 0
1000000 1856 -4364 -4472 -616 0
1000000 326 -4892 -522 0
1000000 1857 -4892 -522 0
1000000 253 -4485 -3449 -4502 -3665 0
1000000 1858 -4485 -3449 -4502 -3665 0
1000000 729 -3637 -3323 0
1000000 1859 -3637 -3323 0
1000000 149 -4258 -4242 -2861 0
1000000 1860 -4258 -4242 -2861 0
1000000 621 -2907 -4658 -3367 0
1000000 1861 -2907 -4658 -3367 0
1000000 704 -3948 -751 0
1000000 1862 -3948 -751 0
1000000 29 -3377 -4295 -3308 -4208 0
1000000 1863 -3377 -4295 -3308 -4208 0
1000000 548 -4258 -3028 -3596 -4329 0
1000000 1864 -4258 -3028 -3596 -4329 0
1000000 561 -4790 -3088 -2868 -4745 0
1000000 1865 -4790 -3088 -2868 -4745 0
1000000 209 -3859 -2848 -259 0
1000000 1866 -3859 -2848 -259 0
1000000 307 -4612 -3605 0
1000000 1867 -4612 -3605 0
1000000 599 -3421 -2854 -3701 0
1000000 1868 -3421 -2854 -3701 0
1000000 492 -4137 -2848 -5072 0
1000000 1869 -4137 -2848 -5072 0
1000000 220 -5100 -3533 -3699 -3749 0
1000000 1870 -5100 -3533 -3699 -3749 0
1000000 797 -3947 -4261 0
1000000 1871 -3947 -4261 0
1000000 547 -4424 -4980 -3667 0
1000000 1872 -4424 -4980 -3667 0
1000000 618 -5077 -3395 -4538 0
1000000 1873 -5077 -3395 -4538 0
1000000 303 -4761 -4225 -3479 0
1000000 1874 -4761 -4225 -3479 0
1000000 388 -3525 -3091 0
1000000 1875 -3525 -3091 0
1000000 330 -3322 -3294 -650 0
1000000 1876 -3322 -3294 -650 0
1000000 655 -3229 -760 0
1000000 1877 -3229 -760 0
1000000 381 -3330 -4284 0
1000000 1878 -3330 -4284 0
1000000 260 -5077 -3217 -4978 0
1000000 1879 -5077 -3217 -4978 0
1000000 18 -4337 -4346 -3905 0
1000000 1880 -4337 -4346 -3905 0
1000000 81 -4575 -2797 -2855 -285 0
1000000 1881 -4575 -2797 -2855 -285 0
1000000 323 -3263 -5060 -3957 -4537 0
1000000 1882 -3263 -5060 -3957 -4537 0
1000000 789 -3550 -3980 -3902 0
1000000 1883 -3550 -3980 -3902 0
1000000 51 -2806 -4247 -4970 -723 0
1000000 1884 -2806 -4247 -4970 -723 0
1000000 670 -4364 -4848 -4007 0
1000000 1885 -4364 -4848 -4007 0
1000000 800 -3840 -4709 -4069 0
1000000 1886 -3840 -4709 -4069 0
1000000 134 -4898 -2900 -668 0
1000000 1887 -4898 -2900 -668 0
1000000 146 -3516 -3137 -4092 -4722 0
1000000 1888 -3516 -3137 -4092 -4722 0
1000000 416 -4158 -4465 -4265 -5049 0
1000000 1889 -4158 -4465 -4265 -5049 0
1000000 581 -3046 -4895 0
1000000 1890 -3046 -4895 0
1000000 536 -3915 -4673 0
1000000 1891 -3915 -4673 0
1000000 133 -3191 -3971 -224 0
1000000 1892 -3191 -3971 -224 0
1000000 648 -3109 -3409 -4295 -4177 0
1000000 1893 -3109 -3409 -4295 -4177 0
1000000 536 -3640 -2736 -3053 -3456 0
1000000 1894 -3640 -2736 -3053 -3456 0
1000000 466 -4948 -5054 0
1000000 1895 -4948 -5054 0
1000000 713 -3956 -2791 -5009 0
1000000 1896 -3956 -2791 -5009 0
1000000 565 -3780 -4120 0
1000000 1897 -3780 -4120 0
1000000 481 -5104 -3464 -4486 0
1000000 1898 -5104 -3464 -4486 0
1000000 569 -3916 -648 0
1000000 1899 -3916 -648 0
1000000 115 -2795 -3591 -3441 -5049 0
1000000 1900 -2795 -3591 -3441 -5049 0
1000000 372 -3218 -3947 -4634 -4357 0
1000000 1901 -3218 -3947 -4634 -4357 0
1000000 508 -2796 -4335 -2919 -4886 0
1000000 1902 -2796 -4335 -2919 -4886 0
1000000 537 -4038 -3547 0
1000000 1903 -4038 -3547 0
1000000 693 -4957 -2793 -4584 -3753 0
1000000 1904 -4957 -2793 -4584 -3753 0
1000000 613 -3796 -5050 0
1000000 1905 -3796 -5050 0
1000000 81 -3068 -545 0
1000000 1906 -3068 -545 0
1000000 256 -4086 -4674 0
1000000 1907 -4086 -4674 0
1000000 358 -3603 -4417 0
1000000 1908 -3603 -4417 0
1000000 514 -3345 -2891 -4291 -2956 0
1000000 1909 -3345 -2891 -4291 -2956 0
1000000 659 -2853 -3393 -4646 -691 0
1000000 1910 -2853 -3393 -4646 -691 0
1000000 499 -4255 -4972 0
1000000 1911 -4255 -4972 0
1000000 136 -4233 -3232 -3499 0
1000000 1912 -4233 -3232 -3499 0
1000000 258 -4825 -3479 0
1000000 1913 -4825 -3479 0
1000000 193 -4099 -3968 -2732 -433 0
1000000 1914 -4099 -3968 -2732 -433 0
1000000 622 -4616 -3556 -4330 0
1000000 1915 -4616 -3556 -4330 0
1000000 433 -3644 -3711 0
1000000 1916 -3644 -3711 0
1000000 273 -5070 -3150 0
1000000 1917 -5070 -3150 0
1000000 204 -4915 -3811 0
1000000 1918 -4915 -3811 0
1000000 75 -4935 -2870 0
1000000 1919 -4935 -2870 0
1000000 280 -5002 -2890 -4484 0
1000000 1920 -5002 -2890 -4484 0
1000000 745 -4585 -4715 -3001 -748 0
1000000 1921 -4585 -4715 -3001 -748 0
1000000 141 -3591 -4508 -3689 -4873 0
1000000 1922 -3591 -4508 -3689 -4873 0
1000000 422 -3116 -2800 -4263 -5118 0
1000000 1923 -3116 -2800 -4263 -5118 0
1000000 461 -3854 -2746 -4338 -3580 0
1000000 1924 -3854 -2746 -4338 -3580 0
1000000 619 -2831 -4384 -3295 -4643 0
1000000 1925 -2831 -4384 -3295 -4643 0
1000000 386 -3401 -4985 0
1000000 1926 -3401 -4985 0
1000000 511 -4351 -4859 0
1000000 1927 -4351 -4859 0
1000000 630 -3695 -4975 -4325 -730 0
1000000 1928 -3695 -4975 -4325 -730 0
1000000 379 -5025 -5052 0
1000000 1929 -5025 -5052 0
1000000 753 -2894 -4261 -4217 0
1000000 1930 -2894 -4261 -4217 0
1000000 619 -4794 -796 0
1000000 1931 -4794 -796 0
1000000 737 -2942 -3666 0
1000000 1932 -2942 -3666 0
1000000 267 -3241 -3392 -717 0
1000000 1933 -3241 -3392 -717 0
1000000 55 -3569 -4772 0
1000000 1934 -3569 -4772 0
1000000 765 -3292 -3000 0
1000000 1935 -3292 -3000 0
1000000 748 -3426 -3699 -4518 0
1000000 1936 -3426 -3699 -4518 0
1000000 769 -4214 -4951 0
1000000 1937 -4214 -4951 0
1000000 587 -5037 -3637 -3872 0
1000000 1938 -5037 -3637 -3872 0
1000000 190 -4195 -4413 -4031 0
1000000 1939 -4195 -4413 -4031 0
1000000 80 -4853 -4885 -299 0
1000000 1940 -4853 -4885 -299 0
1000000 625 -4151 -3974 0
1000000 1941 -4151 -3974 0
1000000 52 -5080 -3591 -4720 0
1000000 1942 -5080 -3591 -4720 0
1000000 516 -4354 -2961 -3958 0
1000000 1943 -4354 -2961 -3958 0
1000000 778 -4669 -3832 -5019 -3378 0
1000000 1944 -4669 -3832 -5019 -3378 0
1000000 525 -3085 -728 0
1000000 1945 -3085 -728 0
1000000 397 -4051 -4218 -3213 0
1000000 1946 -4051 -4218 -3213 0
1000000 704 -4898 -5094 -3456 -3069 0
1000000 1947 -4898 -5094 -3456 -3069 0
1000000 76 -2929 -3130 -3262 0
1000000 1948 -2929 -3130 -3262 0
1000000 313 -5045 -4234 -3264 0
1000000 1949 -5045 -4234 -3264 0
1000000 213 -4623 -4642 -2993 -3366 0
1000000 1950 -4623 -4642 -2993 -3366 0
1000000 2 -3172 -5105 -5039 -4308 0
1000000 1951 -3172 -5105 -5039 -4308 0
1000000 332 -2980 -3658 -3784 -4523 0
1000000 1952 -2980 -3658 -3784 -4523 0
1000000 139 -2870 -674 0
1000000 1953 -2870 -674 0
1000000 149 -3116 -3547 -3282 -4410 0
1000000 1954 -3116 -3547 -3282 -4410 0
1000000 118 -4330 -597 0
1000000 1955 -4330 -597 0
1000000 590 -4844 -3288 0
1000000 1956 -4844 -3288 0
1000000 370 -4328 -3505 0
1000000 1957 -4328 -3505 0
1000000 780 -4663 -4307 -2739 0
1000000 1958 -4663 -4307 -2739 0
1000000 387 -4505 -4389 -3056 -3227 0
1000000 1959 -4505 -4389 -3056 -3227 0
1000000 136 -3625 -2858 -5052 0
1000000 1960 -3625 -2858 -5052 0
1000000 673 -4136 -3770 -3626 -770 0
1000000 1961 -4136 -3770 -3626 -770 0
1000000 472 -4586 -2752 0
1000000 1962 -4586 -2752 0
1000000 97 -3927 -4090 -2858 0
1000000 1963 -3927 -4090 -2858 0
1000000 341 -3370 -3331 0
1000000 1964 -3370 -3331 0
1000000 69 -4909 -3960 -3428 -2771 0
1000000 1965 -4909 -3960 -3428 -2771 0
1000000 47 -3480 -174 0
1000000 1966 -3480 -174 0
1000000 40 -2854 -4456 -4181 -4836 0
1000000 1967 -2854 -4456 -4181 -4836 0
1000000 661 -3280 -4825 -3636 0
1000000 1968 -3280 -4825 -3636 0
1000000 279 -3261 -3372 -3687 -4948 0
1000000 1969 -3261 -3372 -3687 -4948 0
1000000 757 -3787 -4190 0
1000000 1970 -3787 -4190 0
1000000 522 -5103 -3943 -3595 0
1000000 1971 -5103 -3943 -3595 0
1000000 309 -3998 -4236 -4362 0
1000000 1972 -3998 -4236 -4362 0
1000000 370 -3555 -3711 0
1000000 1973 -3555 -3711 0
1000000 235 -4764 -4414 -4358 -4510 0
1000000 1974 -4764 -4414 -4358 -4510 0
1000000 218 -3600 -4658 -2880 -2988 0
1000000 1975 -3600 -4658 -2880 -2988 0
1000000 798 -4013 -3202 -799 0
1000000 1976 -4013 -3202 -799 0
1000000 455 -3845 -3722 -4319 0
1000000 1977 -3845 -3722 -4319 0
1000000 722 -4415 -3180 -3662 -3999 0
1000000 1978 -4415 -3180 -3662 -3999 0
1000000 380 -4329 -4394 -2993 -4099 0
1000000 1979 -4329 -4394 -2993 -4099 0
1000000 351 -3687 -3329 0
1000000 1980 -3687 -3329 0
1000000 268 -3578 -673 0
1000000 1981 -3578 -673 0
1000000 206 -4767 -4758 -4925 -635 0
1000000 1982 -4767 -4758 -4925 -635 0
1000000 454 -3146 -3192 -503 0
1000000 1983 -3146 -3192 -503 0
1000000 31 -4204 -3572 -4832 0
1000000 1984 -4204 -3572 -4832 0
1000000 354 -4701 -2930 -4213 0
1000000 1985 -4701 -2930 -4213 0
1000000 200 -5110 -3302 -4105 -3298 0
1000000 1986 -5110 -3302 -4105 -3298 0
1000000 277 -4741 -4010 -3782 -4044 0
1000000 1987 -4741 -4010 -3782 -4044 0
1000000 384 -4525 -3529 -3649 0
1000000 1988 -4525 -3529 -3649 0
1000000 485 -3566 -4411 -2977 -603 0
1000000 1989 -3566 -4411 -2977 -603 0
1000000 498 -4753 -4105 -3559 0
1000000 1990 -4753 -4105 -3559 0
1000000 182 -3529 -3497 0
1000000 1991 -3529 -3497 0
1000000 659 -3729 -4282 0
1000000 1992 -3729 -4282 0
1000000 278 -2789 -2911 0
1000000 1993 -2789 -2911 0
1000000 500 -4132 -5100 0
1000000 1994 -4132 -5100 0
1000000 731 -4741 -3655 -3977 -4613 0
1000000 1995 -4741 -3655 -3977 -4613 0
1000000 475 -2958 -4112 -649 0
1000000 1996 -2958 -4112 -649 0
1000000 293 -2733 -3146 -2938 -559 0
1000000 1997 -2733 -3146 -2938 -559 0
1000000 311 -4330 -4327 -4118 -3354 0
1000000 1998 -4330 -4327 -4118 -3354 0
1000000 608 -3327 -3517 -4480 -3183 0
1000000 1999 -3327 -3517 -4480 -3183 0
1000000 68 -4902 -4206 0
1000000 2000 -4902 -4206 0
1000000 444 -4820 -546 0
1000000 2001 -4820 -546 0
1000000 347 -4093 -3667 -418 0
1000000 2002 -4093 -3667 -418 0
1000000 748 -4118 -4730 -2805 0
1000000 2003 -4118 -4730 -2805 0
1000000 614 -4165 -662 0
1000000 2004 -4165 -662 0
1000000 226 -4324 -3380 -768 0
1000000 2005 -4324 -3380 -768 0
1000000 493 -3435 -3025 -3951 -4745 0
1000000 2006 -3435 -3025 -3951 -4745 0
1000000 786 -3544 -2919 -4488 -794 0
1000000 2007 -3544 -2919 -4488 -794 0
1000000 178 -4953 -4843 -639 0
1000000 2008 -4953 -4843 -639 0
1000000 61 -4351 -3225 0
1000000 2009 -4351 -3225 0
1000000 163 -4295 -737 0
1000000 2010 -4295 -737 0
1000000 116 -2746 -3174 0
1000000 2011 -2746 -3174 0
1000000 546 -4057 -4049 0
1000000 2012 -4057 -4049 0
1000000 293 -3697 -4706 0
1000000 2013 -3697 -4706 0
1000000 49 -4872 -5113 0
1000000 2014 -4872 -5113 0
1000000 247 -4848 -589 0
1000000 2015 -4848 -589 0
1000000 291 -3505 -4508 -2737 0
1000000 2016 -3505 -4508 -2737 0
1000000 73 -2838 -553 0
1000000 2017 -2838 -553 0
1000000 540 -4504 -597 0
1000000 2018 -4504 -597 0
1000000 362 -2965 -4084 -4119 0
1000000 2019 -2965 -4084 -4119 0
1000000 409 -4231 -3085 0
1000000 2020 -4231 -3085 0
1000000 504 -3117 -3554 -3273 0
1000000 2021 -3117 -3554 -3273 0
1000000 64 -4221 -3940 -4469 0
1000000 2022 -4221 -3940 -4469 0
1000000 263 -4368 -4367 -2882 0
1000000 2023 -4368 -4367 -2882 0
1000000 503 -4611 -2727 -2947 0
1000000 2024 -4611 -2727 -2947 0
1000000 317 -3134 -3690 -4643 -4687 0
1000000 2025 -3134 -3690 -4643 -4687 0
1000000 313 -3095 -4228 0
1000000 2026 -3095 -4228 0
1000000 746 -3130 -4437 0
1000000 2027 -3130 -4437 0
1000000 189 -3585 -3975 -600 0
1000000 2028 -3585 -3975 -600 0
1000000 568 -3884 -644 0
1000000 2029 -3884 -644 0
1000000 427 -5073 -3782 0
1000000 2030 -5073 -3782 0
1000000 82 -4226 -3631 -3457 0
1000000 2031 -4226 -3631 -3457 0
1000000 6 -3197 -4514 -3845 -3897 0
1000000 2032 -3197 -4514 -3845 -3897 0
1000000 788 -4999 -2918 -3610 0
1000000 2033 -4999 -2918 -3610 0
1000000 490 -4161 -4347 0
1000000 2034 -4161 -4347 0
1000000 195 -3678 -2741 -4818 -639 0
1000000 2035 -3678 -2741 -4818 -639 0
1000000 181 -3490 -4779 0
1000000 2036 -3490 -4779 0
1000000 53 -3273 -4268 -4742 -3287 0
1000000 2037 -3273 -4268 -4742 -3287 0
1000000 756 -4139 -4558 0
1000000 2038 -4139 -4558 0
1000000 766 -3087 -3630 -3511 -791 0
1000000 2039 -3087 -3630 -3511 -791 0
1000000 749 -3750 -4794 0
1000000 2040 -3750 -4794 0
1000000 721 -3014 -5001 -3119 0
1000000 2041 -3014 -5001 -3119 0
1000000 117 -4579 -231 0
1000000 2042 -4579 -231 0
1000000 656 -3900 -3333 -3172 -4504 0
1000000 2043 -3900 -3333 -3172 -4504 0
1000000 242 -4657 -3047 -551 0
1000000 2044 -4657 -3047 -551 0
1000000 170 -3578 -3118 -4312 0
1000000 2045 -3578 -3118 -4312 0
1000000 356 -3652 -3399 -4588 0
1000000 2046 -3652 -3399 -4588 0
1000000 306 -3569 -4202 0
1000000 2047 -3569 -4202 0
1000000 636 -4534 -4905 -4004 0
1000000 2048 -4534 -4905 -4004 0
1000000 481 -3237 -5010 0
1000000 2049 -3237 -5010 0
1000000 234 -4404 -3589 -2937 -4452 0
1000000 2050 -4404 -3589 -2937 -4452 0
1000000 408 -2787 -3499 -3677 0
1000000 2051 -2787 -3499 -3677 0
1000000 47 -4219 -3671 0
1000000 2052 -4219 -3671 0
1000000 796 -4462 -4141 0
1000000 2053 -4462 -4141 0
1000000 48 -4230 -2764 -3620 0
1000000 2054 -4230 -2764 -3620 0
1000000 516 -4813 -3220 -3087 -4248 0
1000000 2055 -4813 -3220 -3087 -4248 0
1000000 375 -2776 -3166 -760 0
1000000 2056 -2776 -3166 -760 0
1000000 475 -4339 -3235 -783 0
1000000 2057 -4339 -3235 -783 0
1000000 507 -4874 -4238 -4542 -681 0
1000000 2058 -4874 -4238 -4542 -681 0
1000000 36 -2805 -4833 -4636 -4744 0
1000000 2059 -2805 -4833 -4636 -4744 0
1000000 560 -2841 -3354 -2790 0
1000000 2060 -2841 -3354 -2790 0
1000000 40 -2762 -4942 0
1000000 2061 -2762 -4942 0
1000000 509 -5033 -3461 -4241 -4810 0
1000000 2062 -5033 -3461 -4241 -4810 0
1000000 568 -4116 -4063 0
1000000 2063 -4116 -4063 0
1000000 344 -4460 -3520 -608 0
1000000 2064 -4460 -3520 -608 0
1000000 592 -3793 -3407 -3434 -4075 0
1000000 2065 -3793 -3407 -3434 -4075 0
1000000 304 -4016 -3362 -4954 -4956 0
1000000 2066 -4016 -3362 -4954 -4956 0
1000000 427 -4036 -4416 -4239 -4559 0
1000000 2067 -4036 -4416 -4239 -4559 0
1000000 141 -3122 -3118 -4961 0
1000000 2068 -3122 -3118 -4961 0
1000000 38 -4478 -3531 -101 0
1000000 2069 -4478 -3531 -101 0
1000000 249 -2733 -2985 -4172 -3521 0
1000000 2070 -2733 -2985 -4172 -3521 0
1000000 425 -4356 -4442 -4345 -2867 0
1000000 2071 -4356 -4442 -4345 -2867 0
1000000 595 -2851 -3440 -4745 0
1000000 2072 -2851 -3440 -4745 0
1000000 6 -3929 -4998 -3252 -4625 0
1000000 2073 -3929 -4998 -3252 -4625 0
1000000 127 -3442 -4043 0
1000000 2074 -3442 -4043 0
1000000 453 -2923 -3430 -3241 -5113 0
1000000 2075 -2923 -3430 -3241 -5113 0
1000000 84 -4423 -2803 -4474 -3376 0
1000000 2076 -4423 -2803 -4474 -3376 0
1000000 647 -3347 -3469 -4584 0
1000000 2077 -3347 -3469 -4584 0
1000000 587 -3971 -2818 -5075 0
1000000 2078 -3971 -2818 -5075 0
1000000 698 -3193 -3772 -763 0
1000000 2079 -3193 -3772 -763 0
1000000 243 -2972 -3135 0
1000000 2080 -2972 -3135 0
1000000 622 -5032 -3184 -3466 0
1000000 2081 -5032 -3184 -3466 0
1000000 476 -3267 -3308 0
1000000 2082 -3267 -3308 0
1000000 742 -4615 -4898 -4764 0
1000000 2083 -4615 -4898 -4764 0
1000000 735 -3677 -4024 -4111 0
1000000 2084 -3677 -4024 -4111 0
1000000 94 -4590 -4387 0
1000000 2085 -4590 -4387 0
1000000 672 -4955 -3936 -3436 -4836 0
1000000 2086 -4955 -3936 -3436 -4836 0
1000000 744 -4258 -4180 -4644 -777 0
1000000 2087 -4258 -4180 -4644 -777 0
1000000 364 -4532 -2936 0
1000000 2088 -4532 -2936 0
1000000 764 -3578 -4848 0
1000000 2089 -3578 -4848 0
1000000 163 -4735 -4671 0
1000000 2090 -4735 -4671 0
1000000 628 -4578 -3603 -3089 0
1000000 2091 -4578 -3603 -3089 0
1000000 491 -4517 -2976 0
1000000 2092 -4517 -2976 0
1000000 601 -3940 -3516 0
1000000 2093 -3940 -3516 0
1000000 284 -4675 -4400 0
1000000 2094 -4675 -4400 0
1000000 106 -2860 -3825 -2881 0
1000000 2095 -2860 -3825 -2881 0
1000000 377 -4044 -451 0
1000000 2096 -4044 -451 0
1000000 798 -3467 -4901 -4014 0
1000000 2097 -3467 -4901 -4014 0
1000000 549 -3132 -4677 -3532 0
1000000 2098 -3132 -4677 -3532 0
1000000 368 -2841 -4890 -583 0
1000000 2099 -2841 -4890 -583 0
1000000 304 -4971 -4898 -4400 -471 0
1000000 2100 -4971 -4898 -4400 -471 0
1000000 107 -4433 -4872 0
1000000 2101 -4433 -4872 0
1000000 573 -3103 -3399 -4254 -5019 0
1000000 2102 -3103 -3399 -4254 -5019 0
1000000 411 -3535 -4112 0
1000000 2103 -3535 -4112 0
1000000 277 -2835 -419 0
1000000 2104 -2835 -419 0
1000000 524 -3851 -5068 -4028 -4625 0
1000000 2105 -3851 -5068 -4028 -4625 0
1000000 552 -4924 -3603 -4670 0
1000000 2106 -4924 -3603 -4670 0
1000000 328 -3247 -550 0
1000000 2107 -3247 -550 0
1000000 327 -4083 -3719 0
1000000 2108 -4083 -3719 0
1000000 529 -2927 -617 0
1000000 2109 -2927 -617 0
1000000 602 -4702 -3026 -4459 0
1000000 2110 -4702 -3026 -4459 0
1000000 453 -2781 -4403 0
1000000 2111 -2781 -4403 0
1000000 666 -4660 -4728 -3342 0
1000000 2112 -4660 -4728 -3342 0
1000000 17 -3986 -3226 0
1000000 2113 -3986 -3226 0
1000000 504 -3795 -4269 -4229 0
1000000 2114 -3795 -4269 -4229 0
1000000 325 -3732 -4800 -4312 -3401 0
1000000 2115 -3732 -4800 -4312 -3401 0
1000000 471 -4327 -598 0
1000000 2116 -4327 -598 0
1000000 398 -4798 -4512 -3760 -4962 0
1000000 2117 -4798 -4512 -3760 -4962 0
1000000 7 -3665 -5065 -4602 0
1000000 2118 -3665 -5065 -4602 0
1000000 485 -4123 -4099 -3629 0
1000000 2119 -4123 -4099 -3629 0
1000000 302 -3738 -4053 -692 0
1000000 2120 -3738 -4053 -692 0
1000000 556 -3671 -768 0
1000000 2121 -3671 -768 0
1000000 703 -3089 -5106 -725 0
1000000 2122 -3089 -5106 -725 0
1000000 569 -4008 -4397 -800 0
1000000 2123 -4008 -4397 -800 0
1000000 710 -4302 -3916 0
1000000 2124 -4302 -3916 0
1000000 86 -3591 -4359 -4993 0
1000000 2125 -3591 -4359 -4993 0
1000000 393 -4779 -3247 -3846 -5019 0
1000000 2126 -4779 -3247 -3846 -5019 0
1000000 397 -4011 -3490 -3394 0
1000000 2127 -4011 -3490 -3394 0
1000000 59 -2741 -2730 -3342 -3729 0
1000000 2128 -2741 -2730 -3342 -3729 0
1000000 345 -4238 -2967 -2806 0
1000000 2129 -4238 -2967 -2806 0
1000000 415 -5080 -3967 0
1000000 2130 -5080 -3967 0
1000000 165 -3321 -3901 0
1000000 2131 -3321 -3901 0
1000000 634 -5102 -4282 -4375 -748 0
1000000 2132 -5102 -4282 -4375 -748 0
1000000 129 -4491 -3579 0
1000000 2133 -4491 -3579 0
1000000 458 -4753 -3454 0
1000000 2134 -4753 -3454 0
1000000 43 -5042 -4541 -645 0
1000000 2135 -5042 -4541 -645 0
1000000 326 -4685 -4905 0
1000000 2136 -4685 -4905 0
1000000 50 -3358 -4261 -2802 -232 0
1000000 2137 -3358 -4261 -2802 -232 0
1000000 419 -4031 -3501 -4007 -4567 0
1000000 2138 -4031 -3501 -4007 -4567 0
1000000 320 -4724 -2836 -2841 -4425 0
1000000 2139 -4724 -2836 -2841 -4425 0
1000000 665 -4112 -5081 0
1000000 2140 -4112 -5081 0
1000000 562 -3883 -3872 -3540 0
1000000 2141 -3883 -3872 -3540 0
1000000 390 -4932 -3947 -4576 -3402 0
1000000 2142 -4932 -3947 -4576 -3402 0
1000000 442 -4194 -4281 -4446 -2938 0
1000000 2143 -4194 -4281 -4446 -2938 0
1000000 493 -5104 -4242 -3747 -530 0
1000000 2144 -5104 -4242 -3747 -530 0
1000000 712 -3955 -5032 -3025 -4938 0
1000000 2145 -3955 -5032 -3025 -4938 0
1000000 318 -3478 -4491 -4753 0
1000000 2146 -3478 -4491 -4753 0
1000000 188 -4586 -2961 -4688 -482 0
1000000 2147 -4586 -2961 -4688 -482 0
1000000 710 -3275 -4391 0
1000000 2148 -3275 -4391 0
1000000 795 -4989 -4975 0
1000000 2149 -4989 -4975 0
1000000 675 -3764 -5058 0
1000000 2150 -3764 -5058 0
1000000 171 -4272 -3846 -3655 0
1000000 2151 -4272 -3846 -3655 0
1000000 71 -3766 -3435 -2953 -4042 0
1000000 2152 -3766 -3435 -2953 -4042 0
1000000 642 -3569 -3154 0
1000000 2153 -3569 -3154 0
1000000 13 -3073 -3156 -3742 -4647 0
1000000 2154 -3073 -3156 -3742 -4647 0
1000000 470 -3633 -4379 -474 0
1000000 2155 -3633 -4379 -474 0
1000000 208 -4214 -4908 -4207 -586 0
1000000 2156 -4214 -4908 -4207 -586 0
1000000 746 -3294 -3219 -3816 0
1000000 2157 -3294 -3219 -3816 0
1000000 414 -4388 -3370 0
1000000 2158 -4388 -3370 0
1000000 287 -3359 -3839 -3975 -3113 0
1000000 2159 -3359 -3839 -3975 -3113 0
1000000 767 -5081 -4098 -4214 -4941 0
1000000 2160 -5081 -4098 -4214 -4941 0
1000000 542 -4287 -3035 -3358 0
1000000 2161 -4287 -3035 -3358 0
1000000 540 -3246 -3532 -3596 -3067 0
1000000 2162 -3246 -3532 -3596 -3067 0
1000000 399 -4020 -5026 -4837 0
1000000 2163 -4020 -5026 -4837 0
1000000 678 -4264 -2949 0
1000000 2164 -4264 -2949 0
1000000 792 -3940 -3151 0
1000000 2165 -3940 -3151 0
1000000 400 -2909 -3293 0
1000000 2166 -2909 -3293 0
1000000 232 -4952 -5086 -3552 0
1000000 2167 -4952 -5086 -3552 0
1000000 288 -3339 -4955 -4322 -3985 0
1000000 2168 -3339 -4955 -4322 -3985 0
1000000 501 -3153 -4081 0
1000000 2169 -3153 -4081 0
1000000 430 -4338 -4031 -4117 0
1000000 2170 -4338 -4031 -4117 0
1000000 782 -4073 -2909 0
1000000 2171 -4073 -2909 0
1000000 704 -4480 -4650 -3703 -4060 0
1000000 2172 -4480 -4650 -3703 -4060 0
1000000 718 -3436 -5108 -2868 -4780 0
1000000 2173 -3436 -5108 -2868 -4780 0
1000000 314 -4131 -3010 -4898 -773 0
1000000 2174 -4131 -3010 -4898 -773 0
1000000 366 -3796 -2807 -5058 -3964 0
1000000 2175 -3796 -2807 -5058 -3964 0
1000000 638 -2976 -4395 -5070 -768 0
1000000 2176 -2976 -4395 -5070 -768 0
1000000 355 -4419 -4919 -4669 0
1000000 2177 -4419 -4919 -4669 0
1000000 586 -4149 -4753 -4162 -671 0
1000000 2178 -4149 -4753 -4162 -671 0
1000000 605 -4954 -2883 -4975 0
1000000 2179 -4954 -2883 -4975 0
1000000 409 -3447 -4193 -2879 0
1000000 2180 -3447 -4193 -2879 0
1000000 740 -2748 -4729 -4179 0
1000000 2181 -2748 -4729 -4179 0
1000000 730 -5002 -2966 -4442 0
1000000 2182 -5002 -2966 -4442 0
1000000 654 -3580 -769 0
1000000 2183 -3580 -769 0
1000000 1 -2734 -2740 0
1000000 2184 -2734 -2740 0
1000000 754 -3175 -784 0
1000000 2185 -3175 -784 0
1000000 10 -4193 -2735 -3686 -3108 0
1000000 2186 -4193 -2735 -3686 -3108 0
1000000 518 -3568 -4244 0
1000000 2187 -3568 -4244 0
1000000 785 -3157 -2770 -4320 -4620 0
1000000 2188 -3157 -2770 -4320 -4620 0
1000000 131 -4400 -2976 -2964 -2780 0
1000000 2189 -4400 -2976 -2964 -2780 0
1000000 538 -4019 -3421 -728 0
1000000 2190 -4019 -3421 -728 0
1000000 599 -3323 -3529 -3477 -602 0
1000000 2191 -3323 -3529 -3477 -602 0
1000000 364 -4029 -3557 0
1000000 2192 -4029 -3557 0
1000000 520 -4432 -2893 0
1000000 2193 -4432 -2893 0
1000000 586 -4604 -2964 -4530 0
1000000 2194 -4604 -2964 -4530 0
1000000 144 -3326 -4613 -2984 -416 0
1000000 2195 -3326 -4613 -2984 -416 0
1000000 709 -3621 -4710 -719 0
1000000 2196 -3621 -4710 -719 0
1000000 688 -3036 -4030 -4456 -4576 0
1000000 2197 -3036 -4030 -4456 -4576 0
1000000 449 -4573 -4193 -585 0
1000000 2198 -4573 -4193 -585 0
1000000 160 -5100 -4607 -4305 -3527 0
1000000 2199 -5100 -4607 -4305 -3527 0
1000000 307 -3713 -2728 -3660 -777 0
1000000 2200 -3713 -2728 -3660 -777 0
1000000 322 -4929 -5042 -4464 -4402 0
1000000 2201 -4929 -5042 -4464 -4402 0
1000000 586 -3757 -4956 0
1000000 2202 -3757 -4956 0
1000000 485 -4963 -592 0
1000000 2203 -4963 -592 0
1000000 343 -3048 -4641 0
1000000 2204 -3048 -4641 0
1000000 686 -3569 -4789 0
1000000 2205 -3569 -4789 0
1000000 743 -3218 -3865 -3628 -3082 0
1000000 2206 -3218 -3865 -3628 -3082 0
1000000 615 -3841 -2828 -791 0
1000000 2207 -3841 -2828 -791 0
1000000 157 -4630 -632 0
1000000 2208 -4630 -632 0
1000000 556 -3775 -2884 -4673 -3241 0
1000000 2209 -3775 -2884 -4673 -3241 0
1000000 156 -3902 -3417 -3063 -3795 0
1000000 2210 -3902 -3417 -3063 -3795 0
1000000 458 -3611 -4392 -5051 0
1000000 2211 -3611 -4392 -5051 0
1000000 380 -4531 -4118 -4397 0
1000000 2212 -4531 -4118 -4397 0
1000000 338 -3414 -3545 -4870 0
1000000 2213 -3414 -3545 -4870 0
1000000 79 -4260 -3699 0
1000000 2214 -4260 -3699 0
1000000 626 -3622 -3975 -3177 -4366 0
1000000 2215 -3622 -3975 -3177 -4366 0
1000000 294 -4012 -4633 -2842 -387 0
1000000 2216 -4012 -4633 -2842 -387 0
1000000 75 -4821 -2842 -2980 -4214 0
1000000 2217 -4821 -2842 -2980 -4214 0
1000000 26 -3442 -3707 -2870 -4967 0
1000000 2218 -3442 -3707 -2870 -4967 0
1000000 572 -2813 -4694 0
1000000 2219 -2813 -4694 0
1000000 149 -2818 -553 0
1000000 2220 -2818 -553 0
1000000 226 -5025 -3396 0
1000000 2221 -5025 -3396 0
1000000 32 -4587 -548 0
1000000 2222 -4587 -548 0
1000000 789 -4697 -4576 -4375 -800 0
1000000 2223 -4697 -4576 -4375 -800 0
1000000 473 -4252 -4651 -3398 -3715 0
1000000 2224 -4252 -4651 -3398 -3715 0
1000000 109 -3074 -4178 -3071 -3463 0
1000000 2225 -3074 -4178 -3071 -3463 0
1000000 584 -4380 -2939 -4933 0
1000000 2226 -4380 -2939 -4933 0
1000000 699 -3296 -3602 0
1000000 2227 -3296 -3602 0
1000000 139 -4255 -3152 0
1000000 2228 -4255 -3152 0
1000000 456 -4027 -5030 0
1000000 2229 -4027 -5030 0
1000000 459 -4022 -4008 0
1000000 2230 -4022 -4008 0
1000000 151 -4468 -2800 -4393 -4699 0
1000000 2231 -4468 -2800 -4393 -4699 0
1000000 461 -2996 -2736 -4124 -4477 0
1000000 2232 -2996 -2736 -4124 -4477 0
1000000 477 -2784 -2955 -4146 -4155 0
1000000 2233 -2784 -2955 -4146 -4155 0
1000000 223 -4469 -4687 0
1000000 2234 -4469 -4687 0
1000000 305 -4962 -3826 -3704 -645 0
1000000 2235 -4962 -3826 -3704 -645 0
1000000 294 -3419 -2767 -357 0
1000000 2236 -3419 -2767 -357 0
1000000 197 -3278 -4589 -4177 0
1000000 2237 -3278 -4589 -4177 0
1000000 444 -4498 -625 0
1000000 2238 -4498 -625 0
1000000 366 -4121 -4195 0
1000000 2239 -4121 -4195 0
1000000 22 -3563 -4558 -3930 -4680 0
1000000 2240 -3563 -4558 -3930 -4680 0
1000000 255 -3532 -2888 0
1000000 2241 -3532 -2888 0
1000000 112 -5036 -695 0
1000000 2242 -5036 -695 0
1000000 384 -3635 -3541 0
1000000 2243 -3635 -3541 0
1000000 496 -3616 -2822 -3379 -548 0
1000000 2244 -3616 -2822 -3379 -548 0
1000000 593 -4142 -3551 -3613 -3427 0
1000000 2245 -4142 -3551 -3613 -3427 0
1000000 191 -4447 -4783 -3887 -3842 0
1000000 2246 -4447 -4783 -3887 -3842 0
1000000 526 -2991 -4042 -4792 -4047 0
1000000 2247 -2991 -4042 -4792 -4047 0
1000000 400 -3525 -3933 -4013 0
1000000 2248 -3525 -3933 -4013 0
1000000 318 -2768 -4755 -3846 -2847 0
1000000 2249 -2768 -4755 -3846 -2847 0
1000000 166 -3469 -4401 -3114 0
1000000 2250 -3469 -4401 -3114 0
1000000 457 -3081 -4152 -2911 0
1000000 2251 -3081 -4152 -2911 0
1000000 564 -4041 -4159 -3698 -4485 0
1000000 2252 -4041 -4159 -3698 -4485 0
1000000 363 -3271 -4651 -2956 0
1000000 2253 -3271 -4651 -2956 0
1000000 484 -3457 -3244 -2848 -3288 0
1000000 2254 -3457 -3244 -2848 -3288 0
1000000 661 -4019 -4119 -4104 -737 0
1000000 2255 -4019 -4119 -4104 -737 0
1000000 540 -3882 -3960 -5019 -4021 0
1000000 2256 -3882 -3960 -5019 -4021 0
1000000 374 -4421 -4404 -3677 0
1000000 2257 -4421 -4404 -3677 0
1000000 164 -4421 -3987 -2789 0
1000000 2258 -4421 -3987 -2789 0
1000000 314 -3627 -4382 -617 0
1000000 2259 -3627 -4382 -617 0
1000000 719 -2881 -4426 -4764 -793 0
1000000 2260 -2881 -4426 -4764 -793 0
1000000 523 -4432 -3008 0
1000000 2261 -4432 -3008 0
1000000 207 -3457 -2826 -3586 -5038 0
1000000 2262 -3457 -2826 -3586 -5038 0
1000000 55 -4417 -218 0
1000000 2263 -4417 -218 0
1000000 440 -4088 -4451 0
1000000 2264 -4088 -4451 0
1000000 352 -3916 -555 0
1000000 2265 -3916 -555 0
1000000 609 -3448 -2987 -794 0
1000000 2266 -3448 -2987 -794 0
1000000 670 -4942 -2834 -4331 0
1000000 2267 -4942 -2834 -4331 0
1000000 539 -4566 -4171 -3553 0
1000000 2268 -4566 -4171 -3553 0
1000000 81 -3754 -2981 -3446 -567 0
1000000 2269 -3754 -2981 -3446 -567 0
1000000 351 -5027 -3920 -4429 -4719 0
1000000 2270 -5027 -3920 -4429 -4719 0
1000000 482 -3310 -3577 -4175 -4556 0
1000000 2271 -3310 -3577 -4175 -4556 0
1000000 735 -5016 -4840 -4722 -784 0
1000000 2272 -5016 -4840 -4722 -784 0
1000000 345 -4474 -4852 -5050 -406 0
1000000 2273 -4474 -4852 -5050 -406 0
1000000 394 -2829 -3347 -4453 -3326 0
1000000 2274 -2829 -3347 -4453 -3326 0
1000000 32 -2917 -4005 -2738 0
1000000 2275 -2917 -4005 -2738 0
1000000 274 -4482 -3991 -3632 0
1000000 2276 -4482 -3991 -3632 0
1000000 516 -4184 -3212 -2831 -4440 0
1000000 2277 -4184 -3212 -2831 -4440 0
1000000 408 -3595 -3784 -2767 0
1000000 2278 -3595 -3784 -2767 0
1000000 175 -4641 -3153 -4661 -216 0
1000000 2279 -4641 -3153 -4661 -216 0
1000000 376 -4478 -382 0
1000000 2280 -4478 -382 0
1000000 647 -4985 -5080 0
1000000 2281 -4985 -5080 0
1000000 666 -4944 -3631 -5083 -2773 0
1000000 2282 -4944 -3631 -5083 -2773 0
1000000 340 -3488 -3545 -3815 -4237 0
1000000 2283 -3488 -3545 -3815 -4237 0
1000000 649 -3610 -3887 0
1000000 2284 -3610 -3887 0
1000000 295 -3893 -2966 -4918 0
1000000 2285 -3893 -2966 -4918 0
1000000 550 -4789 -2917 0
1000000 2286 -4789 -2917 0
1000000 751 -3607 -3228 -3316 -3923 0
1000000 2287 -3607 -3228 -3316 -3923 0
1000000 718 -3907 -3380 0
1000000 2288 -3907 -3380 0
1000000 628 -4456 -4563 -3368 -658 0
1000000 2289 -4456 -4563 -3368 -658 0
1000000 480 -3643 -2771 -4032 0
1000000 2290 -3643 -2771 -4032 0
1000000 24 -2940 -3175 -2987 0
1000000 2291 -2940 -3175 -2987 0
1000000 779 -5039 -2885 0
1000000 2292 -5039 -2885 0
1000000 430 -4357 -3152 -2813 0
1000000 2293 -4357 -3152 -2813 0
1000000 92 -3495 -4339 0
1000000 2294 -3495 -4339 0
1000000 234 -4263 -4508 -5042 -3297 0
1000000 2295 -4263 -4508 -5042 -3297 0
1000000 644 -3033 -4923 -3143 -4474 0
1000000 2296 -3033 -4923 -3143 -4474 0
1000000 670 -3534 -3684 -3000 -696 0
1000000 2297 -3534 -3684 -3000 -696 0
1000000 238 -2912 -4566 -3318 -3270 0
1000000 2298 -2912 -4566 -3318 -3270 0
1000000 153 -4928 -4785 -4148 -547 0
1000000 2299 -4928 -4785 -4148 -547 0
1000000 283 -4635 -5037 -4224 0
1000000 2300 -4635 -5037 -4224 0
1000000 288 -4317 -4102 0
1000000 2301 -4317 -4102 0
1000000 185 -3972 -4547 -3250 -3357 0
1000000 2302 -3972 -4547 -3250 -3357 0
1000000 709 -3272 -2858 -3212 -737 0
1000000 2303 -3272 -2858 -3212 -737 0
1000000 479 -4327 -4099 0
1000000 2304 -4327 -4099 0
1000000 576 -3284 -4034 -2834 -4237 0
1000000 2305 -3284 -4034 -2834 -4237 0
1000000 557 -3728 -3156 -4972 -4096 0
1000000 2306 -3728 -3156 -4972 -4096 0
1000000 708 -4731 -4131 0
1000000 2307 -4731 -4131 0
1000000 654 -4563 -3451 -2818 -2736 0
1000000 2308 -4563 -3451 -2818 -2736 0
1000000 620 -4491 -4395 0
1000000 2309 -4491 -4395 0
1000000 442 -4304 -728 0
1000000 2310 -4304 -728 0
1000000 529 -3491 -4579 -706 0
1000000 2311 -3491 -4579 -706 0
1000000 451 -3863 -470 0
1000000 2312 -3863 -470 0
1000000 691 -4695 -4290 -2882 0
1000000 2313 -4695 -4290 -2882 0
1000000 703 -3402 -3791 0
1000000 2314 -3402 -3791 0
1000000 464 -4135 -4271 -3617 -2753 0
1000000 2315 -4135 -4271 -3617 -2753 0
1000000 503 -4510 -3384 0
1000000 2316 -4510 -3384 0
1000000 178 -3245 -3177 -3520 0
1000000 2317 -3245 -3177 -3520 0
1000000 335 -4936 -3892 -3417 0
1000000 2318 -4936 -3892 -3417 0
1000000 793 -4542 -3283 0
1000000 2319 -4542 -3283 0
1000000 160 -2721 -3499 -2995 0
1000000 2320 -2721 -3499 -2995 0
1000000 471 -2963 -3964 0
1000000 2321 -2963 -3964 0
1000000 361 -2923 -2997 0
1000000 2322 -2923 -2997 0
1000000 659 -3542 -3817 -5093 0
1000000 2323 -3542 -3817 -5093 0
1000000 164 -5004 -3929 -2723 0
1000000 2324 -5004 -3929 -2723 0
1000000 558 -3416 -4952 -700 0
1000000 2325 -3416 -4952 -700 0
1000000 732 -2946 -4234 0
1000000 2326 -2946 -4234 0
1000000 510 -4864 -4812 0
1000000 2327 -4864 -4812 0
1000000 77 -3125 -4974 -3981 -3509 0
1000000 2328 -3125 -4974 -3981 -3509 0
1000000 77 -4095 -3835 -3549 -3360 0
1000000 2329 -4095 -3835 -3549 -3360 0
1000000 71 -3903 -2978 0
1000000 2330 -3903 -2978 0
1000000 778 -3638 -4828 -794 0
1000000 2331 -3638 -4828 -794 0
1000000 177 -3332 -4144 -2842 0
1000000 2332 -3332 -4144 -2842 0
1000000 248 -3891 -3625 -3089 0
1000000 2333 -3891 -3625 -3089 0
1000000 574 -5110 -4850 -3604 0
1000000 2334 -5110 -4850 -3604 0
1000000 512 -4616 -3293 -788 0
1000000 2335 -4616 -3293 -788 0
1000000 287 -4097 -3477 -3189 0
1000000 2336 -4097 -3477 -3189 0
1000000 69 -4432 -3720 -3304 -5104 0
1000000 2337 -4432 -3720 -3304 -5104 0
1000000 78 -3720 -3249 -4450 -3282 0
1000000 2338 -3720 -3249 -4450 -3282 0
1000000 475 -3396 -4149 -5069 0
1000000 2339 -3396 -4149 -5069 0
1000000 771 -4354 -3428 -4247 -3046 0
1000000 2340 -4354 -3428 -4247 -3046 0
1000000 479 -3787 -2836 -3012 0
1000000 2341 -3787 -2836 -3012 0
1000000 150 -3438 -3664 -3444 0
1000000 2342 -3438 -3664 -3444 0
1000000 291 -4671 -4774 -326 0
1000000 2343 -4671 -4774 -326 0
1000000 254 -4207 -4018 0
1000000 2344 -4207 -4018 0
1000000 614 -3319 -5036 -5082 0
1000000 2345 -3319 -5036 -5082 0
1000000 6 -3928 -4602 -4764 -3827 0
1000000 2346 -3928 -4602 -4764 -3827 0
1000000 444 -4940 -4977 -3032 -3102 0
1000000 2347 -4940 -4977 -3032 -3102 0
1000000 782 -3977 -3095 -3598 -2801 0
1000000 2348 -3977 -3095 -3598 -2801 0
1000000 447 -3730 -3354 0
1000000 2349 -3730 -3354 0
1000000 631 -4117 -4139 -4570 0
1000000 2350 -4117 -4139 -4570 0
1000000 563 -3355 -4679 -3446 0
1000000 2351 -3355 -4679 -3446 0
1000000 308 -3057 -4818 -4846 0
1000000 2352 -3057 -4818 -4846 0
1000000 594 -4637 -2838 -4273 -3288 0
1000000 2353 -4637 -2838 -4273 -3288 0
1000000 238 -4451 -492 0
1000000 2354 -4451 -492 0
1000000 608 -3423 -3356 -4066 -4009 0
1000000 2355 -3423 -3356 -4066 -4009 0
1000000 407 -5032 -4721 -4056 -4136 0
1000000 2356 -5032 -4721 -4056 -4136 0
1000000 479 -2830 -3549 -4314 -4925 0
1000000 2357 -2830 -3549 -4314 -4925 0
1000000 33 -4622 -3756 0
1000000 2358 -4622 -3756 0
1000000 349 -4704 -4952 -791 0
1000000 2359 -4704 -4952 -791 0
1000000 600 -5071 -3520 -3081 0
1000000 2360 -5071 -3520 -3081 0
1000000 256 -4670 -278 0
1000000 2361 -4670 -278 0
1000000 603 -2855 -746 0
1000000 2362 -2855 -746 0
1000000 240 -4516 -4528 0
1000000 2363 -4516 -4528 0
1000000 503 -3014 -3799 -4085 -3676 0
1000000 2364 -3014 -3799 -4085 -3676 0
1000000 303 -3747 -3031 -2725 -3855 0
1000000 2365 -3747 -3031 -2725 -3855 0
1000000 663 -2810 -4025 0
1000000 2366 -2810 -4025 0
1000000 64 -3332 -4016 0
1000000 2367 -3332 -4016 0
1000000 748 -3079 -4606 -2831 0
1000000 2368 -3079 -4606 -2831 0
1000000 77 -3851 -4931 -4813 0
1000000 2369 -3851 -4931 -4813 0
1000000 799 -3500 -3244 0
1000000 2370 -3500 -3244 0
1000000 772 -3407 -4592 -796 0
1000000 2371 -3407 -4592 -796 0
1000000 134 -2739 -4282 0
1000000 2372 -2739 -4282 0
1000000 293 -3860 -4180 0
1000000 2373 -3860 -4180 0
1000000 67 -4159 -497 0
1000000 2374 -4159 -497 0
1000000 271 -4079 -3909 -2946 0
1000000 2375 -4079 -3909 -2946 0
1000000 758 -3012 -786 0
1000000 2376 -3012 -786 0
1000000 551 -3997 -3215 -4253 0
1000000 2377 -3997 -3215 -4253 0
1000000 45 -2772 -4660 -3132 0
1000000 2378 -2772 -4660 -3132 0
1000000 404 -3122 -3491 -3035 -5010 0
1000000 2379 -3122 -3491 -3035 -5010 0
1000000 385 -4709 -4644 -4809 0
1000000 2380 -4709 -4644 -4809 0
1000000 580 -4251 -3808 -741 0
1000000 2381 -4251 -3808 -741 0
1000000 133 -5030 -4835 -5085 -4677 0
1000000 2382 -5030 -4835 -5085 -4677 0
1000000 255 -5074 -4541 -369 0
1000000 2383 -5074 -4541 -369 0
1000000 727 -4148 -3019 0
1000000 2384 -4148 -3019 0
1000000 651 -4472 -4664 0
1000000 2385 -4472 -4664 0
1000000 602 -3310 -3920 -4539 0
1000000 2386 -3310 -3920 -4539 0
1000000 597 -4143 -3333 0
1000000 2387 -4143 -3333 0
1000000 330 -4658 -3076 -3508 0
1000000 2388 -4658 -3076 -3508 0
1000000 551 -4993 -3916 -785 0
1000000 2389 -4993 -3916 -785 0
1000000 547 -3106 -706 0
1000000 2390 -3106 -706 0
1000000 172 -5096 -240 0
1000000 2391 -5096 -240 0
1000000 564 -4049 -4045 -3093 0
1000000 2392 -4049 -4045 -3093 0
1000000 383 -3572 -3833 -3878 -3897 0
1000000 2393 -3572 -3833 -3878 -3897 0
1000000 494 -2724 -3428 -4839 0
1000000 2394 -2724 -3428 -4839 0
1000000 199 -3529 -4321 -3571 -213 0
1000000 2395 -3529 -4321 -3571 -213 0
1000000 499 -4292 -4134 -3829 0
1000000 2396 -4292 -4134 -3829 0
1000000 497 -3604 -4536 -3254 0
1000000 2397 -3604 -4536 -3254 0
1000000 667 -5071 -3915 0
1000000 2398 -5071 -3915 0
1000000 265 -2776 -3051 -2857 -4346 0
1000000 2399 -2776 -3051 -2857 -4346 0
1000000 187 -3634 -2881 -551 0
1000000 2400 -3634 -2881 -551 0
1000000 705 -3741 -4445 0
1000000 2401 -3741 -4445 0
1000000 636 -4700 -4765 -4620 -4826 0
1000000 2402 -4700 -4765 -4620 -4826 0
1000000 794 -3290 -2781 -3210 0
1000000 2403 -3290 -2781 -3210 0
1000000 117 -4722 -2822 -2980 0
1000000 2404 -4722 -2822 -2980 0
1000000 589 -4168 -4274 -609 0
1000000 2405 -4168 -4274 -609 0
1000000 635 -4172 -3917 -3545 0
1000000 2406 -4172 -3917 -3545 0
1000000 599 -3084 -2928 -669 0
1000000 2407 -3084 -2928 -669 0
1000000 573 -3871 -3672 -3129 -3969 0
1000000 2408 -3871 -3672 -3129 -3969 0
1000000 409 -2818 -4423 -4772 -3237 0
1000000 2409 -2818 -4423 -4772 -3237 0
1000000 681 -3728 -789 0
1000000 2410 -3728 -789 0
1000000 130 -4363 -2932 -4665 0
1000000 2411 -4363 -2932 -4665 0
1000000 290 -4146 -5009 0
1000000 2412 -4146 -5009 0
1000000 646 -5084 -3269 -3053 0
1000000 2413 -5084 -3269 -3053 0
1000000 799 -3835 -3132 0
1000000 2414 -3835 -3132 0
1000000 793 -4534 -4602 -4893 0
1000000 2415 -4534 -4602 -4893 0
1000000 216 -3502 -652 0
1000000 2416 -3502 -652 0
1000000 752 -4816 -5089 -4425 -770 0
1000000 2417 -4816 -5089 -4425 -770 0
1000000 332 -3626 -421 0
1000000 2418 -3626 -421 0
1000000 299 -4435 -4523 -3859 -4705 0
1000000 2419 -4435 -4523 -3859 -4705 0
1000000 252 -4719 -3817 -546 0
1000000 2420 -4719 -3817 -546 0
1000000 575 -4327 -4786 -619 0
1000000 2421 -4327 -4786 -619 0
1000000 134 -3493 -4423 -3838 -559 0
1000000 2422 -3493 -4423 -3838 -559 0
1000000 326 -2760 -2743 -3926 -3101 0
1000000 2423 -2760 -2743 -3926 -3101 0
1000000 18 -3451 -4241 -4629 -2794 0
1000000 2424 -3451 -4241 -4629 -2794 0
1000000 408 -5071 -3204 0
1000000 2425 -5071 -3204 0
1000000 300 -2788 -4095 0
1000000 2426 -2788 -4095 0
1000000 85 -4223 -4996 -4007 0
1000000 2427 -4223 -4996 -4007 0
1000000 175 -2870 -3487 0
1000000 2428 -2870 -3487 0
1000000 111 -3562 -4367 -4719 0
1000000 2429 -3562 -4367 -4719 0
1000000 268 -4464 -3583 -3495 0
1000000 2430 -4464 -3583 -3495 0
1000000 520 -3170 -4262 0
1000000 2431 -3170 -4262 0
1000000 764 -4486 -5064 -4433 0
1000000 2432 -4486 -5064 -4433 0
1000000 274 -4976 -2941 0
1000000 2433 -4976 -2941 0
1000000 783 -3476 -3790 -4147 -3148 0
1000000 2434 -3476 -3790 -4147 -3148 0
1000000 65 -4783 -3557 0
1000000 2435 -4783 -3557 0
1000000 777 -4462 -3528 -4488 -3793 0
1000000 2436 -4462 -3528 -4488 -3793 0
1000000 567 -4012 -4549 -764 0
1000000 2437 -4012 -4549 -764 0
1000000 553 -2840 -3063 0
1000000 2438 -2840 -3063 0
1000000 177 -3572 -522 0
1000000 2439 -3572 -522 0
1000000 200 -4273 -3910 -4485 -2754 0
1000000 2440 -4273 -3910 -4485 -2754 0
1000000 714 -4033 -4960 -2959 0
1000000 2441 -4033 -4960 -2959 0
1000000 285 -3946 -2984 -3214 -3725 0
1000000 2442 -3946 -2984 -3214 -3725 0
1000000 123 -4185 -3273 -3111 -398 0
1000000 2443 -4185 -3273 -3111 -398 0
1000000 28 -4009 -2901 -4311 -328 0
1000000 2444 -4009 -2901 -4311 -328 0
1000000 468 -3360 -4064 -715 0
1000000 2445 -3360 -4064 -715 0
1000000 736 -4551 -4204 0
1000000 2446 -4551 -4204 0
1000000 451 -3128 -461 0
1000000 2447 -3128 -461 0
1000000 150 -3453 -401 0
1000000 2448 -3453 -401 0
1000000 555 -5065 -2725 -4635 -3879 0
1000000 2449 -5065 -2725 -4635 -3879 0
1000000 394 -4400 -3945 -3645 0
1000000 2450 -4400 -3945 -3645 0
1000000 289 -3245 -3587 0
1000000 2451 -3245 -3587 0
1000000 582 -3271 -2792 -2798 -4134 0
1000000 2452 -3271 -2792 -2798 -4134 0
1000000 374 -4614 -4857 -2885 -2781 0
1000000 2453 -4614 -4857 -2885 -2781 0
1000000 638 -4040 -784 0
1000000 2454 -4040 -784 0
1000000 604 -2950 -4145 0
1000000 2455 -2950 -4145 0
1000000 157 -4498 -3304 -5044 -5017 0
1000000 2456 -4498 -3304 -5044 -5017 0
1000000 733 -3746 -3575 0
1000000 2457 -3746 -3575 0
1000000 302 -4652 -4609 -4577 0
1000000 2458 -4652 -4609 -4577 0
1000000 779 -4671 -3569 -4599 -3981 0
1000000 2459 -4671 -3569 -4599 -3981 0
1000000 629 -3707 -3992 0
1000000 2460 -3707 -3992 0
1000000 213 -4968 -3898 0
1000000 2461 -4968 -3898 0
1000000 435 -4099 -3539 -3713 0
1000000 2462 -4099 -3539 -3713 0
1000000 533 -3951 -4376 -4924 0
1000000 2463 -3951 -4376 -4924 0
1000000 527 -5038 -4527 -596 0
1000000 2464 -5038 -4527 -596 0
1000000 206 -4798 -3902 -4597 -524 0
1000000 2465 -4798 -3902 -4597 -524 0
1000000 2 -4376 -2843 -4541 -3259 0
1000000 2466 -4376 -2843 -4541 -3259 0
1000000 455 -4487 -4863 -590 0
1000000 2467 -4487 -4863 -590 0
1000000 384 -2963 -2833 -4099 0
1000000 2468 -2963 -2833 -4099 0
1000000 587 -4789 -4348 -4913 0
1000000 2469 -4789 -4348 -4913 0
1000000 43 -3937 -5020 0
1000000 2470 -3937 -5020 0
1000000 444 -4764 -4966 0
1000000 2471 -4764 -4966 0
1000000 459 -3900 -3726 -777 0
1000000 2472 -3900 -3726 -777 0
1000000 113 -3479 -4897 -4646 0
1000000 2473 -3479 -4897 -4646 0
1000000 71 -4645 -4753 -2892 -3753 0
1000000 2474 -4645 -4753 -2892 -3753 0
1000000 647 -3448 -785 0
1000000 2475 -3448 -785 0
1000000 241 -3645 -3553 -3089 -5060 0
1000000 2476 -3645 -3553 -3089 -5060 0
1000000 419 -4790 -4102 -3907 -3352 0
1000000 2477 -4790 -4102 -3907 -3352 0
1000000 718 -4290 -3008 -3196 0
1000000 2478 -4290 -3008 -3196 0
1000000 474 -2809 -4141 -2810 -4658 0
1000000 2479 -2809 -4141 -2810 -4658 0
1000000 470 -3826 -4416 -4205 -4467 0
1000000 2480 -3826 -4416 -4205 -4467 0
1000000 114 -3687 -3369 -4091 0
1000000 2481 -3687 -3369 -4091 0
1000000 418 -4927 -484 0
1000000 2482 -4927 -484 0
1000000 459 -4155 -4078 -4327 0
1000000 2483 -4155 -4078 -4327 0
1000000 254 -3092 -4820 -2778 0
1000000 2484 -3092 -4820 -2778 0
1000000 584 -3368 -4308 -594 0
1000000 2485 -3368 -4308 -594 0
1000000 316 -3413 -3035 0
1000000 2486 -3413 -3035 0
1000000 784 -5106 -3318 -3037 0
1000000 2487 -5106 -3318 -3037 0
1000000 308 -5108 -411 0
1000000 2488 -5108 -411 0
1000000 654 -5064 -743 0
1000000 2489 -5064 -743 0
1000000 618 -3190 -4591 0
1000000 2490 -3190 -4591 0
1000000 595 -4634 -3181 -3216 0
1000000 2491 -4634 -3181 -3216 0
1000000 624 -4562 -4295 -4543 -4251 0
1000000 2492 -4562 -4295 -4543 -4251 0
1000000 246 -3560 -3808 -2962 -2741 0
1000000 2493 -3560 -3808 -2962 -2741 0
1000000 489 -3052 -5089 -5037 -4660 0
1000000 2494 -3052 -5089 -5037 -4660 0
1000000 578 -4977 -4155 -4026 -3374 0
1000000 2495 -4977 -4155 -4026 -3374 0
1000000 769 -4503 -2942 -3314 -783 0
1000000 2496 -4503 -2942 -3314 -783 0
1000000 314 -3629 -3975 -4643 -3478 0
1000000 2497 -3629 -3975 -4643 -3478 0
1000000 611 -4194 -3331 -4306 -4267 0
1000000 2498 -4194 -3331 -4306 -4267 0
1000000 303 -2751 -2828 -4999 0
1000000 2499 -2751 -2828 -4999 0
1000000 38 -3181 -4684 -5085 -5103 0
1000000 2500 -3181 -4684 -5085 -5103 0
1000000 59 -3391 -2767 -5003 0
1000000 2501 -3391 -2767 -5003 0
1000000 221 -4929 -3513 0
1000000 2502 -4929 -3513 0
1000000 233 -2870 -2911 -2842 0
1000000 2503 -2870 -2911 -2842 0
1000000 759 -4283 -4153 -4458 0
1000000 2504 -4283 -4153 -4458 0
1000000 278 -4905 -3780 -2817 -5075 0
1000000 2505 -4905 -3780 -2817 -5075 0
1000000 738 -4530 -3202 -2859 -4027 0
1000000 2506 -4530 -3202 -2859 -4027 0
1000000 292 -4261 -3478 0
1000000 2507 -4261 -3478 0
1000000 612 -3587 -4661 -4100 -755 0
1000000 2508 -3587 -4661 -4100 -755 0
1000000 249 -3005 -353 0
1000000 2509 -3005 -353 0
1000000 377 -4367 -3724 -3636 -4598 0
1000000 2510 -4367 -3724 -3636 -4598 0
1000000 645 -4922 -3516 0
1000000 2511 -4922 -3516 0
1000000 366 -4347 -3012 0
1000000 2512 -4347 -3012 0
1000000 712 -3204 -725 0
1000000 2513 -3204 -725 0
1000000 454 -5011 -3980 -637 0
1000000 2514 -5011 -3980 -637 0
1000000 521 -3327 -4017 0
1000000 2515 -3327 -4017 0
1000000 525 -2835 -3062 -3783 -3666 0
1000000 2516 -2835 -3062 -3783 -3666 0
1000000 331 -2753 -3283 -3932 -3541 0
1000000 2517 -2753 -3283 -3932 -3541 0
1000000 276 -3053 -2964 -3608 0
1000000 2518 -3053 -2964 -3608 0
1000000 46 -2978 -3653 -4546 0
1000000 2519 -2978 -3653 -4546 0
1000000 577 -3265 -3851 -4706 -2902 0
1000000 2520 -3265 -3851 -4706 -2902 0
1000000 231 -4541 -4131 -650 0
1000000 2521 -4541 -4131 -650 0
1000000 95 -2952 -4633 -181 0
1000000 2522 -2952 -4633 -181 0
1000000 259 -3421 -4156 -4396 -342 0
1000000 2523 -3421 -4156 -4396 -342 0
1000000 123 -5061 -4278 -4096 0
1000000 2524 -5061 -4278 -4096 0
1000000 293 -3232 -3481 -2815 0
1000000 2525 -3232 -3481 -2815 0
1000000 720 -2921 -4432 -769 0
1000000 2526 -2921 -4432 -769 0
1000000 665 -4300 -4359 -3197 -721 0
1000000 2527 -4300 -4359 -3197 -721 0
1000000 21 -4410 -193 0
1000000 2528 -4410 -193 0
1000000 154 -3615 -5017 0
1000000 2529 -3615 -5017 0
1000000 429 -3302 -3865 -2823 0
1000000 2530 -3302 -3865 -2823 0
1000000 336 -2890 -646 0
1000000 2531 -2890 -646 0
1000000 341 -4001 -3476 -2741 0
1000000 2532 -4001 -3476 -2741 0
1000000 214 -4222 -3660 -3435 -4196 0
1000000 2533 -4222 -3660 -3435 -4196 0
1000000 114 -3032 -3633 -3922 0
1000000 2534 -3032 -3633 -3922 0
1000000 115 -3800 -3212 -4995 0
1000000 2535 -3800 -3212 -4995 0
1000000 259 -3487 -4456 -3034 -473 0
1000000 2536 -3487 -4456 -3034 -473 0
1000000 82 -3169 -2987 -4525 -4697 0
1000000 2537 -3169 -2987 -4525 -4697 0
1000000 148 -4886 -4589 -4721 -3317 0
1000000 2538 -4886 -4589 -4721 -3317 0
1000000 313 -4821 -3077 -3723 -3455 0
1000000 2539 -4821 -3077 -3723 -3455 0
1000000 290 -3660 -3950 -4628 0
1000000 2540 -3660 -3950 -4628 0
1000000 705 -5089 -4246 -3333 -3685 0
1000000 2541 -5089 -4246 -3333 -3685 0
1000000 724 -3263 -4282 -789 0
1000000 2542 -3263 -4282 -789 0
1000000 118 -3650 -4714 0
1000000 2543 -3650 -4714 0
1000000 46 -3777 -492 0
1000000 2544 -3777 -492 0
1000000 472 -3780 -3939 -2984 0
1000000 2545 -3780 -3939 -2984 0
1000000 441 -3249 -4331 -4801 0
1000000 2546 -3249 -4331 -4801 0
1000000 388 -4060 -4920 0
1000000 2547 -4060 -4920 0
1000000 401 -3073 -2838 -4922 -3793 0
1000000 2548 -3073 -2838 -4922 -3793 0
1000000 724 -5021 -3751 -4442 -4221 0
1000000 2549 -5021 -3751 -4442 -4221 0
1000000 68 -3135 -3784 -4004 -5016 0
1000000 2550 -3135 -3784 -4004 -5016 0
1000000 694 -4332 -749 0
1000000 2551 -4332 -749 0
1000000 138 -3697 -3712 -3002 0
1000000 2552 -3697 -3712 -3002 0
1000000 200 -3430 -4101 -486 0
1000000 2553 -3430 -4101 -486 0
1000000 680 -3962 -707 0
1000000 2554 -3962 -707 0
1000000 248 -3240 -3365 -3433 0
1000000 2555 -3240 -3365 -3433 0
1000000 621 -3432 -2815 0
1000000 2556 -3432 -2815 0
1000000 55 -3116 -4603 -4997 -108 0
1000000 2557 -3116 -4603 -4997 -108 0
1000000 708 -3755 -5086 -2974 -5084 0
1000000 2558 -3755 -5086 -2974 -5084 0
1000000 213 -4794 -3744 -4793 -4056 0
1000000 2559 -4794 -3744 -4793 -4056 0
1000000 82 -3972 -4955 -4375 -3636 0
1000000 2560 -3972 -4955 -4375 -3636 0
1000000 614 -3568 -5042 -4821 0
1000000 2561 -3568 -5042 -4821 0
1000000 276 -4632 -3786 0
1000000 2562 -4632 -3786 0
1000000 419 -4175 -5077 -3089 -5102 0
1000000 2563 -4175 -5077 -3089 -5102 0
1000000 590 -3653 -4978 -737 0
1000000 2564 -3653 -4978 -737 0
1000000 643 -2930 -3818 -3558 -3652 0
1000000 2565 -2930 -3818 -3558 -3652 0
1000000 39 -4582 -2797 -3868 -2782 0
1000000 2566 -4582 -2797 -3868 -2782 0
1000000 672 -4177 -715 0
1000000 2567 -4177 -715 0
1000000 51 -5041 -4818 -3916 -4453 0
1000000 2568 -5041 -4818 -3916 -4453 0
1000000 406 -3806 -583 0
1000000 2569 -3806 -583 0
1000000 727 -4796 -3317 -4514 -2943 0
1000000 2570 -4796 -3317 -4514 -2943 0
1000000 282 -4479 -4220 -3590 -5077 0
1000000 2571 -4479 -4220 -3590 -5077 0
1000000 317 -4402 -3842 -2749 0
1000000 2572 -4402 -3842 -2749 0
1000000 262 -3136 -3955 -4950 -3839 0
1000000 2573 -3136 -3955 -4950 -3839 0
1000000 107 -3416 -4226 -2801 -645 0
1000000 2574 -3416 -4226 -2801 -645 0
1000000 242 -3874 -3799 -763 0
1000000 2575 -3874 -3799 -763 0
1000000 50 -4755 -4289 -4504 -103 0
1000000 2576 -4755 -4289 -4504 -103 0
1000000 67 -3478 -4243 -3726 -4568 0
1000000 2577 -3478 -4243 -3726 -4568 0
1000000 454 -4094 -3355 -4643 0
1000000 2578 -4094 -3355 -4643 0
1000000 190 -4277 -5044 -4390 0
1000000 2579 -4277 -5044 -4390 0
1000000 343 -3015 -4016 -2748 -416 0
1000000 2580 -3015 -4016 -2748 -416 0
1000000 410 -3798 -764 0
1000000 2581 -3798 -764 0
1000000 135 -5019 -4384 -3554 -4509 0
1000000 2582 -5019 -4384 -3554 -4509 0
1000000 205 -3695 -4996 -4335 -527 0
1000000 2583 -3695 -4996 -4335 -527 0
1000000 32 -2890 -4989 0
1000000 2584 -2890 -4989 0
1000000 781 -4885 -3677 -784 0
1000000 2585 -4885 -3677 -784 0
1000000 472 -4081 -4351 0
1000000 2586 -4081 -4351 0
1000000 5 -4302 -2920 -469 0
1000000 2587 -4302 -2920 -469 0
1000000 603 -5111 -5047 -4716 0
1000000 2588 -5111 -5047 -4716 0
1000000 236 -2800 -3738 -3719 0
1000000 2589 -2800 -3738 -3719 0
1000000 154 -4196 -338 0
1000000 2590 -4196 -338 0
1000000 269 -4439 -2978 -3206 0
1000000 2591 -4439 -2978 -3206 0
1000000 243 -3284 -4603 0
1000000 2592 -3284 -4603 0
1000000 205 -4911 -5080 0
1000000 2593 -4911 -5080 0
1000000 699 -4466 -2889 -4866 0
1000000 2594 -4466 -2889 -4866 0
1000000 98 -3464 -2909 -4442 0
1000000 2595 -3464 -2909 -4442 0
1000000 361 -3155 -4213 0
1000000 2596 -3155 -4213 0
1000000 760 -4074 -4252 0
1000000 2597 -4074 -4252 0
1000000 498 -3594 -4025 -739 0
1000000 2598 -3594 -4025 -739 0
1000000 175 -4844 -4106 0
1000000 2599 -4844 -4106 0
1000000 150 -2869 -3357 0
1000000 2600 -2869 -3357 0
1000000 798 -3689 -3245 -4824 0
1000000 2601 -3689 -3245 -4824 0
1000000 770 -3012 -3709 -3323 0
1000000 2602 -3012 -3709 -3323 0
1000000 716 -4707 -3842 -3141 -4422 0
1000000 2603 -4707 -3842 -3141 -4422 0
1000000 380 -2906 -4879 -5076 0
1000000 2604 -2906 -4879 -5076 0
1000000 414 -3334 -4108 -3682 0
1000000 2605 -3334 -4108 -3682 0
1000000 791 -4282 -2799 -796 0
1000000 2606 -4282 -2799 -796 0
1000000 339 -4655 -4638 -4559 -3208 0
1000000 2607 -4655 -4638 -4559 -3208 0
1000000 329 -4419 -2772 0
1000000 2608 -4419 -2772 0
1000000 607 -4838 -3085 -4276 0
1000000 2609 -4838 -3085 -4276 0
1000000 53 -4722 -3763 0
1000000 2610 -4722 -3763 0
1000000 239 -4066 -3295 -3816 0
1000000 2611 -4066 -3295 -3816 0
1000000 659 -2926 -4637 -4174 0
1000000 2612 -2926 -4637 -4174 0
1000000 138 -4369 -3406 0
1000000 2613 -4369 -3406 0
1000000 783 -3803 -788 0
1000000 2614 -3803 -788 0
1000000 24 -3102 -4485 -4200 0
1000000 2615 -3102 -4485 -4200 0
1000000 665 -3667 -4640 -4448 -4838 0
1000000 2616 -3667 -4640 -4448 -4838 0
1000000 661 -4452 -5041 0
1000000 2617 -4452 -5041 0
1000000 12 -3965 -3468 -4033 0
1000000 2618 -3965 -3468 -4033 0
1000000 414 -3957 -3814 0
1000000 2619 -3957 -3814 0
1000000 232 -3863 -3992 -4502 -3242 0
1000000 2620 -3863 -3992 -4502 -3242 0
1000000 37 -3502 -5066 -3680 -4083 0
1000000 2621 -3502 -5066 -3680 -4083 0
1000000 549 -4706 -5008 -3736 -2959 0
1000000 2622 -4706 -5008 -3736 -2959 0
1000000 692 -3952 -704 0
1000000 2623 -3952 -704 0
1000000 532 -3432 -3591 0
1000000 2624 -3432 -3591 0
1000000 420 -3257 -4449 -2805 0
1000000 2625 -3257 -4449 -2805 0
1000000 42 -3932 -3302 -3930 -375 0
1000000 2626 -3932 -3302 -3930 -375 0
1000000 790 -4250 -2956 0
1000000 2627 -4250 -2956 0
1000000 84 -3869 -4291 -3636 0
1000000 2628 -3869 -4291 -3636 0
1000000 171 -4300 -3646 -796 0
1000000 2629 -4300 -3646 -796 0
1000000 644 -4536 -2832 0
1000000 2630 -4536 -2832 0
1000000 125 -2904 -3326 -3073 0
1000000 2631 -2904 -3326 -3073 0
1000000 142 -4741 -4255 -4757 -3521 0
1000000 2632 -4741 -4255 -4757 -3521 0
1000000 346 -4909 -4939 0
1000000 2633 -4909 -4939 0
1000000 657 -4880 -3452 -4421 -3411 0
1000000 2634 -4880 -3452 -4421 -3411 0
1000000 526 -4811 -4466 -4488 -678 0
1000000 2635 -4811 -4466 -4488 -678 0
1000000 38 -4974 -3484 -2858 -395 0
1000000 2636 -4974 -3484 -2858 -395 0
1000000 11 -2970 -3276 0
1000000 2637 -2970 -3276 0
1000000 100 -4705 -4698 -3230 -4793 0
1000000 2638 -4705 -4698 -3230 -4793 0
1000000 603 -3502 -3626 0
1000000 2639 -3502 -3626 0
1000000 604 -2824 -3372 -681 0
1000000 2640 -2824 -3372 -681 0
1000000 588 -4907 -4868 -3297 0
1000000 2641 -4907 -4868 -3297 0
1000000 664 -4513 -750 0
1000000 2642 -4513 -750 0
1000000 384 -3368 -453 0
1000000 2643 -3368 -453 0
1000000 643 -3012 -4754 0
1000000 2644 -3012 -4754 0
1000000 237 -3890 -2841 0
1000000 2645 -3890 -2841 0
1000000 639 -3281 -5023 -4416 0
1000000 2646 -3281 -5023 -4416 0
1000000 63 -4409 -3094 0
1000000 2647 -4409 -3094 0
1000000 699 -3160 -731 0
1000000 2648 -3160 -731 0
1000000 713 -4162 -3975 0
1000000 2649 -4162 -3975 0
1000000 517 -4012 -687 0
1000000 2650 -4012 -687 0
1000000 584 -4411 -2891 -3936 0
1000000 2651 -4411 -2891 -3936 0
1000000 585 -4547 -2905 -3695 -3811 0
1000000 2652 -4547 -2905 -3695 -3811 0
1000000 184 -3578 -2748 -4751 0
1000000 2653 -3578 -2748 -4751 0
1000000 733 -3042 -3602 0
1000000 2654 -3042 -3602 0
1000000 530 -4787 -3468 0
1000000 2655 -4787 -3468 0
1000000 171 -3439 -2776 -3853 -4258 0
1000000 2656 -3439 -2776 -3853 -4258 0
1000000 513 -3383 -4118 -3155 -3314 0
1000000 2657 -3383 -4118 -3155 -3314 0
1000000 484 -4270 -3116 -3648 -4942 0
1000000 2658 -4270 -3116 -3648 -4942 0
1000000 23 -4311 -4797 -4314 -4765 0
1000000 2659 -4311 -4797 -4314 -4765 0
1000000 15 -2783 -5077 -2966 -621 0
1000000 2660 -2783 -5077 -2966 -621 0
1000000 424 -3632 -3875 -3357 0
1000000 2661 -3632 -3875 -3357 0
1000000 228 -4406 -3095 -3711 0
1000000 2662 -4406 -3095 -3711 0
1000000 220 -3957 -5050 -3187 -4389 0
1000000 2663 -3957 -5050 -3187 -4389 0
1000000 126 -3440 -3612 -4234 -2996 0
1000000 2664 -3440 -3612 -4234 -2996 0
1000000 185 -4928 -4788 0
1000000 2665 -4928 -4788 0
1000000 104 -3719 -3591 -3543 0
1000000 2666 -3719 -3591 -3543 0
1000000 415 -4275 -598 0
1000000 2667 -4275 -598 0
1000000 353 -4378 -4282 0
1000000 2668 -4378 -4282 0
1000000 131 -3305 -3446 -2760 0
1000000 2669 -3305 -3446 -2760 0
1000000 212 -3284 -3735 -488 0
1000000 2670 -3284 -3735 -488 0
1000000 93 -4111 -2811 -205 0
1000000 2671 -4111 -2811 -205 0
1000000 582 -3368 -4267 -4760 -710 0
1000000 2672 -3368 -4267 -4760 -710 0
1000000 65 -4853 -2954 -4943 -4066 0
1000000 2673 -4853 -2954 -4943 -4066 0
1000000 475 -4076 -4347 -744 0
1000000 2674 -4076 -4347 -744 0
1000000 394 -4948 -3000 -3712 -598 0
1000000 2675 -4948 -3000 -3712 -598 0
1000000 709 -4046 -2812 -4509 0
1000000 2676 -4046 -2812 -4509 0
1000000 108 -4545 -4210 0
1000000 2677 -4545 -4210 0
1000000 768 -5012 -3047 0
1000000 2678 -5012 -3047 0
1000000 730 -3285 -3386 -4713 -3934 0
1000000 2679 -3285 -3386 -4713 -3934 0
1000000 301 -4636 -4957 -3969 0
1000000 2680 -4636 -4957 -3969 0
1000000 90 -4010 -2771 -3504 0
1000000 2681 -4010 -2771 -3504 0
1000000 498 -3370 -4651 -3238 -781 0
1000000 2682 -3370 -4651 -3238 -781 0
1000000 720 -4861 -2897 -4324 -4617 0
1000000 2683 -4861 -2897 -4324 -4617 0
1000000 53 -4012 -5005 -3896 0
1000000 2684 -4012 -5005 -3896 0
1000000 227 -4182 -3731 -4841 -463 0
1000000 2685 -4182 -3731 -4841 -463 0
1000000 463 -5100 -4192 -4824 -569 0
1000000 2686 -5100 -4192 -4824 -569 0
1000000 428 -3067 -3575 -641 0
1000000 2687 -3067 -3575 -641 0
1000000 585 -4486 -3272 -3167 -643 0
1000000 2688 -4486 -3272 -3167 -643 0
1000000 445 -3193 -4535 -635 0
1000000 2689 -3193 -4535 -635 0
1000000 303 -5069 -3788 -2939 0
1000000 2690 -5069 -3788 -2939 0
1000000 515 -3350 -711 0
1000000 2691 -3350 -711 0
1000000 516 -4083 -3961 -4491 -3573 0
1000000 2692 -4083 -3961 -4491 -3573 0
1000000 96 -5096 -3197 0
1000000 2693 -5096 -3197 0
1000000 4 -4382 -5095 -4372 -3269 0
1000000 2694 -4382 -5095 -4372 -3269 0
1000000 199 -3122 -4351 0
1000000 2695 -3122 -4351 0
1000000 696 -4289 -3486 0
1000000 2696 -4289 -3486 0
1000000 202 -4240 -4654 0
1000000 2697 -4240 -4654 0
1000000 434 -3805 -2844 0
1000000 2698 -3805 -2844 0
1000000 217 -4527 -4537 -3419 -2815 0
1000000 2699 -4527 -4537 -3419 -2815 0
1000000 125 -4655 -2813 -4315 0
1000000 2700 -4655 -2813 -4315 0
1000000 489 -4372 -2861 -739 0
1000000 2701 -4372 -2861 -739 0
1000000 329 -3785 -4739 -3731 -2928 0
1000000 2702 -3785 -4739 -3731 -2928 0
1000000 273 -4871 -2912 -4094 0
1000000 2703 -4871 -2912 -4094 0
1000000 162 -3679 -3249 0
1000000 2704 -3679 -3249 0
1000000 711 -4774 -3307 0
1000000 2705 -4774 -3307 0
1000000 70 -3778 -4124 0
1000000 2706 -3778 -4124 0
1000000 426 -3508 -3431 0
1000000 2707 -3508 -3431 0
1000000 341 -3358 -2780 -4397 0
1000000 2708 -3358 -2780 -4397 0
1000000 27 -3317 -700 0
1000000 2709 -3317 -700 0
1000000 146 -3017 -3500 0
1000000 2710 -3017 -3500 0
1000000 713 -4052 -731 0
1000000 2711 -4052 -731 0
1000000 267 -2803 -4322 -3946 -3030 0
1000000 2712 -2803 -4322 -3946 -3030 0
1000000 493 -2889 -4727 -4762 -634 0
1000000 2713 -2889 -4727 -4762 -634 0
1000000 762 -3248 -779 0
1000000 2714 -3248 -779 0
1000000 768 -3645 -3975 -3982 -4119 0
1000000 2715 -3645 -3975 -3982 -4119 0
1000000 309 -5092 -4862 -3644 0
1000000 2716 -5092 -4862 -3644 0
1000000 62 -3629 -3308 -4226 -4776 0
1000000 2717 -3629 -3308 -4226 -4776 0
1000000 523 -3498 -3184 -3842 0
1000000 2718 -3498 -3184 -3842 0
1000000 478 -4961 -4000 -4677 0
1000000 2719 -4961 -4000 -4677 0
1000000 534 -3298 -4452 0
1000000 2720 -3298 -4452 0
1000000 2721 5749 0
1000000 2722 5557 0
1000000 2723 5715 0
1000000 2724 5548 0
1000000 2725 5641 0
1000000 2726 6051 0
1000000 2727 5466 0
1000000 2728 5848 0
1000000 2729 5283 0
1000000 2730 5956 0
1000000 2731 6312 0
1000000 2732 5134 0
1000000 2733 5548 0
1000000 2734 5504 0
1000000 2735 5321 0
1000000 2736 6074 0
1000000 2737 5531 0
1000000 2738 5137 0
1000000 2739 6039 0
1000000 2740 5523 0
1000000 2741 5482 0
1000000 2742 6288 0
1000000 2743 6025 0
1000000 2744 6160 0
1000000 2745 5413 0
1000000 2746 6027 0
1000000 2747 6135 0
1000000 2748 5705 0
1000000 2749 6183 0
1000000 2750 6129 0
1000000 2751 6252 0
1000000 2752 5126 0
1000000 2753 5298 0
1000000 2754 5256 0
1000000 2755 5885 0
1000000 2756 5967 0
1000000 2757 5417 0
1000000 2758 6049 0
1000000 2759 5782 0
1000000 2760 5612 0
1000000 2761 6022 0
1000000 2762 6269 0
1000000 2763 5389 0
1000000 2764 5880 0
1000000 2765 5644 0
1000000 2766 6317 0
1000000 2767 5939 0
1000000 2768 5997 0
1000000 2769 5806 0
1000000 2770 6043 0
1000000 2771 5148 0
1000000 2772 5681 0
1000000 2773 6023 0
1000000 2774 5818 0
1000000 2775 6316 0
1000000 2776 5585 0
1000000 2777 5631 0
1000000 2778 5320 0
1000000 2779 5174 0
1000000 2780 6191 0
1000000 2781 5175 0
1000000 2782 6168 0
1000000 2783 5601 0
1000000 2784 5753 0
1000000 2785 5785 0
1000000 2786 5671 0
1000000 2787 5151 0
1000000 2788 6087 0
1000000 2789 5924 0
1000000 2790 5441 0
1000000 2791 5699 0
1000000 2792 5570 0
1000000 2793 5765 0
1000000 2794 6065 0
1000000 2795 5365 0
1000000 2796 6081 0
1000000 2797 5371 0
1000000 2798 6094 0
1000000 2799 6230 0
1000000 2800 6219 0
1000000 2801 5310 0
1000000 2802 5272 0
1000000 2803 5428 0
1000000 2804 5714 0
1000000 2805 5772 0
1000000 2806 5238 0
1000000 2807 6101 0
1000000 2808 6146 0
1000000 2809 6188 0
1000000 2810 6065 0
1000000 2811 5210 0
1000000 2812 6091 0
1000000 2813 5663 0
1000000 2814 5171 0
1000000 2815 5913 0
1000000 2816 5473 0
1000000 2817 6198 0
1000000 2818 5782 0
1000000 2819 5805 0
1000000 2820 5637 0
1000000 2821 6145 0
1000000 2822 5206 0
1000000 2823 6255 0
1000000 2824 5248 0
1000000 2825 6075 0
1000000 2826 5380 0
1000000 2827 6060 0
1000000 2828 6042 0
1000000 2829 5369 0
1000000 2830 5838 0
1000000 2831 6106 0
1000000 2832 5301 0
1000000 2833 6147 0
1000000 2834 6194 0
1000000 2835 5968 0
1000000 2836 5207 0
1000000 2837 5502 0
1000000 2838 5688 0
1000000 2839 5474 0
1000000 2840 5968 0
1000000 2841 5137 0
1000000 2842 6130 0
1000000 2843 6273 0
1000000 2844 5342 0
1000000 2845 5148 0
1000000 2846 5359 0
1000000 2847 5805 0
1000000 2848 5282 0
1000000 2849 5159 0
1000000 2850 5866 0
1000000 2851 5554 0
1000000 2852 6031 0
1000000 2853 5433 0
1000000 2854 6086 0
1000000 2855 5263 0
1000000 2856 6173 0
1000000 2857 5794 0
1000000 2858 5713 0
1000000 2859 5261 0
1000000 2860 5771 0
1000000 2861 5413 0
1000000 2862 6282 0
1000000 2863 5290 0
1000000 2864 5387 0
1000000 2865 6241 0
1000000 2866 5798 0
1000000 2867 6174 0
1000000 2868 5870 0
1000000 2869 5871 0
1000000 2870 5608 0
1000000 2871 6089 0
1000000 2872 6297 0
1000000 2873 5511 0
1000000 2874 5610 0
1000000 2875 5334 0
1000000 2876 5990 0
1000000 2877 5464 0
1000000 2878 5194 0
1000000 2879 5792 0
1000000 2880 5553 0
1000000 2881 5812 0
1000000 2882 5356 0
1000000 2883 5840 0
1000000 2884 5574 0
1000000 2885 5484 0
1000000 2886 5363 0
1000000 2887 6011 0
1000000 2888 6202 0
1000000 2889 5757 0
1000000 2890 5633 0
1000000 2891 6207 0
1000000 2892 5921 0
1000000 2893 5720 0
1000000 2894 5408 0
1000000 2895 5967 0
1000000 2896 5484 0
1000000 2897 6012 0
1000000 2898 6185 0
1000000 2899 5964 0
1000000 2900 6253 0
1000000 2901 5280 0
1000000 2902 5652 0
1000000 2903 5761 0
1000000 2904 5580 0
1000000 2905 6306 0
1000000 2906 5770 0
1000000 2907 5615 0
1000000 2908 5331 0
1000000 2909 5561 0
1000000 2910 5461 0
1000000 2911 5513 0
1000000 2912 5366 0
1000000 2913 5235 0
1000000 2914 5257 0
1000000 2915 5369 0
1000000 2916 5845 0
1000000 2917 5191 0
1000000 2918 6044 0
1000000 2919 6003 0
1000000 2920 6178 0
1000000 2921 5714 0
1000000 2922 5850 0
1000000 2923 6018 0
1000000 2924 6153 0
1000000 2925 5491 0
1000000 2926 5304 0
1000000 2927 5590 0
1000000 2928 5756 0
1000000 2929 5611 0
1000000 2930 5637 0
1000000 2931 5692 0
1000000 2932 5208 0
1000000 2933 5206 0
1000000 2934 5569 0
1000000 2935 5144 0
1000000 2936 5364 0
1000000 2937 5453 0
1000000 2938 5512 0
1000000 2939 5538 0
1000000 2940 5815 0
1000000 2941 5722 0
1000000 2942 5692 0
1000000 2943 5138 0
1000000 2944 5735 0
1000000 2945 5456 0
1000000 2946 5664 0
1000000 2947 5896 0
1000000 2948 5985 0
1000000 2949 5222 0
1000000 2950 6249 0
1000000 2951 5588 0
1000000 2952 5520 0
1000000 2953 5830 0
1000000 2954 5924 0
1000000 2955 5426 0
1000000 2956 5930 0
1000000 2957 5965 0
1000000 2958 6122 0
1000000 2959 5546 0
1000000 2960 5789 0
1000000 2961 6102 0
1000000 2962 5432 0
1000000 2963 5183 0
1000000 2964 5287 0
1000000 2965 5804 0
1000000 2966 6213 0
1000000 2967 5857 0
1000000 2968 5739 0
1000000 2969 6238 0
1000000 2970 6184 0
1000000 2971 5943 0
1000000 2972 5473 0
1000000 2973 5443 0
1000000 2974 5785 0
1000000 2975 5262 0
1000000 2976 6206 0
1000000 2977 5584 0
1000000 2978 6053 0
1000000 2979 5641 0
1000000 2980 6046 0
1000000 2981 5261 0
1000000 2982 6251 0
1000000 2983 5329 0
1000000 2984 5832 0
1000000 2985 5745 0
1000000 2986 6062 0
1000000 2987 5453 0
1000000 2988 6107 0
1000000 2989 5608 0
1000000 2990 5700 0
1000000 2991 5559 0
1000000 2992 5207 0
1000000 2993 6124 0
1000000 2994 5392 0
1000000 2995 6000 0
1000000 2996 5200 0
1000000 2997 6263 0
1000000 2998 6156 0
1000000 2999 5601 0
1000000 3000 5817 0
1000000 3001 5844 0
1000000 3002 5794 0
1000000 3003 5368 0
1000000 3004 6098 0
1000000 3005 6070 0
1000000 3006 5532 0
1000000 3007 5589 0
1000000 3008 6038 0
1000000 3009 5141 0
1000000 3010 5337 0
1000000 3011 5497 0
1000000 3012 5384 0
1000000 3013 5852 0
1000000 3014 5344 0
1000000 3015 5554 0
1000000 3016 6085 0
1000000 3017 5673 0
1000000 3018 5937 0
1000000 3019 5530 0
1000000 3020 5429 0
1000000 3021 5700 0
1000000 3022 6213 0
1000000 3023 5879 0
1000000 3024 5223 0
1000000 3025 5802 0
1000000 3026 5240 0
1000000 3027 5355 0
1000000 3028 6106 0
1000000 3029 5302 0
1000000 3030 6150 0
1000000 3031 5405 0
1000000 3032 6233 0
1000000 3033 6247 0
1000000 3034 5634 0
1000000 3035 5557 0
1000000 3036 6255 0
1000000 3037 5360 0
1000000 3038 5671 0
1000000 3039 5222 0
1000000 3040 5459 0
1000000 3041 6249 0
1000000 3042 5853 0
1000000 3043 6187 0
1000000 3044 5638 0
1000000 3045 5620 0
1000000 3046 5732 0
1000000 3047 5697 0
1000000 3048 5977 0
1000000 3049 5660 0
1000000 3050 5464 0
1000000 3051 6026 0
1000000 3052 5778 0
1000000 3053 5908 0
1000000 3054 5889 0
1000000 3055 5882 0
1000000 3056 6182 0
1000000 3057 5881 0
1000000 3058 5261 0
1000000 3059 5298 0
1000000 3060 5974 0
1000000 3061 6077 0
1000000 3062 5386 0
1000000 3063 6020 0
1000000 3064 5526 0
1000000 3065 5253 0
1000000 3066 6103 0
1000000 3067 5563 0
1000000 3068 5168 0
1000000 3069 5910 0
1000000 3070 5580 0
1000000 3071 6041 0
1000000 3072 6057 0
1000000 3073 6163 0
1000000 3074 5203 0
1000000 3075 5828 0
1000000 3076 5595 0
1000000 3077 5758 0
1000000 3078 5693 0
1000000 3079 5299 0
1000000 3080 5675 0
1000000 3081 6119 0
1000000 3082 5694 0
1000000 3083 5676 0
1000000 3084 5755 0
1000000 3085 5685 0
1000000 3086 6113 0
1000000 3087 6010 0
1000000 3088 5225 0
1000000 3089 5662 0
1000000 3090 5228 0
1000000 3091 5339 0
1000000 3092 6132 0
1000000 3093 5771 0
1000000 3094 6278 0
1000000 3095 6143 0
1000000 3096 5651 0
1000000 3097 5212 0
1000000 3098 5167 0
1000000 3099 5571 0
1000000 3100 5809 0
1000000 3101 5241 0
1000000 3102 5417 0
1000000 3103 6113 0
1000000 3104 6199 0
1000000 3105 5123 0
1000000 3106 5751 0
1000000 3107 5930 0
1000000 3108 5344 0
1000000 3109 6035 0
1000000 3110 5526 0
1000000 3111 6100 0
1000000 3112 5936 0
1000000 3113 5518 0
1000000 3114 5644 0
1000000 3115 5373 0
1000000 3116 5988 0
1000000 3117 6069 0
1000000 3118 5429 0
1000000 3119 5899 0
1000000 3120 5748 0
1000000 3121 5431 0
1000000 3122 5773 0
1000000 3123 5847 0
1000000 3124 5289 0
1000000 3125 5416 0
1000000 3126 5854 0
1000000 3127 5438 0
1000000 3128 5699 0
1000000 3129 5856 0
1000000 3130 5221 0
1000000 3131 5892 0
1000000 3132 5851 0
1000000 3133 6186 0
1000000 3134 5790 0
1000000 3135 5322 0
1000000 3136 5409 0
1000000 3137 5416 0
1000000 3138 6299 0
1000000 3139 5324 0
1000000 3140 6291 0
1000000 3141 5281 0
1000000 3142 5955 0
1000000 3143 6240 0
1000000 3144 6290 0
1000000 3145 5313 0
1000000 3146 5256 0
1000000 3147 6108 0
1000000 3148 5746 0
1000000 3149 5464 0
1000000 3150 5605 0
1000000 3151 6053 0
1000000 3152 5898 0
1000000 3153 5925 0
1000000 3154 5992 0
1000000 3155 5375 0
1000000 3156 5135 0
1000000 3157 5978 0
1000000 3158 5663 0
1000000 3159 5657 0
1000000 3160 5517 0
1000000 3161 5195 0
1000000 3162 5506 0
1000000 3163 6200 0
1000000 3164 6254 0
1000000 3165 5690 0
1000000 3166 5256 0
1000000 3167 6175 0
1000000 3168 5321 0
1000000 3169 5916 0
1000000 3170 5523 0
1000000 3171 5637 0
1000000 3172 5239 0
1000000 3173 5625 0
1000000 3174 6182 0
1000000 3175 5692 0
1000000 3176 5314 0
1000000 3177 5945 0
1000000 3178 5194 0
1000000 3179 5901 0
1000000 3180 5296 0
1000000 3181 5292 0
1000000 3182 6244 0
1000000 3183 5868 0
1000000 3184 5460 0
1000000 3185 5869 0
1000000 3186 5968 0
1000000 3187 5632 0
1000000 3188 5851 0
1000000 3189 5666 0
1000000 3190 6233 0
1000000 3191 5771 0
1000000 3192 6172 0
1000000 3193 6259 0
1000000 3194 5755 0
1000000 3195 5353 0
1000000 3196 6157 0
1000000 3197 5945 0
1000000 3198 6299 0
1000000 3199 5492 0
1000000 3200 5148 0
1000000 3201 6192 0
1000000 3202 5890 0
1000000 3203 5935 0
1000000 3204 5667 0
1000000 3205 6312 0
1000000 3206 5138 0
1000000 3207 5740 0
1000000 3208 5462 0
1000000 3209 5824 0
1000000 3210 5927 0
1000000 3211 5747 0
1000000 3212 5813 0
1000000 3213 5318 0
1000000 3214 5938 0
1000000 3215 5707 0
1000000 3216 5851 0
1000000 3217 5987 0
1000000 3218 5957 0
1000000 3219 5139 0
1000000 3220 5134 0
1000000 3221 5240 0
1000000 3222 5132 0
1000000 3223 6309 0
1000000 3224 6141 0
1000000 3225 5452 0
1000000 3226 5318 0
1000000 3227 5485 0
1000000 3228 5351 0
1000000 3229 5604 0
1000000 3230 5795 0
1000000 3231 6138 0
1000000 3232 5218 0
1000000 3233 6037 0
1000000 3234 5648 0
1000000 3235 5809 0
1000000 3236 5860 0
1000000 3237 5721 0
1000000 3238 5859 0
1000000 3239 5181 0
1000000 3240 5814 0
1000000 3241 5775 0
1000000 3242 5209 0
1000000 3243 5882 0
1000000 3244 5911 0
1000000 3245 5340 0
1000000 3246 6276 0
1000000 3247 6207 0
1000000 3248 5503 0
1000000 3249 5123 0
1000000 3250 5744 0
1000000 3251 5416 0
1000000 3252 5903 0
1000000 3253 6317 0
1000000 3254 5810 0
1000000 3255 6079 0
1000000 3256 5323 0
1000000 3257 5734 0
1000000 3258 5605 0
1000000 3259 6062 0
1000000 3260 6210 0
1000000 3261 6191 0
1000000 3262 6019 0
1000000 3263 5759 0
1000000 3264 5920 0
1000000 3265 6278 0
1000000 3266 5680 0
1000000 3267 5910 0
1000000 3268 6285 0
1000000 3269 5677 0
1000000 3270 5181 0
1000000 3271 6002 0
1000000 3272 5360 0
1000000 3273 5714 0
1000000 3274 5948 0
1000000 3275 5289 0
1000000 3276 6273 0
1000000 3277 5933 0
1000000 3278 6196 0
1000000 3279 5311 0
1000000 3280 6124 0
1000000 3281 5862 0
1000000 3282 6078 0
1000000 3283 5609 0
1000000 3284 6102 0
1000000 3285 6279 0
1000000 3286 5830 0
1000000 3287 5593 0
1000000 3288 5522 0
1000000 3289 5979 0
1000000 3290 5404 0
1000000 3291 5575 0
1000000 3292 6002 0
1000000 3293 6277 0
1000000 3294 5808 0
1000000 3295 5645 0
1000000 3296 5315 0
1000000 3297 5273 0
1000000 3298 5647 0
1000000 3299 5225 0
1000000 3300 6131 0
1000000 3301 5146 0
1000000 3302 6319 0
1000000 3303 6205 0
1000000 3304 5428 0
1000000 3305 5649 0
1000000 3306 5184 0
1000000 3307 5565 0
1000000 3308 6311 0
1000000 3309 5169 0
1000000 3310 5239 0
1000000 3311 5338 0
1000000 3312 5371 0
1000000 3313 5597 0
1000000 3314 5970 0
1000000 3315 5414 0
1000000 3316 5856 0
1000000 3317 5485 0
1000000 3318 6222 0
1000000 3319 5827 0
1000000 3320 5845 0
1000000 3321 5688 0
1000000 3322 6314 0
1000000 3323 5708 0
1000000 3324 6064 0
1000000 3325 6078 0
1000000 3326 5233 0
1000000 3327 5362 0
1000000 3328 6230 0
1000000 3329 5638 0
1000000 3330 6010 0
1000000 3331 6120 0
1000000 3332 5294 0
1000000 3333 5703 0
1000000 3334 6134 0
1000000 3335 5193 0
1000000 3336 5819 0
1000000 3337 5372 0
1000000 3338 5305 0
1000000 3339 5886 0
1000000 3340 6318 0
1000000 3341 5598 0
1000000 3342 6272 0
1000000 3343 6166 0
1000000 3344 6228 0
1000000 3345 6083 0
1000000 3346 5736 0
1000000 3347 5463 0
1000000 3348 5316 0
1000000 3349 5378 0
1000000 3350 6191 0
1000000 3351 5189 0
1000000 3352 5873 0
1000000 3353 5682 0
1000000 3354 5809 0
1000000 3355 5291 0
1000000 3356 6318 0
1000000 3357 6060 0
1000000 3358 5562 0
1000000 3359 6296 0
1000000 3360 5466 0
1000000 3361 5390 0
1000000 3362 6077 0
1000000 3363 5438 0
1000000 3364 5650 0
1000000 3365 6071 0
1000000 3366 5494 0
1000000 3367 5188 0
1000000 3368 5388 0
1000000 3369 6267 0
1000000 3370 5582 0
1000000 3371 6156 0
1000000 3372 5366 0
1000000 3373 5254 0
1000000 3374 5193 0
1000000 3375 5932 0
1000000 3376 5591 0
1000000 3377 5985 0
1000000 3378 5817 0
1000000 3379 5355 0
1000000 3380 5131 0
1000000 3381 5770 0
1000000 3382 5130 0
1000000 3383 5609 0
1000000 3384 5307 0
1000000 3385 5836 0
1000000 3386 6067 0
1000000 3387 5446 0
1000000 3388 6022 0
1000000 3389 5567 0
1000000 3390 6226 0
1000000 3391 6072 0
1000000 3392 5698 0
1000000 3393 5167 0
1000000 3394 5812 0
1000000 3395 5125 0
1000000 3396 5161 0
1000000 3397 5558 0
1000000 3398 5668 0
1000000 3399 6305 0
1000000 3400 5458 0
1000000 3401 5595 0
1000000 3402 5696 0
1000000 3403 5970 0
1000000 3404 5865 0
1000000 3405 6040 0
1000000 3406 5974 0
1000000 3407 5386 0
1000000 3408 5939 0
1000000 3409 5156 0
1000000 3410 6246 0
1000000 3411 6087 0
1000000 3412 5916 0
1000000 3413 5743 0
1000000 3414 5933 0
1000000 3415 5566 0
1000000 3416 5922 0
1000000 3417 5188 0
1000000 3418 5697 0
1000000 3419 5372 0
1000000 3420 6088 0
1000000 3421 5896 0
1000000 3422 5347 0
1000000 3423 5470 0
1000000 3424 5569 0
1000000 3425 5332 0
1000000 3426 5896 0
1000000 3427 5593 0
1000000 3428 5578 0
1000000 3429 5629 0
1000000 3430 5973 0
1000000 3431 5633 0
1000000 3432 6234 0
1000000 3433 5926 0
1000000 3434 5365 0
1000000 3435 5980 0
1000000 3436 6284 0
1000000 3437 5183 0
1000000 3438 5445 0
1000000 3439 6148 0
1000000 3440 5987 0
1000000 3441 6240 0
1000000 3442 6216 0
1000000 3443 5825 0
1000000 3444 5391 0
1000000 3445 5241 0
1000000 3446 6171 0
1000000 3447 5661 0
1000000 3448 5667 0
1000000 3449 5440 0
1000000 3450 5889 0
1000000 3451 5872 0
1000000 3452 5790 0
1000000 3453 5606 0
1000000 3454 5277 0
1000000 3455 5861 0
1000000 3456 5128 0
1000000 3457 5772 0
1000000 3458 5950 0
1000000 3459 5726 0
1000000 3460 5737 0
1000000 3461 5911 0
1000000 3462 6009 0
1000000 3463 6310 0
1000000 3464 5276 0
1000000 3465 6307 0
1000000 3466 6170 0
1000000 3467 5678 0
1000000 3468 6080 0
1000000 3469 5795 0
1000000 3470 5430 0
1000000 3471 5669 0
1000000 3472 5864 0
1000000 3473 5493 0
1000000 3474 5903 0
1000000 3475 5318 0
1000000 3476 5288 0
1000000 3477 6225 0
1000000 3478 5722 0
1000000 3479 5981 0
1000000 3480 5396 0
1000000 3481 5884 0
1000000 3482 6043 0
1000000 3483 5795 0
1000000 3484 6245 0
1000000 3485 5173 0
1000000 3486 6022 0
1000000 3487 6142 0
1000000 3488 5934 0
1000000 3489 6217 0
1000000 3490 6026 0
1000000 3491 5406 0
1000000 3492 5492 0
1000000 3493 5580 0
1000000 3494 5884 0
1000000 3495 6024 0
1000000 3496 5706 0
1000000 3497 5496 0
1000000 3498 6110 0
1000000 3499 6084 0
1000000 3500 5486 0
1000000 3501 5298 0
1000000 3502 5431 0
1000000 3503 5779 0
1000000 3504 5162 0
1000000 3505 5713 0
1000000 3506 5829 0
1000000 3507 5449 0
1000000 3508 5487 0
1000000 3509 5308 0
1000000 3510 5785 0
1000000 3511 5489 0
1000000 3512 5187 0
1000000 3513 5493 0
1000000 3514 5596 0
1000000 3515 6167 0
1000000 3516 5471 0
1000000 3517 5537 0
1000000 3518 6180 0
1000000 3519 5317 0
1000000 3520 5982 0
1000000 3521 6270 0
1000000 3522 5577 0
1000000 3523 5975 0
1000000 3524 5245 0
1000000 3525 5393 0
1000000 3526 6280 0
1000000 3527 5995 0
1000000 3528 5451 0
1000000 3529 5905 0
1000000 3530 6320 0
1000000 3531 5643 0
1000000 3532 6163 0
1000000 3533 5326 0
1000000 3534 5123 0
1000000 3535 5339 0
1000000 3536 5158 0
1000000 3537 6065 0
1000000 3538 6287 0
1000000 3539 5749 0
1000000 3540 6287 0
1000000 3541 5993 0
1000000 3542 6005 0
1000000 3543 5303 0
1000000 3544 5619 0
1000000 3545 5475 0
1000000 3546 5248 0
1000000 3547 5514 0
1000000 3548 5495 0
1000000 3549 5835 0
1000000 3550 5712 0
1000000 3551 5428 0
1000000 3552 6234 0
1000000 3553 5455 0
1000000 3554 5352 0
1000000 3555 5287 0
1000000 3556 5792 0
1000000 3557 5979 0
1000000 3558 5319 0
1000000 3559 5723 0
1000000 3560 5490 0
1000000 3561 5704 0
1000000 3562 5953 0
1000000 3563 6036 0
1000000 3564 6060 0
1000000 3565 5182 0
1000000 3566 5198 0
1000000 3567 5383 0
1000000 3568 5816 0
1000000 3569 5707 0
1000000 3570 5435 0
1000000 3571 5599 0
1000000 3572 5326 0
1000000 3573 5141 0
1000000 3574 5928 0
1000000 3575 6160 0
1000000 3576 5877 0
1000000 3577 5331 0
1000000 3578 5412 0
1000000 3579 5952 0
1000000 3580 5211 0
1000000 3581 5230 0
1000000 3582 5420 0
1000000 3583 5905 0
1000000 3584 6017 0
1000000 3585 6116 0
1000000 3586 6141 0
1000000 3587 6119 0
1000000 3588 5958 0
1000000 3589 5560 0
1000000 3590 5887 0
1000000 3591 5689 0
1000000 3592 5557 0
1000000 3593 6251 0
1000000 3594 5823 0
1000000 3595 6222 0
1000000 3596 5876 0
1000000 3597 6313 0
1000000 3598 6016 0
1000000 3599 6212 0
1000000 3600 5482 0
1000000 3601 6059 0
1000000 3602 6192 0
1000000 3603 5919 0
1000000 3604 6242 0
1000000 3605 6082 0
1000000 3606 5275 0
1000000 3607 5136 0
1000000 3608 5882 0
1000000 3609 5160 0
1000000 3610 5369 0
1000000 3611 5875 0
1000000 3612 5783 0
1000000 3613 5572 0
1000000 3614 6228 0
1000000 3615 5722 0
1000000 3616 6104 0
1000000 3617 5323 0
1000000 3618 5623 0
1000000 3619 5151 0
1000000 3620 6025 0
1000000 3621 5481 0
1000000 3622 5332 0
1000000 3623 5837 0
1000000 3624 5433 0
1000000 3625 5744 0
1000000 3626 5299 0
1000000 3627 5495 0
1000000 3628 6162 0
1000000 3629 5703 0
1000000 3630 5718 0
1000000 3631 5343 0
1000000 3632 5676 0
1000000 3633 5225 0
1000000 3634 5412 0
1000000 3635 5972 0
1000000 3636 5695 0
1000000 3637 5948 0
1000000 3638 5873 0
1000000 3639 5364 0
1000000 3640 5542 0
1000000 3641 5907 0
1000000 3642 5629 0
1000000 3643 5562 0
1000000 3644 5662 0
1000000 3645 5449 0
1000000 3646 5923 0
1000000 3647 5506 0
1000000 3648 6068 0
1000000 3649 5135 0
1000000 3650 6070 0
1000000 3651 5833 0
1000000 3652 5385 0
1000000 3653 6310 0
1000000 3654 5909 0
1000000 3655 6056 0
1000000 3656 5414 0
1000000 3657 5501 0
1000000 3658 5160 0
1000000 3659 5872 0
1000000 3660 6095 0
1000000 3661 6148 0
1000000 3662 5684 0
1000000 3663 5599 0
1000000 3664 6033 0
1000000 3665 5324 0
1000000 3666 5550 0
1000000 3667 6124 0
1000000 3668 5745 0
1000000 3669 5741 0
1000000 3670 5143 0
1000000 3671 5658 0
1000000 3672 6174 0
1000000 3673 6130 0
1000000 3674 5238 0
1000000 3675 5885 0
1000000 3676 5400 0
1000000 3677 5534 0
1000000 3678 5267 0
1000000 3679 5154 0
1000000 3680 6089 0
1000000 3681 6248 0
1000000 3682 5437 0
1000000 3683 5559 0
1000000 3684 5407 0
1000000 3685 6199 0
1000000 3686 5927 0
1000000 3687 5383 0
1000000 3688 5223 0
1000000 3689 6252 0
1000000 3690 5188 0
1000000 3691 5326 0
1000000 3692 5699 0
1000000 3693 5616 0
1000000 3694 5314 0
1000000 3695 5633 0
1000000 3696 5603 0
1000000 3697 5301 0
1000000 3698 6077 0
1000000 3699 6121 0
1000000 3700 6189 0
1000000 3701 5680 0
1000000 3702 6229 0
1000000 3703 6315 0
1000000 3704 6167 0
1000000 3705 6203 0
1000000 3706 5962 0
1000000 3707 5373 0
1000000 3708 5456 0
1000000 3709 5525 0
1000000 3710 5528 0
1000000 3711 5515 0
1000000 3712 6109 0
1000000 3713 6258 0
1000000 3714 5153 0
1000000 3715 5340 0
1000000 3716 5228 0
1000000 3717 5536 0
1000000 3718 6256 0
1000000 3719 6255 0
1000000 3720 5254 0
1000000 3721 5282 0
1000000 3722 5215 0
1000000 3723 5130 0
1000000 3724 6289 0
1000000 3725 5784 0
1000000 3726 6306 0
1000000 3727 5820 0
1000000 3728 5585 0
1000000 3729 5356 0
1000000 3730 5811 0
1000000 3731 6123 0
1000000 3732 5590 0
1000000 3733 5293 0
1000000 3734 5233 0
1000000 3735 5808 0
1000000 3736 5654 0
1000000 3737 5375 0
1000000 3738 5874 0
1000000 3739 5942 0
1000000 3740 5177 0
1000000 3741 6145 0
1000000 3742 6097 0
1000000 3743 5441 0
1000000 3744 5245 0
1000000 3745 5776 0
1000000 3746 5458 0
1000000 3747 5311 0
1000000 3748 5943 0
1000000 3749 5763 0
1000000 3750 5510 0
1000000 3751 6040 0
1000000 3752 6192 0
1000000 3753 6260 0
1000000 3754 6283 0
1000000 3755 5515 0
1000000 3756 5724 0
1000000 3757 5803 0
1000000 3758 5602 0
1000000 3759 6267 0
1000000 3760 5581 0
1000000 3761 5646 0
1000000 3762 6030 0
1000000 3763 5729 0
1000000 3764 6203 0
1000000 3765 5180 0
1000000 3766 5988 0
1000000 3767 5435 0
1000000 3768 6296 0
1000000 3769 5315 0
1000000 3770 6092 0
1000000 3771 5204 0
1000000 3772 5165 0
1000000 3773 6052 0
1000000 3774 6243 0
1000000 3775 5742 0
1000000 3776 5516 0
1000000 3777 6093 0
1000000 3778 5338 0
1000000 3779 6092 0
1000000 3780 5826 0
1000000 3781 6295 0
1000000 3782 5293 0
1000000 3783 5421 0
1000000 3784 5467 0
1000000 3785 6250 0
1000000 3786 5574 0
1000000 3787 5309 0
1000000 3788 5642 0
1000000 3789 5229 0
1000000 3790 6047 0
1000000 3791 5631 0
1000000 3792 5976 0
1000000 3793 6232 0
1000000 3794 5286 0
1000000 3795 5850 0
1000000 3796 5162 0
1000000 3797 5828 0
1000000 3798 5543 0
1000000 3799 5800 0
1000000 3800 5934 0
1000000 3801 5866 0
1000000 3802 5801 0
1000000 3803 5379 0
1000000 3804 5655 0
1000000 3805 5232 0
1000000 3806 5884 0
1000000 3807 5758 0
1000000 3808 5483 0
1000000 3809 5350 0
1000000 3810 5378 0
1000000 3811 6130 0
1000000 3812 6148 0
1000000 3813 5124 0
1000000 3814 5272 0
1000000 3815 5829 0
1000000 3816 5255 0
1000000 3817 5803 0
1000000 3818 5841 0
1000000 3819 6016 0
1000000 3820 5909 0
1000000 3821 5121 0
1000000 3822 5593 0
1000000 3823 5983 0
1000000 3824 5768 0
1000000 3825 6179 0
1000000 3826 5716 0
1000000 3827 5728 0
1000000 3828 5216 0
1000000 3829 5660 0
1000000 3830 5964 0
1000000 3831 5556 0
1000000 3832 6286 0
1000000 3833 6227 0
1000000 3834 5559 0
1000000 3835 5839 0
1000000 3836 6180 0
1000000 3837 6300 0
1000000 3838 6005 0
1000000 3839 5273 0
1000000 3840 6233 0
1000000 3841 5295 0
1000000 3842 5168 0
1000000 3843 5595 0
1000000 3844 5223 0
1000000 3845 6104 0
1000000 3846 6158 0
1000000 3847 5362 0
1000000 3848 5917 0
1000000 3849 5996 0
1000000 3850 6297 0
1000000 3851 5769 0
1000000 3852 6021 0
1000000 3853 6111 0
1000000 3854 5614 0
1000000 3855 5893 0
1000000 3856 5571 0
1000000 3857 5418 0
1000000 3858 5914 0
1000000 3859 5838 0
1000000 3860 5149 0
1000000 3861 6062 0
1000000 3862 6136 0
1000000 3863 5991 0
1000000 3864 5590 0
1000000 3865 5905 0
1000000 3866 5821 0
1000000 3867 6033 0
1000000 3868 5325 0
1000000 3869 6103 0
1000000 3870 5817 0
1000000 3871 5467 0
1000000 3872 5629 0
1000000 3873 6176 0
1000000 3874 6158 0
1000000 3875 6278 0
1000000 3876 5201 0
1000000 3877 5306 0
1000000 3878 5764 0
1000000 3879 5237 0
1000000 3880 5904 0
1000000 3881 5761 0
1000000 3882 6107 0
1000000 3883 5169 0
1000000 3884 6166 0
1000000 3885 5213 0
1000000 3886 5427 0
1000000 3887 5734 0
1000000 3888 5690 0
1000000 3889 5971 0
1000000 3890 5941 0
1000000 3891 5920 0
1000000 3892 5263 0
1000000 3893 6236 0
1000000 3894 5374 0
1000000 3895 5816 0
1000000 3896 5898 0
1000000 3897 5666 0
1000000 3898 5249 0
1000000 3899 6114 0
1000000 3900 6107 0
1000000 3901 5380 0
1000000 3902 6215 0
1000000 3903 6224 0
1000000 3904 6151 0
1000000 3905 5431 0
1000000 3906 6235 0
1000000 3907 6239 0
1000000 3908 6189 0
1000000 3909 5155 0
1000000 3910 5628 0
1000000 3911 5524 0
1000000 3912 5531 0
1000000 3913 5709 0
1000000 3914 6282 0
1000000 3915 5278 0
1000000 3916 6277 0
1000000 3917 5497 0
1000000 3918 6152 0
1000000 3919 6162 0
1000000 3920 6246 0
1000000 3921 5138 0
1000000 3922 6185 0
1000000 3923 5836 0
1000000 3924 5421 0
1000000 3925 5266 0
1000000 3926 6174 0
1000000 3927 5137 0
1000000 3928 5752 0
1000000 3929 5238 0
1000000 3930 5856 0
1000000 3931 6154 0
1000000 3932 6048 0
1000000 3933 6045 0
1000000 3934 5741 0
1000000 3935 5488 0
1000000 3936 5904 0
1000000 3937 5838 0
1000000 3938 5794 0
1000000 3939 5510 0
1000000 3940 5687 0
1000000 3941 6100 0
1000000 3942 6114 0
1000000 3943 5399 0
1000000 3944 6006 0
1000000 3945 5867 0
1000000 3946 6006 0
1000000 3947 6008 0
1000000 3948 5773 0
1000000 3949 5564 0
1000000 3950 6311 0
1000000 3951 6196 0
1000000 3952 5333 0
1000000 3953 5209 0
1000000 3954 5797 0
1000000 3955 5358 0
1000000 3956 6199 0
1000000 3957 5573 0
1000000 3958 5436 0
1000000 3959 6054 0
1000000 3960 6034 0
1000000 3961 6048 0
1000000 3962 5430 0
1000000 3963 6084 0
1000000 3964 5760 0
1000000 3965 5961 0
1000000 3966 5190 0
1000000 3967 5736 0
1000000 3968 5931 0
1000000 3969 5533 0
1000000 3970 6202 0
1000000 3971 5618 0
1000000 3972 5924 0
1000000 3973 5205 0
1000000 3974 5312 0
1000000 3975 5397 0
1000000 3976 5634 0
1000000 3977 5403 0
1000000 3978 5336 0
1000000 3979 5494 0
1000000 3980 6066 0
1000000 3981 6307 0
1000000 3982 6319 0
1000000 3983 5944 0
1000000 3984 5251 0
1000000 3985 5133 0
1000000 3986 5524 0
1000000 3987 5276 0
1000000 3988 5842 0
1000000 3989 5194 0
1000000 3990 5904 0
1000000 3991 5791 0
1000000 3992 5721 0
1000000 3993 5163 0
1000000 3994 5754 0
1000000 3995 5591 0
1000000 3996 5165 0
1000000 3997 6164 0
1000000 3998 5430 0
1000000 3999 5762 0
1000000 4000 5340 0
1000000 4001 5583 0
1000000 4002 6154 0
1000000 4003 5250 0
1000000 4004 5516 0
1000000 4005 5997 0
1000000 4006 5865 0
1000000 4007 5377 0
1000000 4008 5613 0
1000000 4009 6076 0
1000000 4010 5879 0
1000000 4011 5323 0
1000000 4012 5401 0
1000000 4013 5387 0
1000000 4014 5269 0
1000000 4015 5983 0
1000000 4016 5622 0
1000000 4017 5182 0
1000000 4018 6270 0
1000000 4019 5731 0
1000000 4020 5646 0
1000000 4021 6048 0
1000000 4022 5411 0
1000000 4023 5684 0
1000000 4024 5730 0
1000000 4025 5763 0
1000000 4026 5214 0
1000000 4027 6227 0
1000000 4028 6073 0
1000000 4029 5376 0
1000000 4030 5406 0
1000000 4031 5363 0
1000000 4032 5499 0
1000000 4033 5299 0
1000000 4034 6132 0
1000000 4035 5667 0
1000000 4036 5944 0
1000000 4037 5250 0
1000000 4038 6261 0
1000000 4039 6290 0
1000000 4040 6020 0
1000000 4041 5288 0
1000000 4042 6231 0
1000000 4043 5320 0
1000000 4044 5572 0
1000000 4045 5478 0
1000000 4046 5253 0
1000000 4047 5765 0
1000000 4048 5986 0
1000000 4049 5389 0
1000000 4050 5678 0
1000000 4051 5653 0
1000000 4052 6139 0
1000000 4053 5234 0
1000000 4054 5984 0
1000000 4055 5959 0
1000000 4056 5642 0
1000000 4057 5701 0
1000000 4058 5774 0
1000000 4059 5826 0
1000000 4060 5988 0
1000000 4061 5140 0
1000000 4062 5286 0
1000000 4063 5855 0
1000000 4064 5377 0
1000000 4065 5153 0
1000000 4066 5807 0
1000000 4067 5971 0
1000000 4068 5764 0
1000000 4069 5725 0
1000000 4070 5331 0
1000000 4071 5638 0
1000000 4072 6275 0
1000000 4073 6014 0
1000000 4074 5748 0
1000000 4075 6292 0
1000000 4076 5804 0
1000000 4077 6281 0
1000000 4078 5425 0
1000000 4079 5664 0
1000000 4080 5271 0
1000000 4081 5698 0
1000000 4082 5594 0
1000000 4083 5429 0
1000000 4084 6313 0
1000000 4085 5858 0
1000000 4086 6028 0
1000000 4087 6147 0
1000000 4088 5353 0
1000000 4089 5576 0
1000000 4090 5511 0
1000000 4091 6204 0
1000000 4092 5128 0
1000000 4093 5592 0
1000000 4094 5571 0
1000000 4095 5174 0
1000000 4096 5354 0
1000000 4097 5327 0
1000000 4098 6137 0
1000000 4099 5196 0
1000000 4100 5341 0
1000000 4101 6136 0
1000000 4102 6313 0
1000000 4103 5635 0
1000000 4104 5543 0
1000000 4105 5897 0
1000000 4106 6229 0
1000000 4107 5938 0
1000000 4108 5781 0
1000000 4109 5706 0
1000000 4110 5203 0
1000000 4111 5393 0
1000000 4112 5766 0
1000000 4113 5468 0
1000000 4114 5205 0
1000000 4115 6260 0
1000000 4116 5611 0
1000000 4117 5476 0
1000000 4118 5335 0
1000000 4119 6042 0
1000000 4120 6013 0
1000000 4121 6293 0
1000000 4122 5863 0
1000000 4123 5349 0
1000000 4124 5192 0
1000000 4125 5509 0
1000000 4126 6180 0
1000000 4127 5798 0
1000000 4128 5965 0
1000000 4129 5760 0
1000000 4130 5471 0
1000000 4131 5258 0
1000000 4132 6183 0
1000000 4133 5285 0
1000000 4134 6090 0
1000000 4135 5679 0
1000000 4136 5292 0
1000000 4137 5149 0
1000000 4138 6169 0
1000000 4139 5640 0
1000000 4140 5271 0
1000000 4141 5157 0
1000000 4142 5488 0
1000000 4143 5672 0
1000000 4144 5506 0
1000000 4145 6172 0
1000000 4146 5170 0
1000000 4147 5413 0
1000000 4148 6243 0
1000000 4149 6165 0
1000000 4150 6159 0
1000000 4151 5217 0
1000000 4152 6168 0
1000000 4153 5727 0
1000000 4154 5849 0
1000000 4155 5827 0
1000000 4156 5993 0
1000000 4157 6307 0
1000000 4158 6143 0
1000000 4159 6316 0
1000000 4160 5374 0
1000000 4161 5405 0
1000000 4162 5887 0
1000000 4163 5630 0
1000000 4164 5277 0
1000000 4165 5564 0
1000000 4166 5462 0
1000000 4167 5508 0
1000000 4168 5242 0
1000000 4169 5499 0
1000000 4170 5834 0
1000000 4171 5342 0
1000000 4172 6249 0
1000000 4173 6125 0
1000000 4174 5787 0
1000000 4175 5681 0
1000000 4176 5177 0
1000000 4177 5477 0
1000000 4178 6266 0
1000000 4179 5592 0
1000000 4180 5219 0
1000000 4181 5627 0
1000000 4182 5994 0
1000000 4183 5163 0
1000000 4184 6024 0
1000000 4185 5395 0
1000000 4186 6129 0
1000000 4187 5735 0
1000000 4188 5686 0
1000000 4189 6190 0
1000000 4190 5474 0
1000000 4191 6304 0
1000000 4192 5458 0
1000000 4193 5583 0
1000000 4194 5457 0
1000000 4195 5214 0
1000000 4196 6028 0
1000000 4197 5866 0
1000000 4198 5407 0
1000000 4199 5334 0
1000000 4200 5862 0
1000000 4201 5954 0
1000000 4202 6284 0
1000000 4203 5182 0
1000000 4204 5259 0
1000000 4205 5316 0
1000000 4206 5858 0
1000000 4207 5338 0
1000000 4208 5125 0
1000000 4209 5587 0
1000000 4210 5540 0
1000000 4211 5999 0
1000000 4212 5945 0
1000000 4213 5648 0
1000000 4214 5902 0
1000000 4215 5527 0
1000000 4216 6113 0
1000000 4217 6109 0
1000000 4218 5788 0
1000000 4219 5355 0
1000000 4220 5337 0
1000000 4221 5492 0
1000000 4222 6270 0
1000000 4223 5639 0
1000000 4224 6083 0
1000000 4225 5984 0
1000000 4226 5544 0
1000000 4227 5971 0
1000000 4228 5777 0
1000000 4229 5291 0
1000000 4230 5216 0
1000000 4231 5669 0
1000000 4232 6298 0
1000000 4233 5468 0
1000000 4234 6261 0
1000000 4235 5584 0
1000000 4236 5478 0
1000000 4237 5442 0
1000000 4238 6143 0
1000000 4239 6294 0
1000000 4240 5218 0
1000000 4241 5749 0
1000000 4242 5961 0
1000000 4243 6220 0
1000000 4244 5873 0
1000000 4245 5371 0
1000000 4246 5914 0
1000000 4247 5273 0
1000000 4248 5510 0
1000000 4249 5231 0
1000000 4250 5706 0
1000000 4251 6043 0
1000000 4252 5579 0
1000000 4253 6282 0
1000000 4254 5254 0
1000000 4255 6067 0
1000000 4256 5185 0
1000000 4257 5871 0
1000000 4258 5490 0
1000000 4259 5352 0
1000000 4260 5677 0
1000000 4261 5655 0
1000000 4262 6223 0
1000000 4263 5177 0
1000000 4264 5205 0
1000000 4265 6076 0
1000000 4266 5313 0
1000000 4267 6117 0
1000000 4268 5350 0
1000000 4269 5348 0
1000000 4270 5560 0
1000000 4271 5450 0
1000000 4272 6280 0
1000000 4273 5135 0
1000000 4274 5621 0
1000000 4275 5656 0
1000000 4276 6144 0
1000000 4277 6185 0
1000000 4278 5447 0
1000000 4279 5523 0
1000000 4280 6286 0
1000000 4281 5284 0
1000000 4282 5956 0
1000000 4283 6218 0
1000000 4284 5469 0
1000000 4285 5879 0
1000000 4286 5241 0
1000000 4287 5626 0
1000000 4288 6005 0
1000000 4289 5265 0
1000000 4290 5607 0
1000000 4291 6157 0
1000000 4292 6144 0
1000000 4293 5441 0
1000000 4294 5521 0
1000000 4295 5169 0
1000000 4296 5234 0
1000000 4297 5928 0
1000000 4298 5760 0
1000000 4299 6177 0
1000000 4300 5906 0
1000000 4301 5880 0
1000000 4302 5864 0
1000000 4303 5581 0
1000000 4304 5286 0
1000000 4305 5519 0
1000000 4306 5584 0
1000000 4307 5453 0
1000000 4308 6175 0
1000000 4309 5248 0
1000000 4310 6181 0
1000000 4311 5348 0
1000000 4312 6202 0
1000000 4313 5564 0
1000000 4314 5578 0
1000000 4315 5409 0
1000000 4316 5367 0
1000000 4317 6153 0
1000000 4318 5657 0
1000000 4319 5432 0
1000000 4320 5168 0
1000000 4321 5513 0
1000000 4322 5179 0
1000000 4323 6293 0
1000000 4324 6004 0
1000000 4325 5759 0
1000000 4326 5404 0
1000000 4327 6023 0
1000000 4328 5227 0
1000000 4329 5471 0
1000000 4330 5280 0
1000000 4331 5361 0
1000000 4332 5831 0
1000000 4333 5839 0
1000000 4334 5736 0
1000000 4335 6195 0
1000000 4336 5294 0
1000000 4337 6200 0
1000000 4338 5477 0
1000000 4339 6013 0
1000000 4340 5710 0
1000000 4341 5995 0
1000000 4342 5543 0
1000000 4343 5623 0
1000000 4344 5497 0
1000000 4345 5977 0
1000000 4346 5277 0
1000000 4347 6044 0
1000000 4348 5937 0
1000000 4349 5959 0
1000000 4350 5216 0
1000000 4351 6025 0
1000000 4352 5727 0
1000000 4353 6049 0
1000000 4354 6040 0
1000000 4355 5325 0
1000000 4356 5758 0
1000000 4357 5171 0
1000000 4358 6140 0
1000000 4359 6262 0
1000000 4360 5357 0
1000000 4361 5417 0
1000000 4362 5970 0
1000000 4363 5480 0
1000000 4364 5847 0
1000000 4365 5396 0
1000000 4366 5141 0
1000000 4367 5224 0
1000000 4368 5951 0
1000000 4369 5191 0
1000000 4370 5835 0
1000000 4371 5244 0
1000000 4372 6201 0
1000000 4373 6301 0
1000000 4374 5807 0
1000000 4375 5842 0
1000000 4376 5402 0
1000000 4377 6139 0
1000000 4378 5170 0
1000000 4379 5202 0
1000000 4380 6108 0
1000000 4381 6274 0
1000000 4382 5966 0
1000000 4383 5173 0
1000000 4384 6201 0
1000000 4385 5827 0
1000000 4386 6008 0
1000000 4387 6007 0
1000000 4388 5870 0
1000000 4389 5687 0
1000000 4390 5154 0
1000000 4391 5853 0
1000000 4392 5164 0
1000000 4393 5665 0
1000000 4394 5378 0
1000000 4395 6295 0
1000000 4396 5131 0
1000000 4397 5136 0
1000000 4398 5717 0
1000000 4399 6099 0
1000000 4400 6250 0
1000000 4401 5666 0
1000000 4402 5320 0
1000000 4403 6264 0
1000000 4404 6015 0
1000000 4405 5444 0
1000000 4406 6152 0
1000000 4407 5319 0
1000000 4408 5278 0
1000000 4409 5875 0
1000000 4410 5652 0
1000000 4411 5324 0
1000000 4412 5946 0
1000000 4413 5806 0
1000000 4414 5465 0
1000000 4415 5832 0
1000000 4416 5957 0
1000000 4417 5366 0
1000000 4418 5932 0
1000000 4419 5847 0
1000000 4420 5936 0
1000000 4421 5439 0
1000000 4422 5720 0
1000000 4423 6302 0
1000000 4424 5519 0
1000000 4425 5270 0
1000000 4426 6215 0
1000000 4427 5848 0
1000000 4428 5651 0
1000000 4429 5274 0
1000000 4430 6009 0
1000000 4431 5805 0
1000000 4432 5668 0
1000000 4433 6134 0
1000000 4434 5367 0
1000000 4435 5300 0
1000000 4436 5540 0
1000000 4437 5829 0
1000000 4438 6036 0
1000000 4439 5650 0
1000000 4440 6096 0
1000000 4441 6243 0
1000000 4442 5513 0
1000000 4443 5783 0
1000000 4444 6314 0
1000000 4445 5561 0
1000000 4446 5689 0
1000000 4447 5196 0
1000000 4448 5122 0
1000000 4449 6050 0
1000000 4450 5548 0
1000000 4451 5398 0
1000000 4452 5300 0
1000000 4453 5841 0
1000000 4454 5713 0
1000000 4455 6283 0
1000000 4456 5778 0
1000000 4457 5600 0
1000000 4458 5317 0
1000000 4459 6115 0
1000000 4460 6131 0
1000000 4461 5922 0
1000000 4462 5434 0
1000000 4463 5691 0
1000000 4464 5191 0
1000000 4465 6031 0
1000000 4466 5846 0
1000000 4467 5468 0
1000000 4468 6169 0
1000000 4469 5235 0
1000000 4470 5859 0
1000000 4471 5696 0
1000000 4472 5994 0
1000000 4473 5154 0
1000000 4474 5978 0
1000000 4475 5689 0
1000000 4476 6287 0
1000000 4477 5843 0
1000000 4478 6303 0
1000000 4479 5576 0
1000000 4480 6288 0
1000000 4481 5530 0
1000000 4482 5668 0
1000000 4483 5964 0
1000000 4484 5156 0
1000000 4485 6314 0
1000000 4486 6198 0
1000000 4487 5419 0
1000000 4488 5384 0
1000000 4489 5507 0
1000000 4490 6127 0
1000000 4491 6058 0
1000000 4492 5965 0
1000000 4493 5432 0
1000000 4494 5279 0
1000000 4495 5615 0
1000000 4496 6041 0
1000000 4497 6304 0
1000000 4498 6123 0
1000000 4499 5322 0
1000000 4500 5976 0
1000000 4501 5623 0
1000000 4502 5539 0
1000000 4503 6055 0
1000000 4504 5570 0
1000000 4505 5551 0
1000000 4506 5293 0
1000000 4507 5918 0
1000000 4508 6181 0
1000000 4509 6087 0
1000000 4510 6190 0
1000000 4511 6214 0
1000000 4512 5275 0
1000000 4513 5808 0
1000000 4514 6187 0
1000000 4515 6020 0
1000000 4516 5644 0
1000000 4517 6214 0
1000000 4518 5201 0
1000000 4519 6221 0
1000000 4520 5516 0
1000000 4521 6209 0
1000000 4522 5150 0
1000000 4523 5545 0
1000000 4524 5268 0
1000000 4525 5303 0
1000000 4526 5247 0
1000000 4527 6253 0
1000000 4528 5877 0
1000000 4529 6023 0
1000000 4530 6296 0
1000000 4531 6149 0
1000000 4532 5806 0
1000000 4533 5891 0
1000000 4534 6032 0
1000000 4535 5485 0
1000000 4536 5276 0
1000000 4537 5537 0
1000000 4538 6257 0
1000000 4539 5897 0
1000000 4540 5226 0
1000000 4541 6067 0
1000000 4542 6165 0
1000000 4543 5145 0
1000000 4544 6173 0
1000000 4545 5791 0
1000000 4546 5695 0
1000000 4547 5698 0
1000000 4548 5391 0
1000000 4549 6036 0
1000000 4550 6311 0
1000000 4551 6072 0
1000000 4552 5672 0
1000000 4553 5660 0
1000000 4554 5136 0
1000000 4555 6318 0
1000000 4556 5871 0
1000000 4557 5890 0
1000000 4558 6146 0
1000000 4559 6175 0
1000000 4560 5738 0
1000000 4561 6136 0
1000000 4562 6161 0
1000000 4563 5694 0
1000000 4564 6155 0
1000000 4565 5893 0
1000000 4566 5147 0
1000000 4567 5401 0
1000000 4568 6294 0
1000000 4569 6099 0
1000000 4570 5483 0
1000000 4571 5767 0
1000000 4572 6157 0
1000000 4573 5162 0
1000000 4574 5472 0
1000000 4575 6122 0
1000000 4576 5448 0
1000000 4577 6006 0
1000000 4578 5751 0
1000000 4579 5950 0
1000000 4580 5454 0
1000000 4581 5780 0
1000000 4582 5158 0
1000000 4583 5255 0
1000000 4584 5752 0
1000000 4585 5883 0
1000000 4586 6126 0
1000000 4587 5415 0
1000000 4588 6161 0
1000000 4589 5683 0
1000000 4590 5153 0
1000000 4591 6176 0
1000000 4592 5589 0
1000000 4593 5674 0
1000000 4594 5186 0
1000000 4595 5733 0
1000000 4596 5131 0
1000000 4597 5511 0
1000000 4598 5900 0
1000000 4599 5229 0
1000000 4600 6291 0
1000000 4601 5526 0
1000000 4602 5404 0
1000000 4603 5354 0
1000000 4604 5440 0
1000000 4605 5762 0
1000000 4606 5576 0
1000000 4607 6144 0
1000000 4608 5264 0
1000000 4609 5913 0
1000000 4610 6221 0
1000000 4611 5561 0
1000000 4612 5901 0
1000000 4613 5164 0
1000000 4614 6305 0
1000000 4615 5709 0
1000000 4616 5902 0
1000000 4617 5220 0
1000000 4618 6032 0
1000000 4619 6217 0
1000000 4620 5245 0
1000000 4621 5883 0
1000000 4622 5336 0
1000000 4623 6090 0
1000000 4624 5687 0
1000000 4625 5349 0
1000000 4626 6085 0
1000000 4627 5525 0
1000000 4628 6206 0
1000000 4629 5989 0
1000000 4630 5960 0
1000000 4631 5694 0
1000000 4632 5818 0
1000000 4633 5854 0
1000000 4634 5967 0
1000000 4635 5196 0
1000000 4636 5540 0
1000000 4637 5744 0
1000000 4638 5813 0
1000000 4639 6208 0
1000000 4640 5624 0
1000000 4641 5240 0
1000000 4642 6262 0
1000000 4643 5477 0
1000000 4644 6112 0
1000000 4645 5555 0
1000000 4646 5900 0
1000000 4647 6319 0
1000000 4648 5606 0
1000000 4649 5247 0
1000000 4650 5834 0
1000000 4651 5960 0
1000000 4652 5172 0
1000000 4653 5918 0
1000000 4654 5747 0
1000000 4655 5411 0
1000000 4656 5613 0
1000000 4657 5888 0
1000000 4658 5319 0
1000000 4659 5594 0
1000000 4660 5197 0
1000000 4661 5751 0
1000000 4662 5648 0
1000000 4663 6240 0
1000000 4664 5260 0
1000000 4665 5912 0
1000000 4666 5850 0
1000000 4667 6236 0
1000000 4668 5539 0
1000000 4669 5776 0
1000000 4670 6035 0
1000000 4671 5923 0
1000000 4672 5947 0
1000000 4673 5155 0
1000000 4674 5886 0
1000000 4675 6184 0
1000000 4676 5645 0
1000000 4677 5654 0
1000000 4678 5831 0
1000000 4679 6029 0
1000000 4680 5690 0
1000000 4681 5533 0
1000000 4682 5500 0
1000000 4683 6086 0
1000000 4684 5974 0
1000000 4685 5803 0
1000000 4686 5531 0
1000000 4687 5994 0
1000000 4688 5121 0
1000000 4689 6221 0
1000000 4690 5565 0
1000000 4691 5262 0
1000000 4692 6211 0
1000000 4693 5339 0
1000000 4694 5554 0
1000000 4695 6224 0
1000000 4696 5530 0
1000000 4697 5735 0
1000000 4698 5914 0
1000000 4699 5352 0
1000000 4700 6096 0
1000000 4701 6021 0
1000000 4702 6259 0
1000000 4703 6232 0
1000000 4704 5931 0
1000000 4705 5272 0
1000000 4706 5410 0
1000000 4707 6129 0
1000000 4708 6213 0
1000000 4709 5765 0
1000000 4710 5186 0
1000000 4711 6293 0
1000000 4712 5322 0
1000000 4713 5852 0
1000000 4714 5219 0
1000000 4715 5166 0
1000000 4716 5281 0
1000000 4717 5252 0
1000000 4718 5881 0
1000000 4719 5356 0
1000000 4720 6158 0
1000000 4721 5172 0
1000000 4722 6034 0
1000000 4723 5507 0
1000000 4724 6258 0
1000000 4725 6128 0
1000000 4726 5473 0
1000000 4727 6002 0
1000000 4728 5560 0
1000000 4729 6044 0
1000000 4730 5475 0
1000000 4731 5520 0
1000000 4732 5670 0
1000000 4733 5619 0
1000000 4734 5861 0
1000000 4735 5704 0
1000000 4736 5941 0
1000000 4737 5583 0
1000000 4738 6108 0
1000000 4739 5757 0
1000000 4740 5761 0
1000000 4741 5567 0
1000000 4742 6034 0
1000000 4743 5402 0
1000000 4744 5246 0
1000000 4745 5567 0
1000000 4746 5312 0
1000000 4747 5424 0
1000000 4748 5568 0
1000000 4749 5939 0
1000000 4750 5142 0
1000000 4751 5989 0
1000000 4752 6241 0
1000000 4753 6219 0
1000000 4754 6206 0
1000000 4755 5443 0
1000000 4756 5243 0
1000000 4757 5798 0
1000000 4758 5259 0
1000000 4759 5455 0
1000000 4760 5500 0
1000000 4761 5711 0
1000000 4762 6061 0
1000000 4763 5822 0
1000000 4764 5870 0
1000000 4765 6008 0
1000000 4766 5773 0
1000000 4767 5263 0
1000000 4768 6276 0
1000000 4769 6038 0
1000000 4770 5328 0
1000000 4771 5770 0
1000000 4772 5346 0
1000000 4773 6197 0
1000000 4774 5498 0
1000000 4775 5505 0
1000000 4776 6019 0
1000000 4777 5368 0
1000000 4778 5472 0
1000000 4779 5823 0
1000000 4780 6082 0
1000000 4781 5159 0
1000000 4782 6001 0
1000000 4783 5860 0
1000000 4784 6133 0
1000000 4785 5381 0
1000000 4786 5999 0
1000000 4787 5915 0
1000000 4788 5500 0
1000000 4789 5178 0
1000000 4790 5220 0
1000000 4791 5252 0
1000000 4792 6300 0
1000000 4793 5282 0
1000000 4794 5394 0
1000000 4795 5529 0
1000000 4796 5863 0
1000000 4797 6063 0
1000000 4798 5161 0
1000000 4799 6159 0
1000000 4800 5532 0
1000000 4801 5671 0
1000000 4802 6059 0
1000000 4803 5402 0
1000000 4804 5270 0
1000000 4805 5753 0
1000000 4806 6154 0
1000000 4807 5824 0
1000000 4808 5738 0
1000000 4809 6096 0
1000000 4810 5479 0
1000000 4811 5930 0
1000000 4812 6118 0
1000000 4813 6308 0
1000000 4814 5190 0
1000000 4815 5954 0
1000000 4816 6057 0
1000000 4817 5659 0
1000000 4818 5172 0
1000000 4819 5129 0
1000000 4820 5740 0
1000000 4821 6214 0
1000000 4822 5732 0
1000000 4823 5948 0
1000000 4824 6216 0
1000000 4825 5180 0
1000000 4826 5835 0
1000000 4827 5831 0
1000000 4828 5925 0
1000000 4829 5239 0
1000000 4830 5606 0
1000000 4831 5536 0
1000000 4832 5620 0
1000000 4833 5857 0
1000000 4834 6181 0
1000000 4835 6209 0
1000000 4836 5881 0
1000000 4837 5729 0
1000000 4838 5152 0
1000000 4839 5249 0
1000000 4840 5275 0
1000000 4841 5579 0
1000000 4842 5382 0
1000000 4843 5351 0
1000000 4844 6258 0
1000000 4845 5307 0
1000000 4846 5935 0
1000000 4847 5701 0
1000000 4848 5849 0
1000000 4849 5746 0
1000000 4850 5127 0
1000000 4851 5480 0
1000000 4852 6085 0
1000000 4853 6014 0
1000000 4854 5755 0
1000000 4855 5940 0
1000000 4856 6142 0
1000000 4857 5969 0
1000000 4858 5312 0
1000000 4859 5784 0
1000000 4860 5963 0
1000000 4861 5636 0
1000000 4862 5793 0
1000000 4863 5139 0
1000000 4864 5750 0
1000000 4865 6122 0
1000000 4866 5729 0
1000000 4867 6299 0
1000000 4868 5427 0
1000000 4869 6125 0
1000000 4870 5927 0
1000000 4871 6234 0
1000000 4872 6317 0
1000000 4873 5672 0
1000000 4874 5868 0
1000000 4875 6303 0
1000000 4876 5721 0
1000000 4877 5693 0
1000000 4878 5274 0
1000000 4879 5289 0
1000000 4880 5841 0
1000000 4881 5880 0
1000000 4882 6031 0
1000000 4883 5385 0
1000000 4884 6289 0
1000000 4885 5541 0
1000000 4886 6285 0
1000000 4887 6283 0
1000000 4888 5642 0
1000000 4889 5670 0
1000000 4890 5164 0
1000000 4891 6254 0
1000000 4892 6190 0
1000000 4893 5423 0
1000000 4894 5888 0
1000000 4895 5541 0
1000000 4896 5470 0
1000000 4897 5727 0
1000000 4898 5784 0
1000000 4899 5140 0
1000000 4900 5547 0
1000000 4901 6268 0
1000000 4902 5160 0
1000000 4903 5212 0
1000000 4904 5893 0
1000000 4905 5546 0
1000000 4906 5653 0
1000000 4907 6310 0
1000000 4908 6070 0
1000000 4909 5382 0
1000000 4910 5632 0
1000000 4911 5563 0
1000000 4912 5894 0
1000000 4913 5217 0
1000000 4914 5972 0
1000000 4915 5534 0
1000000 4916 5720 0
1000000 4917 5678 0
1000000 4918 5327 0
1000000 4919 5569 0
1000000 4920 5899 0
1000000 4921 6068 0
1000000 4922 5156 0
1000000 4923 5344 0
1000000 4924 5961 0
1000000 4925 6222 0
1000000 4926 6220 0
1000000 4927 5598 0
1000000 4928 6271 0
1000000 4929 6241 0
1000000 4930 5702 0
1000000 4931 5990 0
1000000 4932 5627 0
1000000 4933 5278 0
1000000 4934 5394 0
1000000 4935 5861 0
1000000 4936 5411 0
1000000 4937 5864 0
1000000 4938 6268 0
1000000 4939 5552 0
1000000 4940 6200 0
1000000 4941 5842 0
1000000 4942 5653 0
1000000 4943 5486 0
1000000 4944 6068 0
1000000 4945 5199 0
1000000 4946 5655 0
1000000 4947 5550 0
1000000 4948 5236 0
1000000 4949 5883 0
1000000 4950 6289 0
1000000 4951 5837 0
1000000 4952 5380 0
1000000 4953 5475 0
1000000 4954 6064 0
1000000 4955 5321 0
1000000 4956 5472 0
1000000 4957 5843 0
1000000 4958 5588 0
1000000 4959 5799 0
1000000 4960 5291 0
1000000 4961 5750 0
1000000 4962 5308 0
1000000 4963 5517 0
1000000 4964 5704 0
1000000 4965 6095 0
1000000 4966 6117 0
1000000 4967 5995 0
1000000 4968 5878 0
1000000 4969 6052 0
1000000 4970 5625 0
1000000 4971 5330 0
1000000 4972 6177 0
1000000 4973 5220 0
1000000 4974 5892 0
1000000 4975 5345 0
1000000 4976 5848 0
1000000 4977 5348 0
1000000 4978 5614 0
1000000 4979 6231 0
1000000 4980 5142 0
1000000 4981 6055 0
1000000 4982 5820 0
1000000 4983 6021 0
1000000 4984 5710 0
1000000 4985 5376 0
1000000 4986 5929 0
1000000 4987 5588 0
1000000 4988 5942 0
1000000 4989 6120 0
1000000 4990 5746 0
1000000 4991 5681 0
1000000 4992 6211 0
1000000 4993 5518 0
1000000 4994 5586 0
1000000 4995 5819 0
1000000 4996 5444 0
1000000 4997 5997 0
1000000 4998 6099 0
1000000 4999 5400 0
1000000 5000 5140 0
1000000 5001 5617 0
1000000 5002 6193 0
1000000 5003 5776 0
1000000 5004 5434 0
1000000 5005 5682 0
1000000 5006 5252 0
1000000 5007 6141 0
1000000 5008 6039 0
1000000 5009 5175 0
1000000 5010 6167 0
1000000 5011 5757 0
1000000 5012 6069 0
1000000 5013 6172 0
1000000 5014 5176 0
1000000 5015 6014 0
1000000 5016 5305 0
1000000 5017 5621 0
1000000 5018 6151 0
1000000 5019 6193 0
1000000 5020 5335 0
1000000 5021 6197 0
1000000 5022 5857 0
1000000 5023 6105 0
1000000 5024 5142 0
1000000 5025 5972 0
1000000 5026 5946 0
1000000 5027 5237 0
1000000 5028 6127 0
1000000 5029 5899 0
1000000 5030 6170 0
1000000 5031 5285 0
1000000 5032 6119 0
1000000 5033 5222 0
1000000 5034 5728 0
1000000 5035 5297 0
1000000 5036 5895 0
1000000 5037 5920 0
1000000 5038 6271 0
1000000 5039 5490 0
1000000 5040 5232 0
1000000 5041 5980 0
1000000 5042 5549 0
1000000 5043 5944 0
1000000 5044 5645 0
1000000 5045 6161 0
1000000 5046 5799 0
1000000 5047 5145 0
1000000 5048 5975 0
1000000 5049 5445 0
1000000 5050 5787 0
1000000 5051 6183 0
1000000 5052 5183 0
1000000 5053 5310 0
1000000 5054 5796 0
1000000 5055 5788 0
1000000 5056 5731 0
1000000 5057 6277 0
1000000 5058 6041 0
1000000 5059 5187 0
1000000 5060 6149 0
1000000 5061 5377 0
1000000 5062 6288 0
1000000 5063 6265 0
1000000 5064 5779 0
1000000 5065 5763 0
1000000 5066 5928 0
1000000 5067 5656 0
1000000 5068 5574 0
1000000 5069 5863 0
1000000 5070 6186 0
1000000 5071 5337 0
1000000 5072 5541 0
1000000 5073 6227 0
1000000 5074 6015 0
1000000 5075 5190 0
1000000 5076 5941 0
1000000 5077 5535 0
1000000 5078 5591 0
1000000 5079 5370 0
1000000 5080 5975 0
1000000 5081 5198 0
1000000 5082 6295 0
1000000 5083 5309 0
1000000 5084 5461 0
1000000 5085 5582 0
1000000 5086 5367 0
1000000 5087 5917 0
1000000 5088 6055 0
1000000 5089 5422 0
1000000 5090 5218 0
1000000 5091 6083 0
1000000 5092 6237 0
1000000 5093 5998 0
1000000 5094 5820 0
1000000 5095 5515 0
1000000 5096 5777 0
1000000 5097 6242 0
1000000 5098 5897 0
1000000 5099 5786 0
1000000 5100 6194 0
1000000 5101 5780 0
1000000 5102 5488 0
1000000 5103 5335 0
1000000 5104 6105 0
1000000 5105 5949 0
1000000 5106 5716 0
1000000 5107 5306 0
1000000 5108 5301 0
1000000 5109 5310 0
1000000 5110 5845 0
1000000 5111 5986 0
1000000 5112 5719 0
1000000 5113 5790 0
1000000 5114 5360 0
1000000 5115 6072 0
1000000 5116 5669 0
1000000 5117 6105 0
1000000 5118 5424 0
1000000 5119 5434 0
1000000 5120 5663 0
1000000 -2721 -5749 0
1000000 -2722 -5557 0
1000000 -2723 -5715 0
1000000 -2724 -5548 0
1000000 -2725 -5641 0
1000000 -2726 -6051 0
1000000 -2727 -5466 0
1000000 -2728 -5848 0
1000000 -2729 -5283 0
1000000 -2730 -5956 0
1000000 -2731 -6312 0
1000000 -2732 -5134 0
1000000 -2733 -5548 0
1000000 -2734 -5504 0
1000000 -2735 -5321 0
1000000 -2736 -6074 0
1000000 -2737 -5531 0
1000000 -2738 -5137 0
1000000 -2739 -6039 0
1000000 -2740 -5523 0
1000000 -2741 -5482 0
1000000 -2742 -6288 0
1000000 -2743 -6025 0
1000000 -2744 -6160 0
1000000 -2745 -5413 0
1000000 -2746 -6027 0
1000000 -2747 -6135 0
1000000 -2748 -5705 0
1000000 -2749 -6183 0
1000000 -2750 -6129 0
1000000 -2751 -6252 0
1000000 -2752 -5126 0
1000000 -2753 -5298 0
1000000 -2754 -5256 0
1000000 -2755 -5885 0
1000000 -2756 -5967 0
1000000 -2757 -5417 0
1000000 -2758 -6049 0
1000000 -2759 -5782 0
1000000 -2760 -5612 0
1000000 -2761 -6022 0
1000000 -2762 -6269 0
1000000 -2763 -5389 0
1000000 -2764 -5880 0
1000000 -2765 -5644 0
1000000 -2766 -6317 0
1000000 -2767 -5939 0
1000000 -2768 -5997 0
1000000 -2769 -5806 0
1000000 -2770 -6043 0
1000000 -2771 -5148 0
1000000 -2772 -5681 0
1000000 -2773 -6023 0
1000000 -2774 -5818 0
1000000 -2775 -6316 0
1000000 -2776 -5585 0
1000000 -2777 -5631 0
1000000 -2778 -5320 0
1000000 -2779 -5174 0
1000000 -2780 -6191 0
1000000 -2781 -5175 0
1000000 -2782 -6168 0
1000000 -2783 -5601 0
1000000 -2784 -5753 0
1000000 -2785 -5785 0
1000000 -2786 -5671 0
1000000 -2787 -5151 0
1000000 -2788 -6087 0
1000000 -2789 -5924 0
1000000 -2790 -5441 0
1000000 -2791 -5699 0
1000000 -2792 -5570 0
1000000 -2793 -5765 0
1000000 -2794 -6065 0
1000000 -2795 -5365 0
1000000 -2796 -6081 0
1000000 -2797 -5371 0
1000000 -2798 -6094 0
1000000 -2799 -6230 0
1000000 -2800 -6219 0
1000000 -2801 -5310 0
1000000 -2802 -5272 0
1000000 -2803 -5428 0
1000000 -2804 -5714 0
1000000 -2805 -5772 0
1000000 -2806 -5238 0
1000000 -2807 -6101 0
1000000 -2808 -6146 0
1000000 -2809 -6188 0
1000000 -2810 -6065 0
1000000 -2811 -5210 0
1000000 -2812 -6091 0
1000000 -2813 -5663 0
1000000 -2814 -5171 0
1000000 -2815 -5913 0
1000000 -2816 -5473 0
1000000 -2817 -6198 0
1000000 -2818 -5782 0
1000000 -2819 -5805 0
1000000 -2820 -5637 0
1000000 -2821 -6145 0
1000000 -2822 -5206 0
1000000 -2823 -6255 0
1000000 -2824 -5248 0
1000000 -2825 -6075 0
1000000 -2826 -5380 0
1000000 -2827 -6060 0
1000000 -2828 -6042 0
1000000 -2829 -5369 0
1000000 -2830 -5838 0
1000000 -2831 -6106 0
1000000 -2832 -5301 0
1000000 -2833 -6147 0
1000000 -2834 -6194 0
1000000 -2835 -5968 0
1000000 -2836 -5207 0
1000000 -2837 -5502 0
1000000 -2838 -5688 0
1000000 -2839 -5474 0
1000000 -2840 -5968 0
1000000 -2841 -5137 0
1000000 -2842 -6130 0
1000000 -2843 -6273 0
1000000 -2844 -5342 0
1000000 -2845 -5148 0
1000000 -2846 -5359 0
1000000 -2847 -5805 0
1000000 -2848 -5282 0
1000000 -2849 -5159 0
1000000 -2850 -5866 0
1000000 -2851 -5554 0
1000000 -2852 -6031 0
1000000 -2853 -5433 0
1000000 -2854 -6086 0
1000000 -2855 -5263 0
1000000 -2856 -6173 0
1000000 -2857 -5794 0
1000000 -2858 -5713 0
1000000 -2859 -5261 0
1000000 -2860 -5771 0
1000000 -2861 -5413 0
1000000 -2862 -6282 0
1000000 -2863 -5290 0
1000000 -2864 -5387 0
1000000 -2865 -6241 0
1000000 -2866 -5798 0
1000000 -2867 -6174 0
1000000 -2868 -5870 0
1000000 -2869 -5871 0
1000000 -2870 -5608 0
1000000 -2871 -6089 0
1000000 -2872 -6297 0
1000000 -2873 -5511 0
1000000 -2874 -5610 0
1000000 -2875 -5334 0
1000000 -2876 -5990 0
1000000 -2877 -5464 0
1000000 -2878 -5194 0
1000000 -2879 -5792 0
1000000 -2880 -5553 0
1000000 -2881 -5812 0
1000000 -2882 -5356 0
1000000 -2883 -5840 0
1000000 -2884 -5574 0
1000000 -2885 -5484 0
1000000 -2886 -5363 0
1000000 -2887 -6011 0
1000000 -2888 -6202 0
1000000 -2889 -5757 0
1000000 -2890 -5633 0
1000000 -2891 -6207 0
1000000 -2892 -5921 0
1000000 -2893 -5720 0
1000000 -2894 -5408 0
1000000 -2895 -5967 0
1000000 -2896 -5484 0
1000000 -2897 -6012 0
1000000 -2898 -6185 0
1000000 -2899 -5964 0
1000000 -2900 -6253 0
1000000 -2901 -5280 0
1000000 -2902 -5652 0
1000000 -2903 -5761 0
1000000 -2904 -5580 0
1000000 -2905 -6306 0
1000000 -2906 -5770 0
1000000 -2907 -5615 0
1000000 -2908 -5331 0
1000000 -2909 -5561 0
1000000 -2910 -5461 0
1000000 -2911 -5513 0
1000000 -2912 -5366 0
1000000 -2913 -5235 0
1000000 -2914 -5257 0
1000000 -2915 -5369 0
1000000 -2916 -5845 0
1000000 -2917 -5191 0
1000000 -2918 -6044 0
1000000 -2919 -6003 0
1000000 -2920 -6178 0
1000000 -2921 -5714 0
1000000 -2922 -5850 0
1000000 -2923 -6018 0
1000000 -2924 -6153 0
1000000 -2925 -5491 0
1000000 -2926 -5304 0
1000000 -2927 -5590 0
1000000 -2928 -5756 0
1000000 -2929 -5611 0
1000000 -2930 -5637 0
1000000 -2931 -5692 0
1000000 -2932 -5208 0
1000000 -2933 -5206 0
1000000 -2934 -5569 0
1000000 -2935 -5144 0
1000000 -2936 -5364 0
1000000 -2937 -5453 0
1000000 -2938 -5512 0
1000000 -2939 -5538 0
1000000 -2940 -5815 0
1000000 -2941 -5722 0
1000000 -2942 -5692 0
1000000 -2943 -5138 0
1000000 -2944 -5735 0
1000000 -2945 -5456 0
1000000 -2946 -5664 0
1000000 -2947 -5896 0
1000000 -2948 -5985 0
1000000 -2949 -5222 0
1000000 -2950 -6249 0
1000000 -2951 -5588 0
1000000 -2952 -5520 0
1000000 -2953 -5830 0
1000000 -2954 -5924 0
1000000 -2955 -5426 0
1000000 -2956 -5930 0
1000000 -2957 -5965 0
1000000 -2958 -6122 0
1000000 -2959 -5546 0
1000000 -2960 -5789 0
1000000 -2961 -6102 0
1000000 -2962 -5432 0
1000000 -2963 -5183 0
1000000 -2964 -5287 0
1000000 -2965 -5804 0
1000000 -2966 -6213 0
1000000 -2967 -5857 0
1000000 -2968 -5739 0
1000000 -2969 -6238 0
1000000 -2970 -6184 0
1000000 -2971 -5943 0
1000000 -2972 -5473 0
1000000 -2973 -5443 0
1000000 -2974 -5785 0
1000000 -2975 -5262 0
1000000 -2976 -6206 0
1000000 -2977 -5584 0
1000000 -2978 -6053 0
1000000 -2979 -5641 0
1000000 -2980 -6046 0
1000000 -2981 -5261 0
1000000 -2982 -6251 0
1000000 -2983 -5329 0
1000000 -2984 -5832 0
1000000 -2985 -5745 0
1000000 -2986 -6062 0
1000000 -2987 -5453 0
1000000 -2988 -6107 0
1000000 -2989 -5608 0
1000000 -2990 -5700 0
1000000 -2991 -5559 0
1000000 -2992 -5207 0
1000000 -2993 -6124 0
1000000 -2994 -5392 0
1000000 -2995 -6000 0
1000000 -2996 -5200 0
1000000 -2997 -6263 0
1000000 -2998 -6156 0
1000000 -2999 -5601 0
1000000 -3000 -5817 0
1000000 -3001 -5844 0
1000000 -3002 -5794 0
1000000 -3003 -5368 0
1000000 -3004 -6098 0
1000000 -3005 -6070 0
1000000 -3006 -5532 0
1000000 -3007 -5589 0
1000000 -3008 -6038 0
1000000 -3009 -5141 0
1000000 -3010 -5337 0
1000000 -3011 -5497 0
1000000 -3012 -5384 0
1000000 -3013 -5852 0
1000000 -3014 -5344 0
1000000 -3015 -5554 0
1000000 -3016 -6085 0
1000000 -3017 -5673 0
1000000 -3018 -5937 0
1000000 -3019 -5530 0
1000000 -3020 -5429 0
1000000 -3021 -5700 0
1000000 -3022 -6213 0
1000000 -3023 -5879 0
1000000 -3024 -5223 0
1000000 -3025 -5802 0
1000000 -3026 -5240 0
1000000 -3027 -5355 0
1000000 -3028 -6106 0
1000000 -3029 -5302 0
1000000 -3030 -6150 0
1000000 -3031 -5405 0
1000000 -3032 -6233 0
1000000 -3033 -6247 0
1000000 -3034 -5634 0
1000000 -3035 -5557 0
1000000 -3036 -6255 0
1000000 -3037 -5360 0
1000000 -3038 -5671 0
1000000 -3039 -5222 0
1000000 -3040 -5459 0
1000000 -3041 -6249 0
1000000 -3042 -5853 0
1000000 -3043 -6187 0
1000000 -3044 -5638 0
1000000 -3045 -5620 0
1000000 -3046 -5732 0
1000000 -3047 -5697 0
1000000 -3048 -5977 0
1000000 -3049 -5660 0
1000000 -3050 -5464 0
1000000 -3051 -6026 0
1000000 -3052 -5778 0
1000000 -3053 -5908 0
1000000 -3054 -5889 0
1000000 -3055 -5882 0
1000000 -3056 -6182 0
1000000 -3057 -5881 0
1000000 -3058 -5261 0
1000000 -3059 -5298 0
1000000 -3060 -5974 0
1000000 -3061 -6077 0
1000000 -3062 -5386 0
1000000 -3063 -6020 0
1000000 -3064 -5526 0
1000000 -3065 -5253 0
1000000 -3066 -6103 0
1000000 -3067 -5563 0
1000000 -3068 -5168 0
1000000 -3069 -5910 0
1000000 -3070 -5580 0
1000000 -3071 -6041 0
1000000 -3072 -6057 0
1000000 -3073 -6163 0
1000000 -3074 -5203 0
1000000 -3075 -5828 0
1000000 -3076 -5595 0
1000000 -3077 -5758 0
1000000 -3078 -5693 0
1000000 -3079 -5299 0
1000000 -3080 -5675 0
1000000 -3081 -6119 0
1000000 -3082 -5694 0
1000000 -3083 -5676 0
1000000 -3084 -5755 0
1000000 -3085 -5685 0
1000000 -3086 -6113 0
1000000 -3087 -6010 0
1000000 -3088 -5225 0
1000000 -3089 -5662 0
1000000 -3090 -5228 0
1000000 -3091 -5339 0
1000000 -3092 -6132 0
1000000 -3093 -5771 0
1000000 -3094 -6278 0
1000000 -3095 -6143 0
1000000 -3096 -5651 0
1000000 -3097 -5212 0
1000000 -3098 -5167 0
1000000 -3099 -5571 0
1000000 -3100 -5809 0
1000000 -3101 -5241 0
1000000 -3102 -5417 0
1000000 -3103 -6113 0
1000000 -3104 -6199 0
1000000 -3105 -5123 0
1000000 -3106 -5751 0
1000000 -3107 -5930 0
1000000 -3108 -5344 0
1000000 -3109 -6035 0
1000000 -3110 -5526 0
1000000 -3111 -6100 0
1000000 -3112 -5936 0
1000000 -3113 -5518 0
1000000 -3114 -5644 0
1000000 -3115 -5373 0
1000000 -3116 -5988 0
1000000 -3117 -6069 0
1000000 -3118 -5429 0
1000000 -3119 -5899 0
1000000 -3120 -5748 0
1000000 -3121 -5431 0
1000000 -3122 -5773 0
1000000 -3123 -5847 0
1000000 -3124 -5289 0
1000000 -3125 -5416 0
1000000 -3126 -5854 0
1000000 -3127 -5438 0
1000000 -3128 -5699 0
1000000 -3129 -5856 0
1000000 -3130 -5221 0
1000000 -3131 -5892 0
1000000 -3132 -5851 0
1000000 -3133 -6186 0
1000000 -3134 -5790 0
1000000 -3135 -5322 0
1000000 -3136 -5409 0
1000000 -3137 -5416 0
1000000 -3138 -6299 0
1000000 -3139 -5324 0
1000000 -3140 -6291 0
1000000 -3141 -5281 0
1000000 -3142 -5955 0
1000000 -3143 -6240 0
1000000 -3144 -6290 0
1000000 -3145 -5313 0
1000000 -3146 -5256 0
1000000 -3147 -6108 0
1000000 -3148 -5746 0
1000000 -3149 -5464 0
1000000 -3150 -5605 0
1000000 -3151 -6053 0
1000000 -3152 -5898 0
1000000 -3153 -5925 0
1000000 -3154 -5992 0
1000000 -3155 -5375 0
1000000 -3156 -5135 0
1000000 -3157 -5978 0
1000000 -3158 -5663 0
1000000 -3159 -5657 0
1000000 -3160 -5517 0
1000000 -3161 -5195 0
1000000 -3162 -5506 0
1000000 -3163 -6200 0
1000000 -3164 -6254 0
1000000 -3165 -5690 0
1000000 -3166 -5256 0
1000000 -3167 -6175 0
1000000 -3168 -5321 0
1000000 -3169 -5916 0
1000000 -3170 -5523 0
1000000 -3171 -5637 0
1000000 -3172 -5239 0
1000000 -3173 -5625 0
1000000 -3174 -6182 0
1000000 -3175 -5692 0
1000000 -3176 -5314 0
1000000 -3177 -5945 0
1000000 -3178 -5194 0
1000000 -3179 -5901 0
1000000 -3180 -5296 0
1000000 -3181 -5292 0
1000000 -3182 -6244 0
1000000 -3183 -5868 0
1000000 -3184 -5460 0
1000000 -3185 -5869 0
1000000 -3186 -5968 0
1000000 -3187 -5632 0
1000000 -3188 -5851 0
1000000 -3189 -5666 0
1000000 -3190 -6233 0
1000000 -3191 -5771 0
1000000 -3192 -6172 0
1000000 -3193 -6259 0
1000000 -3194 -5755 0
1000000 -3195 -5353 0
1000000 -3196 -6157 0
1000000 -3197 -5945 0
1000000 -3198 -6299 0
1000000 -3199 -5492 0
1000000 -3200 -5148 0
1000000 -3201 -6192 0
1000000 -3202 -5890 0
1000000 -3203 -5935 0
1000000 -3204 -5667 0
1000000 -3205 -6312 0
1000000 -3206 -5138 0
1000000 -3207 -5740 0
1000000 -3208 -5462 0
1000000 -3209 -5824 0
1000000 -3210 -5927 0
1000000 -3211 -5747 0
1000000 -3212 -5813 0
1000000 -3213 -5318 0
1000000 -3214 -5938 0
1000000 -3215 -5707 0
1000000 -3216 -5851 0
1000000 -3217 -5987 0
1000000 -3218 -5957 0
1000000 -3219 -5139 0
1000000 -3220 -5134 0
1000000 -3221 -5240 0
1000000 -3222 -5132 0
1000000 -3223 -6309 0
1000000 -3224 -6141 0
1000000 -3225 -5452 0
1000000 -3226 -5318 0
1000000 -3227 -5485 0
1000000 -3228 -5351 0
1000000 -3229 -5604 0
1000000 -3230 -5795 0
1000000 -3231 -6138 0
1000000 -3232 -5218 0
1000000 -3233 -6037 0
1000000 -3234 -5648 0
1000000 -3235 -5809 0
1000000 -3236 -5860 0
1000000 -3237 -5721 0
1000000 -3238 -5859 0
1000000 -3239 -5181 0
1000000 -3240 -5814 0
1000000 -3241 -5775 0
1000000 -3242 -5209 0
1000000 -3243 -5882 0
1000000 -3244 -5911 0
1000000 -3245 -5340 0
1000000 -3246 -6276 0
1000000 -3247 -6207 0
1000000 -3248 -5503 0
1000000 -3249 -5123 0
1000000 -3250 -5744 0
1000000 -3251 -5416 0
1000000 -3252 -5903 0
1000000 -3253 -6317 0
1000000 -3254 -5810 0
1000000 -3255 -6079 0
1000000 -3256 -5323 0
1000000 -3257 -5734 0
1000000 -3258 -5605 0
1000000 -3259 -6062 0
1000000 -3260 -6210 0
1000000 -3261 -6191 0
1000000 -3262 -6019 0
1000000 -3263 -5759 0
1000000 -3264 -5920 0
1000000 -3265 -6278 0
1000000 -3266 -5680 0
1000000 -3267 -5910 0
1000000 -3268 -6285 0
1000000 -3269 -5677 0
1000000 -3270 -5181 0
1000000 -3271 -6002 0
1000000 -3272 -5360 0
1000000 -3273 -5714 0
1000000 -3274 -5948 0
1000000 -3275 -5289 0
1000000 -3276 -6273 0
1000000 -3277 -5933 0
1000000 -3278 -6196 0
1000000 -3279 -5311 0
1000000 -3280 -6124 0
1000000 -3281 -5862 0
1000000 -3282 -6078 0
1000000 -3283 -5609 0
1000000 -3284 -6102 0
1000000 -3285 -6279 0
1000000 -3286 -5830 0
1000000 -3287 -5593 0
1000000 -3288 -5522 0
1000000 -3289 -5979 0
1000000 -3290 -5404 0
1000000 -3291 -5575 0
1000000 -3292 -6002 0
1000000 -3293 -6277 0
1000000 -3294 -5808 0
1000000 -3295 -5645 0
1000000 -3296 -5315 0
1000000 -3297 -5273 0
1000000 -3298 -5647 0
1000000 -3299 -5225 0
1000000 -3300 -6131 0
1000000 -3301 -5146 0
1000000 -3302 -6319 0
1000000 -3303 -6205 0
1000000 -3304 -5428 0
1000000 -3305 -5649 0
1000000 -3306 -5184 0
1000000 -3307 -5565 0
1000000 -3308 -6311 0
1000000 -3309 -5169 0
1000000 -3310 -5239 0
1000000 -3311 -5338 0
1000000 -3312 -5371 0
1000000 -3313 -5597 0
1000000 -3314 -5970 0
1000000 -3315 -5414 0
1000000 -3316 -5856 0
1000000 -3317 -5485 0
1000000 -3318 -6222 0
1000000 -3319 -5827 0
1000000 -3320 -5845 0
1000000 -3321 -5688 0
1000000 -3322 -6314 0
1000000 -3323 -5708 0
1000000 -3324 -6064 0
1000000 -3325 -6078 0
1000000 -3326 -5233 0
1000000 -3327 -5362 0
1000000 -3328 -6230 0
1000000 -3329 -5638 0
1000000 -3330 -6010 0
1000000 -3331 -6120 0
1000000 -3332 -5294 0
1000000 -3333 -5703 0
1000000 -3334 -6134 0
1000000 -3335 -5193 0
1000000 -3336 -5819 0
1000000 -3337 -5372 0
1000000 -3338 -5305 0
1000000 -3339 -5886 0
1000000 -3340 -6318 0
1000000 -3341 -5598 0
1000000 -3342 -6272 0
1000000 -3343 -6166 0
1000000 -3344 -6228 0
1000000 -3345 -6083 0
1000000 -3346 -5736 0
1000000 -3347 -5463 0
1000000 -3348 -5316 0
1000000 -3349 -5378 0
1000000 -3350 -6191 0
1000000 -3351 -5189 0
1000000 -3352 -5873 0
1000000 -3353 -5682 0
1000000 -3354 -5809 0
1000000 -3355 -5291 0
1000000 -3356 -6318 0
1000000 -3357 -6060 0
1000000 -3358 -5562 0
1000000 -3359 -6296 0
1000000 -3360 -5466 0
1000000 -3361 -5390 0
1000000 -3362 -6077 0
1000000 -3363 -5438 0
1000000 -3364 -5650 0
1000000 -3365 -6071 0
1000000 -3366 -5494 0
1000000 -3367 -5188 0
1000000 -3368 -5388 0
1000000 -3369 -6267 0
1000000 -3370 -5582 0
1000000 -3371 -6156 0
1000000 -3372 -5366 0
1000000 -3373 -5254 0
1000000 -3374 -5193 0
1000000 -3375 -5932 0
1000000 -3376 -5591 0
1000000 -3377 -5985 0
1000000 -3378 -5817 0
1000000 -3379 -5355 0
1000000 -3380 -5131 0
1000000 -3381 -5770 0
1000000 -3382 -5130 0
1000000 -3383 -5609 0
1000000 -3384 -5307 0
1000000 -3385 -5836 0
1000000 -3386 -6067 0
1000000 -3387 -5446 0
1000000 -3388 -6022 0
1000000 -3389 -5567 0
1000000 -3390 -6226 0
1000000 -3391 -6072 0
1000000 -3392 -5698 0
1000000 -3393 -5167 0
1000000 -3394 -5812 0
1000000 -3395 -5125 0
1000000 -3396 -5161 0
1000000 -3397 -5558 0
1000000 -3398 -5668 0
1000000 -3399 -6305 0
1000000 -3400 -5458 0
1000000 -3401 -5595 0
1000000 -3402 -5696 0
1000000 -3403 -5970 0
1000000 -3404 -5865 0
1000000 -3405 -6040 0
1000000 -3406 -5974 0
1000000 -3407 -5386 0
1000000 -3408 -5939 0
1000000 -3409 -5156 0
1000000 -3410 -6246 0
1000000 -3411 -6087 0
1000000 -3412 -5916 0
1000000 -3413 -5743 0
1000000 -3414 -5933 0
1000000 -3415 -5566 0
1000000 -3416 -5922 0
1000000 -3417 -5188 0
1000000 -3418 -5697 0
1000000 -3419 -5372 0
1000000 -3420 -6088 0
1000000 -3421 -5896 0
1000000 -3422 -5347 0
1000000 -3423 -5470 0
1000000 -3424 -5569 0
1000000 -3425 -5332 0
1000000 -3426 -5896 0
1000000 -3427 -5593 0
1000000 -3428 -5578 0
1000000 -3429 -5629 0
1000000 -3430 -5973 0
1000000 -3431 -5633 0
1000000 -3432 -6234 0
1000000 -3433 -5926 0
1000000 -3434 -5365 0
1000000 -3435 -5980 0
1000000 -3436 -6284 0
1000000 -3437 -5183 0
1000000 -3438 -5445 0
1000000 -3439 -6148 0
1000000 -3440 -5987 0
1000000 -3441 -6240 0
1000000 -3442 -6216 0
1000000 -3443 -5825 0
1000000 -3444 -5391 0
1000000 -3445 -5241 0
1000000 -3446 -6171 0
1000000 -3447 -5661 0
1000000 -3448 -5667 0
1000000 -3449 -5440 0
1000000 -3450 -5889 0
1000000 -3451 -5872 0
1000000 -3452 -5790 0
1000000 -3453 -5606 0
1000000 -3454 -5277 0
1000000 -3455 -5861 0
1000000 -3456 -5128 0
1000000 -3457 -5772 0
1000000 -3458 -5950 0
1000000 -3459 -5726 0
1000000 -3460 -5737 0
1000000 -3461 -5911 0
1000000 -3462 -6009 0
1000000 -3463 -6310 0
1000000 -3464 -5276 0
1000000 -3465 -6307 0
1000000 -3466 -6170 0
1000000 -3467 -5678 0
1000000 -3468 -6080 0
1000000 -3469 -5795 0
1000000 -3470 -5430 0
1000000 -3471 -5669 0
1000000 -3472 -5864 0
1000000 -3473 -5493 0
1000000 -3474 -5903 0
1000000 -3475 -5318 0
1000000 -3476 -5288 0
1000000 -3477 -6225 0
1000000 -3478 -5722 0
1000000 -3479 -5981 0
1000000 -3480 -5396 0
1000000 -3481 -5884 0
1000000 -3482 -6043 0
1000000 -3483 -5795 0
1000000 -3484 -6245 0
1000000 -3485 -5173 0
1000000 -3486 -6022 0
1000000 -3487 -6142 0
1000000 -3488 -5934 0
1000000 -3489 -6217 0
1000000 -3490 -6026 0
1000000 -3491 -5406 0
1000000 -3492 -5492 0
1000000 -3493 -5580 0
1000000 -3494 -5884 0
1000000 -3495 -6024 0
1000000 -3496 -5706 0
1000000 -3497 -5496 0
1000000 -3498 -6110 0
1000000 -3499 -6084 0
1000000 -3500 -5486 0
1000000 -3501 -5298 0
1000000 -3502 -5431 0
1000000 -3503 -5779 0
1000000 -3504 -5162 0
1000000 -3505 -5713 0
1000000 -3506 -5829 0
1000000 -3507 -5449 0
1000000 -3508 -5487 0
1000000 -3509 -5308 0
1000000 -3510 -5785 0
1000000 -3511 -5489 0
1000000 -3512 -5187 0
1000000 -3513 -5493 0
1000000 -3514 -5596 0
1000000 -3515 -6167 0
1000000 -3516 -5471 0
1000000 -3517 -5537 0
1000000 -3518 -6180 0
1000000 -3519 -5317 0
1000000 -3520 -5982 0
1000000 -3521 -6270 0
1000000 -3522 -5577 0
1000000 -3523 -5975 0
1000000 -3524 -5245 0
1000000 -3525 -5393 0
1000000 -3526 -6280 0
1000000 -3527 -5995 0
1000000 -3528 -5451 0
1000000 -3529 -5905 0
1000000 -3530 -6320 0
1000000 -3531 -5643 0
1000000 -3532 -6163 0
1000000 -3533 -5326 0
1000000 -3534 -5123 0
1000000 -3535 -5339 0
1000000 -3536 -5158 0
1000000 -3537 -6065 0
1000000 -3538 -6287 0
1000000 -3539 -5749 0
1000000 -3540 -6287 0
1000000 -3541 -5993 0
1000000 -3542 -6005 0
1000000 -3543 -5303 0
1000000 -3544 -5619 0
1000000 -3545 -5475 0
1000000 -3546 -5248 0
1000000 -3547 -5514 0
1000000 -3548 -5495 0
1000000 -3549 -5835 0
1000000 -3550 -5712 0
1000000 -3551 -5428 0
1000000 -3552 -6234 0
1000000 -3553 -5455 0
1000000 -3554 -5352 0
1000000 -3555 -5287 0
1000000 -3556 -5792 0
1000000 -3557 -5979 0
1000000 -3558 -5319 0
1000000 -3559 -5723 0
1000000 -3560 -5490 0
1000000 -3561 -5704 0
1000000 -3562 -5953 0
1000000 -3563 -6036 0
1000000 -3564 -6060 0
1000000 -3565 -5182 0
1000000 -3566 -5198 0
1000000 -3567 -5383 0
1000000 -3568 -5816 0
1000000 -3569 -5707 0
1000000 -3570 -5435 0
1000000 -3571 -5599 0
1000000 -3572 -5326 0
1000000 -3573 -5141 0
1000000 -3574 -5928 0
1000000 -3575 -6160 0
1000000 -3576 -5877 0
1000000 -3577 -5331 0
1000000 -3578 -5412 0
1000000 -3579 -5952 0
1000000 -3580 -5211 0
1000000 -3581 -5230 0
1000000 -3582 -5420 0
1000000 -3583 -5905 0
1000000 -3584 -6017 0
1000000 -3585 -6116 0
1000000 -3586 -6141 0
1000000 -3587 -6119 0
1000000 -3588 -5958 0
1000000 -3589 -5560 0
1000000 -3590 -5887 0
1000000 -3591 -5689 0
1000000 -3592 -5557 0
1000000 -3593 -6251 0
1000000 -3594 -5823 0
1000000 -3595 -6222 0
1000000 -3596 -5876 0
1000000 -3597 -6313 0
1000000 -3598 -6016 0
1000000 -3599 -6212 0
1000000 -3600 -5482 0
1000000 -3601 -6059 0
1000000 -3602 -6192 0
1000000 -3603 -5919 0
1000000 -3604 -6242 0
1000000 -3605 -6082 0
1000000 -3606 -5275 0
1000000 -3607 -5136 0
1000000 -3608 -5882 0
1000000 -3609 -5160 0
1000000 -3610 -5369 0
1000000 -3611 -5875 0
1000000 -3612 -5783 0
1000000 -3613 -5572 0
1000000 -3614 -6228 0
1000000 -3615 -5722 0
1000000 -3616 -6104 0
1000000 -3617 -5323 0
1000000 -3618 -5623 0
1000000 -3619 -5151 0
1000000 -3620 -6025 0
1000000 -3621 -5481 0
1000000 -3622 -5332 0
1000000 -3623 -5837 0
1000000 -3624 -5433 0
1000000 -3625 -5744 0
1000000 -3626 -5299 0
1000000 -3627 -5495 0
1000000 -3628 -6162 0
1000000 -3629 -5703 0
1000000 -3630 -5718 0
1000000 -3631 -5343 0
1000000 -3632 -5676 0
1000000 -3633 -5225 0
1000000 -3634 -5412 0
1000000 -3635 -5972 0
1000000 -3636 -5695 0
1000000 -3637 -5948 0
1000000 -3638 -5873 0
1000000 -3639 -5364 0
1000000 -3640 -5542 0
1000000 -3641 -5907 0
1000000 -3642 -5629 0
1000000 -3643 -5562 0
1000000 -3644 -5662 0
1000000 -3645 -5449 0
1000000 -3646 -5923 0
1000000 -3647 -5506 0
1000000 -3648 -6068 0
1000000 -3649 -5135 0
1000000 -3650 -6070 0
1000000 -3651 -5833 0
1000000 -3652 -5385 0
1000000 -3653 -6310 0
1000000 -3654 -5909 0
1000000 -3655 -6056 0
1000000 -3656 -5414 0
1000000 -3657 -5501 0
1000000 -3658 -5160 0
1000000 -3659 -5872 0
1000000 -3660 -6095 0
1000000 -3661 -6148 0
1000000 -3662 -5684 0
1000000 -3663 -5599 0
1000000 -3664 -6033 0
1000000 -3665 -5324 0
1000000 -3666 -5550 0
1000000 -3667 -6124 0
1000000 -3668 -5745 0
1000000 -3669 -5741 0
1000000 -3670 -5143 0
1000000 -3671 -5658 0
1000000 -3672 -6174 0
1000000 -3673 -6130 0
1000000 -3674 -5238 0
1000000 -3675 -5885 0
1000000 -3676 -5400 0
1000000 -3677 -5534 0
1000000 -3678 -5267 0
1000000 -3679 -5154 0
1000000 -3680 -6089 0
1000000 -3681 -6248 0
1000000 -3682 -5437 0
1000000 -3683 -5559 0
1000000 -3684 -5407 0
1000000 -3685 -6199 0
1000000 -3686 -5927 0
1000000 -3687 -5383 0
1000000 -3688 -5223 0
1000000 -3689 -6252 0
1000000 -3690 -5188 0
1000000 -3691 -5326 0
1000000 -3692 -5699 0
1000000 -3693 -5616 0
1000000 -3694 -5314 0
1000000 -3695 -5633 0
1000000 -3696 -5603 0
1000000 -3697 -5301 0
1000000 -3698 -6077 0
1000000 -3699 -6121 0
1000000 -3700 -6189 0
1000000 -3701 -5680 0
1000000 -3702 -6229 0
1000000 -3703 -6315 0
1000000 -3704 -6167 0
1000000 -3705 -6203 0
1000000 -3706 -5962 0
1000000 -3707 -5373 0
1000000 -3708 -5456 0
1000000 -3709 -5525 0
1000000 -3710 -5528 0
1000000 -3711 -5515 0
1000000 -3712 -6109 0
1000000 -3713 -6258 0
1000000 -3714 -5153 0
1000000 -3715 -5340 0
1000000 -3716 -5228 0
1000000 -3717 -5536 0
1000000 -3718 -6256 0
1000000 -3719 -6255 0
1000000 -3720 -5254 0
1000000 -3721 -5282 0
1000000 -3722 -5215 0
1000000 -3723 -5130 0
1000000 -3724 -6289 0
1000000 -3725 -5784 0
1000000 -3726 -6306 0
1000000 -3727 -5820 0
1000000 -3728 -5585 0
1000000 -3729 -5356 0
1000000 -3730 -5811 0
1000000 -3731 -6123 0
1000000 -3732 -5590 0
1000000 -3733 -5293 0
1000000 -3734 -5233 0
1000000 -3735 -5808 0
1000000 -3736 -5654 0
1000000 -3737 -5375 0
1000000 -3738 -5874 0
1000000 -3739 -5942 0
1000000 -3740 -5177 0
1000000 -3741 -6145 0
1000000 -3742 -6097 0
1000000 -3743 -5441 0
1000000 -3744 -5245 0
1000000 -3745 -5776 0
1000000 -3746 -5458 0
1000000 -3747 -5311 0
1000000 -3748 -5943 0
1000000 -3749 -5763 0
1000000 -3750 -5510 0
1000000 -3751 -6040 0
1000000 -3752 -6192 0
1000000 -3753 -6260 0
1000000 -3754 -6283 0
1000000 -3755 -5515 0
1000000 -3756 -5724 0
1000000 -3757 -5803 0
1000000 -3758 -5602 0
1000000 -3759 -6267 0
1000000 -3760 -5581 0
1000000 -3761 -5646 0
1000000 -3762 -6030 0
1000000 -3763 -5729 0
1000000 -3764 -6203 0
1000000 -3765 -5180 0
1000000 -3766 -5988 0
1000000 -3767 -5435 0
1000000 -3768 -6296 0
1000000 -3769 -5315 0
1000000 -3770 -6092 0
1000000 -3771 -5204 0
1000000 -3772 -5165 0
1000000 -3773 -6052 0
1000000 -3774 -6243 0
1000000 -3775 -5742 0
1000000 -3776 -5516 0
1000000 -3777 -6093 0
1000000 -3778 -5338 0
1000000 -3779 -6092 0
1000000 -3780 -5826 0
1000000 -3781 -6295 0
1000000 -3782 -5293 0
1000000 -3783 -5421 0
1000000 -3784 -5467 0
1000000 -3785 -6250 0
1000000 -3786 -5574 0
1000000 -3787 -5309 0
1000000 -3788 -5642 0
1000000 -3789 -5229 0
1000000 -3790 -6047 0
1000000 -3791 -5631 0
1000000 -3792 -5976 0
1000000 -3793 -6232 0
1000000 -3794 -5286 0
1000000 -3795 -5850 0
1000000 -3796 -5162 0
1000000 -3797 -5828 0
1000000 -3798 -5543 0
1000000 -3799 -5800 0
1000000 -3800 -5934 0
1000000 -3801 -5866 0
1000000 -3802 -5801 0
1000000 -3803 -5379 0
1000000 -3804 -5655 0
1000000 -3805 -5232 0
1000000 -3806 -5884 0
1000000 -3807 -5758 0
1000000 -3808 -5483 0
1000000 -3809 -5350 0
1000000 -3810 -5378 0
1000000 -3811 -6130 0
1000000 -3812 -6148 0
1000000 -3813 -5124 0
1000000 -3814 -5272 0
1000000 -3815 -5829 0
1000000 -3816 -5255 0
1000000 -3817 -5803 0
1000000 -3818 -5841 0
1000000 -3819 -6016 0
1000000 -3820 -5909 0
1000000 -3821 -5121 0
1000000 -3822 -5593 0
1000000 -3823 -5983 0
1000000 -3824 -5768 0
1000000 -3825 -6179 0
1000000 -3826 -5716 0
1000000 -3827 -5728 0
1000000 -3828 -5216 0
1000000 -3829 -5660 0
1000000 -3830 -5964 0
1000000 -3831 -5556 0
1000000 -3832 -6286 0
1000000 -3833 -6227 0
1000000 -3834 -5559 0
1000000 -3835 -5839 0
1000000 -3836 -6180 0
1000000 -3837 -6300 0
1000000 -3838 -6005 0
1000000 -3839 -5273 0
1000000 -3840 -6233 0
1000000 -3841 -5295 0
1000000 -3842 -5168 0
1000000 -3843 -5595 0
1000000 -3844 -5223 0
1000000 -3845 -6104 0
1000000 -3846 -6158 0
1000000 -3847 -5362 0
1000000 -3848 -5917 0
1000000 -3849 -5996 0
1000000 -3850 -6297 0
1000000 -3851 -5769 0
1000000 -3852 -6021 0
1000000 -3853 -6111 0
1000000 -3854 -5614 0
1000000 -3855 -5893 0
1000000 -3856 -5571 0
1000000 -3857 -5418 0
1000000 -3858 -5914 0
1000000 -3859 -5838 0
1000000 -3860 -5149 0
1000000 -3861 -6062 0
1000000 -3862 -6136 0
1000000 -3863 -5991 0
1000000 -3864 -5590 0
1000000 -3865 -5905 0
1000000 -3866 -5821 0
1000000 -3867 -6033 0
1000000 -3868 -5325 0
1000000 -3869 -6103 0
1000000 -3870 -5817 0
1000000 -3871 -5467 0
1000000 -3872 -5629 0
1000000 -3873 -6176 0
1000000 -3874 -6158 0
1000000 -3875 -6278 0
1000000 -3876 -5201 0
1000000 -3877 -5306 0
1000000 -3878 -5764 0
1000000 -3879 -5237 0
1000000 -3880 -5904 0
1000000 -3881 -5761 0
1000000 -3882 -6107 0
1000000 -3883 -5169 0
1000000 -3884 -6166 0
1000000 -3885 -5213 0
1000000 -3886 -5427 0
1000000 -3887 -5734 0
1000000 -3888 -5690 0
1000000 -3889 -5971 0
1000000 -3890 -5941 0
1000000 -3891 -5920 0
1000000 -3892 -5263 0
1000000 -3893 -6236 0
1000000 -3894 -5374 0
1000000 -3895 -5816 0
1000000 -3896 -5898 0
1000000 -3897 -5666 0
1000000 -3898 -5249 0
1000000 -3899 -6114 0
1000000 -3900 -6107 0
1000000 -3901 -5380 0
1000000 -3902 -6215 0
1000000 -3903 -6224 0
1000000 -3904 -6151 0
1000000 -3905 -5431 0
1000000 -3906 -6235 0
1000000 -3907 -6239 0
1000000 -3908 -6189 0
1000000 -3909 -5155 0
1000000 -3910 -5628 0
1000000 -3911 -5524 0
1000000 -3912 -5531 0
1000000 -3913 -5709 0
1000000 -3914 -6282 0
1000000 -3915 -5278 0
1000000 -3916 -6277 0
1000000 -3917 -5497 0
1000000 -3918 -6152 0
1000000 -3919 -6162 0
1000000 -3920 -6246 0
1000000 -3921 -5138 0
1000000 -3922 -6185 0
1000000 -3923 -5836 0
1000000 -3924 -5421 0
1000000 -3925 -5266 0
1000000 -3926 -6174 0
1000000 -3927 -5137 0
1000000 -3928 -5752 0
1000000 -3929 -5238 0
1000000 -3930 -5856 0
1000000 -3931 -6154 0
1000000 -3932 -6048 0
1000000 -3933 -6045 0
1000000 -3934 -5741 0
1000000 -3935 -5488 0
1000000 -3936 -5904 0
1000000 -3937 -5838 0
1000000 -3938 -5794 0
1000000 -3939 -5510 0
1000000 -3940 -5687 0
1000000 -3941 -6100 0
1000000 -3942 -6114 0
1000000 -3943 -5399 0
1000000 -3944 -6006 0
1000000 -3945 -5867 0
1000000 -3946 -6006 0
1000000 -3947 -6008 0
1000000 -3948 -5773 0
1000000 -3949 -5564 0
1000000 -3950 -6311 0
1000000 -3951 -6196 0
1000000 -3952 -5333 0
1000000 -3953 -5209 0
1000000 -3954 -5797 0
1000000 -3955 -5358 0
1000000 -3956 -6199 0
1000000 -3957 -5573 0
1000000 -3958 -5436 0
1000000 -3959 -6054 0
1000000 -3960 -6034 0
1000000 -3961 -6048 0
1000000 -3962 -5430 0
1000000 -3963 -6084 0
1000000 -3964 -5760 0
1000000 -3965 -5961 0
1000000 -3966 -5190 0
1000000 -3967 -5736 0
1000000 -3968 -5931 0
1000000 -3969 -5533 0
1000000 -3970 -6202 0
1000000 -3971 -5618 0
1000000 -3972 -5924 0
1000000 -3973 -5205 0
1000000 -3974 -5312 0
1000000 -3975 -5397 0
1000000 -3976 -5634 0
1000000 -3977 -5403 0
1000000 -3978 -5336 0
1000000 -3979 -5494 0
1000000 -3980 -6066 0
1000000 -3981 -6307 0
1000000 -3982 -6319 0
1000000 -3983 -5944 0
1000000 -3984 -5251 0
1000000 -3985 -5133 0
1000000 -3986 -5524 0
1000000 -3987 -5276 0
1000000 -3988 -5842 0
1000000 -3989 -5194 0
1000000 -3990 -5904 0
1000000 -3991 -5791 0
1000000 -3992 -5721 0
1000000 -3993 -5163 0
1000000 -3994 -5754 0
1000000 -3995 -5591 0
1000000 -3996 -5165 0
1000000 -3997 -6164 0
1000000 -3998 -5430 0
1000000 -3999 -5762 0
1000000 -4000 -5340 0
1000000 -4001 -5583 0
1000000 -4002 -6154 0
1000000 -4003 -5250 0
1000000 -4004 -5516 0
1000000 -4005 -5997 0
1000000 -4006 -5865 0
1000000 -4007 -5377 0
1000000 -4008 -5613 0
1000000 -4009 -6076 0
1000000 -4010 -5879 0
1000000 -4011 -5323 0
1000000 -4012 -5401 0
1000000 -4013 -5387 0
1000000 -4014 -5269 0
1000000 -4015 -5983 0
1000000 -4016 -5622 0
1000000 -4017 -5182 0
1000000 -4018 -6270 0
1000000 -4019 -5731 0
1000000 -4020 -5646 0
1000000 -4021 -6048 0
1000000 -4022 -5411 0
1000000 -4023 -5684 0
1000000 -4024 -5730 0
1000000 -4025 -5763 0
1000000 -4026 -5214 0
1000000 -4027 -6227 0
1000000 -4028 -6073 0
1000000 -4029 -5376 0
1000000 -4030 -5406 0
1000000 -4031 -5363 0
1000000 -4032 -5499 0
1000000 -4033 -5299 0
1000000 -4034 -6132 0
1000000 -4035 -5667 0
1000000 -4036 -5944 0
1000000 -4037 -5250 0
1000000 -4038 -6261 0
1000000 -4039 -6290 0
1000000 -4040 -6020 0
1000000 -4041 -5288 0
1000000 -4042 -6231 0
1000000 -4043 -5320 0
1000000 -4044 -5572 0
1000000 -4045 -5478 0
1000000 -4046 -5253 0
1000000 -4047 -5765 0
1000000 -4048 -5986 0
1000000 -4049 -5389 0
1000000 -4050 -5678 0
1000000 -4051 -5653 0
1000000 -4052 -6139 0
1000000 -4053 -5234 0
1000000 -4054 -5984 0
1000000 -4055 -5959 0
1000000 -4056 -5642 0
1000000 -4057 -5701 0
1000000 -4058 -5774 0
1000000 -4059 -5826 0
1000000 -4060 -5988 0
1000000 -4061 -5140 0
1000000 -4062 -5286 0
1000000 -4063 -5855 0
1000000 -4064 -5377 0
1000000 -4065 -5153 0
1000000 -4066 -5807 0
1000000 -4067 -5971 0
1000000 -4068 -5764 0
1000000 -4069 -5725 0
1000000 -4070 -5331 0
1000000 -4071 -5638 0
1000000 -4072 -6275 0
1000000 -4073 -6014 0
1000000 -4074 -5748 0
1000000 -4075 -6292 0
1000000 -4076 -5804 0
1000000 -4077 -6281 0
1000000 -4078 -5425 0
1000000 -4079 -5664 0
1000000 -4080 -5271 0
1000000 -4081 -5698 0
1000000 -4082 -5594 0
1000000 -4083 -5429 0
1000000 -4084 -6313 0
1000000 -4085 -5858 0
1000000 -4086 -6028 0
1000000 -4087 -6147 0
1000000 -4088 -5353 0
1000000 -4089 -5576 0
1000000 -4090 -5511 0
1000000 -4091 -6204 0
1000000 -4092 -5128 0
1000000 -4093 -5592 0
1000000 -4094 -5571 0
1000000 -4095 -5174 0
1000000 -4096 -5354 0
1000000 -4097 -5327 0
1000000 -4098 -6137 0
1000000 -4099 -5196 0
1000000 -4100 -5341 0
1000000 -4101 -6136 0
1000000 -4102 -6313 0
1000000 -4103 -5635 0
1000000 -4104 -5543 0
1000000 -4105 -5897 0
1000000 -4106 -6229 0
1000000 -4107 -5938 0
1000000 -4108 -5781 0
1000000 -4109 -5706 0
1000000 -4110 -5203 0
1000000 -4111 -5393 0
1000000 -4112 -5766 0
1000000 -4113 -5468 0
1000000 -4114 -5205 0
1000000 -4115 -6260 0
1000000 -4116 -5611 0
1000000 -4117 -5476 0
1000000 -4118 -5335 0
1000000 -4119 -6042 0
1000000 -4120 -6013 0
1000000 -4121 -6293 0
1000000 -4122 -5863 0
1000000 -4123 -5349 0
1000000 -4124 -5192 0
1000000 -4125 -5509 0
1000000 -4126 -6180 0
1000000 -4127 -5798 0
1000000 -4128 -5965 0
1000000 -4129 -5760 0
1000000 -4130 -5471 0
1000000 -4131 -5258 0
1000000 -4132 -6183 0
1000000 -4133 -5285 0
1000000 -4134 -6090 0
1000000 -4135 -5679 0
1000000 -4136 -5292 0
1000000 -4137 -5149 0
1000000 -4138 -6169 0
1000000 -4139 -5640 0
1000000 -4140 -5271 0
1000000 -4141 -5157 0
1000000 -4142 -5488 0
1000000 -4143 -5672 0
1000000 -4144 -5506 0
1000000 -4145 -6172 0
1000000 -4146 -5170 0
1000000 -4147 -5413 0
1000000 -4148 -6243 0
1000000 -4149 -6165 0
1000000 -4150 -6159 0
1000000 -4151 -5217 0
1000000 -4152 -6168 0
1000000 -4153 -5727 0
1000000 -4154 -5849 0
1000000 -4155 -5827 0
1000000 -4156 -5993 0
1000000 -4157 -6307 0
1000000 -4158 -6143 0
1000000 -4159 -6316 0
1000000 -4160 -5374 0
1000000 -4161 -5405 0
1000000 -4162 -5887 0
1000000 -4163 -5630 0
1000000 -4164 -5277 0
1000000 -4165 -5564 0
1000000 -4166 -5462 0
1000000 -4167 -5508 0
1000000 -4168 -5242 0
1000000 -4169 -5499 0
1000000 -4170 -5834 0
1000000 -4171 -5342 0
1000000 -4172 -6249 0
1000000 -4173 -6125 0
1000000 -4174 -5787 0
1000000 -4175 -5681 0
1000000 -4176 -5177 0
1000000 -4177 -5477 0
1000000 -4178 -6266 0
1000000 -4179 -5592 0
1000000 -4180 -5219 0
1000000 -4181 -5627 0
1000000 -4182 -5994 0
1000000 -4183 -5163 0
1000000 -4184 -6024 0
1000000 -4185 -5395 0
1000000 -4186 -6129 0
1000000 -4187 -5735 0
1000000 -4188 -5686 0
1000000 -4189 -6190 0
1000000 -4190 -5474 0
1000000 -4191 -6304 0
1000000 -4192 -5458 0
1000000 -4193 -5583 0
1000000 -4194 -5457 0
1000000 -4195 -5214 0
1000000 -4196 -6028 0
1000000 -4197 -5866 0
1000000 -4198 -5407 0
1000000 -4199 -5334 0
1000000 -4200 -5862 0
1000000 -4201 -5954 0
1000000 -4202 -6284 0
1000000 -4203 -5182 0
1000000 -4204 -5259 0
1000000 -4205 -5316 0
1000000 -4206 -5858 0
1000000 -4207 -5338 0
1000000 -4208 -5125 0
1000000 -4209 -5587 0
1000000 -4210 -5540 0
1000000 -4211 -5999 0
1000000 -4212 -5945 0
1000000 -4213 -5648 0
1000000 -4214 -5902 0
1000000 -4215 -5527 0
1000000 -4216 -6113 0
1000000 -4217 -6109 0
1000000 -4218 -5788 0
1000000 -4219 -5355 0
1000000 -4220 -5337 0
1000000 -4221 -5492 0
1000000 -4222 -6270 0
1000000 -4223 -5639 0
1000000 -4224 -6083 0
1000000 -4225 -5984 0
1000000 -4226 -5544 0
1000000 -4227 -5971 0
1000000 -4228 -5777 0
1000000 -4229 -5291 0
1000000 -4230 -5216 0
1000000 -4231 -5669 0
1000000 -4232 -6298 0
1000000 -4233 -5468 0
1000000 -4234 -6261 0
1000000 -4235 -5584 0
1000000 -4236 -5478 0
1000000 -4237 -5442 0
1000000 -4238 -6143 0
1000000 -4239 -6294 0
1000000 -4240 -5218 0
1000000 -4241 -5749 0
1000000 -4242 -5961 0
1000000 -4243 -6220 0
1000000 -4244 -5873 0
1000000 -4245 -5371 0
1000000 -4246 -5914 0
1000000 -4247 -5273 0
1000000 -4248 -5510 0
1000000 -4249 -5231 0
1000000 -4250 -5706 0
1000000 -4251 -6043 0
1000000 -4252 -5579 0
1000000 -4253 -6282 0
1000000 -4254 -5254 0
1000000 -4255 -6067 0
1000000 -4256 -5185 0
1000000 -4257 -5871 0
1000000 -4258 -5490 0
1000000 -4259 -5352 0
1000000 -4260 -5677 0
1000000 -4261 -5655 0
1000000 -4262 -6223 0
1000000 -4263 -5177 0
1000000 -4264 -5205 0
1000000 -4265 -6076 0
1000000 -4266 -5313 0
1000000 -4267 -6117 0
1000000 -4268 -5350 0
1000000 -4269 -5348 0
1000000 -4270 -5560 0
1000000 -4271 -5450 0
1000000 -4272 -6280 0
1000000 -4273 -5135 0
1000000 -4274 -5621 0
1000000 -4275 -5656 0
1000000 -4276 -6144 0
1000000 -4277 -6185 0
1000000 -4278 -5447 0
1000000 -4279 -5523 0
1000000 -4280 -6286 0
1000000 -4281 -5284 0
1000000 -4282 -5956 0
1000000 -4283 -6218 0
1000000 -4284 -5469 0
1000000 -4285 -5879 0
1000000 -4286 -5241 0
1000000 -4287 -5626 0
1000000 -4288 -6005 0
1000000 -4289 -5265 0
1000000 -4290 -5607 0
1000000 -4291 -6157 0
1000000 -4292 -6144 0
1000000 -4293 -5441 0
1000000 -4294 -5521 0
1000000 -4295 -5169 0
1000000 -4296 -5234 0
1000000 -4297 -5928 0
1000000 -4298 -5760 0
1000000 -4299 -6177 0
1000000 -4300 -5906 0
1000000 -4301 -5880 0
1000000 -4302 -5864 0
1000000 -4303 -5581 0
1000000 -4304 -5286 0
1000000 -4305 -5519 0
1000000 -4306 -5584 0
1000000 -4307 -5453 0
1000000 -4308 -6175 0
1000000 -4309 -5248 0
1000000 -4310 -6181 0
1000000 -4311 -5348 0
1000000 -4312 -6202 0
1000000 -4313 -5564 0
1000000 -4314 -5578 0
1000000 -4315 -5409 0
1000000 -4316 -5367 0
1000000 -4317 -6153 0
1000000 -4318 -5657 0
1000000 -4319 -5432 0
1000000 -4320 -5168 0
1000000 -4321 -5513 0
1000000 -4322 -5179 0
1000000 -4323 -6293 0
1000000 -4324 -6004 0
1000000 -4325 -5759 0
1000000 -4326 -5404 0
1000000 -4327 -6023 0
1000000 -4328 -5227 0
1000000 -4329 -5471 0
1000000 -4330 -5280 0
1000000 -4331 -5361 0
1000000 -4332 -5831 0
1000000 -4333 -5839 0
1000000 -4334 -5736 0
1000000 -4335 -6195 0
1000000 -4336 -5294 0
1000000 -4337 -6200 0
1000000 -4338 -5477 0
1000000 -4339 -6013 0
1000000 -4340 -5710 0
1000000 -4341 -5995 0
1000000 -4342 -5543 0
1000000 -4343 -5623 0
1000000 -4344 -5497 0
1000000 -4345 -5977 0
1000000 -4346 -5277 0
1000000 -4347 -6044 0
1000000 -4348 -5937 0
1000000 -4349 -5959 0
1000000 -4350 -5216 0
1000000 -4351 -6025 0
1000000 -4352 -5727 0
1000000 -4353 -6049 0
1000000 -4354 -6040 0
1000000 -4355 -5325 0
1000000 -4356 -5758 0
1000000 -4357 -5171 0
1000000 -4358 -6140 0
1000000 -4359 -6262 0
1000000 -4360 -5357 0
1000000 -4361 -5417 0
1000000 -4362 -5970 0
1000000 -4363 -5480 0
1000000 -4364 -5847 0
1000000 -4365 -5396 0
1000000 -4366 -5141 0
1000000 -4367 -5224 0
1000000 -4368 -5951 0
1000000 -4369 -5191 0
1000000 -4370 -5835 0
1000000 -4371 -5244 0
1000000 -4372 -6201 0
1000000 -4373 -6301 0
1000000 -4374 -5807 0
1000000 -4375 -5842 0
1000000 -4376 -5402 0
1000000 -4377 -6139 0
1000000 -4378 -5170 0
1000000 -4379 -5202 0
1000000 -4380 -6108 0
1000000 -4381 -6274 0
1000000 -4382 -5966 0
1000000 -4383 -5173 0
1000000 -4384 -6201 0
1000000 -4385 -5827 0
1000000 -4386 -6008 0
1000000 -4387 -6007 0
1000000 -4388 -5870 0
1000000 -4389 -5687 0
1000000 -4390 -5154 0
1000000 -4391 -5853 0
1000000 -4392 -5164 0
1000000 -4393 -5665 0
1000000 -4394 -5378 0
1000000 -4395 -6295 0
1000000 -4396 -5131 0
1000000 -4397 -5136 0
1000000 -4398 -5717 0
1000000 -4399 -6099 0
1000000 -4400 -6250 0
1000000 -4401 -5666 0
1000000 -4402 -5320 0
1000000 -4403 -6264 0
1000000 -4404 -6015 0
1000000 -4405 -5444 0
1000000 -4406 -6152 0
1000000 -4407 -5319 0
1000000 -4408 -5278 0
1000000 -4409 -5875 0
1000000 -4410 -5652 0
1000000 -4411 -5324 0
1000000 -4412 -5946 0
1000000 -4413 -5806 0
1000000 -4414 -5465 0
1000000 -4415 -5832 0
1000000 -4416 -5957 0
1000000 -4417 -5366 0
1000000 -4418 -5932 0
1000000 -4419 -5847 0
1000000 -4420 -5936 0
1000000 -4421 -5439 0
1000000 -4422 -5720 0
1000000 -4423 -6302 0
1000000 -4424 -5519 0
1000000 -4425 -5270 0
1000000 -4426 -6215 0
1000000 -4427 -5848 0
1000000 -4428 -5651 0
1000000 -4429 -5274 0
1000000 -4430 -6009 0
1000000 -4431 -5805 0
1000000 -4432 -5668 0
1000000 -4433 -6134 0
1000000 -4434 -5367 0
1000000 -4435 -5300 0
1000000 -4436 -5540 0
1000000 -4437 -5829 0
1000000 -4438 -6036 0
1000000 -4439 -5650 0
1000000 -4440 -6096 0
1000000 -4441 -6243 0
1000000 -4442 -5513 0
1000000 -4443 -5783 0
1000000 -4444 -6314 0
1000000 -4445 -5561 0
1000000 -4446 -5689 0
1000000 -4447 -5196 0
1000000 -4448 -5122 0
1000000 -4449 -6050 0
1000000 -4450 -5548 0
1000000 -4451 -5398 0
1000000 -4452 -5300 0
1000000 -4453 -5841 0
1000000 -4454 -5713 0
1000000 -4455 -6283 0
1000000 -4456 -5778 0
1000000 -4457 -5600 0
1000000 -4458 -5317 0
1000000 -4459 -6115 0
1000000 -4460 -6131 0
1000000 -4461 -5922 0
1000000 -4462 -5434 0
1000000 -4463 -5691 0
1000000 -4464 -5191 0
1000000 -4465 -6031 0
1000000 -4466 -5846 0
1000000 -4467 -5468 0
1000000 -4468 -6169 0
1000000 -4469 -5235 0
1000000 -4470 -5859 0
1000000 -4471 -5696 0
1000000 -4472 -5994 0
1000000 -4473 -5154 0
1000000 -4474 -5978 0
1000000 -4475 -5689 0
1000000 -4476 -6287 0
1000000 -4477 -5843 0
1000000 -4478 -6303 0
1000000 -4479 -5576 0
1000000 -4480 -6288 0
1000000 -4481 -5530 0
1000000 -4482 -5668 0
1000000 -4483 -5964 0
1000000 -4484 -5156 0
1000000 -4485 -6314 0
1000000 -4486 -6198 0
1000000 -4487 -5419 0
1000000 -4488 -5384 0
1000000 -4489 -5507 0
1000000 -4490 -6127 0
1000000 -4491 -6058 0
1000000 -4492 -5965 0
1000000 -4493 -5432 0
1000000 -4494 -5279 0
1000000 -4495 -5615 0
1000000 -4496 -6041 0
1000000 -4497 -6304 0
1000000 -4498 -6123 0
1000000 -4499 -5322 0
1000000 -4500 -5976 0
1000000 -4501 -5623 0
1000000 -4502 -5539 0
1000000 -4503 -6055 0
1000000 -4504 -5570 0
1000000 -4505 -5551 0
1000000 -4506 -5293 0
1000000 -4507 -5918 0
1000000 -4508 -6181 0
1000000 -4509 -6087 0
1000000 -4510 -6190 0
1000000 -4511 -6214 0
1000000 -4512 -5275 0
1000000 -4513 -5808 0
1000000 -4514 -6187 0
1000000 -4515 -6020 0
1000000 -4516 -5644 0
1000000 -4517 -6214 0
1000000 -4518 -5201 0
1000000 -4519 -6221 0
1000000 -4520 -5516 0
1000000 -4521 -6209 0
1000000 -4522 -5150 0
1000000 -4523 -5545 0
1000000 -4524 -5268 0
1000000 -4525 -5303 0
1000000 -4526 -5247 0
1000000 -4527 -6253 0
1000000 -4528 -5877 0
1000000 -4529 -6023 0
1000000 -4530 -6296 0
1000000 -4531 -6149 0
1000000 -4532 -5806 0
1000000 -4533 -5891 0
1000000 -4534 -6032 0
1000000 -4535 -5485 0
1000000 -4536 -5276 0
1000000 -4537 -5537 0
1000000 -4538 -6257 0
1000000 -4539 -5897 0
1000000 -4540 -5226 0
1000000 -4541 -6067 0
1000000 -4542 -6165 0
1000000 -4543 -5145 0
1000000 -4544 -6173 0
1000000 -4545 -5791 0
1000000 -4546 -5695 0
1000000 -4547 -5698 0
1000000 -4548 -5391 0
1000000 -4549 -6036 0
1000000 -4550 -6311 0
1000000 -4551 -6072 0
1000000 -4552 -5672 0
1000000 -4553 -5660 0
1000000 -4554 -5136 0
1000000 -4555 -6318 0
1000000 -4556 -5871 0
1000000 -4557 -5890 0
1000000 -4558 -6146 0
1000000 -4559 -6175 0
1000000 -4560 -5738 0
1000000 -4561 -6136 0
1000000 -4562 -6161 0
1000000 -4563 -5694 0
1000000 -4564 -6155 0
1000000 -4565 -5893 0
1000000 -4566 -5147 0
1000000 -4567 -5401 0
1000000 -4568 -6294 0
1000000 -4569 -6099 0
1000000 -4570 -5483 0
1000000 -4571 -5767 0
1000000 -4572 -6157 0
1000000 -4573 -5162 0
1000000 -4574 -5472 0
1000000 -4575 -6122 0
1000000 -4576 -5448 0
1000000 -4577 -6006 0
1000000 -4578 -5751 0
1000000 -4579 -5950 0
1000000 -4580 -5454 0
1000000 -4581 -5780 0
1000000 -4582 -5158 0
1000000 -4583 -5255 0
1000000 -4584 -5752 0
1000000 -4585 -5883 0
1000000 -4586 -6126 0
1000000 -4587 -5415 0
1000000 -4588 -6161 0
1000000 -4589 -5683 0
1000000 -4590 -5153 0
1000000 -4591 -6176 0
1000000 -4592 -5589 0
1000000 -4593 -5674 0
1000000 -4594 -5186 0
1000000 -4595 -5733 0
1000000 -4596 -5131 0
1000000 -4597 -5511 0
1000000 -4598 -5900 0
1000000 -4599 -5229 0
1000000 -4600 -6291 0
1000000 -4601 -5526 0
1000000 -4602 -5404 0
1000000 -4603 -5354 0
1000000 -4604 -5440 0
1000000 -4605 -5762 0
1000000 -4606 -5576 0
1000000 -4607 -6144 0
1000000 -4608 -5264 0
1000000 -4609 -5913 0
1000000 -4610 -6221 0
1000000 -4611 -5561 0
1000000 -4612 -5901 0
1000000 -4613 -5164 0
1000000 -4614 -6305 0
1000000 -4615 -5709 0
1000000 -4616 -5902 0
1000000 -4617 -5220 0
1000000 -4618 -6032 0
1000000 -4619 -6217 0
1000000 -4620 -5245 0
1000000 -4621 -5883 0
1000000 -4622 -5336 0
1000000 -4623 -6090 0
1000000 -4624 -5687 0
1000000 -4625 -5349 0
1000000 -4626 -6085 0
1000000 -4627 -5525 0
1000000 -4628 -6206 0
1000000 -4629 -5989 0
1000000 -4630 -5960 0
1000000 -4631 -5694 0
1000000 -4632 -5818 0
1000000 -4633 -5854 0
1000000 -4634 -5967 0
1000000 -4635 -5196 0
1000000 -4636 -5540 0
1000000 -4637 -5744 0
1000000 -4638 -5813 0
1000000 -4639 -6208 0
1000000 -4640 -5624 0
1000000 -4641 -5240 0
1000000 -4642 -6262 0
1000000 -4643 -5477 0
1000000 -4644 -6112 0
1000000 -4645 -5555 0
1000000 -4646 -5900 0
1000000 -4647 -6319 0
1000000 -4648 -5606 0
1000000 -4649 -5247 0
1000000 -4650 -5834 0
1000000 -4651 -5960 0
1000000 -4652 -5172 0
1000000 -4653 -5918 0
1000000 -4654 -5747 0
1000000 -4655 -5411 0
1000000 -4656 -5613 0
1000000 -4657 -5888 0
1000000 -4658 -5319 0
1000000 -4659 -5594 0
1000000 -4660 -5197 0
1000000 -4661 -5751 0
1000000 -4662 -5648 0
1000000 -4663 -6240 0
1000000 -4664 -5260 0
1000000 -4665 -5912 0
1000000 -4666 -5850 0
1000000 -4667 -6236 0
1000000 -4668 -5539 0
1000000 -4669 -5776 0
1000000 -4670 -6035 0
1000000 -4671 -5923 0
1000000 -4672 -5947 0
1000000 -4673 -5155 0
1000000 -4674 -5886 0
1000000 -4675 -6184 0
1000000 -4676 -5645 0
1000000 -4677 -5654 0
1000000 -4678 -5831 0
1000000 -4679 -6029 0
1000000 -4680 -5690 0
1000000 -4681 -5533 0
1000000 -4682 -5500 0
1000000 -4683 -6086 0
1000000 -4684 -5974 0
1000000 -4685 -5803 0
1000000 -4686 -5531 0
1000000 -4687 -5994 0
1000000 -4688 -5121 0
1000000 -4689 -6221 0
1000000 -4690 -5565 0
1000000 -4691 -5262 0
1000000 -4692 -6211 0
1000000 -4693 -5339 0
1000000 -4694 -5554 0
1000000 -4695 -6224 0
1000000 -4696 -5530 0
1000000 -4697 -5735 0
1000000 -4698 -5914 0
1000000 -4699 -5352 0
1000000 -4700 -6096 0
1000000 -4701 -6021 0
1000000 -4702 -6259 0
1000000 -4703 -6232 0
1000000 -4704 -5931 0
1000000 -4705 -5272 0
1000000 -4706 -5410 0
1000000 -4707 -6129 0
1000000 -4708 -6213 0
1000000 -4709 -5765 0
1000000 -4710 -5186 0
1000000 -4711 -6293 0
1000000 -4712 -5322 0
1000000 -4713 -5852 0
1000000 -4714 -5219 0
1000000 -4715 -5166 0
1000000 -4716 -5281 0
1000000 -4717 -5252 0
1000000 -4718 -5881 0
1000000 -4719 -5356 0
1000000 -4720 -6158 0
1000000 -4721 -5172 0
1000000 -4722 -6034 0
1000000 -4723 -5507 0
1000000 -4724 -6258 0
1000000 -4725 -6128 0
1000000 -4726 -5473 0
1000000 -4727 -6002 0
1000000 -4728 -5560 0
1000000 -4729 -6044 0
1000000 -4730 -5475 0
1000000 -4731 -5520 0
1000000 -4732 -5670 0
1000000 -4733 -5619 0
1000000 -4734 -5861 0
1000000 -4735 -5704 0
1000000 -4736 -5941 0
1000000 -4737 -5583 0
1000000 -4738 -6108 0
1000000 -4739 -5757 0
1000000 -4740 -5761 0
1000000 -4741 -5567 0
1000000 -4742 -6034 0
1000000 -4743 -5402 0
1000000 -4744 -5246 0
1000000 -4745 -5567 0
1000000 -4746 -5312 0
1000000 -4747 -5424 0
1000000 -4748 -5568 0
1000000 -4749 -5939 0
1000000 -4750 -5142 0
1000000 -4751 -5989 0
1000000 -4752 -6241 0
1000000 -4753 -6219 0
1000000 -4754 -6206 0
1000000 -4755 -5443 0
1000000 -4756 -5243 0
1000000 -4757 -5798 0
1000000 -4758 -5259 0
1000000 -4759 -5455 0
1000000 -4760 -5500 0
1000000 -4761 -5711 0
1000000 -4762 -6061 0
1000000 -4763 -5822 0
1000000 -4764 -5870 0
1000000 -4765 -6008 0
1000000 -4766 -5773 0
1000000 -4767 -5263 0
1000000 -4768 -6276 0
1000000 -4769 -6038 0
1000000 -4770 -5328 0
1000000 -4771 -5770 0
1000000 -4772 -5346 0
1000000 -4773 -6197 0
1000000 -4774 -5498 0
1000000 -4775 -5505 0
1000000 -4776 -6019 0
1000000 -4777 -5368 0
1000000 -4778 -5472 0
1000000 -4779 -5823 0
1000000 -4780 -6082 0
1000000 -4781 -5159 0
1000000 -4782 -6001 0
1000000 -4783 -5860 0
1000000 -4784 -6133 0
1000000 -4785 -5381 0
1000000 -4786 -5999 0
1000000 -4787 -5915 0
1000000 -4788 -5500 0
1000000 -4789 -5178 0
1000000 -4790 -5220 0
1000000 -4791 -5252 0
1000000 -4792 -6300 0
1000000 -4793 -5282 0
1000000 -4794 -5394 0
1000000 -4795 -5529 0
1000000 -4796 -5863 0
1000000 -4797 -6063 0
1000000 -4798 -5161 0
1000000 -4799 -6159 0
1000000 -4800 -5532 0
1000000 -4801 -5671 0
1000000 -4802 -6059 0
1000000 -4803 -5402 0
1000000 -4804 -5270 0
1000000 -4805 -5753 0
1000000 -4806 -6154 0
1000000 -4807 -5824 0
1000000 -4808 -5738 0
1000000 -4809 -6096 0
1000000 -4810 -5479 0
1000000 -4811 -5930 0
1000000 -4812 -6118 0
1000000 -4813 -6308 0
1000000 -4814 -5190 0
1000000 -4815 -5954 0
1000000 -4816 -6057 0
1000000 -4817 -5659 0
1000000 -4818 -5172 0
1000000 -4819 -5129 0
1000000 -4820 -5740 0
1000000 -4821 -6214 0
1000000 -4822 -5732 0
1000000 -4823 -5948 0
1000000 -4824 -6216 0
1000000 -4825 -5180 0
1000000 -4826 -5835 0
1000000 -4827 -5831 0
1000000 -4828 -5925 0
1000000 -4829 -5239 0
1000000 -4830 -5606 0
1000000 -4831 -5536 0
1000000 -4832 -5620 0
1000000 -4833 -5857 0
1000000 -4834 -6181 0
1000000 -4835 -6209 0
1000000 -4836 -5881 0
1000000 -4837 -5729 0
1000000 -4838 -5152 0
1000000 -4839 -5249 0
1000000 -4840 -5275 0
1000000 -4841 -5579 0
1000000 -4842 -5382 0
1000000 -4843 -5351 0
1000000 -4844 -6258 0
1000000 -4845 -5307 0
1000000 -4846 -5935 0
1000000 -4847 -5701 0
1000000 -4848 -5849 0
1000000 -4849 -5746 0
1000000 -4850 -5127 0
1000000 -4851 -5480 0
1000000 -4852 -6085 0
1000000 -4853 -6014 0
1000000 -4854 -5755 0
1000000 -4855 -5940 0
1000000 -4856 -6142 0
1000000 -4857 -5969 0
1000000 -4858 -5312 0
1000000 -4859 -5784 0
1000000 -4860 -5963 0
1000000 -4861 -5636 0
1000000 -4862 -5793 0
1000000 -4863 -5139 0
1000000 -4864 -5750 0
1000000 -4865 -6122 0
1000000 -4866 -5729 0
1000000 -4867 -6299 0
1000000 -4868 -5427 0
1000000 -4869 -6125 0
1000000 -4870 -5927 0
1000000 -4871 -6234 0
1000000 -4872 -6317 0
1000000 -4873 -5672 0
1000000 -4874 -5868 0
1000000 -4875 -6303 0
1000000 -4876 -5721 0
1000000 -4877 -5693 0
1000000 -4878 -5274 0
1000000 -4879 -5289 0
1000000 -4880 -5841 0
1000000 -4881 -5880 0
1000000 -4882 -6031 0
1000000 -4883 -5385 0
1000000 -4884 -6289 0
1000000 -4885 -5541 0
1000000 -4886 -6285 0
1000000 -4887 -6283 0
1000000 -4888 -5642 0
1000000 -4889 -5670 0
1000000 -4890 -5164 0
1000000 -4891 -6254 0
1000000 -4892 -6190 0
1000000 -4893 -5423 0
1000000 -4894 -5888 0
1000000 -4895 -5541 0
1000000 -4896 -5470 0
1000000 -4897 -5727 0
1000000 -4898 -5784 0
1000000 -4899 -5140 0
1000000 -4900 -5547 0
1000000 -4901 -6268 0
1000000 -4902 -5160 0
1000000 -4903 -5212 0
1000000 -4904 -5893 0
1000000 -4905 -5546 0
1000000 -4906 -5653 0
1000000 -4907 -6310 0
1000000 -4908 -6070 0
1000000 -4909 -5382 0
1000000 -4910 -5632 0
1000000 -4911 -5563 0
1000000 -4912 -5894 0
1000000 -4913 -5217 0
1000000 -4914 -5972 0
1000000 -4915 -5534 0
1000000 -4916 -5720 0
1000000 -4917 -5678 0
1000000 -4918 -5327 0
1000000 -4919 -5569 0
1000000 -4920 -5899 0
1000000 -4921 -6068 0
1000000 -4922 -5156 0
1000000 -4923 -5344 0
1000000 -4924 -5961 0
1000000 -4925 -6222 0
1000000 -4926 -6220 0
1000000 -4927 -5598 0
1000000 -4928 -6271 0
1000000 -4929 -6241 0
1000000 -4930 -5702 0
1000000 -4931 -5990 0
1000000 -4932 -5627 0
1000000 -4933 -5278 0
1000000 -4934 -5394 0
1000000 -4935 -5861 0
1000000 -4936 -5411 0
1000000 -4937 -5864 0
1000000 -4938 -6268 0
1000000 -4939 -5552 0
1000000 -4940 -6200 0
1000000 -4941 -5842 0
1000000 -4942 -5653 0
1000000 -4943 -5486 0
1000000 -4944 -6068 0
1000000 -4945 -5199 0
1000000 -4946 -5655 0
1000000 -4947 -5550 0
1000000 -4948 -5236 0
1000000 -4949 -5883 0
1000000 -4950 -6289 0
1000000 -4951 -5837 0
1000000 -4952 -5380 0
1000000 -4953 -5475 0
1000000 -4954 -6064 0
1000000 -4955 -5321 0
1000000 -4956 -5472 0
1000000 -4957 -5843 0
1000000 -4958 -5588 0
1000000 -4959 -5799 0
1000000 -4960 -5291 0
1000000 -4961 -5750 0
1000000 -4962 -5308 0
1000000 -4963 -5517 0
1000000 -4964 -5704 0
1000000 -4965 -6095 0
1000000 -4966 -6117 0
1000000 -4967 -5995 0
1000000 -4968 -5878 0
1000000 -4969 -6052 0
1000000 -4970 -5625 0
1000000 -4971 -5330 0
1000000 -4972 -6177 0
1000000 -4973 -5220 0
1000000 -4974 -5892 0
1000000 -4975 -5345 0
1000000 -4976 -5848 0
1000000 -4977 -5348 0
1000000 -4978 -5614 0
1000000 -4979 -6231 0
1000000 -4980 -5142 0
1000000 -4981 -6055 0
1000000 -4982 -5820 0
1000000 -4983 -6021 0
1000000 -4984 -5710 0
1000000 -4985 -5376 0
1000000 -4986 -5929 0
1000000 -4987 -5588 0
1000000 -4988 -5942 0
1000000 -4989 -6120 0
1000000 -4990 -5746 0
1000000 -4991 -5681 0
1000000 -4992 -6211 0
1000000 -4993 -5518 0
1000000 -4994 -5586 0
1000000 -4995 -5819 0
1000000 -4996 -5444 0
1000000 -4997 -5997 0
1000000 -4998 -6099 0
1000000 -4999 -5400 0
1000000 -5000 -5140 0
1000000 -5001 -5617 0
1000000 -5002 -6193 0
1000000 -5003 -5776 0
1000000 -5004 -5434 0
1000000 -5005 -5682 0
1000000 -5006 -5252 0
1000000 -5007 -6141 0
1000000 -5008 -6039 0
1000000 -5009 -5175 0
1000000 -5010 -6167 0
1000000 -5011 -5757 0
1000000 -5012 -6069 0
1000000 -5013 -6172 0
1000000 -5014 -5176 0
1000000 -5015 -6014 0
1000000 -5016 -5305 0
1000000 -5017 -5621 0
1000000 -5018 -6151 0
1000000 -5019 -6193 0
1000000 -5020 -5335 0
1000000 -5021 -6197 0
1000000 -5022 -5857 0
1000000 -5023 -6105 0
1000000 -5024 -5142 0
1000000 -5025 -5972 0
1000000 -5026 -5946 0
1000000 -5027 -5237 0
1000000 -5028 -6127 0
1000000 -5029 -5899 0
1000000 -5030 -6170 0
1000000 -5031 -5285 0
1000000 -5032 -6119 0
1000000 -5033 -5222 0
1000000 -5034 -5728 0
1000000 -5035 -5297 0
1000000 -5036 -5895 0
1000000 -5037 -5920 0
1000000 -5038 -6271 0
1000000 -5039 -5490 0
1000000 -5040 -5232 0
1000000 -5041 -5980 0
1000000 -5042 -5549 0
1000000 -5043 -5944 0
1000000 -5044 -5645 0
1000000 -5045 -6161 0
1000000 -5046 -5799 0
1000000 -5047 -5145 0
1000000 -5048 -5975 0
1000000 -5049 -5445 0
1000000 -5050 -5787 0
1000000 -5051 -6183 0
1000000 -5052 -5183 0
1000000 -5053 -5310 0
1000000 -5054 -5796 0
1000000 -5055 -5788 0
1000000 -5056 -5731 0
1000000 -5057 -6277 0
1000000 -5058 -6041 0
1000000 -5059 -5187 0
1000000 -5060 -6149 0
1000000 -5061 -5377 0
1000000 -5062 -6288 0
1000000 -5063 -6265 0
1000000 -5064 -5779 0
1000000 -5065 -5763 0
1000000 -5066 -5928 0
1000000 -5067 -5656 0
1000000 -5068 -5574 0
1000000 -5069 -5863 0
1000000 -5070 -6186 0
1000000 -5071 -5337 0
1000000 -5072 -5541 0
1000000 -5073 -6227 0
1000000 -5074 -6015 0
1000000 -5075 -5190 0
1000000 -5076 -5941 0
1000000 -5077 -5535 0
1000000 -5078 -5591 0
1000000 -5079 -5370 0
1000000 -5080 -5975 0
1000000 -5081 -5198 0
1000000 -5082 -6295 0
1000000 -5083 -5309 0
1000000 -5084 -5461 0
1000000 -5085 -5582 0
1000000 -5086 -5367 0
1000000 -5087 -5917 0
1000000 -5088 -6055 0
1000000 -5089 -5422 0
1000000 -5090 -5218 0
1000000 -5091 -6083 0
1000000 -5092 -6237 0
1000000 -5093 -5998 0
1000000 -5094 -5820 0
1000000 -5095 -5515 0
1000000 -5096 -5777 0
1000000 -5097 -6242 0
1000000 -5098 -5897 0
1000000 -5099 -5786 0
1000000 -5100 -6194 0
1000000 -5101 -5780 0
1000000 -5102 -5488 0
1000000 -5103 -5335 0
1000000 -5104 -6105 0
1000000 -5105 -5949 0
1000000 -5106 -5716 0
1000000 -5107 -5306 0
1000000 -5108 -5301 0
1000000 -5109 -5310 0
1000000 -5110 -5845 0
1000000 -5111 -5986 0
1000000 -5112 -5719 0
1000000 -5113 -5790 0
1000000 -5114 -5360 0
1000000 -5115 -6072 0
1000000 -5116 -5669 0
1000000 -5117 -6105 0
1000000 -5118 -5424 0
1000000 -5119 -5434 0
1000000 -5120 -5663 0
5100 -5121 0
5500 -5122 0
7700 -5123 0
5100 -5124 0
5100 -5125 0
8700 -5126 0
7700 -5127 0
5100 -5128 0
8700 -5129 0
8700 -5130 0
5500 -5131 0
5200 -5132 0
5200 -5133 0
5100 -5134 0
5100 -5135 0
5100 -5136 0
5500 -5137 0
8700 -5138 0
5200 -5139 0
7700 -5140 0
5200 -5141 0
8700 -5142 0
8700 -5143 0
7700 -5144 0
5500 -5145 0
5200 -5146 0
5100 -5147 0
5500 -5148 0
5100 -5149 0
5200 -5150 0
7700 -5151 0
5500 -5152 0
5200 -5153 0
5100 -5154 0
5200 -5155 0
8700 -5156 0
8700 -5157 0
5200 -5158 0
5100 -5159 0
8700 -5160 0
5200 -5161 0
5200 -5162 0
5100 -5163 0
8700 -5164 0
5100 -5165 0
5100 -5166 0
5100 -5167 0
8700 -5168 0
8700 -5169 0
5500 -5170 0
7700 -5171 0
5200 -5172 0
7700 -5173 0
5100 -5174 0
5500 -5175 0
5500 -5176 0
5200 -5177 0
5200 -5178 0
7700 -5179 0
7700 -5180 0
8700 -5181 0
7700 -5182 0
7700 -5183 0
5100 -5184 0
5500 -5185 0
7700 -5186 0
8700 -5187 0
7700 -5188 0
5100 -5189 0
5200 -5190 0
5100 -5191 0
8700 -5192 0
5200 -5193 0
5500 -5194 0
8700 -5195 0
8700 -5196 0
7700 -5197 0
8700 -5198 0
5500 -5199 0
5500 -5200 0
5500 -5201 0
8700 -5202 0
5100 -5203 0
8700 -5204 0
7700 -5205 0
5500 -5206 0
7700 -5207 0
5500 -5208 0
7700 -5209 0
5200 -5210 0
5200 -5211 0
5500 -5212 0
7700 -5213 0
8700 -5214 0
5100 -5215 0
8700 -5216 0
8700 -5217 0
5100 -5218 0
5100 -5219 0
7700 -5220 0
5100 -5221 0
5200 -5222 0
5100 -5223 0
8700 -5224 0
5500 -5225 0
5200 -5226 0
5100 -5227 0
5100 -5228 0
5500 -5229 0
7700 -5230 0
8700 -5231 0
5500 -5232 0
7700 -5233 0
8700 -5234 0
5100 -5235 0
7700 -5236 0
5500 -5237 0
5200 -5238 0
5500 -5239 0
5500 -5240 0
5200 -5241 0
7700 -5242 0
7700 -5243 0
5500 -5244 0
5500 -5245 0
7700 -5246 0
5200 -5247 0
8700 -5248 0
5200 -5249 0
5100 -5250 0
5500 -5251 0
7700 -5252 0
5200 -5253 0
5100 -5254 0
5100 -5255 0
5500 -5256 0
8700 -5257 0
8700 -5258 0
5100 -5259 0
5200 -5260 0
5100 -5261 0
5500 -5262 0
5500 -5263 0
8700 -5264 0
5100 -5265 0
7700 -5266 0
7700 -5267 0
5200 -5268 0
5200 -5269 0
8700 -5270 0
5500 -5271 0
7700 -5272 0
7700 -5273 0
7700 -5274 0
7700 -5275 0
8700 -5276 0
5100 -5277 0
7700 -5278 0
5500 -5279 0
7700 -5280 0
5200 -5281 0
5500 -5282 0
5100 -5283 0
7700 -5284 0
8700 -5285 0
8700 -5286 0
7700 -5287 0
5200 -5288 0
8700 -5289 0
5500 -5290 0
5200 -5291 0
5100 -5292 0
5100 -5293 0
8700 -5294 0
5200 -5295 0
8700 -5296 0
5100 -5297 0
8700 -5298 0
5200 -5299 0
7700 -5300 0
5100 -5301 0
7700 -5302 0
5200 -5303 0
5100 -5304 0
8700 -5305 0
8700 -5306 0
8700 -5307 0
5100 -5308 0
5100 -5309 0
8700 -5310 0
8700 -5311 0
7700 -5312 0
5100 -5313 0
8700 -5314 0
5200 -5315 0
8700 -5316 0
5100 -5317 0
8700 -5318 0
7700 -5319 0
5500 -5320 0
5100 -5321 0
5100 -5322 0
5500 -5323 0
8700 -5324 0
7700 -5325 0
8700 -5326 0
5500 -5327 0
7700 -5328 0
5200 -5329 0
5200 -5330 0
7700 -5331 0
5200 -5332 0
7700 -5333 0
8700 -5334 0
8700 -5335 0
5500 -5336 0
8700 -5337 0
8700 -5338 0
5500 -5339 0
5100 -5340 0
5100 -5341 0
7700 -5342 0
5100 -5343 0
5100 -5344 0
5100 -5345 0
8700 -5346 0
5100 -5347 0
8700 -5348 0
8700 -5349 0
5500 -5350 0
7700 -5351 0
5500 -5352 0
5200 -5353 0
8700 -5354 0
5100 -5355 0
5100 -5356 0
5200 -5357 0
7700 -5358 0
8700 -5359 0
5200 -5360 0
5200 -5361 0
5200 -5362 0
8700 -5363 0
8700 -5364 0
8700 -5365 0
8700 -5366 0
5500 -5367 0
5200 -5368 0
5500 -5369 0
7700 -5370 0
5200 -5371 0
8700 -5372 0
8700 -5373 0
8700 -5374 0
5500 -5375 0
8700 -5376 0
5200 -5377 0
5100 -5378 0
5200 -5379 0
7700 -5380 0
5200 -5381 0
8700 -5382 0
5200 -5383 0
5200 -5384 0
5500 -5385 0
5100 -5386 0
5200 -5387 0
7700 -5388 0
5200 -5389 0
5100 -5390 0
5100 -5391 0
5100 -5392 0
5100 -5393 0
5100 -5394 0
5500 -5395 0
5100 -5396 0
5500 -5397 0
5200 -5398 0
5200 -5399 0
5500 -5400 0
8700 -5401 0
5100 -5402 0
5100 -5403 0
5200 -5404 0
5500 -5405 0
5100 -5406 0
5200 -5407 0
5100 -5408 0
5500 -5409 0
8700 -5410 0
7700 -5411 0
5200 -5412 0
5200 -5413 0
7700 -5414 0
7700 -5415 0
5200 -5416 0
8700 -5417 0
5200 -5418 0
7700 -5419 0
5100 -5420 0
5500 -5421 0
5100 -5422 0
8700 -5423 0
5200 -5424 0
5200 -5425 0
5500 -5426 0
5100 -5427 0
5500 -5428 0
8700 -5429 0
5100 -5430 0
5100 -5431 0
8700 -5432 0
5200 -5433 0
5200 -5434 0
7700 -5435 0
5200 -5436 0
5500 -5437 0
8700 -5438 0
5200 -5439 0
5100 -5440 0
8700 -5441 0
5200 -5442 0
5500 -5443 0
7700 -5444 0
7700 -5445 0
8700 -5446 0
5500 -5447 0
5500 -5448 0
5500 -5449 0
5200 -5450 0
7700 -5451 0
5500 -5452 0
5100 -5453 0
5200 -5454 0
5100 -5455 0
5100 -5456 0
8700 -5457 0
5200 -5458 0
5100 -5459 0
5200 -5460 0
5500 -5461 0
8700 -5462 0
7700 -5463 0
5100 -5464 0
8700 -5465 0
8700 -5466 0
8700 -5467 0
8700 -5468 0
5500 -5469 0
5200 -5470 0
7700 -5471 0
7700 -5472 0
5200 -5473 0
7700 -5474 0
8700 -5475 0
5500 -5476 0
8700 -5477 0
8700 -5478 0
5500 -5479 0
5100 -5480 0
7700 -5481 0
5500 -5482 0
5200 -5483 0
5200 -5484 0
5200 -5485 0
5100 -5486 0
5500 -5487 0
5100 -5488 0
5200 -5489 0
8700 -5490 0
8700 -5491 0
5100 -5492 0
5200 -5493 0
5200 -5494 0
5200 -5495 0
5200 -5496 0
5500 -5497 0
5100 -5498 0
5100 -5499 0
5500 -5500 0
8700 -5501 0
5100 -5502 0
7700 -5503 0
5100 -5504 0
5100 -5505 0
8700 -5506 0
5500 -5507 0
8700 -5508 0
8700 -5509 0
5500 -5510 0
7700 -5511 0
5500 -5512 0
8700 -5513 0
5500 -5514 0
5100 -5515 0
5100 -5516 0
7700 -5517 0
7700 -5518 0
5500 -5519 0
5500 -5520 0
5500 -5521 0
5200 -5522 0
8700 -5523 0
8700 -5524 0
7700 -5525 0
5100 -5526 0
5100 -5527 0
5100 -5528 0
5100 -5529 0
8700 -5530 0
5200 -5531 0
5100 -5532 0
7700 -5533 0
5500 -5534 0
5500 -5535 0
7700 -5536 0
7700 -5537 0
7700 -5538 0
5200 -5539 0
5500 -5540 0
5200 -5541 0
5100 -5542 0
5500 -5543 0
7700 -5544 0
5200 -5545 0
8700 -5546 0
5500 -5547 0
7700 -5548 0
7700 -5549 0
5100 -5550 0
5200 -5551 0
5100 -5552 0
8700 -5553 0
8700 -5554 0
5100 -5555 0
5500 -5556 0
5500 -5557 0
5100 -5558 0
5100 -5559 0
5500 -5560 0
5200 -5561 0
5100 -5562 0
7700 -5563 0
5200 -5564 0
5100 -5565 0
7700 -5566 0
7700 -5567 0
5100 -5568 0
5100 -5569 0
5100 -5570 0
7700 -5571 0
8700 -5572 0
5100 -5573 0
5100 -5574 0
5200 -5575 0
5100 -5576 0
5200 -5577 0
5200 -5578 0
8700 -5579 0
5100 -5580 0
8700 -5581 0
7700 -5582 0
8700 -5583 0
5500 -5584 0
5500 -5585 0
5500 -5586 0
5200 -5587 0
5500 -5588 0
8700 -5589 0
5100 -5590 0
5200 -5591 0
5200 -5592 0
5500 -5593 0
7700 -5594 0
7700 -5595 0
5100 -5596 0
8700 -5597 0
5500 -5598 0
8700 -5599 0
7700 -5600 0
7700 -5601 0
5500 -5602 0
7700 -5603 0
7700 -5604 0
5100 -5605 0
5100 -5606 0
7700 -5607 0
5500 -5608 0
5500 -5609 0
7700 -5610 0
7700 -5611 0
5200 -5612 0
5100 -5613 0
5100 -5614 0
5500 -5615 0
8700 -5616 0
8700 -5617 0
7700 -5618 0
7700 -5619 0
5200 -5620 0
5200 -5621 0
5500 -5622 0
8700 -5623 0
5200 -5624 0
8700 -5625 0
5200 -5626 0
5100 -5627 0
7700 -5628 0
5200 -5629 0
5200 -5630 0
5500 -5631 0
5100 -5632 0
7700 -5633 0
5100 -5634 0
7700 -5635 0
5100 -5636 0
5100 -5637 0
5500 -5638 0
8700 -5639 0
5100 -5640 0
7700 -5641 0
7700 -5642 0
5500 -5643 0
8700 -5644 0
7700 -5645 0
5500 -5646 0
7700 -5647 0
5200 -5648 0
5100 -5649 0
8700 -5650 0
5100 -5651 0
5100 -5652 0
5200 -5653 0
8700 -5654 0
5100 -5655 0
5500 -5656 0
7700 -5657 0
7700 -5658 0
5500 -5659 0
7700 -5660 0
5200 -5661 0
5500 -5662 0
5200 -5663 0
8700 -5664 0
7700 -5665 0
5200 -5666 0
7700 -5667 0
8700 -5668 0
5100 -5669 0
7700 -5670 0
8700 -5671 0
5500 -5672 0
7700 -5673 0
5500 -5674 0
8700 -5675 0
5500 -5676 0
5200 -5677 0
5100 -5678 0
5500 -5679 0
5200 -5680 0
5100 -5681 0
8700 -5682 0
8700 -5683 0
7700 -5684 0
5200 -5685 0
5100 -5686 0
7700 -5687 0
7700 -5688 0
8700 -5689 0
5500 -5690 0
5100 -5691 0
8700 -5692 0
8700 -5693 0
5500 -5694 0
5200 -5695 0
5200 -5696 0
5100 -5697 0
5500 -5698 0
5500 -5699 0
7700 -5700 0
5500 -5701 0
5100 -5702 0
5500 -5703 0
7700 -5704 0
5200 -5705 0
5500 -5706 0
5500 -5707 0
5100 -5708 0
7700 -5709 0
5500 -5710 0
5100 -5711 0
7700 -5712 0
8700 -5713 0
7700 -5714 0
8700 -5715 0
8700 -5716 0
7700 -5717 0
7700 -5718 0
5100 -5719 0
7700 -5720 0
5200 -5721 0
5500 -5722 0
7700 -5723 0
8700 -5724 0
8700 -5725 0
7700 -5726 0
5500 -5727 0
5500 -5728 0
5100 -5729 0
5100 -5730 0
5100 -5731 0
5500 -5732 0
8700 -5733 0
5100 -5734 0
7700 -5735 0
5100 -5736 0
7700 -5737 0
7700 -5738 0
8700 -5739 0
7700 -5740 0
5100 -5741 0
8700 -5742 0
8700 -5743 0
5500 -5744 0
7700 -5745 0
5100 -5746 0
7700 -5747 0
5100 -5748 0
5200 -5749 0
5500 -5750 0
8700 -5751 0
5500 -5752 0
5200 -5753 0
5500 -5754 0
5500 -5755 0
5200 -5756 0
5500 -5757 0
5500 -5758 0
5200 -5759 0
5200 -5760 0
8700 -5761 0
5100 -5762 0
5100 -5763 0
5200 -5764 0
5100 -5765 0
7700 -5766 0
7700 -5767 0
7700 -5768 0
8700 -5769 0
5100 -5770 0
5500 -5771 0
5200 -5772 0
5100 -5773 0
8700 -5774 0
5500 -5775 0
5200 -5776 0
5500 -5777 0
5200 -5778 0
7700 -5779 0
5200 -5780 0
5200 -5781 0
8700 -5782 0
8700 -5783 0
8700 -5784 0
5100 -5785 0
7700 -5786 0
7700 -5787 0
5200 -5788 0
8700 -5789 0
7700 -5790 0
7700 -5791 0
5200 -5792 0
5200 -5793 0
5500 -5794 0
5500 -5795 0
5200 -5796 0
5500 -5797 0
7700 -5798 0
5200 -5799 0
5200 -5800 0
8700 -5801 0
7700 -5802 0
7700 -5803 0
5100 -5804 0
5100 -5805 0
8700 -5806 0
5100 -5807 0
5500 -5808 0
5200 -5809 0
5500 -5810 0
7700 -5811 0
5100 -5812 0
5500 -5813 0
7700 -5814 0
5100 -5815 0
5200 -5816 0
5200 -5817 0
5100 -5818 0
5200 -5819 0
8700 -5820 0
5100 -5821 0
8700 -5822 0
5100 -5823 0
8700 -5824 0
5200 -5825 0
5200 -5826 0
5500 -5827 0
7700 -5828 0
8700 -5829 0
5100 -5830 0
5200 -5831 0
5200 -5832 0
5100 -5833 0
7700 -5834 0
5100 -5835 0
8700 -5836 0
8700 -5837 0
5500 -5838 0
5100 -5839 0
5200 -5840 0
5500 -5841 0
5100 -5842 0
5100 -5843 0
5200 -5844 0
7700 -5845 0
5100 -5846 0
5500 -5847 0
5200 -5848 0
8700 -5849 0
7700 -5850 0
5200 -5851 0
5500 -5852 0
5100 -5853 0
5500 -5854 0
5100 -5855 0
5200 -5856 0
7700 -5857 0
5200 -5858 0
5500 -5859 0
5500 -5860 0
8700 -5861 0
8700 -5862 0
5100 -5863 0
5500 -5864 0
8700 -5865 0
8700 -5866 0
5200 -5867 0
5100 -5868 0
7700 -5869 0
5200 -5870 0
5100 -5871 0
5100 -5872 0
5200 -5873 0
8700 -5874 0
8700 -5875 0
7700 -5876 0
7700 -5877 0
5100 -5878 0
7700 -5879 0
5200 -5880 0
7700 -5881 0
5500 -5882 0
5100 -5883 0
5500 -5884 0
5100 -5885 0
5100 -5886 0
5200 -5887 0
8700 -5888 0
7700 -5889 0
5500 -5890 0
7700 -5891 0
5100 -5892 0
5500 -5893 0
5500 -5894 0
5100 -5895 0
7700 -5896 0
5500 -5897 0
7700 -5898 0
5500 -5899 0
8700 -5900 0
5200 -5901 0
5100 -5902 0
5200 -5903 0
7700 -5904 0
5200 -5905 0
5200 -5906 0
5200 -5907 0
5200 -5908 0
5100 -5909 0
8700 -5910 0
8700 -5911 0
5200 -5912 0
8700 -5913 0
8700 -5914 0
5100 -5915 0
5200 -5916 0
7700 -5917 0
5200 -5918 0
8700 -5919 0
7700 -5920 0
8700 -5921 0
8700 -5922 0
5500 -5923 0
5500 -5924 0
5500 -5925 0
8700 -5926 0
5200 -5927 0
5200 -5928 0
8700 -5929 0
5500 -5930 0
8700 -5931 0
5200 -5932 0
5200 -5933 0
5100 -5934 0
5200 -5935 0
5100 -5936 0
8700 -5937 0
5200 -5938 0
5100 -5939 0
5200 -5940 0
5100 -5941 0
5200 -5942 0
5200 -5943 0
7700 -5944 0
8700 -5945 0
8700 -5946 0
5200 -5947 0
5100 -5948 0
5500 -5949 0
5100 -5950 0
5200 -5951 0
8700 -5952 0
5100 -5953 0
7700 -5954 0
5200 -5955 0
5100 -5956 0
5100 -5957 0
7700 -5958 0
5500 -5959 0
5500 -5960 0
5100 -5961 0
5200 -5962 0
7700 -5963 0
5500 -5964 0
5100 -5965 0
5200 -5966 0
5500 -5967 0
8700 -5968 0
5100 -5969 0
7700 -5970 0
5200 -5971 0
5100 -5972 0
5500 -5973 0
5100 -5974 0
5100 -5975 0
5500 -5976 0
8700 -5977 0
5200 -5978 0
5500 -5979 0
5100 -5980 0
5100 -5981 0
7700 -5982 0
5100 -5983 0
5500 -5984 0
7700 -5985 0
5100 -5986 0
5500 -5987 0
5200 -5988 0
5200 -5989 0
5100 -5990 0
5200 -5991 0
5100 -5992 0
7700 -5993 0
5200 -5994 0
7700 -5995 0
7700 -5996 0
7700 -5997 0
8700 -5998 0
5500 -5999 0
5100 -6000 0
7700 -6001 0
5100 -6002 0
7700 -6003 0
5500 -6004 0
5200 -6005 0
5100 -6006 0
8700 -6007 0
5100 -6008 0
5500 -6009 0
7700 -6010 0
5100 -6011 0
5500 -6012 0
7700 -6013 0
5200 -6014 0
5500 -6015 0
8700 -6016 0
5100 -6017 0
5500 -6018 0
7700 -6019 0
7700 -6020 0
8700 -6021 0
5100 -6022 0
7700 -6023 0
7700 -6024 0
7700 -6025 0
5500 -6026 0
5500 -6027 0
5100 -6028 0
8700 -6029 0
5100 -6030 0
8700 -6031 0
5200 -6032 0
7700 -6033 0
8700 -6034 0
7700 -6035 0
8700 -6036 0
5200 -6037 0
8700 -6038 0
5100 -6039 0
5500 -6040 0
7700 -6041 0
5500 -6042 0
8700 -6043 0
5100 -6044 0
8700 -6045 0
5200 -6046 0
5200 -6047 0
5200 -6048 0
8700 -6049 0
5200 -6050 0
8700 -6051 0
8700 -6052 0
5100 -6053 0
7700 -6054 0
5500 -6055 0
7700 -6056 0
5500 -6057 0
5500 -6058 0
8700 -6059 0
5200 -6060 0
5200 -6061 0
5200 -6062 0
7700 -6063 0
5200 -6064 0
5100 -6065 0
8700 -6066 0
5200 -6067 0
5200 -6068 0
5200 -6069 0
7700 -6070 0
8700 -6071 0
5100 -6072 0
5200 -6073 0
5500 -6074 0
7700 -6075 0
5200 -6076 0
5200 -6077 0
7700 -6078 0
5100 -6079 0
5500 -6080 0
5500 -6081 0
5100 -6082 0
7700 -6083 0
5200 -6084 0
5100 -6085 0
7700 -6086 0
7700 -6087 0
7700 -6088 0
7700 -6089 0
5500 -6090 0
7700 -6091 0
5100 -6092 0
5200 -6093 0
5200 -6094 0
8700 -6095 0
5100 -6096 0
8700 -6097 0
5100 -6098 0
7700 -6099 0
8700 -6100 0
7700 -6101 0
5100 -6102 0
5500 -6103 0
5500 -6104 0
5500 -6105 0
5500 -6106 0
5200 -6107 0
5500 -6108 0
5100 -6109 0
5500 -6110 0
5200 -6111 0
7700 -6112 0
8700 -6113 0
7700 -6114 0
7700 -6115 0
8700 -6116 0
5500 -6117 0
5500 -6118 0
5100 -6119 0
5500 -6120 0
5500 -6121 0
5100 -6122 0
8700 -6123 0
5100 -6124 0
5500 -6125 0
5500 -6126 0
5500 -6127 0
5100 -6128 0
8700 -6129 0
5200 -6130 0
5100 -6131 0
8700 -6132 0
5500 -6133 0
8700 -6134 0
7700 -6135 0
7700 -6136 0
5200 -6137 0
5500 -6138 0
5200 -6139 0
7700 -6140 0
5200 -6141 0
7700 -6142 0
7700 -6143 0
8700 -6144 0
5500 -6145 0
7700 -6146 0
5500 -6147 0
5200 -6148 0
5200 -6149 0
7700 -6150 0
5500 -6151 0
7700 -6152 0
7700 -6153 0
8700 -6154 0
5200 -6155 0
5500 -6156 0
5200 -6157 0
8700 -6158 0
5100 -6159 0
5200 -6160 0
8700 -6161 0
5200 -6162 0
5500 -6163 0
8700 -6164 0
5100 -6165 0
5200 -6166 0
8700 -6167 0
5100 -6168 0
5500 -6169 0
5200 -6170 0
7700 -6171 0
5500 -6172 0
5500 -6173 0
5500 -6174 0
5500 -6175 0
5100 -6176 0
7700 -6177 0
5200 -6178 0
5500 -6179 0
5200 -6180 0
8700 -6181 0
5500 -6182 0
5500 -6183 0
5200 -6184 0
7700 -6185 0
8700 -6186 0
7700 -6187 0
5200 -6188 0
5100 -6189 0
5500 -6190 0
5100 -6191 0
5200 -6192 0
5200 -6193 0
5200 -6194 0
5200 -6195 0
5500 -6196 0
5100 -6197 0
8700 -6198 0
5500 -6199 0
5200 -6200 0
5200 -6201 0
5500 -6202 0
5100 -6203 0
5100 -6204 0
7700 -6205 0
7700 -6206 0
7700 -6207 0
5200 -6208 0
5500 -6209 0
5500 -6210 0
7700 -6211 0
5100 -6212 0
7700 -6213 0
5500 -6214 0
5200 -6215 0
7700 -6216 0
8700 -6217 0
8700 -6218 0
5100 -6219 0
5500 -6220 0
5200 -6221 0
8700 -6222 0
7700 -6223 0
5200 -6224 0
5500 -6225 0
7700 -6226 0
5200 -6227 0
5500 -6228 0
5200 -6229 0
8700 -6230 0
8700 -6231 0
5500 -6232 0
8700 -6233 0
5500 -6234 0
5100 -6235 0
8700 -6236 0
5200 -6237 0
5200 -6238 0
5500 -6239 0
5100 -6240 0
7700 -6241 0
5200 -6242 0
5100 -6243 0
5200 -6244 0
5500 -6245 0
5500 -6246 0
7700 -6247 0
5500 -6248 0
7700 -6249 0
5500 -6250 0
5200 -6251 0
5500 -6252 0
8700 -6253 0
5100 -6254 0
5200 -6255 0
5100 -6256 0
8700 -6257 0
5100 -6258 0
8700 -6259 0
5500 -6260 0
5500 -6261 0
8700 -6262 0
5200 -6263 0
5500 -6264 0
5200 -6265 0
5100 -6266 0
5500 -6267 0
8700 -6268 0
8700 -6269 0
5500 -6270 0
8700 -6271 0
5500 -6272 0
7700 -6273 0
5500 -6274 0
5200 -6275 0
5100 -6276 0
8700 -6277 0
5100 -6278 0
5500 -6279 0
5500 -6280 0
5500 -6281 0
5200 -6282 0
5100 -6283 0
5100 -6284 0
8700 -6285 0
5500 -6286 0
8700 -6287 0
5200 -6288 0
7700 -6289 0
5200 -6290 0
7700 -6291 0
5500 -6292 0
5100 -6293 0
5100 -6294 0
8700 -6295 0
7700 -6296 0
8700 -6297 0
5500 -6298 0
5100 -6299 0
8700 -6300 0
7700 -6301 0
5500 -6302 0
5500 -6303 0
7700 -6304 0
8700 -6305 0
5200 -6306 0
8700 -6307 0
7700 -6308 0
5100 -6309 0
8700 -6310 0
5200 -6311 0
8700 -6312 0
5100 -6313 0
5500 -6314 0
8700 -6315 0
5500 -6316 0
5100 -6317 0
5200 -6318 0
8700 -6319 0
5500 -6320 0
2400 2721 0
1800 2722 0
2400 2723 0
1600 2724 0
1800 2725 0
1800 2726 0
2500 2727 0
4400 2728 0
1800 2729 0
2500 2730 0
4400 2731 0
2500 2732 0
2400 2733 0
2400 2734 0
4400 2735 0
2500 2736 0
1600 2737 0
2500 2738 0
1600 2739 0
1800 2740 0
1800 2741 0
1800 2742 0
2500 2743 0
4400 2744 0
1600 2745 0
2500 2746 0
1800 2747 0
2400 2748 0
1800 2749 0
4400 2750 0
1800 2751 0
4400 2752 0
2400 2753 0
1600 2754 0
1800 2755 0
4400 2756 0
1600 2757 0
2400 2758 0
4400 2759 0
2400 2760 0
2400 2761 0
2500 2762 0
1600 2763 0
2500 2764 0
2400 2765 0
4400 2766 0
1800 2767 0
2500 2768 0
1800 2769 0
2500 2770 0
1600 2771 0
1800 2772 0
2500 2773 0
2400 2774 0
4400 2775 0
2400 2776 0
1600 2777 0
1600 2778 0
2500 2779 0
2400 2780 0
1800 2781 0
2500 2782 0
2500 2783 0
2400 2784 0
4400 2785 0
1600 2786 0
1800 2787 0
1600 2788 0
2500 2789 0
4400 2790 0
2500 2791 0
4400 2792 0
2400 2793 0
1600 2794 0
2500 2795 0
4400 2796 0
4400 2797 0
2500 2798 0
1600 2799 0
2400 2800 0
2400 2801 0
1800 2802 0
1800 2803 0
1800 2804 0
1600 2805 0
1800 2806 0
1800 2807 0
1600 2808 0
1800 2809 0
2400 2810 0
2500 2811 0
2400 2812 0
2400 2813 0
4400 2814 0
2500 2815 0
2400 2816 0
2500 2817 0
2400 2818 0
1600 2819 0
1600 2820 0
1800 2821 0
1600 2822 0
2500 2823 0
4400 2824 0
1800 2825 0
2400 2826 0
1600 2827 0
1800 2828 0
1600 2829 0
1800 2830 0
2500 2831 0
2500 2832 0
2400 2833 0
1800 2834 0
4400 2835 0
2500 2836 0
2400 2837 0
1800 2838 0
2400 2839 0
2500 2840 0
2400 2841 0
1800 2842 0
1600 2843 0
4400 2844 0
2500 2845 0
1800 2846 0
1800 2847 0
2400 2848 0
2500 2849 0
1600 2850 0
1600 2851 0
4400 2852 0
4400 2853 0
2400 2854 0
2500 2855 0
1600 2856 0
2500 2857 0
2400 2858 0
2500 2859 0
2500 2860 0
2500 2861 0
2400 2862 0
2400 2863 0
2400 2864 0
1600 2865 0
1800 2866 0
2500 2867 0
4400 2868 0
4400 2869 0
1800 2870 0
2500 2871 0
2500 2872 0
2500 2873 0
2400 2874 0
1600 2875 0
2400 2876 0
2500 2877 0
1800 2878 0
2500 2879 0
2500 2880 0
1600 2881 0
2500 2882 0
2400 2883 0
4400 2884 0
1600 2885 0
1600 2886 0
1600 2887 0
2500 2888 0
1600 2889 0
1600 2890 0
2400 2891 0
1800 2892 0
2400 2893 0
2400 2894 0
1800 2895 0
1800 2896 0
1600 2897 0
2400 2898 0
2500 2899 0
4400 2900 0
4400 2901 0
4400 2902 0
2400 2903 0
1800 2904 0
1600 2905 0
1600 2906 0
4400 2907 0
1600 2908 0
2500 2909 0
2500 2910 0
1800 2911 0
1600 2912 0
2400 2913 0
1600 2914 0
2400 2915 0
4400 2916 0
2400 2917 0
4400 2918 0
2500 2919 0
1600 2920 0
1800 2921 0
1600 2922 0
4400 2923 0
1600 2924 0
1800 2925 0
4400 2926 0
4400 2927 0
1800 2928 0
1600 2929 0
1800 2930 0
2400 2931 0
2500 2932 0
1800 2933 0
4400 2934 0
2400 2935 0
2500 2936 0
1800 2937 0
2500 2938 0
1600 2939 0
4400 2940 0
1800 2941 0
4400 2942 0
2400 2943 0
2400 2944 0
2500 2945 0
2400 2946 0
2400 2947 0
1800 2948 0
4400 2949 0
2500 2950 0
2400 2951 0
4400 2952 0
1600 2953 0
1800 2954 0
2400 2955 0
2400 2956 0
2400 2957 0
4400 2958 0
1800 2959 0
1800 2960 0
4400 2961 0
2500 2962 0
1800 2963 0
4400 2964 0
4400 2965 0
2400 2966 0
4400 2967 0
2400 2968 0
1600 2969 0
4400 2970 0
1800 2971 0
2400 2972 0
1600 2973 0
2500 2974 0
2500 2975 0
2500 2976 0
2400 2977 0
4400 2978 0
2400 2979 0
2500 2980 0
4400 2981 0
1600 2982 0
2500 2983 0
1800 2984 0
4400 2985 0
2400 2986 0
2400 2987 0
1800 2988 0
2400 2989 0
1800 2990 0
2500 2991 0
2500 2992 0
2400 2993 0
4400 2994 0
2400 2995 0
2500 2996 0
4400 2997 0
1800 2998 0
2500 2999 0
1800 3000 0
1600 3001 0
4400 3002 0
2500 3003 0
1800 3004 0
1800 3005 0
1800 3006 0
2400 3007 0
2400 3008 0
1600 3009 0
1600 3010 0
1800 3011 0
2400 3012 0
4400 3013 0
4400 3014 0
1800 3015 0
2400 3016 0
4400 3017 0
2400 3018 0
1600 3019 0
1800 3020 0
1800 3021 0
2400 3022 0
2400 3023 0
2500 3024 0
4400 3025 0
1600 3026 0
4400 3027 0
2500 3028 0
2400 3029 0
4400 3030 0
1800 3031 0
4400 3032 0
2400 3033 0
4400 3034 0
2500 3035 0
1600 3036 0
2400 3037 0
1800 3038 0
2500 3039 0
2400 3040 0
1800 3041 0
1800 3042 0
2400 3043 0
2500 3044 0
1800 3045 0
1600 3046 0
2500 3047 0
1800 3048 0
2400 3049 0
2400 3050 0
2500 3051 0
1800 3052 0
1800 3053 0
2500 3054 0
2500 3055 0
2500 3056 0
1600 3057 0
1600 3058 0
1600 3059 0
2400 3060 0
1600 3061 0
1600 3062 0
1600 3063 0
1800 3064 0
4400 3065 0
1600 3066 0
2500 3067 0
1600 3068 0
4400 3069 0
2400 3070 0
2400 3071 0
1600 3072 0
2500 3073 0
2500 3074 0
1800 3075 0
2500 3076 0
1800 3077 0
1800 3078 0
2500 3079 0
2500 3080 0
1800 3081 0
2400 3082 0
1600 3083 0
2400 3084 0
2500 3085 0
4400 3086 0
2500 3087 0
1800 3088 0
4400 3089 0
4400 3090 0
1600 3091 0
2500 3092 0
1600 3093 0
2400 3094 0
4400 3095 0
1600 3096 0
2400 3097 0
2500 3098 0
2500 3099 0
1800 3100 0
2400 3101 0
2400 3102 0
1600 3103 0
4400 3104 0
4400 3105 0
1800 3106 0
1800 3107 0
1800 3108 0
2400 3109 0
2500 3110 0
2500 3111 0
1600 3112 0
4400 3113 0
4400 3114 0
1600 3115 0
2400 3116 0
2500 3117 0
1800 3118 0
2500 3119 0
1600 3120 0
2500 3121 0
1800 3122 0
4400 3123 0
1600 3124 0
2400 3125 0
2500 3126 0
2500 3127 0
2400 3128 0
2400 3129 0
1800 3130 0
2500 3131 0
1600 3132 0
2500 3133 0
1800 3134 0
1600 3135 0
1600 3136 0
1600 3137 0
1800 3138 0
2500 3139 0
4400 3140 0
1600 3141 0
2400 3142 0
1800 3143 0
1600 3144 0
1800 3145 0
2400 3146 0
1600 3147 0
2500 3148 0
1800 3149 0
1600 3150 0
1600 3151 0
1800 3152 0
2400 3153 0
1800 3154 0
4400 3155 0
2500 3156 0
2400 3157 0
2500 3158 0
2500 3159 0
1800 3160 0
4400 3161 0
1600 3162 0
4400 3163 0
2400 3164 0
4400 3165 0
2500 3166 0
1600 3167 0
4400 3168 0
1600 3169 0
4400 3170 0
1600 3171 0
4400 3172 0
2400 3173 0
1600 3174 0
1800 3175 0
2500 3176 0
1600 3177 0
2500 3178 0
4400 3179 0
4400 3180 0
4400 3181 0
4400 3182 0
4400 3183 0
2400 3184 0
2500 3185 0
1600 3186 0
2400 3187 0
2400 3188 0
2400 3189 0
2400 3190 0
2400 3191 0
2500 3192 0
1600 3193 0
2500 3194 0
1600 3195 0
2400 3196 0
2400 3197 0
4400 3198 0
1800 3199 0
1800 3200 0
2500 3201 0
2500 3202 0
1600 3203 0
4400 3204 0
1600 3205 0
4400 3206 0
1800 3207 0
1800 3208 0
4400 3209 0
1600 3210 0
2500 3211 0
4400 3212 0
4400 3213 0
4400 3214 0
1600 3215 0
2500 3216 0
1600 3217 0
2400 3218 0
2400 3219 0
4400 3220 0
4400 3221 0
4400 3222 0
2500 3223 0
2500 3224 0
4400 3225 0
2500 3226 0
1800 3227 0
4400 3228 0
1800 3229 0
1600 3230 0
1800 3231 0
1600 3232 0
1600 3233 0
4400 3234 0
4400 3235 0
1600 3236 0
2500 3237 0
2400 3238 0
1800 3239 0
1600 3240 0
2400 3241 0
4400 3242 0
4400 3243 0
1600 3244 0
2500 3245 0
1600 3246 0
1800 3247 0
2400 3248 0
2500 3249 0
1600 3250 0
1800 3251 0
1800 3252 0
2500 3253 0
1800 3254 0
1800 3255 0
1800 3256 0
1800 3257 0
1600 3258 0
2500 3259 0
2400 3260 0
2400 3261 0
1800 3262 0
1600 3263 0
1800 3264 0
1800 3265 0
1600 3266 0
4400 3267 0
2500 3268 0
2400 3269 0
1600 3270 0
2400 3271 0
1600 3272 0
1600 3273 0
4400 3274 0
1800 3275 0
2500 3276 0
4400 3277 0
2400 3278 0
2500 3279 0
1800 3280 0
4400 3281 0
1600 3282 0
2400 3283 0
4400 3284 0
4400 3285 0
2500 3286 0
2400 3287 0
2400 3288 0
2400 3289 0
2500 3290 0
2400 3291 0
2500 3292 0
1600 3293 0
2500 3294 0
1800 3295 0
2400 3296 0
1800 3297 0
1800 3298 0
1600 3299 0
4400 3300 0
1600 3301 0
2500 3302 0
2500 3303 0
2400 3304 0
1800 3305 0
1600 3306 0
4400 3307 0
1600 3308 0
2400 3309 0
1600 3310 0
4400 3311 0
4400 3312 0
1800 3313 0
1800 3314 0
2400 3315 0
1800 3316 0
2500 3317 0
1800 3318 0
2500 3319 0
1600 3320 0
2500 3321 0
2400 3322 0
4400 3323 0
2400 3324 0
2400 3325 0
2400 3326 0
2400 3327 0
1800 3328 0
1600 3329 0
4400 3330 0
2500 3331 0
2500 3332 0
1600 3333 0
2400 3334 0
2400 3335 0
4400 3336 0
2500 3337 0
2400 3338 0
1800 3339 0
4400 3340 0
1800 3341 0
1800 3342 0
1600 3343 0
1600 3344 0
1800 3345 0
1600 3346 0
1800 3347 0
2400 3348 0
1600 3349 0
1800 3350 0
4400 3351 0
4400 3352 0
1600 3353 0
4400 3354 0
2500 3355 0
2500 3356 0
4400 3357 0
1800 3358 0
4400 3359 0
4400 3360 0
4400 3361 0
1800 3362 0
1800 3363 0
2500 3364 0
1600 3365 0
2500 3366 0
1800 3367 0
1800 3368 0
1800 3369 0
1800 3370 0
1800 3371 0
1800 3372 0
2400 3373 0
2400 3374 0
4400 3375 0
2400 3376 0
2500 3377 0
4400 3378 0
1600 3379 0
1800 3380 0
2400 3381 0
2500 3382 0
1600 3383 0
1800 3384 0
1800 3385 0
1600 3386 0
1600 3387 0
1600 3388 0
2500 3389 0
4400 3390 0
4400 3391 0
2400 3392 0
1800 3393 0
2400 3394 0
4400 3395 0
1600 3396 0
1800 3397 0
4400 3398 0
1800 3399 0
2400 3400 0
4400 3401 0
2400 3402 0
1800 3403 0
2500 3404 0
1600 3405 0
2400 3406 0
1800 3407 0
4400 3408 0
2400 3409 0
1800 3410 0
2500 3411 0
2400 3412 0
1800 3413 0
2400 3414 0
1800 3415 0
1600 3416 0
1800 3417 0
1800 3418 0
1800 3419 0
4400 3420 0
1800 3421 0
1600 3422 0
2500 3423 0
1600 3424 0
2500 3425 0
4400 3426 0
4400 3427 0
4400 3428 0
2500 3429 0
1600 3430 0
2400 3431 0
4400 3432 0
2500 3433 0
1600 3434 0
4400 3435 0
1800 3436 0
1600 3437 0
2500 3438 0
2400 3439 0
2400 3440 0
2400 3441 0
1800 3442 0
1600 3443 0
4400 3444 0
1600 3445 0
2400 3446 0
1800 3447 0
2400 3448 0
2500 3449 0
1600 3450 0
1800 3451 0
2400 3452 0
1800 3453 0
2500 3454 0
2500 3455 0
1600 3456 0
1800 3457 0
2400 3458 0
2400 3459 0
4400 3460 0
2400 3461 0
1600 3462 0
2500 3463 0
2400 3464 0
4400 3465 0
1600 3466 0
1600 3467 0
1600 3468 0
1600 3469 0
1600 3470 0
1600 3471 0
2500 3472 0
2500 3473 0
4400 3474 0
2400 3475 0
1800 3476 0
2500 3477 0
1800 3478 0
4400 3479 0
2400 3480 0
2500 3481 0
2500 3482 0
2400 3483 0
2400 3484 0
1800 3485 0
1800 3486 0
2400 3487 0
2500 3488 0
1600 3489 0
4400 3490 0
4400 3491 0
1800 3492 0
2400 3493 0
2500 3494 0
2500 3495 0
1800 3496 0
1800 3497 0
1600 3498 0
4400 3499 0
4400 3500 0
4400 3501 0
1800 3502 0
1600 3503 0
2400 3504 0
1800 3505 0
1600 3506 0
1800 3507 0
2400 3508 0
2400 3509 0
1600 3510 0
2500 3511 0
2400 3512 0
2400 3513 0
2400 3514 0
2400 3515 0
2500 3516 0
4400 3517 0
4400 3518 0
2400 3519 0
2500 3520 0
1800 3521 0
2500 3522 0
1600 3523 0
1800 3524 0
4400 3525 0
4400 3526 0
2500 3527 0
4400 3528 0
2500 3529 0
2500 3530 0
2500 3531 0
2500 3532 0
2500 3533 0
1600 3534 0
1600 3535 0
1600 3536 0
2500 3537 0
4400 3538 0
1800 3539 0
1600 3540 0
2400 3541 0
2400 3542 0
2500 3543 0
1800 3544 0
1600 3545 0
2500 3546 0
4400 3547 0
1800 3548 0
4400 3549 0
4400 3550 0
2400 3551 0
1600 3552 0
2500 3553 0
4400 3554 0
4400 3555 0
2500 3556 0
1800 3557 0
2500 3558 0
2500 3559 0
1600 3560 0
2400 3561 0
4400 3562 0
2400 3563 0
1800 3564 0
4400 3565 0
2400 3566 0
1800 3567 0
1600 3568 0
1800 3569 0
2400 3570 0
2500 3571 0
4400 3572 0
1600 3573 0
2400 3574 0
1600 3575 0
1800 3576 0
2400 3577 0
2500 3578 0
2500 3579 0
2500 3580 0
2500 3581 0
4400 3582 0
1600 3583 0
2400 3584 0
2500 3585 0
4400 3586 0
2500 3587 0
2500 3588 0
1800 3589 0
2400 3590 0
1600 3591 0
1800 3592 0
1800 3593 0
1600 3594 0
2500 3595 0
2500 3596 0
2400 3597 0
2500 3598 0
1800 3599 0
1800 3600 0
1800 3601 0
1600 3602 0
2500 3603 0
2500 3604 0
2500 3605 0
2500 3606 0
2400 3607 0
2400 3608 0
1800 3609 0
1800 3610 0
1600 3611 0
4400 3612 0
1800 3613 0
2500 3614 0
1800 3615 0
1800 3616 0
2400 3617 0
2500 3618 0
1600 3619 0
1600 3620 0
1600 3621 0
1800 3622 0
1600 3623 0
1600 3624 0
1600 3625 0
2400 3626 0
2500 3627 0
2400 3628 0
2500 3629 0
2400 3630 0
2500 3631 0
1600 3632 0
4400 3633 0
1600 3634 0
4400 3635 0
1600 3636 0
2400 3637 0
4400 3638 0
1600 3639 0
1800 3640 0
4400 3641 0
2500 3642 0
2400 3643 0
1600 3644 0
1600 3645 0
2500 3646 0
1600 3647 0
1600 3648 0
2500 3649 0
2500 3650 0
1800 3651 0
1800 3652 0
2500 3653 0
4400 3654 0
4400 3655 0
4400 3656 0
2400 3657 0
1800 3658 0
4400 3659 0
4400 3660 0
4400 3661 0
2500 3662 0
1600 3663 0
2400 3664 0
1600 3665 0
1800 3666 0
1600 3667 0
2400 3668 0
4400 3669 0
4400 3670 0
2500 3671 0
2500 3672 0
2400 3673 0
4400 3674 0
1600 3675 0
1600 3676 0
2400 3677 0
2500 3678 0
1600 3679 0
1800 3680 0
2400 3681 0
1800 3682 0
1800 3683 0
2500 3684 0
4400 3685 0
2400 3686 0
4400 3687 0
1600 3688 0
1600 3689 0
2400 3690 0
2500 3691 0
1600 3692 0
1600 3693 0
4400 3694 0
1600 3695 0
2500 3696 0
1600 3697 0
1600 3698 0
1800 3699 0
2500 3700 0
1600 3701 0
2500 3702 0
2500 3703 0
1600 3704 0
1600 3705 0
2500 3706 0
4400 3707 0
4400 3708 0
2500 3709 0
2500 3710 0
4400 3711 0
4400 3712 0
1800 3713 0
4400 3714 0
4400 3715 0
2400 3716 0
1600 3717 0
1800 3718 0
1800 3719 0
2500 3720 0
2400 3721 0
1600 3722 0
1800 3723 0
4400 3724 0
4400 3725 0
4400 3726 0
1600 3727 0
1800 3728 0
1600 3729 0
2500 3730 0
2500 3731 0
2400 3732 0
2500 3733 0
1800 3734 0
1800 3735 0
1800 3736 0
4400 3737 0
4400 3738 0
1800 3739 0
2500 3740 0
2500 3741 0
2400 3742 0
1600 3743 0
2400 3744 0
1600 3745 0
2500 3746 0
1800 3747 0
4400 3748 0
2400 3749 0
2400 3750 0
2500 3751 0
1600 3752 0
2400 3753 0
1600 3754 0
2400 3755 0
1800 3756 0
2500 3757 0
1600 3758 0
2500 3759 0
4400 3760 0
2500 3761 0
1600 3762 0
1600 3763 0
4400 3764 0
4400 3765 0
2400 3766 0
1600 3767 0
2500 3768 0
4400 3769 0
2500 3770 0
4400 3771 0
1600 3772 0
4400 3773 0
1600 3774 0
4400 3775 0
2400 3776 0
4400 3777 0
2400 3778 0
2400 3779 0
2500 3780 0
1600 3781 0
4400 3782 0
4400 3783 0
1800 3784 0
4400 3785 0
1600 3786 0
1600 3787 0
4400 3788 0
2400 3789 0
1800 3790 0
1600 3791 0
1800 3792 0
1800 3793 0
1600 3794 0
2400 3795 0
2400 3796 0
1600 3797 0
4400 3798 0
4400 3799 0
1800 3800 0
4400 3801 0
1800 3802 0
4400 3803 0
2400 3804 0
2400 3805 0
2400 3806 0
4400 3807 0
1800 3808 0
1800 3809 0
2400 3810 0
2400 3811 0
4400 3812 0
4400 3813 0
1800 3814 0
2500 3815 0
1800 3816 0
4400 3817 0
1600 3818 0
4400 3819 0
4400 3820 0
1600 3821 0
4400 3822 0
1800 3823 0
1600 3824 0
2500 3825 0
4400 3826 0
2500 3827 0
2500 3828 0
1600 3829 0
2400 3830 0
2500 3831 0
2500 3832 0
2400 3833 0
1800 3834 0
2400 3835 0
1800 3836 0
1800 3837 0
2400 3838 0
2500 3839 0
1800 3840 0
2400 3841 0
4400 3842 0
2500 3843 0
1800 3844 0
1600 3845 0
2500 3846 0
4400 3847 0
4400 3848 0
2400 3849 0
4400 3850 0
1600 3851 0
2400 3852 0
4400 3853 0
1800 3854 0
2500 3855 0
1600 3856 0
1600 3857 0
1600 3858 0
1800 3859 0
4400 3860 0
2500 3861 0
2500 3862 0
1800 3863 0
2400 3864 0
4400 3865 0
1600 3866 0
2400 3867 0
1800 3868 0
4400 3869 0
4400 3870 0
4400 3871 0
2400 3872 0
2400 3873 0
1800 3874 0
1600 3875 0
2400 3876 0
2500 3877 0
2400 3878 0
2400 3879 0
4400 3880 0
2500 3881 0
1600 3882 0
2500 3883 0
1600 3884 0
1800 3885 0
4400 3886 0
1800 3887 0
2400 3888 0
2400 3889 0
4400 3890 0
1800 3891 0
2500 3892 0
1800 3893 0
1600 3894 0
2400 3895 0
2500 3896 0
2400 3897 0
1800 3898 0
4400 3899 0
2500 3900 0
4400 3901 0
1800 3902 0
1600 3903 0
4400 3904 0
4400 3905 0
1800 3906 0
2500 3907 0
1800 3908 0
4400 3909 0
2400 3910 0
2400 3911 0
4400 3912 0
2500 3913 0
4400 3914 0
2400 3915 0
1600 3916 0
4400 3917 0
4400 3918 0
1600 3919 0
2500 3920 0
1800 3921 0
2400 3922 0
2400 3923 0
1800 3924 0
1800 3925 0
1800 3926 0
1800 3927 0
2400 3928 0
4400 3929 0
4400 3930 0
1600 3931 0
4400 3932 0
2500 3933 0
2500 3934 0
1800 3935 0
1600 3936 0
2400 3937 0
4400 3938 0
4400 3939 0
2400 3940 0
2500 3941 0
1800 3942 0
1600 3943 0
2500 3944 0
1600 3945 0
1800 3946 0
4400 3947 0
1800 3948 0
2500 3949 0
4400 3950 0
1800 3951 0
4400 3952 0
4400 3953 0
1600 3954 0
1600 3955 0
2500 3956 0
1800 3957 0
2400 3958 0
1800 3959 0
4400 3960 0
2500 3961 0
2500 3962 0
2400 3963 0
4400 3964 0
4400 3965 0
2500 3966 0
2500 3967 0
2400 3968 0
2400 3969 0
1600 3970 0
2500 3971 0
2400 3972 0
4400 3973 0
1600 3974 0
2500 3975 0
2400 3976 0
2500 3977 0
1600 3978 0
1800 3979 0
2500 3980 0
2500 3981 0
2500 3982 0
2500 3983 0
2400 3984 0
1800 3985 0
4400 3986 0
2500 3987 0
4400 3988 0
2400 3989 0
1800 3990 0
1600 3991 0
1600 3992 0
1600 3993 0
1600 3994 0
1600 3995 0
1800 3996 0
2500 3997 0
1600 3998 0
2500 3999 0
4400 4000 0
2500 4001 0
4400 4002 0
2500 4003 0
4400 4004 0
2500 4005 0
2500 4006 0
1800 4007 0
4400 4008 0
2500 4009 0
1800 4010 0
1800 4011 0
4400 4012 0
2500 4013 0
1800 4014 0
1600 4015 0
1600 4016 0
1600 4017 0
2500 4018 0
1600 4019 0
2400 4020 0
4400 4021 0
2400 4022 0
2400 4023 0
1600 4024 0
4400 4025 0
1800 4026 0
2400 4027 0
1800 4028 0
1800 4029 0
2500 4030 0
4400 4031 0
4400 4032 0
2400 4033 0
2500 4034 0
2500 4035 0
2500 4036 0
4400 4037 0
4400 4038 0
1600 4039 0
4400 4040 0
4400 4041 0
2500 4042 0
1800 4043 0
2400 4044 0
1800 4045 0
2400 4046 0
1600 4047 0
4400 4048 0
2400 4049 0
2400 4050 0
2400 4051 0
2400 4052 0
4400 4053 0
1800 4054 0
2400 4055 0
2500 4056 0
2400 4057 0
4400 4058 0
2500 4059 0
4400 4060 0
1600 4061 0
4400 4062 0
2500 4063 0
1800 4064 0
2500 4065 0
1800 4066 0
2500 4067 0
2400 4068 0
4400 4069 0
1600 4070 0
1800 4071 0
1800 4072 0
2400 4073 0
2400 4074 0
2500 4075 0
1800 4076 0
4400 4077 0
2500 4078 0
2400 4079 0
1800 4080 0
1600 4081 0
1600 4082 0
1800 4083 0
4400 4084 0
1800 4085 0
4400 4086 0
2400 4087 0
4400 4088 0
4400 4089 0
1800 4090 0
1800 4091 0
1600 4092 0
2400 4093 0
2500 4094 0
1800 4095 0
2400 4096 0
2400 4097 0
1600 4098 0
1800 4099 0
1800 4100 0
2400 4101 0
1800 4102 0
1600 4103 0
1600 4104 0
1600 4105 0
1800 4106 0
1800 4107 0
1600 4108 0
4400 4109 0
2500 4110 0
2400 4111 0
4400 4112 0
2500 4113 0
1800 4114 0
2400 4115 0
4400 4116 0
2400 4117 0
1800 4118 0
2500 4119 0
2500 4120 0
2500 4121 0
4400 4122 0
2500 4123 0
4400 4124 0
4400 4125 0
1600 4126 0
4400 4127 0
2400 4128 0
2500 4129 0
4400 4130 0
1800 4131 0
4400 4132 0
4400 4133 0
1600 4134 0
2400 4135 0
1800 4136 0
1600 4137 0
2400 4138 0
4400 4139 0
1800 4140 0
2400 4141 0
1600 4142 0
4400 4143 0
4400 4144 0
2500 4145 0
1600 4146 0
1800 4147 0
4400 4148 0
2500 4149 0
2400 4150 0
4400 4151 0
2400 4152 0
4400 4153 0
2400 4154 0
1600 4155 0
2400 4156 0
2400 4157 0
4400 4158 0
4400 4159 0
2400 4160 0
1600 4161 0
1800 4162 0
2500 4163 0
2400 4164 0
1600 4165 0
2400 4166 0
2500 4167 0
1800 4168 0
1800 4169 0
2400 4170 0
2500 4171 0
2400 4172 0
4400 4173 0
1800 4174 0
1600 4175 0
1600 4176 0
1600 4177 0
2500 4178 0
2500 4179 0
1800 4180 0
2500 4181 0
4400 4182 0
1800 4183 0
1800 4184 0
4400 4185 0
4400 4186 0
4400 4187 0
2400 4188 0
1600 4189 0
1600 4190 0
1800 4191 0
4400 4192 0
2500 4193 0
4400 4194 0
1800 4195 0
1600 4196 0
2400 4197 0
4400 4198 0
1600 4199 0
1800 4200 0
1800 4201 0
1600 4202 0
1600 4203 0
4400 4204 0
2500 4205 0
4400 4206 0
2400 4207 0
1600 4208 0
2400 4209 0
2400 4210 0
2500 4211 0
4400 4212 0
1800 4213 0
2400 4214 0
2400 4215 0
2400 4216 0
2400 4217 0
1800 4218 0
4400 4219 0
2500 4220 0
2400 4221 0
1600 4222 0
1800 4223 0
2500 4224 0
1600 4225 0
1600 4226 0
1600 4227 0
2400 4228 0
4400 4229 0
2400 4230 0
1600 4231 0
2500 4232 0
2400 4233 0
2500 4234 0
2400 4235 0
4400 4236 0
4400 4237 0
2400 4238 0
2400 4239 0
4400 4240 0
2500 4241 0
4400 4242 0
2400 4243 0
2500 4244 0
2400 4245 0
1800 4246 0
2400 4247 0
4400 4248 0
1600 4249 0
4400 4250 0
4400 4251 0
2500 4252 0
1800 4253 0
2500 4254 0
2400 4255 0
1600 4256 0
4400 4257 0
1600 4258 0
1600 4259 0
2400 4260 0
2400 4261 0
1600 4262 0
4400 4263 0
2400 4264 0
4400 4265 0
2400 4266 0
4400 4267 0
4400 4268 0
1800 4269 0
2400 4270 0
1800 4271 0
1600 4272 0
4400 4273 0
4400 4274 0
2500 4275 0
2400 4276 0
1600 4277 0
1600 4278 0
2400 4279 0
2500 4280 0
2500 4281 0
2400 4282 0
4400 4283 0
4400 4284 0
1600 4285 0
2400 4286 0
4400 4287 0
2500 4288 0
2400 4289 0
1600 4290 0
4400 4291 0
4400 4292 0
2500 4293 0
4400 4294 0
4400 4295 0
2500 4296 0
2500 4297 0
1600 4298 0
2400 4299 0
4400 4300 0
4400 4301 0
2500 4302 0
1600 4303 0
4400 4304 0
1600 4305 0
1800 4306 0
2500 4307 0
4400 4308 0
1600 4309 0
2400 4310 0
1600 4311 0
1600 4312 0
1800 4313 0
4400 4314 0
4400 4315 0
2500 4316 0
1600 4317 0
2400 4318 0
1800 4319 0
1600 4320 0
2400 4321 0
2500 4322 0
1800 4323 0
4400 4324 0
4400 4325 0
1600 4326 0
1800 4327 0
2400 4328 0
2500 4329 0
2500 4330 0
4400 4331 0
4400 4332 0
2500 4333 0
4400 4334 0
2500 4335 0
1600 4336 0
2400 4337 0
1800 4338 0
1600 4339 0
1800 4340 0
2500 4341 0
2400 4342 0
1600 4343 0
4400 4344 0
1800 4345 0
1800 4346 0
4400 4347 0
1600 4348 0
4400 4349 0
1800 4350 0
4400 4351 0
1800 4352 0
1600 4353 0
2400 4354 0
1600 4355 0
4400 4356 0
4400 4357 0
1600 4358 0
2400 4359 0
1800 4360 0
4400 4361 0
4400 4362 0
1600 4363 0
1800 4364 0
1800 4365 0
4400 4366 0
1800 4367 0
1600 4368 0
2400 4369 0
2500 4370 0
2400 4371 0
1600 4372 0
2400 4373 0
2500 4374 0
2400 4375 0
4400 4376 0
1600 4377 0
1800 4378 0
4400 4379 0
4400 4380 0
2500 4381 0
2400 4382 0
1600 4383 0
2500 4384 0
2500 4385 0
2400 4386 0
1600 4387 0
4400 4388 0
1600 4389 0
2500 4390 0
2500 4391 0
1800 4392 0
2400 4393 0
1800 4394 0
2500 4395 0
4400 4396 0
2500 4397 0
1600 4398 0
1600 4399 0
4400 4400 0
4400 4401 0
1800 4402 0
4400 4403 0
2500 4404 0
2400 4405 0
1600 4406 0
1600 4407 0
2500 4408 0
2400 4409 0
4400 4410 0
1800 4411 0
2400 4412 0
2500 4413 0
4400 4414 0
4400 4415 0
4400 4416 0
2400 4417 0
4400 4418 0
2400 4419 0
2500 4420 0
1800 4421 0
2400 4422 0
2500 4423 0
2400 4424 0
2500 4425 0
1800 4426 0
1600 4427 0
1800 4428 0
1600 4429 0
1600 4430 0
4400 4431 0
2400 4432 0
4400 4433 0
2500 4434 0
2500 4435 0
2500 4436 0
4400 4437 0
1800 4438 0
4400 4439 0
4400 4440 0
1800 4441 0
1800 4442 0
1800 4443 0
2400 4444 0
4400 4445 0
2400 4446 0
1600 4447 0
1600 4448 0
4400 4449 0
2500 4450 0
1800 4451 0
2400 4452 0
1600 4453 0
4400 4454 0
2500 4455 0
4400 4456 0
2500 4457 0
4400 4458 0
1800 4459 0
1800 4460 0
2500 4461 0
4400 4462 0
1800 4463 0
4400 4464 0
4400 4465 0
1800 4466 0
1600 4467 0
1600 4468 0
4400 4469 0
1600 4470 0
2400 4471 0
1800 4472 0
1600 4473 0
1600 4474 0
4400 4475 0
2500 4476 0
1600 4477 0
2500 4478 0
1800 4479 0
2500 4480 0
1600 4481 0
2400 4482 0
2400 4483 0
1800 4484 0
1600 4485 0
1800 4486 0
4400 4487 0
4400 4488 0
2500 4489 0
1800 4490 0
2400 4491 0
1800 4492 0
2500 4493 0
1600 4494 0
1800 4495 0
2500 4496 0
4400 4497 0
2400 4498 0
1600 4499 0
1800 4500 0
1800 4501 0
2400 4502 0
4400 4503 0
1800 4504 0
2400 4505 0
2400 4506 0
1600 4507 0
2400 4508 0
2400 4509 0
2400 4510 0
1800 4511 0
2400 4512 0
2400 4513 0
2400 4514 0
2400 4515 0
4400 4516 0
1800 4517 0
2400 4518 0
2500 4519 0
2500 4520 0
2500 4521 0
1600 4522 0
4400 4523 0
2500 4524 0
4400 4525 0
2500 4526 0
1600 4527 0
1800 4528 0
4400 4529 0
1800 4530 0
1600 4531 0
4400 4532 0
1800 4533 0
1600 4534 0
2400 4535 0
4400 4536 0
1800 4537 0
1600 4538 0
2400 4539 0
4400 4540 0
2400 4541 0
2500 4542 0
4400 4543 0
1600 4544 0
1600 4545 0
4400 4546 0
2500 4547 0
4400 4548 0
1800 4549 0
1600 4550 0
2400 4551 0
1600 4552 0
2500 4553 0
4400 4554 0
1600 4555 0
1800 4556 0
2500 4557 0
2500 4558 0
2400 4559 0
1600 4560 0
4400 4561 0
2500 4562 0
1800 4563 0
1800 4564 0
4400 4565 0
1800 4566 0
2400 4567 0
4400 4568 0
1800 4569 0
2400 4570 0
1800 4571 0
1600 4572 0
4400 4573 0
1800 4574 0
1800 4575 0
2400 4576 0
1600 4577 0
1600 4578 0
2400 4579 0
1600 4580 0
1800 4581 0
1800 4582 0
1600 4583 0
1800 4584 0
1600 4585 0
2400 4586 0
4400 4587 0
2400 4588 0
4400 4589 0
2400 4590 0
2500 4591 0
1800 4592 0
2400 4593 0
4400 4594 0
1600 4595 0
1600 4596 0
2400 4597 0
2400 4598 0
2400 4599 0
1600 4600 0
2500 4601 0
2400 4602 0
1600 4603 0
1600 4604 0
2400 4605 0
4400 4606 0
4400 4607 0
1800 4608 0
1600 4609 0
1800 4610 0
1800 4611 0
4400 4612 0
4400 4613 0
2500 4614 0
1600 4615 0
2500 4616 0
2400 4617 0
2500 4618 0
2400 4619 0
1800 4620 0
1600 4621 0
2500 4622 0
1600 4623 0
1800 4624 0
1800 4625 0
1800 4626 0
1800 4627 0
4400 4628 0
4400 4629 0
1800 4630 0
1800 4631 0
2500 4632 0
1600 4633 0
2500 4634 0
1800 4635 0
4400 4636 0
2400 4637 0
4400 4638 0
4400 4639 0
4400 4640 0
2400 4641 0
1800 4642 0
1800 4643 0
1800 4644 0
4400 4645 0
1600 4646 0
1600 4647 0
2500 4648 0
1600 4649 0
4400 4650 0
1800 4651 0
1600 4652 0
2400 4653 0
2400 4654 0
1800 4655 0
1600 4656 0
4400 4657 0
4400 4658 0
1600 4659 0
2500 4660 0
2500 4661 0
2400 4662 0
1800 4663 0
2400 4664 0
1800 4665 0
1800 4666 0
1800 4667 0
1800 4668 0
4400 4669 0
1600 4670 0
1800 4671 0
1600 4672 0
1800 4673 0
4400 4674 0
4400 4675 0
1600 4676 0
1600 4677 0
2400 4678 0
2400 4679 0
2500 4680 0
2400 4681 0
2400 4682 0
1800 4683 0
2500 4684 0
2400 4685 0
2400 4686 0
1600 4687 0
2500 4688 0
2500 4689 0
2500 4690 0
1600 4691 0
4400 4692 0
2500 4693 0
2500 4694 0
1600 4695 0
4400 4696 0
2500 4697 0
2500 4698 0
1800 4699 0
4400 4700 0
2400 4701 0
2500 4702 0
1600 4703 0
1800 4704 0
2400 4705 0
2400 4706 0
1800 4707 0
1600 4708 0
2400 4709 0
2400 4710 0
4400 4711 0
2400 4712 0
2500 4713 0
2500 4714 0
1800 4715 0
1800 4716 0
1600 4717 0
1600 4718 0
4400 4719 0
1800 4720 0
4400 4721 0
1600 4722 0
2400 4723 0
4400 4724 0
2400 4725 0
4400 4726 0
4400 4727 0
1600 4728 0
4400 4729 0
1600 4730 0
4400 4731 0
4400 4732 0
1800 4733 0
1800 4734 0
1600 4735 0
4400 4736 0
2400 4737 0
2500 4738 0
1600 4739 0
1800 4740 0
1800 4741 0
1600 4742 0
1800 4743 0
2400 4744 0
1800 4745 0
2500 4746 0
2500 4747 0
4400 4748 0
2400 4749 0
1800 4750 0
1800 4751 0
1600 4752 0
4400 4753 0
2500 4754 0
1600 4755 0
1600 4756 0
1800 4757 0
2500 4758 0
1600 4759 0
1800 4760 0
4400 4761 0
2400 4762 0
2500 4763 0
4400 4764 0
1800 4765 0
2400 4766 0
1600 4767 0
4400 4768 0
1600 4769 0
1600 4770 0
2400 4771 0
2400 4772 0
1600 4773 0
1600 4774 0
2400 4775 0
1800 4776 0
2500 4777 0
1600 4778 0
2400 4779 0
4400 4780 0
4400 4781 0
1800 4782 0
1800 4783 0
4400 4784 0
1800 4785 0
1600 4786 0
2400 4787 0
2500 4788 0
2400 4789 0
2400 4790 0
1800 4791 0
2500 4792 0
1600 4793 0
4400 4794 0
1600 4795 0
1800 4796 0
4400 4797 0
1600 4798 0
2400 4799 0
1800 4800 0
2500 4801 0
2400 4802 0
2500 4803 0
4400 4804 0
2500 4805 0
2400 4806 0
2500 4807 0
1800 4808 0
1800 4809 0
2400 4810 0
1600 4811 0
2500 4812 0
2400 4813 0
2500 4814 0
2400 4815 0
2500 4816 0
1600 4817 0
2400 4818 0
1800 4819 0
1600 4820 0
1800 4821 0
1600 4822 0
1800 4823 0
1600 4824 0
2500 4825 0
1800 4826 0
2500 4827 0
2400 4828 0
2500 4829 0
1800 4830 0
1600 4831 0
2500 4832 0
4400 4833 0
1600 4834 0
2400 4835 0
2400 4836 0
1800 4837 0
1600 4838 0
2500 4839 0
2500 4840 0
2400 4841 0
1600 4842 0
1600 4843 0
2400 4844 0
2500 4845 0
2400 4846 0
1600 4847 0
2500 4848 0
4400 4849 0
2400 4850 0
1600 4851 0
1600 4852 0
1800 4853 0
1800 4854 0
2400 4855 0
2500 4856 0
4400 4857 0
4400 4858 0
2500 4859 0
1800 4860 0
1600 4861 0
1800 4862 0
2400 4863 0
1800 4864 0
2500 4865 0
2400 4866 0
2500 4867 0
2400 4868 0
1600 4869 0
1800 4870 0
2500 4871 0
2400 4872 0
1800 4873 0
4400 4874 0
2500 4875 0
1600 4876 0
2400 4877 0
2500 4878 0
2500 4879 0
4400 4880 0
1600 4881 0
4400 4882 0
2400 4883 0
1800 4884 0
2500 4885 0
2400 4886 0
2400 4887 0
1600 4888 0
2500 4889 0
4400 4890 0
1800 4891 0
2500 4892 0
2500 4893 0
1800 4894 0
2400 4895 0
4400 4896 0
2500 4897 0
2400 4898 0
1600 4899 0
2400 4900 0
1800 4901 0
4400 4902 0
1800 4903 0
1600 4904 0
2400 4905 0
2500 4906 0
1600 4907 0
1800 4908 0
2400 4909 0
1800 4910 0
2500 4911 0
1600 4912 0
1600 4913 0
4400 4914 0
1800 4915 0
4400 4916 0
1600 4917 0
2400 4918 0
4400 4919 0
2400 4920 0
4400 4921 0
1800 4922 0
1800 4923 0
1600 4924 0
1800 4925 0
4400 4926 0
4400 4927 0
2400 4928 0
2500 4929 0
4400 4930 0
2400 4931 0
1600 4932 0
1800 4933 0
1800 4934 0
4400 4935 0
1800 4936 0
1600 4937 0
2500 4938 0
4400 4939 0
1600 4940 0
2400 4941 0
2500 4942 0
4400 4943 0
1800 4944 0
4400 4945 0
2400 4946 0
1800 4947 0
2500 4948 0
4400 4949 0
1600 4950 0
2400 4951 0
4400 4952 0
1600 4953 0
4400 4954 0
2400 4955 0
4400 4956 0
1800 4957 0
1800 4958 0
1600 4959 0
1800 4960 0
2500 4961 0
2500 4962 0
4400 4963 0
2500 4964 0
2500 4965 0
2400 4966 0
2400 4967 0
2500 4968 0
2400 4969 0
2500 4970 0
1600 4971 0
2400 4972 0
2500 4973 0
2500 4974 0
4400 4975 0
1600 4976 0
1600 4977 0
4400 4978 0
4400 4979 0
4400 4980 0
1800 4981 0
2500 4982 0
1800 4983 0
2400 4984 0
4400 4985 0
2500 4986 0
2500 4987 0
2400 4988 0
1600 4989 0
2500 4990 0
1600 4991 0
2500 4992 0
1800 4993 0
4400 4994 0
1600 4995 0
1800 4996 0
2500 4997 0
4400 4998 0
1800 4999 0
4400 5000 0
2500 5001 0
2500 5002 0
1800 5003 0
2500 5004 0
2400 5005 0
4400 5006 0
2500 5007 0
2500 5008 0
2400 5009 0
4400 5010 0
1600 5011 0
2400 5012 0
2400 5013 0
4400 5014 0
2400 5015 0
4400 5016 0
2400 5017 0
4400 5018 0
4400 5019 0
1600 5020 0
2500 5021 0
4400 5022 0
1800 5023 0
1600 5024 0
1600 5025 0
2500 5026 0
2400 5027 0
2400 5028 0
4400 5029 0
1600 5030 0
4400 5031 0
1800 5032 0
2400 5033 0
4400 5034 0
4400 5035 0
1600 5036 0
1800 5037 0
1800 5038 0
4400 5039 0
1800 5040 0
1800 5041 0
1600 5042 0
1600 5043 0
1800 5044 0
4400 5045 0
2400 5046 0
4400 5047 0
4400 5048 0
2400 5049 0
1600 5050 0
4400 5051 0
1800 5052 0
1800 5053 0
1600 5054 0
1600 5055 0
1600 5056 0
2500 5057 0
2500 5058 0
1800 5059 0
4400 5060 0
2500 5061 0
4400 5062 0
2400 5063 0
1800 5064 0
2500 5065 0
1800 5066 0
2400 5067 0
2400 5068 0
1800 5069 0
2500 5070 0
1800 5071 0
4400 5072 0
4400 5073 0
4400 5074 0
4400 5075 0
4400 5076 0
2400 5077 0
2500 5078 0
2500 5079 0
1600 5080 0
1800 5081 0
2400 5082 0
2400 5083 0
1800 5084 0
1800 5085 0
4400 5086 0
2400 5087 0
2400 5088 0
1800 5089 0
1800 5090 0
2500 5091 0
4400 5092 0
1600 5093 0
4400 5094 0
2400 5095 0
2500 5096 0
1800 5097 0
1600 5098 0
2400 5099 0
1600 5100 0
4400 5101 0
2500 5102 0
4400 5103 0
1800 5104 0
2500 5105 0
4400 5106 0
1600 5107 0
2500 5108 0
2500 5109 0
1800 5110 0
1800 5111 0
1600 5112 0
1600 5113 0
2500 5114 0
2400 5115 0
4400 5116 0
2500 5117 0
1600 5118 0
2500 5119 0
1800 5120 0
35815 -2184 0
7220 1951 -2466 0
2850 -1951 2466 0
8987 -1951 -2466 0
13300 -1121 0
7220 1734 1234 -2694 0
2850 1734 -1234 2694 0
8987 1734 -1234 -2694 0
2280 -1734 1234 2694 0
8634 -1734 1234 -2694 0
4788 -1734 -1234 2694 0
10189 -1734 -1234 -2694 0
30030 -2587 0
33930 2346 2032 -2073 0
15080 2346 -2032 2073 0
35438 2346 -2032 -2073 0
9425 -2346 2032 2073 0
34873 -2346 2032 -2073 0
20735 -2346 -2032 2073 0
36004 -2346 -2032 -2073 0
3210 2118 1633 -866 0
4815 2118 -1633 866 0
6580 2118 -1633 -866 0
535 -2118 1633 866 0
3585 -2118 1633 -866 0
5109 -2118 -1633 866 0
6786 -2118 -1633 -866 0
5270 -870 0
6955 1103 -1685 0
7490 -1103 1685 0
9577 -1103 -1685 0
3720 1738 1046 -2186 0
4340 1738 -1046 2186 0
5456 1738 -1046 -2186 0
1240 -1738 1046 2186 0
4216 -1738 1046 -2186 0
4712 -1738 -1046 2186 0
5605 -1738 -1046 -2186 0
19305 -2637 0
930 1708 -2618 0
1240 -1708 2618 0
1984 -1708 -2618 0
3770 -2154 0
12350 -1560 0
858 1408 -2660 0
858 -1408 2660 0
1699 -1408 -2660 0
5580 1639 -1007 0
5890 -1639 1007 0
6169 -1639 -1007 0
16150 1129 1485 1419 -2113 0
8550 1129 1485 -1419 2113 0
17432 1129 1485 -1419 -2113 0
11400 1129 -1485 1419 2113 0
17860 1129 -1485 1419 -2113 0
14820 1129 -1485 -1419 2113 0
18373 1129 -1485 -1419 -2113 0
16150 -1129 1485 1419 2113 0
18572 -1129 1485 1419 -2113 0
17432 -1129 1485 -1419 2113 0
18765 -1129 1485 -1419 -2113 0
17860 -1129 -1485 1419 2113 0
18829 -1129 -1485 1419 -2113 0
18373 -1129 -1485 -1419 2113 0
18906 -1129 -1485 -1419 -2113 0
3410 999 2424 -1880 0
620 999 -2424 1880 0
3689 999 -2424 -1880 0
310 -999 2424 1880 0
3549 -999 2424 -1880 0
899 -999 -2424 1880 0
3815 -999 -2424 -1880 0
7540 -923 0
1284 1356 1054 -1209 0
3424 1356 -1054 1209 0
4297 1356 -1054 -1209 0
5885 -1356 1054 1209 0
6463 -1356 1054 -1209 0
7426 -1356 -1054 1209 0
7819 -1356 -1054 -1209 0
30160 1145 -2528 0
26390 -1145 2528 0
35438 -1145 -2528 0
14326 -2240 0
7722 2659 -1026 0
38610 -2659 1026 0
39382 -2659 -1026 0
4030 2291 1707 -2615 0
1240 2291 -1707 2615 0
4464 2291 -1707 -2615 0
2480 -2291 1707 2615 0
4898 -2291 1707 -2615 0
3224 -2291 -1707 2615 0
5158 -2291 -1707 -2615 0
4030 -1323 0
4340 -2218 0
13195 1223 2709 -1006 0
1885 1223 -2709 1006 0
14420 1223 -2709 -1006 0
9425 -1223 2709 1006 0
19321 -1223 2709 -1006 0
10839 -1223 -2709 1006 0
20240 -1223 -2709 -1006 0
1284 1228 879 -2444 0
1605 1228 -879 2444 0
2696 1228 -879 -2444 0
1926 -1228 879 2444 0
2979 -1228 879 -2444 0
3242 -1228 -879 2444 0
4137 -1228 -879 -2444 0
6420 1863 -1516 0
8560 -1863 1516 0
9844 -1863 -1516 0
40755 933 -1471 0
7722 -933 1471 0
41141 -933 -1471 0
14250 -1984 0
2356 2584 2275 -2222 0
1116 2584 -2275 2222 0
3048 2584 -2275 -2222 0
2170 -2584 2275 2222 0
3701 -2584 2275 -2222 0
2895 -2584 -2275 2222 0
4151 -2584 -2275 -2222 0
33930 2358 1766 1691 -1257 0
32045 2358 1766 -1691 1257 0
37134 2358 1766 -1691 -1257 0
13195 2358 -1766 1691 1257 0
35250 2358 -1766 1691 -1257 0
34024 2358 -1766 -1691 1257 0
37332 2358 -1766 -1691 -1257 0
5655 -2358 1766 1691 1257 0
34496 -2358 1766 1691 -1257 0
32893 -2358 1766 -1691 1257 0
37219 -2358 1766 -1691 -1257 0
16871 -2358 -1766 1691 1257 0
35617 -2358 -1766 1691 -1257 0
34576 -2358 -1766 -1691 1257 0
37388 -2358 -1766 -1691 -1257 0
22620 1703 -1185 0
7540 -1703 1185 0
25636 -1703 -1185 0
4290 -869 0
8560 2059 -867 0
3210 -2059 867 0
9202 -2059 -867 0
6650 1248 2621 -1035 0
6080 1248 -2621 1035 0
10602 1248 -2621 -1035 0
17100 -1248 2621 1035 0
17765 -1248 2621 -1035 0
17708 -1248 -2621 1035 0
18160 -1248 -2621 -1035 0
310 2500 2069 2636 -1040 0
5580 2500 2069 -2636 1040 0
5611 2500 2069 -2636 -1040 0
4030 2500 -2069 2636 1040 0
4138 2500 -2069 2636 -1040 0
5983 2500 -2069 -2636 1040 0
5994 2500 -2069 -2636 -1040 0
3410 -2500 2069 2636 1040 0
3549 -2500 2069 2636 -1040 0
5921 -2500 2069 -2636 1040 0
5935 -2500 2069 -2636 -1040 0
5223 -2500 -2069 2636 1040 0
5272 -2500 -2069 2636 -1040 0
6102 -2500 -2069 -2636 1040 0
6107 -2500 -2069 -2636 -1040 0
32175 2566 -1808 0
8580 -2566 1808 0
34320 -2566 -1808 0
5148 2061 1651 1539 -1967 0
27885 2061 1651 -1539 1967 0
29687 2061 1651 -1539 -1967 0
25740 2061 -1651 1539 1967 0
27799 2061 -1651 1539 -1967 0
36894 2061 -1651 -1539 1967 0
37615 2061 -1651 -1539 -1967 0
16302 -2061 1651 1539 1967 0
19494 -2061 1651 1539 -1967 0
33591 -2061 1651 -1539 1967 0
34708 -2061 1651 -1539 -1967 0
32261 -2061 -1651 1539 1967 0
33538 -2061 -1651 1539 -1967 0
39176 -2061 -1651 -1539 1967 0
39623 -2061 -1651 -1539 -1967 0
535 -1787 0
12350 1417 -2626 0
15200 -1417 2626 0
17670 -1417 -2626 0
6080 2135 2470 -1003 0
950 2135 -2470 1003 0
6726 2135 -2470 -1003 0
13300 -2135 2470 1003 0
15124 -2135 2470 -1003 0
13585 -2135 -2470 1003 0
15318 -2135 -2470 -1003 0
7600 1702 1503 -1610 0
9500 1702 -1503 1610 0
13300 1702 -1503 -1610 0
10450 -1702 1503 1610 0
13870 -1702 1503 -1610 0
14725 -1702 -1503 1610 0
16435 -1702 -1503 -1610 0
3424 2378 1053 1230 -1657 0
8560 2378 1053 -1230 1657 0
9245 2378 1053 -1230 -1657 0
6955 2378 -1053 1230 1657 0
8153 2378 -1053 1230 -1657 0
9951 2378 -1053 -1230 1657 0
10191 2378 -1053 -1230 -1657 0
1605 -2378 1053 1230 1657 0
4515 -2378 1053 1230 -1657 0
8881 -2378 1053 -1230 1657 0
9463 -2378 1053 -1230 -1657 0
7517 -2378 -1053 1230 1657 0
8535 -2378 -1053 1230 -1657 0
10063 -2378 -1053 -1230 1657 0
10267 -2378 -1053 -1230 -1657 0
4815 2519 -2544 0
7490 -2519 2544 0
8934 -2519 -2544 0
11310 1143 1333 2052 -1966 0
33930 1143 1333 -2052 1966 0
35061 1143 1333 -2052 -1966 0
9425 1143 -1333 2052 1966 0
17908 1143 -1333 2052 -1966 0
34873 1143 -1333 -2052 1966 0
35721 1143 -1333 -2052 -1966 0
15080 -1143 1333 2052 1966 0
21866 -1143 1333 2052 -1966 0
35438 -1143 1333 -2052 1966 0
36117 -1143 1333 -2052 -1966 0
20735 -1143 -1333 2052 1966 0
25825 -1143 -1333 2052 -1966 0
36004 -1143 -1333 -2052 1966 0
36512 -1143 -1333 -2052 -1966 0
20735 -2054 0
3424 2014 1670 -1524 0
4815 2014 -1670 1524 0
6698 2014 -1670 -1524 0
1070 -2014 1670 1524 0
4152 -2014 1670 -1524 0
5403 -2014 -1670 1524 0
7098 -2014 -1670 -1524 0
30030 1311 2576 -2137 0
10725 1311 -2576 2137 0
33247 1311 -2576 -2137 0
2145 -1311 2576 2137 0
30674 -1311 2576 -2137 0
12334 -1311 -2576 2137 0
33730 -1311 -2576 -2137 0
36465 2568 -1884 0
17160 -2568 1884 0
39039 -2568 -1884 0
27885 1357 1942 -1494 0
17160 1357 -1942 1494 0
33891 1357 -1942 -1494 0
34320 -1357 1942 1494 0
39897 -1357 1942 -1494 0
37752 -1357 -1942 1494 0
41098 -1357 -1942 -1494 0
8550 2684 2037 1537 -2610 0
17100 2684 2037 -1537 2610 0
17955 2684 2037 -1537 -2610 0
15200 2684 -2037 1537 2610 0
16910 2684 -2037 1537 -2610 0
18620 2684 -2037 -1537 2610 0
18791 2684 -2037 -1537 -2610 0
15200 -2684 2037 1537 2610 0
16910 -2684 2037 1537 -2610 0
18620 -2684 2037 -1537 2610 0
18791 -2684 2037 -1537 -2610 0
18240 -2684 -2037 1537 2610 0
18582 -2684 -2037 1537 -2610 0
18924 -2684 -2037 -1537 2610 0
18958 -2684 -2037 -1537 -2610 0
1885 1619 1740 -892 0
13195 1619 -1740 892 0
14420 1619 -1740 -892 0
9425 -1619 1740 892 0
10839 -1619 1740 -892 0
19321 -1619 -1740 892 0
20240 -1619 -1740 -892 0
5655 1934 2557 2263 -1515 0
16965 1934 2557 -2263 1515 0
20075 1934 2557 -2263 -1515 0
12064 1934 -2557 2263 1515 0
15909 1934 -2557 2263 -1515 0
23600 1934 -2557 -2263 1515 0
25715 1934 -2557 -2263 -1515 0
14326 -1934 2557 2263 1515 0
17832 -1934 2557 2263 -1515 0
24844 -1934 2557 -2263 1515 0
26773 -1934 2557 -2263 -1515 0
21806 -1934 -2557 2263 1515 0
24190 -1934 -2557 2263 -1515 0
28958 -1934 -2557 -2263 1515 0
30269 -1934 -2557 -2263 -1515 0
7220 -898 0
5270 1613 -988 0
4030 -1613 988 0
5874 -1613 -988 0
40755 1162 -862 0
5148 -1162 862 0
41012 -1162 -862 0
4524 2501 1055 -2128 0
30160 2501 -1055 2128 0
31065 2501 -1055 -2128 0
3770 -2501 1055 2128 0
7842 -2501 1055 -2128 0
30914 -2501 -1055 2128 0
31728 -2501 -1055 -2128 0
5580 1048 -934 0
4650 -1048 934 0
6045 -1048 -934 0
4815 -2009 0
32045 2717 1444 -1482 0
30160 2717 -1444 1482 0
36569 2717 -1444 -1482 0
33930 -2717 1444 1482 0
37134 -2717 1444 -1482 0
36946 -2717 -1444 1482 0
37587 -2717 -1444 -1482 0
4960 2647 -1550 0
4650 -2647 1550 0
5890 -2647 -1550 0
14250 2367 -2022 0
12350 -2367 2022 0
17338 -2367 -2022 0
10165 1222 1645 2435 -2673 0
6955 1222 1645 -2435 2673 0
10513 1222 1645 -2435 -2673 0
5885 1222 -1645 2435 2673 0
10459 1222 -1645 2435 -2673 0
9015 1222 -1645 -2435 2673 0
10616 1222 -1645 -2435 -2673 0
7490 -1222 1645 2435 2673 0
10539 -1222 1645 2435 -2673 0
9577 -1222 1645 -2435 2673 0
10644 -1222 1645 -2435 -2673 0
9255 -1222 -1645 2435 2673 0
10628 -1222 -1645 2435 -2673 0
10194 -1222 -1645 -2435 2673 0
10675 -1222 -1645 -2435 -2673 0
6955 1058 -1155 0
2675 -1058 1155 0
7891 -1058 -1155 0
17100 2374 2577 -1293 0
10450 2374 -2577 1293 0
18145 2374 -2577 -1293 0
5700 -2374 2577 1293 0
17670 -2374 2577 -1293 0
13015 -2374 -2577 1293 0
18402 -2374 -2577 -1293 0
1900 1477 1338 2000 -2550 0
3420 1477 1338 -2000 2550 0
4978 1477 1338 -2000 -2550 0
4750 1477 -1338 2000 2550 0
6175 1477 -1338 2000 -2550 0
7315 1477 -1338 -2000 2550 0
8484 1477 -1338 -2000 -2550 0
10450 -1477 1338 2000 2550 0
11305 -1477 1338 2000 -2550 0
11989 -1477 1338 -2000 2550 0
12690 -1477 1338 -2000 -2550 0
12588 -1477 -1338 2000 2550 0
13229 -1477 -1338 2000 -2550 0
13742 -1477 -1338 -2000 2550 0
14268 -1477 -1338 -2000 -2550 0
14326 2337 -1965 0
9425 -2337 1965 0
20170 -2337 -1965 0
2480 2706 1814 -1553 0
4030 2706 -1814 1553 0
4898 2706 -1814 -1553 0
310 -2706 1814 1553 0
2666 -2706 1814 -1553 0
4138 -2706 -1814 1553 0
4963 -2706 -1814 -1553 0
3100 2474 1835 2152 -2330 0
1984 2474 1835 -2152 2330 0
4092 2474 1835 -2152 -2330 0
1240 2474 -1835 2152 2330 0
3720 2474 -1835 2152 -2330 0
2827 2474 -1835 -2152 2330 0
4514 2474 -1835 -2152 -2330 0
5890 -2474 1835 2152 2330 0
6045 -2474 1835 2152 -2330 0
5989 -2474 1835 -2152 2330 0
6095 -2474 1835 -2152 -2330 0
5952 -2474 -1835 2152 2330 0
6076 -2474 -1835 2152 -2330 0
6031 -2474 -1835 -2152 2330 0
6116 -2474 -1835 -2152 -2330 0
10165 -825 0
9425 1302 -2017 0
4524 -1302 2017 0
12818 -1302 -2017 0
6435 -1328 0
1900 1919 -2217 0
8550 -1919 2217 0
9595 -1919 -2217 0
9630 826 1688 1948 -1475 0
1070 826 1688 -1948 1475 0
9737 826 1688 -1948 -1475 0
535 826 -1688 1948 1475 0
9684 826 -1688 1948 -1475 0
1552 826 -1688 -1948 1475 0
9785 826 -1688 -1948 -1475 0
5350 -826 1688 1948 1475 0
10165 -826 1688 1948 -1475 0
5885 -826 1688 -1948 1475 0
10219 -826 1688 -1948 -1475 0
5618 -826 -1688 1948 1475 0
10192 -826 -1688 1948 -1475 0
6126 -826 -1688 -1948 1475 0
10243 -826 -1688 -1948 -1475 0
18050 888 2369 2328 -2329 0
950 888 2369 -2328 2329 0
18097 888 2369 -2328 -2329 0
6650 888 -2369 2328 2329 0
18383 888 -2369 2328 -2329 0
7268 888 -2369 -2328 2329 0
18413 888 -2369 -2328 -2329 0
7220 -888 2369 2328 2329 0
18411 -888 2369 2328 -2329 0
7809 -888 2369 -2328 2329 0
18440 -888 2369 -2328 -2329 0
11343 -888 -2369 2328 2329 0
18617 -888 -2369 2328 -2329 0
11726 -888 -2369 -2328 2329 0
18636 -888 -2369 -2328 -2329 0
11400 2338 -998 0
6080 -2338 998 0
13832 -2338 -998 0
40755 2214 -912 0
8580 -2214 912 0
41184 -2214 -912 0
13300 -1940 0
1926 1906 1881 -2269 0
3210 1906 -1881 2269 0
4558 1906 -1881 -2269 0
6955 -1906 1881 2269 0
7629 -1906 1881 -2269 0
8078 -1906 -1881 2269 0
8550 -1906 -1881 -2269 0
32175 2537 2560 1831 -2031 0
5148 2537 2560 -1831 2031 0
33462 2537 2560 -1831 -2031 0
36465 2537 -2560 1831 2031 0
41291 2537 -2560 1831 -2031 0
37237 2537 -2560 -1831 2031 0
41484 2537 -2560 -1831 -2031 0
5148 -2537 2560 1831 2031 0
33462 -2537 2560 1831 -2031 0
9678 -2537 2560 -1831 2031 0
34595 -2537 2560 -1831 -2031 0
37237 -2537 -2560 1831 2031 0
41484 -2537 -2560 1831 -2031 0
37917 -2537 -2560 -1831 2031 0
41654 -2537 -2560 -1831 -2031 0
930 -1467 0
6080 2628 830 -2076 0
10450 2628 -830 2076 0
13186 2628 -830 -2076 0
7600 -2628 830 2076 0
11248 -2628 830 -2076 0
13870 -2628 -830 2076 0
15512 -2628 -830 -2076 0
1926 1616 2427 -1378 0
2140 1616 -2427 1378 0
3681 1616 -2427 -1378 0
1605 -1616 2427 1378 0
3242 -1616 2427 -1378 0
3424 -1616 -2427 1378 0
4734 -1616 -2427 -1378 0
1984 1275 2125 -1288 0
2790 1275 -2125 1288 0
3881 1275 -2125 -1288 0
5890 -1275 2125 1288 0
5989 -1275 2125 -1288 0
6029 -1275 -2125 1288 0
6084 -1275 -2125 -1288 0
11400 1528 -1825 0
5700 -1528 1825 0
13680 -1528 -1825 0
7490 1575 -1621 0
5350 -1575 1621 0
9095 -1575 -1621 0
22620 1350 -954 0
754 -1350 954 0
22922 -1350 -954 0
18850 1071 2681 -1403 0
11310 1071 -2681 1403 0
24505 1071 -2681 -1403 0
7540 -1071 2681 1403 0
22620 -1071 2681 -1403 0
16588 -1071 -2681 1403 0
27144 -1071 -2681 -1403 0
12064 1552 992 -1544 0
24505 1552 -992 1544 0
28727 1552 -992 -1544 0
14326 -1552 992 1544 0
21806 -1552 992 -1544 0
29519 -1552 -992 1544 0
32137 -1552 -992 -1544 0
4960 1716 -2294 0
5580 -1716 2294 0
6076 -1716 -2294 0
10165 -2671 0
14250 2085 -924 0
4750 -2085 924 0
15438 -2085 -924 0
8025 1450 2522 -1600 0
8560 1450 -2522 1600 0
10165 1450 -2522 -1600 0
1284 -1450 2522 1600 0
8346 -1450 2522 -1600 0
8817 -1450 -2522 1600 0
10229 -1450 -2522 -1600 0
30030 2693 -1760 0
7722 -2693 1760 0
32347 -2693 -1760 0
12064 -1963 0
124 1260 -2595 0
1240 -1260 2595 0
1339 -1260 -2595 0
8580 -1717 0
35815 -2638 0
18850 938 -932 0
13195 -938 932 0
25448 -938 -932 0
5580 1374 1706 1095 -1488 0
310 1374 1706 -1095 1488 0
5611 1374 1706 -1095 -1488 0
124 1374 -1706 1095 1488 0
5592 1374 -1706 1095 -1488 0
428 1374 -1706 -1095 1488 0
5623 1374 -1706 -1095 -1488 0
1116 -1374 1706 1095 1488 0
5692 -1374 1706 1095 -1488 0
1370 -1374 1706 -1095 1488 0
5717 -1374 1706 -1095 -1488 0
1218 -1374 -1706 1095 1488 0
5702 -1374 -1706 1095 -1488 0
1467 -1374 -1706 -1095 1488 0
5727 -1374 -1706 -1095 -1488 0
22620 -1673 0
10165 -2666 0
10165 1593 -1138 0
4815 -1593 1138 0
10406 -1593 -1138 0
3410 1711 -2095 0
5890 -1711 2095 0
6061 -1711 -2095 0
15080 2101 983 -2574 0
13195 2101 -983 2574 0
22997 2101 -983 -2574 0
16965 -2101 983 2574 0
25259 -2101 983 -2574 0
24222 -2101 -983 2574 0
29613 -2101 -983 -2574 0
6650 2677 951 -1072 0
15200 2677 -951 1072 0
16530 2677 -951 -1072 0
8550 -2677 951 1072 0
12207 -2677 951 -1072 0
16910 -2677 -951 1072 0
17641 -2677 -951 -1072 0
9500 -2225 0
14326 -1463 0
3210 2429 -1279 0
2140 -2429 1279 0
4708 -2429 -1279 0
32175 -2242 0
13728 1300 -2473 0
12870 -1300 2473 0
22480 -1300 -2473 0
535 1056 2534 2481 -1615 0
1284 1056 2534 -2481 1615 0
1755 1056 2534 -2481 -1615 0
5350 1056 -2534 2481 1615 0
5618 1056 -2534 2481 -1615 0
5992 1056 -2534 -2481 1615 0
6227 1056 -2534 -2481 -1615 0
3424 -1056 2534 2481 1615 0
3788 -1056 2534 2481 -1615 0
4297 -1056 2534 -2481 1615 0
4617 -1056 2534 -2481 -1615 0
7062 -1056 -2534 2481 1615 0
7244 -1056 -2534 2481 -1615 0
7499 -1056 -2534 -2481 1615 0
7659 -1056 -2534 -2481 -1615 0
7722 2535 -1900 0
8580 -2535 1900 0
14758 -2535 -1900 0
19305 -2011 0
8550 1198 2404 2042 -1517 0
14250 1198 2404 -2042 1517 0
16388 1198 2404 -2042 -1517 0
1900 1198 -2404 2042 1517 0
9595 1198 -2404 2042 -1517 0
14725 1198 -2404 -2042 1517 0
16649 1198 -2404 -2042 -1517 0
11400 -1198 2404 2042 1517 0
14820 -1198 2404 2042 -1517 0
17100 -1198 2404 -2042 1517 0
17955 -1198 2404 -2042 -1517 0
12160 -1198 -2404 2042 1517 0
15238 -1198 -2404 2042 -1517 0
17290 -1198 -2404 -2042 1517 0
18059 -1198 -2404 -2042 -1517 0
16302 2543 1955 -940 0
6435 2543 -1955 940 0
20292 2543 -1955 -940 0
16302 -2543 1955 940 0
26409 -2543 1955 -940 0
20292 -2543 -1955 940 0
28883 -2543 -1955 -940 0
4030 -843 0
32045 -1851 0
3800 1376 -1045 0
7600 -1376 1045 0
9880 -1376 -1045 0
4960 -1641 0
9500 2443 -2524 0
950 -2443 2524 0
9975 -2443 -2524 0
4750 1750 918 -1847 0
2280 1750 -918 1847 0
6460 1750 -918 -1847 0
13300 -1750 918 1847 0
14725 -1750 918 -1847 0
13984 -1750 -918 1847 0
15238 -1750 -918 -1847 0
380 2631 2700 -1799 0
18050 2631 -2700 1799 0
18069 2631 -2700 -1799 0
15200 -2631 2700 1799 0
15276 -2631 2700 -1799 0
18810 -2631 -2700 1799 0
18814 -2631 -2700 -1799 0
6420 1065 1124 -2664 0
535 1065 -1124 2664 0
6634 1065 -1124 -2664 0
535 -1065 1124 2664 0
6634 -1065 1124 -2664 0
1043 -1065 -1124 2664 0
6837 -1065 -1124 -2664 0
7540 -2074 0
6420 1158 1099 -1109 0
4815 1158 -1099 1109 0
8346 1158 -1099 -1109 0
9095 -1158 1099 1109 0
10058 -1158 1099 -1109 0
9817 -1158 -1099 1109 0
10347 -1158 -1099 -1109 0
2850 2133 1569 1017 -1002 0
5700 2133 1569 -1017 1002 0
7695 2133 1569 -1017 -1002 0
2850 2133 -1569 1017 1002 0
5273 2133 -1569 1017 -1002 0
7695 2133 -1569 -1017 1002 0
9391 2133 -1569 -1017 -1002 0
11400 -2133 1569 1017 1002 0
12540 -2133 1569 1017 -1002 0
13680 -2133 1569 -1017 1002 0
14478 -2133 1569 -1017 -1002 0
12540 -2133 -1569 1017 1002 0
13509 -2133 -1569 1017 -1002 0
14478 -2133 -1569 -1017 1002 0
15156 -2133 -1569 -1017 -1002 0
9500 1663 1719 1272 -2411 0
12350 1663 1719 -1272 2411 0
15675 1663 1719 -1272 -2411 0
4750 1663 -1719 1272 2411 0
11875 1663 -1719 1272 -2411 0
14012 1663 -1719 -1272 2411 0
16506 1663 -1719 -1272 -2411 0
4750 -1663 1719 1272 2411 0
11875 -1663 1719 1272 -2411 0
14012 -1663 1719 -1272 2411 0
16506 -1663 1719 -1272 -2411 0
8312 -1663 -1719 1272 2411 0
13656 -1663 -1719 1272 -2411 0
15259 -1663 -1719 -1272 2411 0
17130 -1663 -1719 -1272 -2411 0
28275 2669 2189 -1603 0
6786 2669 -2189 1603 0
29971 2669 -2189 -1603 0
14326 -2669 2189 1603 0
31856 -2669 2189 -1603 0
18533 -2669 -2189 1603 0
32908 -2669 -2189 -1603 0
17100 -1326 0
4960 1303 1892 -2382 0
124 1303 -1892 2382 0
4985 1303 -1892 -2382 0
4340 -1303 1892 2382 0
5828 -1303 1892 -2382 0
4377 -1303 -1892 2382 0
5835 -1303 -1892 -2382 0
3424 1034 2422 1887 -2372 0
7490 1034 2422 -1887 2372 0
8517 1034 2422 -1887 -2372 0
9630 1034 -2422 1887 2372 0
9972 1034 -2422 1887 -2372 0
10379 1034 -2422 -1887 2372 0
10482 1034 -2422 -1887 -2372 0
8025 -1034 2422 1887 2372 0
8881 -1034 2422 1887 -2372 0
9898 -1034 2422 -1887 2372 0
10154 -1034 2422 -1887 -2372 0
10433 -1034 -2422 1887 2372 0
10518 -1034 -2422 1887 -2372 0
10620 -1034 -2422 -1887 2372 0
10645 -1034 -2422 -1887 -2372 0
124 -2582 0
5148 1912 -1960 0
40755 -1912 1960 0
41012 -1912 -1960 0
4650 973 -1805 0
2480 -973 1805 0
5270 -973 -1805 0
24505 2613 -2552 0
3770 -2613 2552 0
25825 -2613 -2552 0
17100 957 2228 -1953 0
16150 957 -2228 1953 0
18715 957 -2228 -1953 0
3800 -957 2228 1953 0
17480 -957 2228 -1953 0
16720 -957 -2228 1953 0
18772 -957 -2228 -1953 0
6786 1813 -1066 0
754 -1813 1066 0
7404 -1813 -1066 0
9095 1362 1922 -2068 0
3745 1362 -1922 2068 0
9657 1362 -1922 -2068 0
8560 -1362 1922 2068 0
10379 -1362 1922 -2068 0
9309 -1362 -1922 2068 0
10491 -1362 -1922 -2068 0
9095 -2632 0
9425 1749 1278 -1466 0
33930 1749 -1278 1466 0
34873 1749 -1278 -1466 0
24505 -1749 1278 1466 0
27804 -1749 1278 -1466 0
36381 -1749 -1278 1466 0
36710 -1749 -1278 -1466 0
4030 2195 -1566 0
2480 -2195 1566 0
4898 -2195 -1566 0
8580 1157 -1169 0
32175 -1157 1169 0
34320 -1157 -1169 0
5270 2710 1642 -1888 0
5270 2710 -1642 1888 0
6061 2710 -1642 -1888 0
3410 -2710 1642 1888 0
5781 -2710 1642 -1888 0
5781 -2710 -1642 1888 0
6137 -2710 -1642 -1888 0
12350 817 1455 1292 -1391 0
17100 817 1455 -1292 1391 0
18335 817 1455 -1292 -1391 0
16150 817 -1455 1292 1391 0
18003 817 -1455 1292 -1391 0
18715 817 -1455 -1292 1391 0
18900 817 -1455 -1292 -1391 0
950 -817 1455 1292 1391 0
12683 -817 1455 1292 -1391 0
17195 -817 1455 -1292 1391 0
18368 -817 1455 -1292 -1391 0
16292 -817 -1455 1292 1391 0
18052 -817 -1455 1292 -1391 0
18729 -817 -1455 -1292 1391 0
18905 -817 -1455 -1292 -1391 0
8550 2538 1637 1133 -1816 0
380 2538 1637 -1133 1816 0
8759 2538 1637 -1133 -1816 0
12350 2538 -1637 1133 1816 0
15343 2538 -1637 1133 -1816 0
12483 2538 -1637 -1133 1816 0
15416 2538 -1637 -1133 -1816 0
2850 -2538 1637 1133 1816 0
10117 -2538 1637 1133 -1816 0
3173 -2538 1637 -1133 1816 0
10295 -2538 1637 -1133 -1816 0
13347 -2538 -1637 1133 1816 0
15891 -2538 -1637 1133 -1816 0
13461 -2538 -1637 -1133 1816 0
15953 -2538 -1637 -1133 -1816 0
30160 1860 2220 -1954 0
24505 1860 -2220 1954 0
35061 1860 -2220 -1954 0
24505 -1860 2220 1954 0
35061 -1860 2220 -1954 0
33082 -1860 -2220 1954 0
36776 -1860 -2220 -1954 0
2140 2448 2342 -2600 0
4066 2448 -2342 2600 0
5393 2448 -2342 -2600 0
1284 -2448 2342 2600 0
3167 -2448 2342 -2600 0
4862 -2448 -2342 2600 0
6030 -2448 -2342 -2600 0
32045 1464 2231 -1807 0
30160 1464 -2231 1807 0
36569 1464 -2231 -1807 0
28275 -1464 2231 1807 0
36286 -1464 2231 -1807 0
35815 -1464 -2231 1807 0
37417 -1464 -2231 -1807 0
3210 -811 0
4750 2299 -1596 0
8550 -2299 1596 0
11162 -2299 -1596 0
5890 1327 2590 -2529 0
4030 1327 -2590 2529 0
6091 1327 -2590 -2529 0
1860 -1327 2590 2529 0
5983 -1327 2590 -2529 0
4681 -1327 -2590 2529 0
6124 -1327 -2590 -2529 0
2480 -1116 0
3100 1196 2210 -899 0
2480 1196 -2210 899 0
4340 1196 -2210 -899 0
2170 -1196 2210 899 0
4185 -1196 2210 -899 0
3782 -1196 -2210 899 0
4991 -1196 -2210 -899 0
5655 2208 1406 -2456 0
33930 2208 -1406 2456 0
34496 2208 -1406 -2456 0
26390 -2208 1406 2456 0
28087 -2208 1406 -2456 0
36569 -2208 -1406 2456 0
36739 -2208 -1406 -2456 0
16302 1762 853 -1563 0
32175 1762 -853 1563 0
36250 1762 -853 -1563 0
23595 -1762 853 1563 0
30931 -1762 853 -1563 0
38074 -1762 -853 1563 0
39908 -1762 -853 -1563 0
12064 -1574 0
8560 2320 -2199 0
6420 -2320 2199 0
9844 -2320 -2199 0
3100 997 -1584 0
2790 -997 1584 0
4495 -997 -1584 0
25740 1486 1192 -2704 0
32175 1486 -1192 2704 0
38610 1486 -1192 -2704 0
21450 -1486 1192 2704 0
34320 -1486 1192 -2704 0
37538 -1486 -1192 2704 0
40755 -1486 -1192 -2704 0
12870 2090 -2010 0
19305 -2090 2010 0
26383 -2090 -2010 0
4524 2258 2324 -1599 0
11310 2258 -2324 1599 0
14477 2258 -2324 -1599 0
14326 -2258 2324 1599 0
17131 -2258 2324 -1599 0
21338 -2258 -2324 1599 0
23302 -2258 -2324 -1599 0
5350 2131 1084 -1396 0
6955 2131 -1084 1396 0
8827 2131 -1084 -1396 0
6420 -2131 1084 1396 0
8560 -2131 1084 -1396 0
9202 -2131 -1084 1396 0
9951 -2131 -1084 -1396 0
5270 1153 1290 1773 -2250 0
3100 1153 1290 -1773 2250 0
5735 1153 1290 -1773 -2250 0
5580 1153 -1290 1773 2250 0
6107 1153 -1290 1773 -2250 0
5890 1153 -1290 -1773 2250 0
6154 1153 -1290 -1773 -2250 0
3720 -1153 1290 1773 2250 0
5828 -1153 1290 1773 -2250 0
4960 -1153 1290 -1773 2250 0
6014 -1153 1290 -1773 -2250 0
5952 -1153 -1290 1773 2250 0
6163 -1153 -1290 1773 -2250 0
6076 -1153 -1290 -1773 2250 0
6181 -1153 -1290 -1773 -2250 0
535 915 1136 -1646 0
1605 915 -1136 1646 0
2060 915 -1136 -1646 0
6420 -915 1136 1646 0
6634 -915 1136 -1646 0
7062 -915 -1136 1646 0
7244 -915 -1136 -1646 0
754 1457 -1526 0
33930 -1457 1526 0
34005 -1457 -1526 0
13195 -819 0
3210 2045 1438 -820 0
3424 2045 -1438 820 0
5607 2045 -1438 -820 0
5885 -2045 1438 820 0
7330 -2045 1438 -820 0
7426 -2045 -1438 820 0
8408 -2045 -1438 -820 0
4524 2656 2629 -2151 0
26390 2656 -2629 2151 0
27747 2656 -2629 -2151 0
754 -2656 2629 2151 0
5188 -2656 2629 -2151 0
26616 -2656 -2629 2151 0
27946 -2656 -2629 -2151 0
7220 1233 2391 -1536 0
16150 1233 -2391 1536 0
17233 1233 -2391 -1536 0
7600 -1233 2391 1536 0
11932 -1233 2391 -1536 0
17290 -1233 -2391 1536 0
17940 -1233 -2391 -1536 0
40755 -1709 0
214 1193 -1431 0
10165 -1193 1431 0
10176 -1193 -1431 0
3210 2279 2428 -2599 0
4815 2279 -2428 2599 0
6580 2279 -2428 -2599 0
3424 -2279 2428 2599 0
5607 -2279 2428 -2599 0
6698 -2279 -2428 2599 0
7899 -2279 -2428 -2599 0
3424 -1462 0
20735 2332 1299 -2439 0
35815 2332 -1299 2439 0
36852 2332 -1299 -2439 0
7540 -2332 1299 2439 0
24128 -2332 1299 -2439 0
36192 -2332 -1299 2439 0
37021 -2332 -1299 -2439 0
4960 2008 2317 -1317 0
5890 2008 -2317 1317 0
6138 2008 -2317 -1317 0
1116 -2008 2317 1317 0
5183 -2008 2317 -1317 0
5946 -2008 -2317 1317 0
6149 -2008 -2317 -1317 0
2145 818 1119 1498 -1520 0
27885 818 1119 -1498 1520 0
28636 818 1119 -1498 -1520 0
10725 818 -1119 1498 1520 0
12334 818 -1119 1498 -1520 0
31639 818 -1119 -1498 1520 0
32202 818 -1119 -1498 -1520 0
34320 -818 1119 1498 1520 0
34749 -818 1119 1498 -1520 0
39897 -818 1119 -1498 1520 0
40047 -818 1119 -1498 -1520 0
36465 -818 -1119 1498 1520 0
36787 -818 -1119 1498 -1520 0
40648 -818 -1119 -1498 1520 0
40760 -818 -1119 -1498 -1520 0
1284 1782 -1089 0
1926 -1782 1089 0
2979 -1782 -1089 0
16965 -2036 0
12064 1991 -946 0
3770 -1991 946 0
14628 -1991 -946 0
9095 -1630 0
40755 -2653 0
1605 2302 2665 -902 0
6420 2302 -2665 902 0
7062 2302 -2665 -902 0
5885 -2302 2665 902 0
6607 -2302 2665 -902 0
8774 -2302 -2665 902 0
9063 -2302 -2665 -902 0
3745 -1075 0
4030 2400 -1780 0
2480 -2400 1780 0
4898 -2400 -1780 0
3410 2147 1418 -1200 0
2480 2147 -1418 1200 0
4526 2147 -1418 -1200 0
930 -2147 1418 1200 0
3829 -2147 1418 -1200 0
3038 -2147 -1418 1200 0
4777 -2147 -1418 -1200 0
380 968 -2028 0
2850 -968 2028 0
3173 -968 -2028 0
16150 2579 -1939 0
14250 -2579 1939 0
18288 -2579 -1939 0
12064 1092 -2246 0
9425 -1092 2246 0
18473 -1092 -2246 0
1116 877 1332 -1829 0
4340 877 -1332 1829 0
4675 877 -1332 -1829 0
1116 -877 1332 1829 0
2031 -877 1332 -1829 0
4675 -877 -1332 1829 0
4949 -877 -1332 -1829 0
3720 -1914 0
18050 -1379 0
2170 -2035 0
12350 846 1265 -1660 0
11400 846 -1265 1660 0
16340 846 -1265 -1660 0
2280 -846 1265 1660 0
13148 -846 1265 -1660 0
12312 -846 -1265 1660 0
16659 -846 -1265 -1660 0
9500 1331 2237 -1602 0
13300 1331 -2237 1602 0
16150 1331 -2237 -1602 0
18050 -1331 2237 1602 0
18525 -1331 2237 -1602 0
18715 -1331 -2237 1602 0
18857 -1331 -2237 -1602 0
4524 -1710 0
5655 2395 2695 -1427 0
6786 2395 -2695 1427 0
11423 2395 -2695 -1427 0
26390 -2395 2695 1427 0
28087 -2395 2695 -1427 0
28426 -2395 -2695 1427 0
29817 -2395 -2695 -1427 0
6650 1796 1986 2553 -2440 0
14250 1796 1986 -2553 2440 0
15912 1796 1986 -2553 -2440 0
7600 1796 -1986 2553 2440 0
11590 1796 -1986 2553 -2440 0
16150 1796 -1986 -2553 2440 0
17147 1796 -1986 -2553 -2440 0
1900 -1796 1986 2553 2440 0
7885 -1796 1986 2553 -2440 0
14725 -1796 1986 -2553 2440 0
16221 -1796 1986 -2553 -2440 0
8740 -1796 -1986 2553 2440 0
12331 -1796 -1986 2553 -2440 0
16435 -1796 -1986 -2553 2440 0
17333 -1796 -1986 -2553 -2440 0
9630 1246 1743 -1459 0
7490 1246 -1743 1459 0
10379 1246 -1743 -1459 0
1605 -1246 1743 1459 0
9791 -1246 1743 -1459 0
7972 -1246 -1743 1459 0
10427 -1246 -1743 -1459 0
4524 1102 -2697 0
13195 -1102 2697 0
16136 -1102 -2697 0
2790 -1545 0
32045 1918 1509 -1059 0
20735 1918 -1509 1059 0
35155 1918 -1509 -1059 0
4524 -1918 1509 1059 0
32724 -1918 1509 -1059 0
22771 -1918 -1509 1059 0
35461 -1918 -1509 -1059 0
3410 2583 1672 -2593 0
4030 2583 -1672 2593 0
5223 2583 -1672 -2593 0
2356 -2583 1672 2593 0
4470 -2583 1672 -2593 0
4855 -2583 -1672 2593 0
5595 -2583 -1672 -2593 0
4290 2465 -1982 0
4290 -2465 1982 0
8151 -2465 -1982 0
2480 1588 1388 -2262 0
1984 1588 -1388 2262 0
3670 1588 -1388 -2262 0
1240 -1588 1388 2262 0
3224 -1588 1388 -2262 0
2827 -1588 -1388 2262 0
4176 -1588 -1388 -2262 0
10165 861 903 -2156 0
6420 861 -903 2156 0
10486 861 -903 -2156 0
535 -861 903 2156 0
10192 -861 903 -2156 0
6634 -861 -903 2156 0
10497 -861 -903 -2156 0
7722 1622 -1866 0
15015 -1622 1866 0
20034 -1622 -1866 0
7490 -1623 0
2356 1821 1580 -1730 0
4030 1821 -1580 1730 0
4855 1821 -1580 -1730 0
1860 -1821 1580 1730 0
3509 -1821 1580 -1730 0
4681 -1821 -1580 1730 0
5258 -1821 -1580 -1730 0
5655 -2670 0
1070 1950 2559 -2461 0
214 1950 -2559 2461 0
1263 1950 -2559 -2461 0
3210 -1950 2559 2461 0
3959 -1950 2559 -2461 0
3360 -1950 -2559 2461 0
4094 -1950 -2559 -2461 0
7220 1559 1076 2533 -1122 0
16150 1559 1076 -2533 1122 0
17233 1559 1076 -2533 -1122 0
17100 1559 -1076 2533 1122 0
17822 1559 -1076 2533 -1122 0
18715 1559 -1076 -2533 1122 0
18823 1559 -1076 -2533 -1122 0
16150 -1559 1076 2533 1122 0
17233 -1559 1076 2533 -1122 0
18572 -1559 1076 -2533 1122 0
18735 -1559 1076 -2533 -1122 0
18715 -1559 -1076 2533 1122 0
18823 -1559 -1076 2533 -1122 0
18957 -1559 -1076 -2533 1122 0
18973 -1559 -1076 -2533 -1122 0
124 -1572 0
40755 947 -2416 0
7722 -947 2416 0
41141 -947 -2416 0
950 2699 -1375 0
16150 -2699 1375 0
16292 -2699 -1375 0
3424 1975 -972 0
6420 -1975 972 0
7790 -1975 -972 0
1550 -1287 0
7220 1705 1117 1870 -2663 0
15200 1705 1117 -1870 2663 0
16644 1705 1117 -1870 -2663 0
11400 1705 -1117 1870 2663 0
14288 1705 -1117 1870 -2663 0
17480 1705 -1117 -1870 2663 0
18058 1705 -1117 -1870 -2663 0
6080 -1705 1117 1870 2663 0
10990 -1705 1117 1870 -2663 0
16416 -1705 1117 -1870 2663 0
17398 -1705 1117 -1870 -2663 0
13832 -1705 -1117 1870 2663 0
15796 -1705 -1117 1870 -2663 0
17966 -1705 -1117 -1870 2663 0
18359 -1705 -1117 -1870 -2663 0
5350 1609 2502 -1269 0
2675 1609 -2502 1269 0
6688 1609 -2502 -1269 0
535 -1609 2502 1269 0
5618 -1609 2502 -1269 0
3076 -1609 -2502 1269 0
6888 -1609 -2502 -1269 0
5885 -1736 0
1605 2234 -1074 0
4280 -2234 1074 0
5243 -2234 -1074 0
4815 -1654 0
2280 -1000 0
6786 2005 -2221 0
20735 -2005 2221 0
23789 -2005 -2221 0
11400 2685 -1456 0
1900 -2685 1456 0
12160 -2685 -1456 0
34320 2662 896 -887 0
21450 2662 -896 887 0
38610 2662 -896 -887 0
23595 -2662 896 887 0
39039 -2662 896 -887 0
33248 -2662 -896 887 0
40970 -2662 -896 -887 0
8025 -1188 0
20735 1297 1235 1747 -1111 0
754 1297 1235 -1747 1111 0
21074 1297 1235 -1747 -1111 0
32045 1297 -1235 1747 1111 0
35155 1297 -1235 1747 -1111 0
32158 1297 -1235 -1747 1111 0
35206 1297 -1235 -1747 -1111 0
14326 -1297 1235 1747 1111 0
27182 -1297 1235 1747 -1111 0
14793 -1297 1235 -1747 1111 0
27392 -1297 1235 -1747 -1111 0
34194 -1297 -1235 1747 1111 0
36122 -1297 -1235 1747 -1111 0
34264 -1297 -1235 -1747 1111 0
36154 -1297 -1235 -1747 -1111 0
28275 -2521 0
1284 2620 1556 -2167 0
4280 2620 -1556 2167 0
5050 2620 -1556 -2167 0
1070 -2620 1556 2167 0
2226 -2620 1556 -2167 0
4922 -2620 -1556 2167 0
5615 -2620 -1556 -2167 0
7600 -2503 0
10450 2050 1267 -2295 0
6650 2050 -1267 2295 0
13443 2050 -1267 -2295 0
6080 -2050 1267 2295 0
13186 -2050 1267 -2295 0
10602 -2050 -1267 2295 0
15221 -2050 -1267 -2295 0
24505 -1974 0
16302 1769 -2589 0
40755 -1769 2589 0
41570 -1769 -2589 0
9500 1757 -2645 0
6650 -1757 2645 0
12825 -1757 -2645 0
12870 2354 2298 1479 -1729 0
36465 2354 2298 -1479 1729 0
38395 2354 2298 -1479 -1729 0
23595 2354 -2298 1479 1729 0
29387 2354 -2298 1479 -1729 0
40004 2354 -2298 -1479 1729 0
40873 2354 -2298 -1479 -1729 0
34320 -2354 2298 1479 1729 0
36894 -2354 2298 1479 -1729 0
41613 -2354 2298 -1479 1729 0
41999 -2354 2298 -1479 -1729 0
39039 -2354 -2298 1479 1729 0
40197 -2354 -2298 1479 -1729 0
42321 -2354 -2298 -1479 1729 0
42495 -2354 -2298 -1479 -1729 0
6650 1667 2611 -828 0
17100 1667 -2611 828 0
17765 1667 -2611 -828 0
9500 -1667 2611 828 0
12825 -1667 2611 -828 0
18050 -1667 -2611 828 0
18383 -1667 -2611 -828 0
7220 -2363 0
1070 2476 -1557 0
2675 -2476 1557 0
3477 -2476 -1557 0
5148 1554 2044 1424 -2575 0
36465 1554 2044 -1424 2575 0
37237 1554 2044 -1424 -2575 0
8580 1554 -2044 1424 2575 0
12698 1554 -2044 1424 -2575 0
37752 1554 -2044 -1424 2575 0
38370 1554 -2044 -1424 -2575 0
21450 -1554 2044 1424 2575 0
24024 -1554 2044 1424 -2575 0
39683 -1554 2044 -1424 2575 0
40069 -1554 2044 -1424 -2575 0
25740 -1554 -2044 1424 2575 0
27799 -1554 -2044 1424 -2575 0
40326 -1554 -2044 -1424 2575 0
40635 -1554 -2044 -1424 -2575 0
1926 2080 -2592 0
9095 -2080 2592 0
9384 -2080 -2592 0
4650 931 838 -1594 0
2790 931 -838 1594 0
5348 931 -838 -1594 0
620 -931 838 1594 0
4805 -931 838 -1594 0
3131 -931 -838 1594 0
5433 -931 -838 -1594 0
380 1097 -1817 0
7600 -1097 1817 0
7828 -1097 -1817 0
214 -2493 0
4524 2015 1381 1335 -1085 0
1885 2015 1381 -1335 1085 0
6183 2015 1381 -1335 -1085 0
1885 2015 -1381 1335 1085 0
6183 2015 -1381 1335 -1085 0
3676 2015 -1381 -1335 1085 0
7759 2015 -1381 -1335 -1085 0
14326 -2015 1381 1335 1085 0
17131 -2015 1381 1335 -1085 0
15495 -2015 1381 -1335 1085 0
18159 -2015 1381 -1335 -1085 0
15495 -2015 -1381 1335 1085 0
18159 -2015 -1381 1335 -1085 0
16605 -2015 -1381 -1335 1085 0
19136 -2015 -1381 -1335 -1085 0
3745 2333 2555 1263 -1679 0
9095 2333 2555 -1263 1679 0
9657 2333 2555 -1263 -1679 0
10165 2333 -2555 1263 1679 0
10352 2333 -2555 1263 -1679 0
10620 2333 -2555 -1263 1679 0
10648 2333 -2555 -1263 -1679 0
4815 -2333 2555 1263 1679 0
6875 -2333 2555 1263 -1679 0
9817 -2333 2555 -1263 1679 0
10126 -2333 2555 -1263 -1679 0
10406 -2333 -2555 1263 1679 0
10509 -2333 -2555 1263 -1679 0
10656 -2333 -2555 -1263 1679 0
10671 -2333 -2555 -1263 -1679 0
2356 1197 2070 -2509 0
124 1197 -2070 2509 0
2433 1197 -2070 -2509 0
3720 -1197 2070 2509 0
4662 -1197 2070 -2509 0
3770 -1197 -2070 2509 0
4693 -1197 -2070 -2509 0
24505 1585 1618 -1700 0
12064 1585 -1618 1700 0
28727 1585 -1618 -1700 0
14326 -1585 1618 1700 0
29519 -1585 1618 -1700 0
21806 -1585 -1618 1700 0
32137 -1585 -1618 -1700 0
6955 -1783 0
8560 -2420 0
32045 1858 1693 -849 0
28275 1858 -1693 849 0
36286 1858 -1693 -849 0
15080 -1858 1693 849 0
34307 -1858 1693 -849 0
32045 -1858 -1693 849 0
36852 -1858 -1693 -849 0
3100 806 2484 1176 -2344 0
310 806 2484 -1176 2344 0
3255 806 2484 -1176 -2344 0
3410 806 -2484 1176 2344 0
4805 806 -2484 1176 -2344 0
3549 806 -2484 -1176 2344 0
4875 806 -2484 -1176 -2344 0
1984 -806 2484 1176 2344 0
4092 -806 2484 1176 -2344 0
2195 -806 2484 -1176 2344 0
4197 -806 2484 -1176 -2344 0
4303 -806 -2484 1176 2344 0
5251 -806 -2484 1176 -2344 0
4398 -806 -2484 -1176 2344 0
5299 -806 -2484 -1176 -2344 0
21450 2383 -2241 0
6435 -2383 2241 0
24667 -2383 -2241 0
32175 2361 1907 1407 -1098 0
7722 2361 1907 -1407 1098 0
34105 2361 1907 -1407 -1098 0
15015 2361 -1907 1407 1098 0
35929 2361 -1907 1407 -1098 0
20034 2361 -1907 -1407 1098 0
37184 2361 -1907 -1407 -1098 0
2145 -2361 1907 1407 1098 0
32711 -2361 1907 1407 -1098 0
9481 -2361 1907 -1407 1098 0
34545 -2361 1907 -1407 -1098 0
16409 -2361 -1907 1407 1098 0
36277 -2361 -1907 1407 -1098 0
21178 -2361 -1907 -1407 1098 0
37469 -2361 -1907 -1407 -1098 0
950 1513 -1363 0
950 -1513 1363 0
1853 -1513 -1363 0
3770 1014 1010 -1913 0
22620 1014 -1010 1913 0
24128 1014 -1010 -1913 0
7540 -1014 1010 1913 0
10556 -1014 1010 -1913 0
25636 -1014 -1010 1913 0
26842 -1014 -1010 -1913 0
1900 1008 2523 -2536 0
3420 1008 -2523 2536 0
4978 1008 -2523 -2536 0
4750 -1008 2523 2536 0
6175 -1008 2523 -2536 0
7315 -1008 -2523 2536 0
8484 -1008 -2523 -2536 0
5655 1106 1879 827 -1561 0
15080 1106 1879 -827 1561 0
18473 1106 1879 -827 -1561 0
26390 1106 -1879 827 1561 0
28087 1106 -1879 827 -1561 0
30914 1106 -1879 -827 1561 0
31932 1106 -1879 -827 -1561 0
7540 -1106 1879 827 1561 0
12064 -1106 1879 827 -1561 0
19604 -1106 1879 -827 1561 0
22318 -1106 1879 -827 -1561 0
28652 -1106 -1879 827 1561 0
30009 -1106 -1879 827 -1561 0
32271 -1106 -1879 -827 1561 0
33086 -1106 -1879 -827 -1561 0
1984 -1203 0
23595 -2573 0
8550 2023 -1474 0
3800 -2023 1474 0
10640 -2023 -1474 0
3424 -1458 0
1550 1128 2399 -1582 0
2790 1128 -2399 1582 0
3642 1128 -2399 -1582 0
4960 -1128 2399 1582 0
5270 -1128 2399 -1582 0
5518 -1128 -2399 1582 0
5688 -1128 -2399 -1582 0
11310 -1324 0
17160 1933 -2712 0
10725 -1933 2712 0
23595 -1933 -2712 0
23595 1812 1811 1981 -2430 0
27885 1812 1811 -1981 2430 0
36143 1812 1811 -1981 -2430 0
23595 1812 -1811 1981 2430 0
34213 1812 -1811 1981 -2430 0
36143 1812 -1811 -1981 2430 0
39859 1812 -1811 -1981 -2430 0
858 -1812 1811 1981 2430 0
23981 -1812 1811 1981 -2430 0
28185 -1812 1811 -1981 2430 0
36278 -1812 1811 -1981 -2430 0
23981 -1812 -1811 1981 2430 0
34386 -1812 -1811 1981 -2430 0
36278 -1812 -1811 -1981 2430 0
39920 -1812 -1811 -1981 -2430 0
4750 2591 -1334 0
16150 -2591 1334 0
16862 -2591 -1334 0
36465 -1699 0
22620 1666 2375 -1392 0
22620 1666 -2375 1392 0
31668 1666 -2375 -1392 0
5655 -1666 2375 1392 0
24882 -1666 2375 -1392 0
24882 -1666 -2375 1392 0
32573 -1666 -2375 -1392 0
5148 1020 -1329 0
13728 -1020 1329 0
17229 -1020 -1329 0
12870 1917 2703 1555 -1587 0
17160 1917 2703 -1555 1587 0
24882 1917 2703 -1555 -1587 0
40755 1917 -2703 1555 1587 0
41399 1917 -2703 1555 -1587 0
41613 1917 -2703 -1555 1587 0
41999 1917 -2703 -1555 -1587 0
2145 -1917 2703 1555 1587 0
14372 -1917 2703 1555 -1587 0
18447 -1917 2703 -1555 1587 0
25783 -1917 2703 -1555 -1587 0
40862 -1917 -2703 1555 1587 0
41474 -1917 -2703 1555 -1587 0
41677 -1917 -2703 -1555 1587 0
42044 -1917 -2703 -1555 -1587 0
1984 2276 1078 -2433 0
5890 2276 -1078 2433 0
5989 2276 -1078 -2433 0
4030 -2276 1078 2433 0
4724 -2276 1078 -2433 0
6091 -2276 -1078 2433 0
6126 -2276 -1078 -2433 0
4066 -1167 0
5580 1803 2518 2562 -1826 0
1240 1803 2518 -2562 1826 0
5704 1803 2518 -2562 -1826 0
3720 1803 -2518 2562 1826 0
5952 1803 -2518 2562 -1826 0
4216 1803 -2518 -2562 1826 0
6002 1803 -2518 -2562 -1826 0
2356 -1803 2518 2562 1826 0
5816 -1803 2518 2562 -1826 0
3125 -1803 2518 -2562 1826 0
5892 -1803 2518 -2562 -1826 0
4662 -1803 -2518 2562 1826 0
6046 -1803 -2518 2562 -1826 0
4970 -1803 -2518 -2562 1826 0
6077 -1803 -2518 -2562 -1826 0
19305 1987 1315 2104 -1353 0
16302 1987 1315 -2104 1353 0
28271 1987 1315 -2104 -1353 0
16302 1987 -1315 2104 1353 0
28271 1987 -1315 2104 -1353 0
26409 1987 -1315 -2104 1353 0
33830 1987 -1315 -2104 -1353 0
858 -1987 1315 2104 1353 0
19777 -1987 1315 2104 -1353 0
16834 -1987 1315 -2104 1353 0
28564 -1987 1315 -2104 -1353 0
16834 -1987 -1315 2104 1353 0
28564 -1987 -1315 2104 -1353 0
26739 -1987 -1315 -2104 1353 0
34011 -1987 -1315 -2104 -1353 0
40755 1993 1726 -2505 0
34320 1993 -1726 2505 0
42471 1993 -1726 -2505 0
27885 -1993 1726 2505 0
42149 -1993 1726 -2505 0
39897 -1993 -1726 2505 0
42750 -1993 -1726 -2505 0
3770 -1969 0
11400 894 1920 -834 0
4750 894 -1920 834 0
13300 894 -1920 -834 0
2850 -894 1920 834 0
12540 -894 1920 -834 0
6888 -894 -1920 834 0
14155 -894 -1920 -834 0
1550 1141 1201 -955 0
5580 1141 -1201 955 0
5735 1141 -1201 -955 0
2356 -1141 1201 955 0
3317 -1141 1201 -955 0
5816 -1141 -1201 955 0
5912 -1141 -1201 -955 0
1885 1824 -2571 0
754 -1824 2571 0
2601 -1824 -2571 0
20735 2300 -1393 0
33930 -2300 1393 0
36004 -2300 -1393 0
1926 2094 -842 0
8025 -2094 842 0
8506 -2094 -842 0
1885 -2442 0
7490 1266 -1846 0
4280 -1266 1846 0
8774 -1266 -1846 0
12064 831 2336 -2159 0
30160 831 -2336 2159 0
32573 831 -2336 -2159 0
33930 -831 2336 2159 0
35136 -831 2336 -2159 0
36946 -831 -2336 2159 0
37187 -831 -2336 -2159 0
5350 2168 -2301 0
5350 -2168 2301 0
8025 -2168 -2301 0
3100 1382 913 -2451 0
1116 1382 -913 2451 0
3658 1382 -913 -2451 0
124 -1382 913 2451 0
3162 -1382 913 -2451 0
1218 -1382 -913 2451 0
3709 -1382 -913 -2451 0
7490 2412 -2540 0
5885 -2412 2540 0
9255 -2412 -2540 0
24505 2016 2343 -1578 0
3770 2016 -2343 1578 0
25825 2016 -2343 -1578 0
11310 -2016 2343 1578 0
28463 -2016 2343 -1578 0
13949 -2016 -2343 1578 0
29387 -2016 -2343 -1578 0
4815 2507 -1247 0
1284 -2507 1247 0
5521 -2507 -1247 0
14326 2013 2373 1997 -2525 0
6786 2013 2373 -1997 2525 0
18533 2013 2373 -1997 -2525 0
26390 2013 -2373 1997 2525 0
30688 2013 -2373 1997 -2525 0
28426 2013 -2373 -1997 2525 0
31950 2013 -2373 -1997 -2525 0
20735 -2013 2373 1997 2525 0
27182 -2013 2373 1997 -2525 0
23789 -2013 2373 -1997 2525 0
29075 -2013 2373 -1997 -2525 0
32611 -2013 -2373 1997 2525 0
34545 -2013 -2373 1997 -2525 0
33527 -2013 -2373 -1997 2525 0
35112 -2013 -2373 -1997 -2525 0
1984 2236 2216 -1728 0
5580 2236 -2216 1728 0
5778 2236 -2216 -1728 0
2480 -2236 2216 1728 0
3670 -2236 2216 -1728 0
5828 -2236 -2216 1728 0
5947 -2236 -2216 -1728 0
34320 2285 -1019 0
2145 -2285 1019 0
34749 -2285 -1019 0
5350 1215 -1845 0
8560 -1215 1845 0
9630 -1215 -1845 0
6420 -977 0
1860 1436 1295 -1156 0
2170 1436 -1295 1156 0
3379 1436 -1295 -1156 0
1860 -1436 1295 1156 0
3162 -1436 1295 -1156 0
3379 -1436 -1295 1156 0
4225 -1436 -1295 -1156 0
7220 2419 1636 -1489 0
950 2419 -1636 1489 0
7809 2419 -1636 -1489 0
9500 -2419 1636 1489 0
13110 -2419 1636 -1489 0
9975 -2419 -1636 1489 0
13405 -2419 -1636 -1489 0
10450 2426 -1281 0
7600 -2426 1281 0
13870 -2426 -1281 0
620 1425 1031 -2680 0
5270 1425 -1031 2680 0
5363 1425 -1031 -2680 0
744 -1425 1031 2680 0
1290 -1425 1031 -2680 0
5382 -1425 -1031 2680 0
5463 -1425 -1031 -2680 0
1984 2120 -2458 0
4960 -2120 2458 0
5357 -2120 -2458 0
1860 2499 1874 2690 -2365 0
310 2499 1874 -2690 2365 0
2077 2499 1874 -2690 -2365 0
3720 2499 -1874 2690 2365 0
4464 2499 -1874 2690 -2365 0
3844 2499 -1874 -2690 2365 0
4551 2499 -1874 -2690 -2365 0
930 -2499 1874 2690 2365 0
2511 -2499 1874 2690 -2365 0
1194 -2499 1874 -2690 2365 0
2695 -2499 1874 -2690 -2365 0
4092 -2499 -1874 2690 2365 0
4724 -2499 -1874 2690 -2365 0
4197 -2499 -1874 -2690 2365 0
4798 -2499 -1874 -2690 -2365 0
38610 1676 1232 2066 -2100 0
27885 1676 1232 -2066 2100 0
41399 1676 1232 -2066 -2100 0
32175 1676 -1232 2066 2100 0
41827 1676 -1232 2066 -2100 0
39146 1676 -1232 -2066 2100 0
42525 1676 -1232 -2066 -2100 0
10725 -1676 1232 2066 2100 0
39683 -1676 1232 2066 -2100 0
31639 -1676 1232 -2066 2100 0
41774 -1676 1232 -2066 -2100 0
34856 -1676 -1232 2066 2100 0
42096 -1676 -1232 2066 -2100 0
40085 -1676 -1232 -2066 2100 0
42618 -1676 -1232 -2066 -2100 0
28275 -2235 0
5580 2047 1069 -941 0
3410 2047 -1069 941 0
5921 2047 -1069 -941 0
1116 -2047 1069 941 0
5692 -2047 1069 -941 0
3912 -2047 -1069 941 0
5971 -2047 -1069 -941 0
4290 1800 2200 1217 -1867 0
32175 1800 2200 -1217 1867 0
33248 1800 2200 -1217 -1867 0
36465 1800 -2200 1217 1867 0
37108 1800 -2200 1217 -1867 0
41291 1800 -2200 -1217 1867 0
41452 1800 -2200 -1217 -1867 0
8580 -1800 2200 1217 1867 0
12012 -1800 2200 1217 -1867 0
34320 -1800 2200 -1217 1867 0
35178 -1800 2200 -1217 -1867 0
37752 -1800 -2200 1217 1867 0
38267 -1800 -2200 1217 -1867 0
41613 -1800 -2200 -1217 1867 0
41742 -1800 -2200 -1217 -1867 0
10725 1579 807 2352 -2488 0
38610 1579 807 -2352 2488 0
39683 1579 807 -2352 -2488 0
25740 1579 -807 2352 2488 0
30030 1579 -807 2352 -2488 0
41184 1579 -807 -2352 2488 0
41613 1579 -807 -2352 -2488 0
19305 -1579 807 2352 2488 0
25204 -1579 807 2352 -2488 0
40541 -1579 807 -2352 2488 0
41130 -1579 807 -2352 -2488 0
33462 -1579 -807 2352 2488 0
35821 -1579 -807 2352 -2488 0
41956 -1579 -807 -2352 2488 0
42192 -1579 -807 -2352 -2488 0
9500 2716 -1972 0
12350 -2716 1972 0
15675 -2716 -1972 0
4030 1150 -1305 0
1984 -1150 1305 0
4724 -1150 -1305 0
3800 1998 1164 944 -1322 0
12350 1998 1164 -944 1322 0
13680 1998 1164 -944 -1322 0
7220 1998 -1164 944 1322 0
9576 1998 -1164 944 -1322 0
14877 1998 -1164 -944 1322 0
15702 1998 -1164 -944 -1322 0
16150 -1998 1164 944 1322 0
16720 -1998 1164 944 -1322 0
18003 -1998 1164 -944 1322 0
18202 -1998 1164 -944 -1322 0
17233 -1998 -1164 944 1322 0
17586 -1998 -1164 944 -1322 0
18382 -1998 -1164 -944 1322 0
18505 -1998 -1164 -944 -1322 0
7722 860 -1640 0
21450 -860 1640 0
25311 -860 -1640 0
2850 864 1949 2539 -2026 0
2280 864 1949 -2539 2026 0
4788 864 1949 -2539 -2026 0
1900 864 -1949 2539 2026 0
4465 864 -1949 2539 -2026 0
3952 864 -1949 -2539 2026 0
6209 864 -1949 -2539 -2026 0
14250 -864 1949 2539 2026 0
14962 -864 1949 2539 -2026 0
14820 -864 1949 -2539 2026 0
15447 -864 1949 -2539 -2026 0
14725 -864 -1949 2539 2026 0
15366 -864 -1949 2539 -2026 0
15238 -864 -1949 -2539 2026 0
15802 -864 -1949 -2539 -2026 0
9630 2174 2497 -2259 0
4815 2174 -2497 2259 0
10112 2174 -2497 -2259 0
3424 -2174 2497 2259 0
9972 -2174 2497 -2259 0
6698 -2174 -2497 2259 0
10300 -2174 -2497 -2259 0
3770 1091 -942 0
18850 -1091 942 0
20735 -1091 -942 0
6435 -2486 0
5148 2572 -2025 0
10725 -2572 2025 0
14586 -2572 -2025 0
10725 2249 2146 -1834 0
25740 2249 -2146 1834 0
30030 2249 -2146 -1834 0
4290 -2249 2146 1834 0
13942 -2249 2146 -1834 0
27456 -2249 -2146 1834 0
31317 -2249 -2146 -1834 0
32175 1118 -1472 0
21450 -1118 1472 0
37538 -1118 -1472 0
7490 2139 1638 -1508 0
7490 2139 -1638 1508 0
9737 2139 -1638 -1508 0
5350 -2139 1638 1508 0
9095 -2139 1638 -1508 0
9095 -2139 -1638 1508 0
10219 -2139 -1638 -1508 0
2790 1627 -1210 0
1550 -1627 1210 0
3642 -1627 -1210 0
4960 2201 -1015 0
2790 -2201 1015 0
5518 -2201 -1015 0
950 1307 1598 -1882 0
1900 1307 -1598 1882 0
2755 1307 -1598 -1882 0
7600 -1307 1598 1882 0
8170 -1307 1598 -1882 0
8740 -1307 -1598 1882 0
9253 -1307 -1598 -1882 0
124 1624 -1216 0
4650 -1624 1216 0
4681 -1624 -1216 0
950 2115 -1804 0
3420 -2115 1804 0
4199 -2115 -1804 0
33930 1857 2423 -2136 0
14326 1857 -2423 2136 0
35363 1857 -2423 -2136 0
15080 -1857 2423 2136 0
35438 -1857 2423 -2136 0
23676 -1857 -2423 2136 0
36298 -1857 -2423 -2136 0
34320 1764 2108 -1562 0
34320 1764 -2108 1562 0
41184 1764 -2108 -1562 0
34320 -1764 2108 1562 0
41184 -1764 2108 -1562 0
41184 -1764 -2108 1562 0
42557 -1764 -2108 -1562 0
8025 836 -2107 0
1070 -836 2107 0
8292 -836 -2107 0
23595 2702 2608 1224 -1113 0
40755 2702 2608 -1224 1113 0
41935 2702 2608 -1224 -1113 0
25740 2702 -2608 1224 1113 0
35178 2702 -2608 1224 -1113 0
42042 2702 -2608 -1224 1113 0
42514 2702 -2608 -1224 -1113 0
10725 -2702 2608 1224 1113 0
28421 -2702 2608 1224 -1113 0
41291 -2702 2608 -1224 1113 0
42176 -2702 2608 -1224 -1113 0
30030 -2702 -2608 1224 1113 0
37108 -2702 -2608 1224 -1113 0
42256 -2702 -2608 -1224 1113 0
42610 -2702 -2608 -1224 -1113 0
12064 1876 2388 -1194 0
33930 1876 -2388 1194 0
35136 1876 -2388 -1194 0
9425 -1876 2388 1194 0
18473 -1876 2388 -1194 0
34873 -1876 -2388 1194 0
35777 -1876 -2388 -1194 0
1070 2517 -1788 0
1070 -2517 1788 0
2033 -2517 -1788 0
4280 1570 1416 2418 -1952 0
10165 1570 1416 -2418 1952 0
10379 1570 1416 -2418 -1952 0
8025 1570 -1416 2418 1952 0
9095 1570 -1416 2418 -1952 0
10566 1570 -1416 -2418 1952 0
10620 1570 -1416 -2418 -1952 0
10165 -1570 1416 2418 1952 0
10379 -1570 1416 2418 -1952 0
10673 -1570 1416 -2418 1952 0
10684 -1570 1416 -2418 -1952 0
10566 -1570 -1416 2418 1952 0
10620 -1570 -1416 2418 -1952 0
10693 -1570 -1416 -2418 1952 0
10696 -1570 -1416 -2418 -1952 0
7220 -1727 0
3800 -1531 0
23595 -2318 0
8550 1159 1068 -2531 0
8550 1159 -1068 2531 0
13253 1159 -1068 -2531 0
14250 -1159 1068 2531 0
16388 -1159 1068 -2531 0
16388 -1159 -1068 2531 0
17563 -1159 -1068 -2531 0
36465 1653 -1625 0
38610 -1653 1625 0
42256 -1653 -1625 0
1240 1348 -2213 0
5270 -1348 2213 0
5456 -1348 -2213 0
9630 1793 -2607 0
1605 -1793 2607 0
9791 -1793 -2607 0
380 2283 1678 -1038 0
3800 2283 -1678 1038 0
4104 2283 -1678 -1038 0
9500 -2283 1678 1038 0
9690 -2283 1678 -1038 0
11400 -2283 -1678 1038 0
11552 -2283 -1678 -1038 0
8025 1964 1434 2708 -2532 0
2675 1964 1434 -2708 2532 0
8694 1964 1434 -2708 -2532 0
2675 1964 -1434 2708 2532 0
8694 1964 -1434 2708 -2532 0
4681 1964 -1434 -2708 2532 0
9195 1964 -1434 -2708 -2532 0
5350 -1964 1434 2708 2532 0
9362 -1964 1434 2708 -2532 0
6688 -1964 1434 -2708 2532 0
9697 -1964 1434 -2708 -2532 0
6688 -1964 -1434 2708 2532 0
9697 -1964 -1434 2708 -2532 0
7691 -1964 -1434 -2708 2532 0
9948 -1964 -1434 -2708 -2532 0
36465 936 -937 0
4290 -936 937 0
37108 -936 -937 0
1900 2204 1270 1844 -2580 0
7600 2204 1270 -1844 2580 0
8740 2204 1270 -1844 -2580 0
12350 2204 -1270 1844 2580 0
13015 2204 -1270 1844 -2580 0
15010 2204 -1270 -1844 2580 0
15409 2204 -1270 -1844 -2580 0
18050 -2204 1270 1844 2580 0
18145 -2204 1270 1844 -2580 0
18430 -2204 1270 -1844 2580 0
18487 -2204 1270 -1844 -2580 0
18667 -2204 -1270 1844 2580 0
18701 -2204 -1270 1844 -2580 0
18800 -2204 -1270 -1844 2580 0
18820 -2204 -1270 -1844 -2580 0
10450 2064 -1264 0
3800 -2064 1264 0
12160 -2064 -1264 0
33930 2129 -2273 0
11310 -2129 2273 0
35061 -2129 -2273 0
4960 -2633 0
6420 1662 2002 -1259 0
3210 1662 -2002 1259 0
7704 1662 -2002 -1259 0
2675 -1662 2002 1259 0
7490 -1662 2002 -1259 0
5083 -1662 -2002 1259 0
8453 -1662 -2002 -1259 0
9500 1146 1768 -1470 0
10450 1146 -1768 1470 0
14725 1146 -1768 -1470 0
12350 -1146 1768 1470 0
15675 -1146 1768 -1470 0
16008 -1146 -1768 1470 0
17504 -1146 -1768 -1470 0
7540 -2359 0
3800 1608 1546 1786 -1241 0
11400 1608 1546 -1786 1241 0
12920 1608 1546 -1786 -1241 0
3420 1608 -1546 1786 1241 0
6536 1608 -1546 1786 -1241 0
12768 1608 -1546 -1786 1241 0
14014 1608 -1546 -1786 -1241 0
18050 -1608 1546 1786 1241 0
18240 -1608 1546 1786 -1241 0
18620 -1608 1546 -1786 1241 0
18696 -1608 1546 -1786 -1241 0
18221 -1608 -1546 1786 1241 0
18377 -1608 -1546 1786 -1241 0
18688 -1608 -1546 -1786 1241 0
18751 -1608 -1546 -1786 -1241 0
5885 1980 -2270 0
4066 -1980 2270 0
7715 -1980 -2270 0
5148 2265 -1460 0
6435 -2265 1460 0
10811 -2265 -1460 0
15080 2668 1837 -916 0
22620 2668 -1837 916 0
28652 2668 -1837 -916 0
6786 -2668 1837 916 0
19152 -2668 1837 -916 0
25334 -2668 -1837 916 0
30281 -2668 -1837 -916 0
15015 1522 1985 1243 -1344 0
21450 1522 1985 -1243 1344 0
28958 1522 1985 -1243 -1344 0
15015 1522 -1985 1243 1344 0
24775 1522 -1985 1243 -1344 0
28958 1522 -1985 -1243 1344 0
33837 1522 -1985 -1243 -1344 0
21450 -1522 1985 1243 1344 0
28958 -1522 1985 1243 -1344 0
32175 -1522 1985 -1243 1344 0
35929 -1522 1985 -1243 -1344 0
28958 -1522 -1985 1243 1344 0
33837 -1522 -1985 1243 -1344 0
35929 -1522 -1985 -1243 1344 0
38369 -1522 -1985 -1243 -1344 0
744 -2177 0
24505 1652 2046 1806 -1325 0
30160 1652 2046 -1806 1325 0
35061 1652 2046 -1806 -1325 0
13195 1652 -2046 1806 1325 0
29123 1652 -2046 1806 -1325 0
32799 1652 -2046 -1806 1325 0
35985 1652 -2046 -1806 -1325 0
13195 -1652 2046 1806 1325 0
29123 -1652 2046 1806 -1325 0
32799 -1652 2046 -1806 1325 0
35985 -1652 2046 -1806 -1325 0
21772 -1652 -2046 1806 1325 0
32125 -1652 -2046 1806 -1325 0
34514 -1652 -2046 -1806 1325 0
36585 -1652 -2046 -1806 -1325 0
25740 -989 0
11310 1908 1765 1186 -1443 0
5655 1908 1765 -1186 1443 0
15269 1908 1765 -1186 -1443 0
32045 1908 -1765 1186 1443 0
33742 1908 -1765 1186 -1443 0
32893 1908 -1765 -1186 1443 0
34335 1908 -1765 -1186 -1443 0
15080 -1908 1765 1186 1443 0
21866 -1908 1765 1186 -1443 0
18473 -1908 1765 -1186 1443 0
24241 -1908 1765 -1186 -1443 0
34307 -1908 -1765 1186 1443 0
35325 -1908 -1765 1186 -1443 0
34816 -1908 -1765 -1186 1443 0
35681 -1908 -1765 -1186 -1443 0
26390 -1532 0
28275 1529 -1032 0
754 -1529 1032 0
28463 -1529 -1032 0
13300 815 1280 2322 -2596 0
13300 815 1280 -2322 2596 0
17290 815 1280 -2322 -2596 0
14250 815 -1280 2322 2596 0
17575 815 -1280 2322 -2596 0
17575 815 -1280 -2322 2596 0
18572 815 -1280 -2322 -2596 0
6080 -815 1280 2322 2596 0
15124 -815 1280 2322 -2596 0
15124 -815 1280 -2322 2596 0
17837 -815 1280 -2322 -2596 0
15770 -815 -1280 2322 2596 0
18031 -815 -1280 2322 -2596 0
18031 -815 -1280 -2322 2596 0
18709 -815 -1280 -2322 -2596 0
3770 2019 986 1421 -1538 0
13195 2019 986 -1421 1538 0
15645 2019 986 -1421 -1538 0
18850 2019 -986 1421 1538 0
20735 2019 -986 1421 -1538 0
25448 2019 -986 -1421 1538 0
26673 2019 -986 -1421 -1538 0
30160 -2019 986 1421 1538 0
30914 -2019 986 1421 -1538 0
32799 -2019 986 -1421 1538 0
33289 -2019 986 -1421 -1538 0
33930 -2019 -986 1421 1538 0
34307 -2019 -986 1421 -1538 0
35250 -2019 -986 -1421 1538 0
35495 -2019 -986 -1421 -1538 0
4524 -2253 0
858 2192 2088 -1114 0
6435 2192 -2088 1114 0
7164 2192 -2088 -1114 0
19305 -2192 2088 1114 0
19777 -2192 2088 -1114 0
22844 -2192 -2088 1114 0
23245 -2192 -2088 -1114 0
4750 -909 0
15200 2239 2512 2175 -1049 0
950 2239 2512 -2175 1049 0
15390 2239 2512 -2175 -1049 0
7600 2239 -2512 2175 1049 0
16720 2239 -2512 2175 -1049 0
8170 2239 -2512 -2175 1049 0
16834 2239 -2512 -2175 -1049 0
7220 -2239 2512 2175 1049 0
16644 -2239 2512 2175 -1049 0
7809 -2239 2512 -2175 1049 0
16762 -2239 2512 -2175 -1049 0
11932 -2239 -2512 2175 1049 0
17586 -2239 -2512 2175 -1049 0
12285 -2239 -2512 -2175 1049 0
17657 -2239 -2512 -2175 -1049 0
16302 1189 987 1655 -1445 0
19305 1189 987 -1655 1445 0
28271 1189 987 -1655 -1445 0
21450 1189 -987 1655 1445 0
29601 1189 -987 1655 -1445 0
31102 1189 -987 -1655 1445 0
35586 1189 -987 -1655 -1445 0
15015 -1189 987 1655 1445 0
25611 -1189 987 1655 -1445 0
27563 -1189 987 -1655 1445 0
33391 -1189 987 -1655 -1445 0
28958 -1189 -987 1655 1445 0
34256 -1189 -987 1655 -1445 0
35232 -1189 -987 -1655 1445 0
38146 -1189 -987 -1655 -1445 0
17100 2099 -854 0
11400 -2099 854 0
18240 -2099 -854 0
620 -981 0
24505 1957 1358 960 -1973 0
20735 1957 1358 -960 1973 0
31762 1957 1358 -960 -1973 0
7540 1957 -1358 960 1973 0
27144 1957 -1358 960 -1973 0
24128 1957 -1358 -960 1973 0
32950 1957 -1358 -960 -1973 0
15080 -1957 1358 960 1973 0
29783 -1957 1358 960 -1973 0
27521 -1957 1358 -960 1973 0
34137 -1957 1358 -960 -1973 0
19604 -1957 -1358 960 1973 0
31366 -1957 -1358 960 -1973 0
29557 -1957 -1358 -960 1973 0
34850 -1957 -1358 -960 -1973 0
20735 906 1330 -1108 0
28275 906 -1330 1108 0
33459 906 -1330 -1108 0
13195 -906 1330 1108 0
26673 -906 1330 -1108 0
31574 -906 -1330 1108 0
34943 -906 -1330 -1108 0
4280 1901 -808 0
7490 -1901 808 0
8774 -1901 -808 0
3720 1286 -1631 0
1984 -1286 1631 0
4514 -1286 -1631 0
3210 2453 2257 -1432 0
1926 2453 -2257 1432 0
4558 2453 -2257 -1432 0
4815 -2453 2257 1432 0
6580 -2453 2257 -1432 0
5874 -2453 -2257 1432 0
7322 -2453 -2257 -1432 0
4750 -2056 0
5655 1318 829 -2280 0
6786 1318 -829 2280 0
11423 1318 -829 -2280 0
11310 -1318 829 2280 0
15269 -1318 829 -2280 0
16060 -1318 -829 2280 0
19306 -1318 -829 -2280 0
13300 982 961 2510 -2096 0
6080 982 961 -2510 2096 0
15124 982 961 -2510 -2096 0
380 982 -961 2510 2096 0
13414 982 -961 2510 -2096 0
6338 982 -961 -2510 2096 0
15202 982 -961 -2510 -2096 0
2850 -982 961 2510 2096 0
14155 -982 961 2510 -2096 0
8018 -982 961 -2510 2096 0
15705 -982 961 -2510 -2096 0
3173 -982 -961 2510 2096 0
14252 -982 -961 2510 -2096 0
8238 -982 -961 -2510 2096 0
15771 -982 -961 -2510 -2096 0
35815 1724 -1319 0
18850 -1724 1319 0
36757 -1724 -1319 0
4960 -1929 0
38610 2212 1979 2604 -950 0
25740 2212 1979 -2604 950 0
41184 2212 1979 -2604 -950 0
4290 2212 -1979 2604 950 0
39039 2212 -1979 2604 -950 0
27456 2212 -1979 -2604 950 0
41356 2212 -1979 -2604 -950 0
38610 -2212 1979 2604 950 0
42471 -2212 1979 2604 -950 0
41184 -2212 1979 -2604 950 0
42728 -2212 1979 -2604 -950 0
39039 -2212 -1979 2604 950 0
42514 -2212 -1979 2604 -950 0
41356 -2212 -1979 -2604 950 0
42746 -2212 -1979 -2604 -950 0
3210 1878 -1397 0
9630 -1878 1397 0
9951 -1878 -1397 0
2850 -1183 0
3210 1767 1635 2393 -1838 0
5885 1767 1635 -2393 1838 0
7330 1767 1635 -2393 -1838 0
3210 1767 -1635 2393 1838 0
5457 1767 -1635 2393 -1838 0
7330 1767 -1635 -2393 1838 0
8341 1767 -1635 -2393 -1838 0
3210 -1767 1635 2393 1838 0
5457 -1767 1635 2393 -1838 0
7330 -1767 1635 -2393 1838 0
8341 -1767 1635 -2393 -1838 0
5457 -1767 -1635 2393 1838 0
7030 -1767 -1635 2393 -1838 0
8341 -1767 -1635 -2393 1838 0
9048 -1767 -1635 -2393 -1838 0
3420 2643 1988 2468 -2243 0
15200 2643 1988 -2468 2243 0
15884 2643 1988 -2468 -2243 0
6080 2643 -1988 2468 2243 0
8406 2643 -1988 2468 -2243 0
16416 2643 -1988 -2468 2243 0
16881 2643 -1988 -2468 -2243 0
8550 -2643 1988 2468 2243 0
10431 -2643 1988 2468 -2243 0
16910 -2643 1988 -2468 2243 0
17286 -2643 1988 -2468 -2243 0
11894 -2643 -1988 2468 2243 0
13173 -2643 -1988 2468 -2243 0
17579 -2643 -1988 -2468 2243 0
17835 -2643 -1988 -2468 -2243 0
4815 2380 -1741 0
535 -2380 1741 0
5109 -2380 -1741 0
4280 1926 -1675 0
4280 -1926 1675 0
6848 -1926 -1675 0
4066 -1959 0
8550 1875 2547 -1135 0
4750 1875 -2547 1135 0
11162 1875 -2547 -1135 0
950 -1875 2547 1135 0
9073 -1875 2547 -1135 0
5463 -1875 -2547 1135 0
11554 -1875 -2547 -1135 0
6650 -1179 0
21450 -2142 0
1984 -850 0
3100 802 1753 -1316 0
2790 802 -1753 1316 0
4495 802 -1753 -1316 0
310 -802 1753 1316 0
3255 -802 1753 -1316 0
2961 -802 -1753 1316 0
4580 -802 -1753 -1316 0
38610 2126 -1178 0
5148 -2126 1178 0
39125 -2126 -1178 0
380 2274 2450 -2675 0
9500 2274 -2450 2675 0
9690 2274 -2450 -2675 0
15200 -2274 2450 2675 0
15276 -2274 2450 -2675 0
17100 -2274 -2450 2675 0
17138 -2274 -2450 -2675 0
13728 -1361 0
17100 803 1704 1748 -1446 0
5700 803 1704 -1748 1446 0
17670 803 1704 -1748 -1446 0
6650 803 -1704 1748 1446 0
17765 803 -1704 1748 -1446 0
10355 803 -1704 -1748 1446 0
18135 803 -1704 -1748 -1446 0
3800 -803 1704 1748 1446 0
17480 -803 1704 1748 -1446 0
8360 -803 1704 -1748 1446 0
17936 -803 1704 -1748 -1446 0
9120 -803 -1704 1748 1446 0
18012 -803 -1704 1748 -1446 0
12084 -803 -1704 -1748 1446 0
18308 -803 -1704 -1748 -1446 0
754 1440 1946 -2127 0
9425 1440 -1946 2127 0
9991 1440 -1946 -2127 0
35815 -1440 1946 2127 0
35853 -1440 1946 -2127 0
36286 -1440 -1946 2127 0
36315 -1440 -1946 -2127 0
14250 1581 -2117 0
7600 -1581 2117 0
16150 -1581 -2117 0
4524 2163 -1386 0
22620 -2163 1386 0
24430 -2163 -1386 0
4340 2166 1390 1617 -2248 0
3720 2166 1390 -1617 2248 0
5456 2166 1390 -1617 -2248 0
4960 2166 -1390 1617 2248 0
5828 2166 -1390 1617 -2248 0
5704 2166 -1390 -1617 2248 0
6051 2166 -1390 -1617 -2248 0
3410 -2166 1390 1617 2248 0
5363 -2166 1390 1617 -2248 0
5084 -2166 1390 -1617 2248 0
5865 -2166 1390 -1617 -2248 0
5642 -2166 -1390 1617 2248 0
6033 -2166 -1390 1617 -2248 0
5977 -2166 -1390 -1617 2248 0
6133 -2166 -1390 -1617 -2248 0
7490 2548 -1497 0
3210 -2548 1497 0
8453 -2548 -1497 0
2145 1778 -1371 0
6435 -1778 1371 0
8258 -1778 -1371 0
6420 -1395 0
19305 1452 -2379 0
13728 -1452 2379 0
26855 -1452 -2379 0
27885 -1763 0
13728 963 -2569 0
27885 -963 2569 0
32690 -963 -2569 0
1116 1836 -2356 0
4650 -1836 2356 0
4929 -1836 -2356 0
35815 2278 1791 2425 -2051 0
24505 2278 1791 -2425 2051 0
37040 2278 1791 -2425 -2051 0
754 2278 -1791 2425 2051 0
35853 2278 -1791 2425 -2051 0
24769 2278 -1791 -2425 2051 0
37053 2278 -1791 -2425 -2051 0
20735 -2278 1791 2425 2051 0
36852 -2278 1791 2425 -2051 0
31762 -2278 1791 -2425 2051 0
37403 -2278 1791 -2425 -2051 0
21074 -2278 -1791 2425 2051 0
36869 -2278 -1791 2425 -2051 0
31881 -2278 -1791 -2425 2051 0
37409 -2278 -1791 -2425 -2051 0
4960 2409 2020 -2180 0
3410 2409 -2020 2180 0
5642 2409 -2020 -2180 0
5580 -2409 2020 2180 0
6076 -2409 2020 -2180 0
5921 -2409 -2020 2180 0
6144 -2409 -2020 -2180 0
25740 1506 1229 -2581 0
25740 1506 -1229 2581 0
36036 1506 -1229 -2581 0
8580 -1506 1229 2581 0
29172 -1506 1229 -2581 0
29172 -1506 -1229 2581 0
37409 -1506 -1229 -2581 0
2145 -2103 0
1900 -1012 0
5655 1601 -1755 0
1885 -1601 1755 0
7257 -1601 -1755 0
2356 2619 2605 -2158 0
1984 2619 -2605 2158 0
3586 2619 -2605 -2158 0
1860 -2619 2605 2158 0
3509 -2619 2605 -2158 0
3249 -2619 -2605 2158 0
4370 -2619 -2605 -2158 0
10725 2667 -2130 0
12870 -2667 2130 0
20378 -2667 -2130 0
20735 1889 -1377 0
1885 -1889 1377 0
21583 -1889 -1377 0
14250 -1170 0
754 -2482 0
3720 2138 2477 -2563 0
2790 2138 -2477 2563 0
4836 2138 -2477 -2563 0
1550 -2138 2477 2563 0
4340 -2138 2477 -2563 0
3642 -2138 -2477 2563 0
5177 -2138 -2477 -2563 0
6435 1733 -2625 0
21450 -1733 2625 0
24667 -1733 -2625 0
24505 1742 1369 -1285 0
35815 1742 -1369 1285 0
37040 1742 -1369 -1285 0
1885 -1742 1369 1285 0
25165 -1742 1369 -1285 0
35909 -1742 -1369 1285 0
37073 -1742 -1369 -1285 0
13300 1923 1294 1692 -1519 0
14250 1923 1294 -1692 1519 0
17575 1923 1294 -1692 -1519 0
10450 1923 -1294 1692 1519 0
16435 1923 -1294 1692 -1519 0
16862 1923 -1294 -1692 1519 0
18359 1923 -1294 -1692 -1519 0
14250 -1923 1294 1692 1519 0
17575 -1923 1294 1692 -1519 0
17812 -1923 1294 -1692 1519 0
18644 -1923 1294 -1692 -1519 0
16862 -1923 -1294 1692 1519 0
18359 -1923 -1294 1692 -1519 0
18466 -1923 -1294 -1692 1519 0
18840 -1923 -1294 -1692 -1519 0
744 -1160 0
7722 1341 1387 -2661 0
15015 1341 -1387 2661 0
20034 1341 -1387 -2661 0
2145 -1341 1387 2661 0
9481 -1341 1387 -2661 0
16409 -1341 -1387 2661 0
21178 -1341 -1387 -2661 0
18050 1365 -2071 0
15200 -1365 2071 0
18810 -1365 -2071 0
8025 1430 2707 -1021 0
214 1430 -2707 1021 0
8078 1430 -2707 -1021 0
2675 -1430 2707 1021 0
8694 -1430 2707 -1021 0
2836 -1430 -2707 1021 0
8734 -1430 -2707 -1021 0
20735 2067 2030 -1468 0
13195 2067 -2030 1468 0
26673 2067 -2030 -1468 0
6786 -2067 2030 1468 0
23789 -2067 2030 -1468 0
17606 -2067 -2030 1468 0
28658 -2067 -2030 -1468 0
18850 -2687 0
5655 1521 1401 -2530 0
6786 1521 -1401 2530 0
11423 1521 -1401 -2530 0
24505 -1521 1401 2530 0
26484 -1521 1401 -2530 0
26880 -1521 -1401 2530 0
28503 -1521 -1401 -2530 0
33930 2293 1607 1166 -2170 0
24505 2293 1607 -1166 2170 0
36381 2293 1607 -1166 -2170 0
9425 2293 -1607 1166 2170 0
34873 2293 -1607 1166 -2170 0
27804 2293 -1607 -1166 2170 0
36710 2293 -1607 -1166 -2170 0
22620 -2293 1607 1166 2170 0
36192 -2293 1607 1166 -2170 0
32422 -2293 1607 -1166 2170 0
37172 -2293 1607 -1166 -2170 0
26390 -2293 -1607 1166 2170 0
36569 -2293 -1607 1166 -2170 0
33742 -2293 -1607 -1166 2170 0
37304 -2293 -1607 -1166 -2170 0
5350 919 1518 -882 0
5350 919 -1518 882 0
8025 919 -1518 -882 0
3210 -919 1518 882 0
6955 -919 1518 -882 0
6955 -919 -1518 882 0
8827 -919 -1518 -882 0
3720 -1568 0
930 1916 -1309 0
2356 -1916 1309 0
2933 -1916 -1309 0
4290 967 2698 -1151 0
30030 967 -2698 1151 0
31317 967 -2698 -1151 0
27885 -967 2698 1151 0
29387 -967 2698 -1151 0
38395 -967 -2698 1151 0
38846 -967 -2698 -1151 0
8560 1441 1022 1701 -2462 0
2140 1441 1022 -1701 2462 0
8988 1441 1022 -1701 -2462 0
6955 1441 -1022 1701 2462 0
9951 1441 -1022 1701 -2462 0
7704 1441 -1022 -1701 2462 0
10101 1441 -1022 -1701 -2462 0
7490 -1441 1022 1701 2462 0
10058 -1441 1022 1701 -2462 0
8132 -1441 1022 -1701 2462 0
10186 -1441 1022 -1701 -2462 0
9577 -1441 -1022 1701 2462 0
10475 -1441 -1022 1701 -2462 0
9801 -1441 -1022 -1701 2462 0
10520 -1441 -1022 -1701 -2462 0
1605 -1081 0
2850 1262 1100 -1349 0
4750 1262 -1100 1349 0
6888 1262 -1100 -1349 0
6650 -1262 1100 1349 0
8503 -1262 1100 -1349 0
9737 -1262 -1100 1349 0
11127 -1262 -1100 -1349 0
9630 1694 -1507 0
535 -1694 1507 0
9684 -1694 -1507 0
1240 -1120 0
32175 1451 949 805 -2264 0
15015 1451 949 -805 2264 0
35929 1451 949 -805 -2264 0
38610 1451 -949 805 2264 0
41827 1451 -949 805 -2264 0
40112 1451 -949 -805 2264 0
42203 1451 -949 -805 -2264 0
21450 -1451 949 805 2264 0
37538 -1451 949 805 -2264 0
28958 -1451 949 -805 2264 0
39414 -1451 949 -805 -2264 0
40755 -1451 -949 805 2264 0
42364 -1451 -949 805 -2264 0
41506 -1451 -949 -805 2264 0
42551 -1451 -949 -805 -2264 0
2850 880 1543 -2546 0
950 880 -1543 2546 0
3658 880 -1543 -2546 0
14250 -880 1543 2546 0
14962 -880 1543 -2546 0
14488 -880 -1543 2546 0
15164 -880 -1543 -2546 0
11310 2143 -2310 0
32045 -2143 2310 0
33742 -2143 -2310 0
1116 -1453 0
2280 2347 2001 2471 -2238 0
7600 2347 2001 -2471 2238 0
8968 2347 2001 -2471 -2238 0
2850 2347 -2001 2471 2238 0
4788 2347 -2001 2471 -2238 0
9310 2347 -2001 -2471 2238 0
10473 2347 -2001 -2471 -2238 0
3800 -2347 2001 2471 2238 0
5624 -2347 2001 2471 -2238 0
9880 -2347 2001 -2471 2238 0
10974 -2347 2001 -2471 -2238 0
6080 -2347 -2001 2471 2238 0
7630 -2347 -2001 2471 -2238 0
11248 -2347 -2001 -2471 2238 0
12178 -2347 -2001 -2471 -2238 0
16302 889 1131 -2689 0
13728 889 -1131 2689 0
24813 889 -1131 -2689 0
16302 -889 1131 2689 0
26409 -889 1131 -2689 0
24813 -889 -1131 2689 0
31686 -889 -1131 -2689 0
27885 1583 956 -1822 0
5148 1583 -956 1822 0
29687 1583 -956 -1822 0
10725 -1583 956 1822 0
31639 -1583 956 -1822 0
14586 -1583 -956 1822 0
32990 -1583 -956 -1822 0
4340 1535 -2349 0
2790 -1535 2349 0
5177 -1535 -2349 0
13300 1820 1409 -1028 0
18050 1820 -1409 1028 0
18715 1820 -1409 -1028 0
18050 -1820 1409 1028 0
18715 -1820 1409 -1028 0
18952 -1820 -1409 1028 0
18986 -1820 -1409 -1028 0
1984 2198 1165 1211 -1310 0
4340 2198 1165 -1211 1310 0
4935 2198 1165 -1211 -1310 0
2170 2198 -1165 1211 1310 0
3460 2198 -1165 1211 -1310 0
4991 2198 -1165 -1211 1310 0
5378 2198 -1165 -1211 -1310 0
1116 -2198 1165 1211 1310 0
2743 -2198 1165 1211 -1310 0
4675 -2198 1165 -1211 1310 0
5163 -2198 1165 -1211 -1310 0
2895 -2198 -1165 1211 1310 0
3953 -2198 -1165 1211 -1310 0
5209 -2198 -1165 -1211 1310 0
5526 -2198 -1165 -1211 -1310 0
8560 -1052 0
6955 2447 -2312 0
214 -2447 2312 0
7030 -2447 -2312 0
7722 1152 -1659 0
17160 -1152 1659 0
21793 -1152 -1659 0
10725 2075 -2111 0
21450 -2075 2111 0
26812 -2075 -2111 0
34320 2514 1983 -2578 0
32175 2514 -1983 2578 0
40755 2514 -1983 -2578 0
34320 -2514 1983 2578 0
41184 -2514 1983 -2578 0
40755 -2514 -1983 2578 0
42471 -2514 -1983 -2578 0
1284 1258 1595 2467 -1977 0
9095 1258 1595 -2467 1977 0
9288 1258 1595 -2467 -1977 0
214 1258 -1595 2467 1977 0
1472 1258 -1595 2467 -1977 0
9127 1258 -1595 -2467 1977 0
9316 1258 -1595 -2467 -1977 0
1605 -1258 1595 2467 1977 0
2696 -1258 1595 2467 -1977 0
9336 -1258 1595 -2467 1977 0
9499 -1258 1595 -2467 -1977 0
1787 -1258 -1595 2467 1977 0
2856 -1258 -1595 2467 -1977 0
9363 -1258 -1595 -2467 1977 0
9523 -1258 -1595 -2467 -1977 0
20735 1254 -2229 0
35815 -1254 2229 0
36852 -1254 -2229 0
2850 832 1105 -2251 0
6650 832 -1105 2251 0
8503 832 -1105 -2251 0
10450 -832 1105 2251 0
11733 -832 1105 -2251 0
13443 -832 -1105 2251 0
14276 -832 -1105 -2251 0
754 2134 -2211 0
24505 -2134 2211 0
24769 -2134 -2211 0
25740 2472 2483 -2230 0
8580 2472 -2483 2230 0
29172 2472 -2483 -2230 0
34320 -2472 2483 2230 0
39468 -2472 2483 -2230 0
36036 -2472 -2483 2230 0
40154 -2472 -2483 -2230 0
34320 1695 -993 0
4290 -1695 993 0
35178 -1695 -993 0
7490 1924 2232 -994 0
3745 1924 -2232 994 0
8613 1924 -2232 -994 0
8025 -1924 2232 994 0
9898 -1924 2232 -994 0
8961 -1924 -2232 994 0
10178 -1924 -2232 -994 0
4280 1067 1218 -1759 0
5885 1067 -1218 1759 0
7811 1067 -1218 -1759 0
5350 -1067 1218 1759 0
7490 -1067 1218 -1759 0
8292 -1067 -1218 1759 0
9255 -1067 -1218 -1759 0
930 2686 1428 -1499 0
3410 2686 -1428 1499 0
3829 2686 -1428 -1499 0
3410 -2686 1428 1499 0
3829 -2686 1428 -1499 0
4945 -2686 -1428 1499 0
5133 -2686 -1428 -1499 0
2145 2315 -1256 0
21450 -2315 1256 0
22523 -2315 -1256 0
1116 1202 -1565 0
4340 -1202 1565 0
4675 -1202 -1565 0
14250 1895 -1385 0
2850 -1895 1385 0
14962 -1895 -1385 0
3100 1502 -966 0
3720 -1502 966 0
4960 -1502 -966 0
17160 2445 -1723 0
34320 -2445 1723 0
37752 -2445 -1723 0
20735 1809 1511 -914 0
22620 1809 -1511 914 0
30914 1809 -1511 -914 0
20735 -1809 1511 914 0
30066 -1809 1511 -914 0
30914 -1809 -1511 914 0
34646 -1809 -1511 -914 0
1284 2480 -2155 0
9630 -2480 2155 0
9758 -2480 -2155 0
4960 2321 -2116 0
744 -2321 2116 0
5109 -2321 -2116 0
754 2545 2586 -1962 0
15080 2545 -2586 1962 0
15532 2545 -2586 -1962 0
13195 -2545 2586 1962 0
13685 -2545 2586 -1962 0
22997 -2545 -2586 1962 0
23291 -2545 -2586 -1962 0
14326 2224 -1139 0
7540 -2224 1139 0
19001 -2224 -1139 0
3770 -2479 0
310 2057 1996 2674 -2339 0
744 2057 1996 -2674 2339 0
1017 2057 1996 -2674 -2339 0
3720 2057 -1996 2674 2339 0
3844 2057 -1996 2674 -2339 0
4018 2057 -1996 -2674 2339 0
4127 2057 -1996 -2674 -2339 0
2170 -2057 1996 2674 2339 0
2372 -2057 1996 2674 -2339 0
2654 -2057 1996 -2674 2339 0
2831 -2057 1996 -2674 -2339 0
4588 -2057 -1996 2674 2339 0
4669 -2057 -1996 2674 -2339 0
4781 -2057 -1996 -2674 2339 0
4852 -2057 -1996 -2674 -2339 0
13195 2082 -1410 0
5655 -2082 1410 0
16871 -2082 -1410 0
28275 -2233 0
4960 1044 -2719 0
4960 -1044 2719 0
5952 -1044 -2719 0
3210 2304 833 2357 -2341 0
8025 2304 833 -2357 2341 0
8827 2304 833 -2357 -2341 0
4066 2304 -833 2357 2341 0
6056 2304 -833 2357 -2341 0
9041 2304 -833 -2357 2341 0
9539 2304 -833 -2357 -2341 0
1070 -2304 833 2357 2341 0
3959 -2304 833 2357 -2341 0
8292 -2304 833 -2357 2341 0
9015 -2304 833 -2357 -2341 0
4729 -2304 -833 2357 2341 0
6521 -2304 -833 2357 -2341 0
9207 -2304 -833 -2357 2341 0
9655 -2304 -833 -2357 -2341 0
2850 1182 2290 1465 -1018 0
4750 1182 2290 -1465 1018 0
6888 1182 2290 -1465 -1018 0
3800 1182 -2290 1465 1018 0
6080 1182 -2290 1465 -1018 0
7600 1182 -2290 -1465 1018 0
9310 1182 -2290 -1465 -1018 0
9500 -1182 2290 1465 1018 0
10925 -1182 2290 1465 -1018 0
11875 -1182 2290 -1465 1018 0
12944 -1182 2290 -1465 -1018 0
11400 -1182 -2290 1465 1018 0
12540 -1182 -2290 1465 -1018 0
13300 -1182 -2290 -1465 1018 0
14155 -1182 -2290 -1465 -1018 0
3745 1898 -2049 0
1070 -1898 2049 0
4440 -1898 -2049 0
30160 1070 1682 -2271 0
18850 1070 -1682 2271 0
33930 1070 -1682 -2271 0
18850 -1070 1682 2271 0
33930 -1070 1682 -2271 0
28275 -1070 -1682 2271 0
35815 -1070 -1682 -2271 0
27885 -1016 0
2675 2658 1274 -2254 0
9095 2658 -1274 2254 0
9496 2658 -1274 -2254 0
1605 -2658 1274 2254 0
3879 -2658 1274 -2254 0
9336 -2658 -1274 2254 0
9677 -2658 -1274 -2254 0
380 2119 1989 1850 -2203 0
6080 2119 1989 -1850 2203 0
6338 2119 1989 -1850 -2203 0
8550 2119 -1989 1850 2203 0
8759 2119 -1989 1850 -2203 0
11894 2119 -1989 -1850 2203 0
12036 2119 -1989 -1850 -2203 0
13300 -2119 1989 1850 2203 0
13414 -2119 1989 1850 -2203 0
15124 -2119 1989 -1850 2203 0
15202 -2119 1989 -1850 -2203 0
15865 -2119 -1989 1850 2203 0
15928 -2119 -1989 1850 -2203 0
16868 -2119 -1989 -1850 2203 0
16911 -2119 -1989 -1850 -2203 0
30030 -1697 0
2145 -1785 0
33930 -1345 0
19305 2701 1231 2494 -1671 0
38610 2701 1231 -2494 1671 0
40541 2701 1231 -2494 -1671 0
40755 2701 -1231 2494 1671 0
41720 2701 -1231 2494 -1671 0
42686 2701 -1231 -2494 1671 0
42782 2701 -1231 -2494 -1671 0
5148 -2701 1231 2494 1671 0
22136 -2701 1231 2494 -1671 0
39125 -2701 1231 -2494 1671 0
40824 -2701 1231 -2494 -1671 0
41012 -2701 -1231 2494 1671 0
41862 -2701 -1231 2494 -1671 0
42711 -2701 -1231 -2494 1671 0
42796 -2701 -1231 -2494 -1671 0
9500 -2034 0
4290 1612 -2092 0
10725 -1612 2092 0
13942 -1612 -2092 0
8550 1802 -1869 0
9500 -1802 1869 0
13775 -1802 -1869 0
30030 2006 2713 -2144 0
6435 2006 -2713 2144 0
31961 2006 -2713 -2144 0
6435 -2006 2713 2144 0
31961 -2006 2713 -2144 0
11905 -2006 -2713 2144 0
33601 -2006 -2713 -2144 0
25740 2394 -1181 0
6435 -2394 1181 0
28314 -2394 -1181 0
9630 984 1342 -1239 0
1284 984 -1342 1239 0
9758 984 -1342 -1239 0
8560 -984 1342 1239 0
10486 -984 1342 -1239 0
8817 -984 -1342 1239 0
10512 -984 -1342 -1239 0
36465 -2244 0
2145 1481 2397 -868 0
12870 1481 -2397 868 0
14372 1481 -2397 -868 0
10725 -1481 2397 868 0
12334 -1481 2397 -868 0
20378 -1481 -2397 868 0
21504 -1481 -2397 -868 0
17100 2598 1990 1308 -2682 0
7220 2598 1990 -1308 2682 0
17822 2598 1990 -1308 -2682 0
7600 2598 -1990 1308 2682 0
17860 2598 -1990 1308 -2682 0
11932 2598 -1990 -1308 2682 0
18293 2598 -1990 -1308 -2682 0
380 -2598 1990 1308 2682 0
17138 -2598 1990 1308 -2682 0
7456 -2598 1990 -1308 2682 0
17846 -2598 1990 -1308 -2682 0
7828 -2598 -1990 1308 2682 0
17883 -2598 -1990 1308 -2682 0
12073 -2598 -1990 -1308 2682 0
18307 -2598 -1990 -1308 -2682 0
4960 2396 1911 1852 -813 0
620 2396 1911 -1852 813 0
5084 2396 1911 -1852 -813 0
5580 2396 -1911 1852 813 0
6076 2396 -1911 1852 -813 0
5642 2396 -1911 -1852 813 0
6088 2396 -1911 -1852 -813 0
4960 -2396 1911 1852 813 0
5952 -2396 1911 1852 -813 0
5084 -2396 1911 -1852 813 0
5977 -2396 1911 -1852 -813 0
6076 -2396 -1911 1852 813 0
6175 -2396 -1911 1852 -813 0
6088 -2396 -1911 -1852 813 0
6178 -2396 -1911 -1852 -813 0
10725 -1994 0
17100 2169 -1665 0
18050 -2169 1665 0
18905 -2169 -1665 0
15080 -890 0
27885 2024 2316 -2364 0
30030 2024 -2316 2364 0
38395 2024 -2316 -2364 0
21450 -2024 2316 2364 0
35392 -2024 2316 -2364 0
36465 -2024 -2316 2364 0
40648 -2024 -2316 -2364 0
2356 1573 2114 2021 -1683 0
4650 1573 2114 -2021 1683 0
5239 1573 2114 -2021 -1683 0
2356 1573 -2114 2021 1683 0
3817 1573 -2114 2021 -1683 0
5239 1573 -2114 -2021 1683 0
5604 1573 -2114 -2021 -1683 0
124 -1573 2114 2021 1683 0
2433 -1573 2114 2021 -1683 0
4681 -1573 2114 -2021 1683 0
5258 -1573 2114 -2021 -1683 0
2433 -1573 -2114 2021 1683 0
3864 -1573 -2114 2021 -1683 0
5258 -1573 -2114 -2021 1683 0
5616 -1573 -2114 -2021 -1683 0
3745 -1077 0
1240 859 1818 -1291 0
124 859 -1818 1291 0
1339 859 -1818 -1291 0
2356 -859 1818 1291 0
3125 -859 1818 -1291 0
2433 -859 -1818 1291 0
3186 -859 -1818 -1291 0
4280 1525 -2058 0
10165 -1525 2058 0
10379 -1525 -2058 0
1926 1725 1902 875 -1777 0
10165 1725 1902 -875 1777 0
10261 1725 1902 -875 -1777 0
2675 1725 -1902 875 1777 0
4120 1725 -1902 875 -1777 0
10299 1725 -1902 -875 1777 0
10371 1725 -1902 -875 -1777 0
6955 -1725 1902 875 1777 0
7629 -1725 1902 875 -1777 0
10513 -1725 1902 -875 1777 0
10546 -1725 1902 -875 -1777 0
7891 -1725 -1902 875 1777 0
8397 -1725 -1902 875 -1777 0
10560 -1725 -1902 -875 1777 0
10585 -1725 -1902 -875 -1777 0
4524 1669 -2062 0
24505 -1669 2062 0
26088 -1669 -2062 0
34320 2327 -1784 0
27885 -2327 1784 0
39897 -2327 -1784 0
2170 -1927 0
35815 1571 1792 1737 -2335 0
13195 1571 1792 -1737 2335 0
36475 1571 1792 -1737 -2335 0
16965 1571 -1792 1737 2335 0
36663 1571 -1792 1737 -2335 0
24222 1571 -1792 -1737 2335 0
37026 1571 -1792 -1737 -2335 0
9425 -1571 1792 1737 2335 0
36286 -1571 1792 1737 -2335 0
19321 -1571 1792 -1737 2335 0
36781 -1571 1792 -1737 -2335 0
22149 -1571 -1792 1737 2335 0
36922 -1571 -1792 1737 -2335 0
27592 -1571 -1792 -1737 2335 0
37195 -1571 -1792 -1737 -2335 0
1116 1484 2657 1758 -952 0
1550 1484 2657 -1758 952 0
2387 1484 2657 -1758 -952 0
5580 1484 -2657 1758 952 0
5692 1484 -2657 1758 -952 0
5735 1484 -2657 -1758 952 0
5819 1484 -2657 -1758 -952 0
620 -1484 2657 1758 952 0
1624 -1484 2657 1758 -952 0
2015 -1484 2657 -1758 952 0
2768 -1484 2657 -1758 -952 0
5642 -1484 -2657 1758 952 0
5742 -1484 -2657 1758 -952 0
5781 -1484 -2657 -1758 952 0
5857 -1484 -2657 -1758 -952 0
10165 1752 874 804 -1909 0
535 1752 874 -804 1909 0
10192 1752 874 -804 -1909 0
6420 1752 -874 804 1909 0
10486 1752 -874 804 -1909 0
6634 1752 -874 -804 1909 0
10497 1752 -874 -804 -1909 0
10165 -1752 874 804 1909 0
10673 -1752 874 804 -1909 0
10192 -1752 874 -804 1909 0
10675 -1752 874 -804 -1909 0
10486 -1752 -874 804 1909 0
10689 -1752 -874 804 -1909 0
10497 -1752 -874 -804 1909 0
10690 -1752 -874 -804 -1909 0
950 2691 1415 1039 -1037 0
1900 2691 1415 -1039 1037 0
2755 2691 1415 -1039 -1037 0
3420 2691 -1415 1039 1037 0
4199 2691 -1415 1039 -1037 0
4978 2691 -1415 -1039 1037 0
5679 2691 -1415 -1039 -1037 0
10450 -2691 1415 1039 1037 0
10878 -2691 1415 1039 -1037 0
11305 -2691 1415 -1039 1037 0
11690 -2691 1415 -1039 -1037 0
11989 -2691 -1415 1039 1037 0
12340 -2691 -1415 1039 -1037 0
12690 -2691 -1415 -1039 1037 0
13006 -2691 -1415 -1039 -1037 0
1116 2692 2055 1943 -2277 0
620 2692 2055 -1943 2277 0
1624 2692 2055 -1943 -2277 0
4340 2692 -2055 1943 2277 0
4675 2692 -2055 1943 -2277 0
4526 2692 -2055 -1943 2277 0
4827 2692 -2055 -1943 -2277 0
4340 -2692 2055 1943 2277 0
4675 -2692 2055 1943 -2277 0
4526 -2692 2055 -1943 2277 0
4827 -2692 2055 -1943 -2277 0
5642 -2692 -2055 1943 2277 0
5742 -2692 -2055 1943 -2277 0
5698 -2692 -2055 -1943 2277 0
5788 -2692 -2055 -1943 -2277 0
930 1207 2650 1126 -1674 0
3410 1207 2650 -1126 1674 0
3829 1207 2650 -1126 -1674 0
5270 1207 -2650 1126 1674 0
5410 1207 -2650 1126 -1674 0
5781 1207 -2650 -1126 1674 0
5844 1207 -2650 -1126 -1674 0
2170 -1207 2650 1126 1674 0
2775 -1207 2650 1126 -1674 0
4387 -1207 2650 -1126 1674 0
4659 -1207 2650 -1126 -1674 0
5595 -1207 -2650 1126 1674 0
5686 -1207 -2650 1126 -1674 0
5928 -1207 -2650 -1126 1674 0
5969 -1207 -2650 -1126 -1674 0
2170 2187 -1501 0
1116 -2187 1501 0
2895 -2187 -1501 0
6435 -1833 0
744 2431 2193 -929 0
3100 2431 -2193 929 0
3472 2431 -2193 -929 0
1860 -2431 2193 929 0
2381 -2431 2193 -929 0
4030 -2431 -2193 929 0
4290 -2431 -2193 -929 0
2480 2515 -1527 0
5270 -2515 1527 0
5642 -2515 -1527 0
19305 -1971 0
6420 2718 -2261 0
10165 -2718 2261 0
10486 -2718 -2261 0
3210 2105 1632 -1689 0
2675 2105 -1632 1689 0
5083 2105 -1632 -1689 0
9630 -2105 1632 1689 0
9951 -2105 1632 -1689 0
9898 -2105 -1632 1689 0
10138 -2105 -1632 -1689 0
13728 2516 1238 -1945 0
30030 2516 -1238 1945 0
34148 2516 -1238 -1945 0
6435 -2516 1238 1945 0
18104 -2516 1238 -1945 0
31961 -2516 -1238 1945 0
35461 -2516 -1238 -1945 0
14250 2635 953 -2247 0
7220 2635 -953 2247 0
16055 2635 -953 -2247 0
6080 -2635 953 2247 0
15770 -2635 953 -2247 0
10990 -2635 -953 2247 0
16997 -2635 -953 -2247 0
12870 1487 -2464 0
25740 -1487 2464 0
30888 -1487 -2464 0
17100 1404 1761 -926 0
4750 1404 -1761 926 0
17575 1404 -1761 -926 0
15200 -1404 1761 926 0
18620 -1404 1761 -926 0
16150 -1404 -1761 926 0
18715 -1404 -1761 -926 0
620 2109 1340 2311 -1842 0
1550 2109 1340 -2311 1842 0
2015 2109 1340 -2311 -1842 0
1550 2109 -1340 2311 1842 0
2015 2109 -1340 2311 -1842 0
2712 2109 -1340 -2311 1842 0
3061 2109 -1340 -2311 -1842 0
620 -2109 1340 2311 1842 0
1178 -2109 1340 2311 -1842 0
2015 -2109 1340 -2311 1842 0
2433 -2109 1340 -2311 -1842 0
2015 -2109 -1340 2311 1842 0
2433 -2109 -1340 2311 -1842 0
3061 -2109 -1340 -2311 1842 0
3375 -2109 -1340 -2311 -1842 0
744 -2655 0
2170 1514 -1244 0
3100 -1514 1244 0
4185 -1514 -1244 0
2140 863 884 -2624 0
1605 863 -884 2624 0
3424 863 -884 -2624 0
4066 -863 884 2624 0
5393 -863 884 -2624 0
5061 -863 -884 2624 0
6189 -863 -884 -2624 0
3800 1437 2463 1650 -801 0
7600 1437 2463 -1650 801 0
9880 1437 2463 -1650 -801 0
7220 1437 -2463 1650 801 0
9576 1437 -2463 1650 -801 0
11932 1437 -2463 -1650 801 0
13346 1437 -2463 -1650 -801 0
6650 -1437 2463 1650 801 0
9120 -1437 2463 1650 -801 0
11590 -1437 2463 -1650 801 0
13072 -1437 2463 -1650 -801 0
11343 -1437 -2463 1650 801 0
12874 -1437 -2463 1650 -801 0
14406 -1437 -2463 -1650 801 0
15325 -1437 -2463 -1650 -801 0
8550 1714 1204 1177 -2720 0
2850 1714 1204 -1177 2720 0
10117 1714 1204 -1177 -2720 0
10450 1714 -1204 1177 2720 0
14297 1714 -1204 1177 -2720 0
11733 1714 -1204 -1177 2720 0
15003 1714 -1204 -1177 -2720 0
17100 -1714 1204 1177 2720 0
17955 -1714 1204 1177 -2720 0
17385 -1714 1204 -1177 2720 0
18112 -1714 1204 -1177 -2720 0
18145 -1714 -1204 1177 2720 0
18530 -1714 -1204 1177 -2720 0
18273 -1714 -1204 -1177 2720 0
18600 -1714 -1204 -1177 -2720 0
950 1346 -1668 0
10450 -1346 1668 0
10878 -1346 -1668 0
13195 1894 1172 -1891 0
15080 1894 -1172 1891 0
22997 1894 -1172 -1891 0
26390 -1894 1172 1891 0
30348 -1894 1172 -1891 0
30914 -1894 -1172 1891 0
33289 -1894 -1172 -1891 0
40755 1903 1042 -1775 0
30030 1903 -1042 1775 0
42256 1903 -1042 -1775 0
30030 -1903 1042 1775 0
42256 -1903 1042 -1775 0
39039 -1903 -1042 1775 0
42707 -1903 -1042 -1775 0
2170 -2190 0
16965 1551 -2268 0
16965 -1551 2268 0
26296 -1551 -2268 0
4524 2018 1123 2162 -2256 0
7540 2018 1123 -2162 2256 0
11159 2018 1123 -2162 -2256 0
1885 2018 -1123 2162 2256 0
6183 2018 -1123 2162 -2256 0
9048 2018 -1123 -2162 2256 0
12486 2018 -1123 -2162 -2256 0
35815 -2018 1123 2162 2256 0
36041 -2018 1123 2162 -2256 0
36192 -2018 1123 -2162 2256 0
36373 -2018 1123 -2162 -2256 0
35909 -2018 -1123 2162 2256 0
36124 -2018 -1123 2162 -2256 0
36267 -2018 -1123 -2162 2256 0
36439 -2018 -1123 -2162 -2256 0
15015 1132 -1429 0
27885 -1132 1429 0
33140 -1132 -1429 0
1605 2161 -1469 0
5350 -2161 1469 0
6152 -2161 -1469 0
2675 1060 -1087 0
4280 -1060 1087 0
5885 -1060 -1087 0
5270 -1604 0
6080 1564 -1061 0
2280 -1564 1061 0
7630 -1564 -1061 0
3424 -2012 0
26390 2390 -1872 0
9425 -2390 1872 0
29217 -2390 -1872 0
380 -1864 0
4030 2622 -2098 0
620 -2622 2098 0
4247 -2622 -2098 0
2356 1854 -2286 0
4960 -1854 2286 0
5431 -1854 -2286 0
15015 1493 2377 -2389 0
5148 1493 -2377 2389 0
18361 1493 -2377 -2389 0
2145 -1493 2377 2389 0
16409 -1493 2377 -2389 0
7036 -1493 -2377 2389 0
19588 -1493 -2377 -2389 0
4030 1830 1372 -2106 0
1116 1830 -1372 2106 0
4421 1830 -1372 -2106 0
744 -1830 1372 2106 0
4290 -1830 1372 -2106 0
1726 -1830 -1372 2106 0
4634 -1830 -1372 -2106 0
4340 -2438 0
4030 -1351 0
1116 1500 -2449 0
1116 -1500 2449 0
2031 -1500 -2449 0
32045 2209 -2121 0
16965 -2209 2121 0
34590 -2209 -2121 0
19305 2306 -1643 0
858 -2306 1643 0
19777 -2306 -1643 0
6955 812 1819 1086 -2325 0
3745 812 1819 -1086 2325 0
8266 812 1819 -1086 -2325 0
6420 812 -1819 1086 2325 0
9202 812 -1819 1086 -2325 0
7918 812 -1819 -1086 2325 0
9726 812 -1819 -1086 -2325 0
535 -812 1819 1086 2325 0
7142 -812 1819 1086 -2325 0
4093 -812 1819 -1086 2325 0
8387 -812 1819 -1086 -2325 0
6634 -812 -1819 1086 2325 0
9277 -812 -1819 1086 -2325 0
8057 -812 -1819 -1086 2325 0
9775 -812 -1819 -1086 -2325 0
16150 1713 1011 -1558 0
6080 1713 -1011 1558 0
17062 1713 -1011 -1558 0
4750 -1713 1011 1558 0
16862 -1713 1011 -1558 0
9310 -1713 -1011 1558 0
17547 -1713 -1011 -1558 0
3770 2060 1495 -839 0
22620 2060 -1495 839 0
24128 2060 -1495 -839 0
15080 -2060 1495 839 0
17342 -2060 1495 -839 0
28652 -2060 -1495 839 0
29557 -2060 -1495 -839 0
9630 1541 1252 847 -1865 0
1070 1541 1252 -847 1865 0
9737 1541 1252 -847 -1865 0
8025 1541 -1252 847 1865 0
10433 1541 -1252 847 -1865 0
8292 1541 -1252 -847 1865 0
10459 1541 -1252 -847 -1865 0
1070 -1541 1252 847 1865 0
9737 -1541 1252 847 -1865 0
2033 -1541 1252 -847 1865 0
9833 -1541 1252 -847 -1865 0
8292 -1541 -1252 847 1865 0
10459 -1541 -1252 847 -1865 0
8533 -1541 -1252 -847 1865 0
10483 -1541 -1252 -847 -1865 0
16150 1214 2141 1629 -1576 0
2850 1214 2141 -1629 1576 0
16578 1214 2141 -1629 -1576 0
7600 1214 -2141 1629 1576 0
17290 1214 -2141 1629 -1576 0
9310 1214 -2141 -1629 1576 0
17547 1214 -2141 -1629 -1576 0
17100 -1214 2141 1629 1576 0
18715 -1214 2141 1629 -1576 0
17385 -1214 2141 -1629 1576 0
18758 -1214 2141 -1629 -1576 0
17860 -1214 -2141 1629 1576 0
18829 -1214 -2141 1629 -1576 0
18031 -1214 -2141 -1629 1576 0
18855 -1214 -2141 -1629 -1576 0
7220 -2351 0
3745 2392 -2252 0
4280 -2392 2252 0
6527 -2392 -2252 0
5885 939 1897 978 -1732 0
4815 939 1897 -978 1732 0
8052 939 1897 -978 -1732 0
4280 939 -1897 978 1732 0
7811 939 -1897 978 -1732 0
7169 939 -1897 -978 1732 0
9111 939 -1897 -978 -1732 0
9095 -939 1897 978 1732 0
9978 -939 1897 978 -1732 0
9817 -939 1897 -978 1732 0
10303 -939 1897 -978 -1732 0
9737 -939 -1897 978 1732 0
10267 -939 -1897 978 -1732 0
10170 -939 -1897 -978 1732 0
10462 -939 -1897 -978 -1732 0
9095 -1276 0
2850 1512 1533 -2437 0
1900 1512 -1533 2437 0
4465 1512 -1533 -2437 0
9500 -1512 1533 2437 0
10925 -1512 1533 -2437 0
10450 -1512 -1533 2437 0
11732 -1512 -1533 -2437 0
7490 2029 822 1027 -2063 0
7490 2029 822 -1027 2063 0
9737 2029 822 -1027 -2063 0
4066 2029 -822 1027 2063 0
8710 2029 -822 1027 -2063 0
8710 2029 -822 -1027 2063 0
10103 2029 -822 -1027 -2063 0
4280 -2029 822 1027 2063 0
8774 -2029 822 1027 -2063 0
8774 -2029 822 -1027 2063 0
10122 -2029 822 -1027 -2063 0
6720 -2029 -822 1027 2063 0
9506 -2029 -822 1027 -2063 0
9506 -2029 -822 -1027 2063 0
10342 -2029 -822 -1027 -2063 0
6080 2123 -1899 0
7600 -2123 1899 0
11248 -2123 -1899 0
6420 -1832 0
9425 -1283 0
4030 2219 -917 0
744 -2219 917 0
4290 -2219 -917 0
3210 2102 1384 -2408 0
7490 2102 -1384 2408 0
8453 2102 -1384 -2408 0
6955 -2102 1384 2408 0
8078 -2102 1384 -2408 0
9577 -2102 -1384 2408 0
9914 -2102 -1384 -2408 0
4524 -2334 0
26390 2421 1856 1261 -964 0
24505 2421 1856 -1261 964 0
33742 2421 1856 -1261 -964 0
3770 2421 -1856 1261 964 0
27521 2421 -1856 1261 -964 0
25825 2421 -1856 -1261 964 0
34137 2421 -1856 -1261 -964 0
32045 -2421 1856 1261 964 0
36003 -2421 1856 1261 -964 0
35721 -2421 1856 -1261 964 0
37106 -2421 1856 -1261 -964 0
32611 -2421 -1856 1261 964 0
36173 -2421 -1856 1261 -964 0
35919 -2421 -1856 -1261 964 0
37166 -2421 -1856 -1261 -964 0
30030 1180 -2305 0
23595 -1180 2305 0
37108 -1180 -2305 0
754 -2520 0
2170 1648 -2495 0
4960 -1648 2495 0
5394 -1648 -2495 0
5655 927 -1093 0
20735 -927 1093 0
23280 -927 -1093 0
3210 1013 1698 1448 -2381 0
535 1013 1698 -1448 2381 0
3585 1013 1698 -1448 -2381 0
10165 1013 -1698 1448 2381 0
10325 1013 -1698 1448 -2381 0
10192 1013 -1698 -1448 2381 0
10344 1013 -1698 -1448 -2381 0
3210 -1013 1698 1448 2381 0
5457 -1013 1698 1448 -2381 0
3585 -1013 1698 -1448 2381 0
5719 -1013 1698 -1448 -2381 0
10325 -1013 -1698 1448 2381 0
10438 -1013 -1698 1448 -2381 0
10344 -1013 -1698 -1448 2381 0
10451 -1013 -1698 -1448 -2381 0
9425 1890 -1744 0
6786 -1890 1744 0
14515 -1890 -1744 0
380 2672 1547 1606 -2452 0
950 2672 1547 -1606 2452 0
1311 2672 1547 -1606 -2452 0
2850 2672 -1547 1606 2452 0
3173 2672 -1547 1606 -2452 0
3658 2672 -1547 -1606 2452 0
3964 2672 -1547 -1606 -2452 0
5700 -2672 1547 1606 2452 0
5966 -2672 1547 1606 -2452 0
6365 -2672 1547 -1606 2452 0
6618 -2672 1547 -1606 -2452 0
7695 -2672 -1547 1606 2452 0
7921 -2672 -1547 1606 -2452 0
8260 -2672 -1547 -1606 2452 0
8475 -2672 -1547 -1606 -2452 0
754 -1205 0
5148 2485 2651 -2226 0
40755 2485 -2651 2226 0
41012 2485 -2651 -2226 0
4290 -2485 2651 2226 0
8923 -2485 2651 -2226 0
40969 -2485 -2651 2226 0
41201 -2485 -2651 -2226 0
25740 1253 2652 -2688 0
36465 1253 -2652 2688 0
40326 1253 -2652 -2688 0
23595 -1253 2652 2688 0
35178 -1253 2652 -2688 0
40004 -1253 -2652 2688 0
41742 -1253 -2652 -2688 0
10725 2202 2178 -2194 0
858 2202 -2178 2194 0
11369 2202 -2178 -2194 0
17160 -2202 2178 2194 0
23595 -2202 2178 -2194 0
17675 -2202 -2178 2194 0
23981 -2202 -2178 -2194 0
7722 2078 2469 -1938 0
7722 2078 -2469 1938 0
14054 2078 -2469 -1938 0
4290 -2078 2469 1938 0
11240 -2078 2469 -1938 0
11240 -2078 -2469 1938 0
16939 -2078 -2469 -1938 0
9425 1794 -2641 0
30160 -1794 2641 0
32045 -1794 -2641 0
3424 1795 2405 -945 0
4280 1795 -2405 945 0
6334 1795 -2405 -945 0
2675 -1795 2405 945 0
5243 -1795 2405 -945 0
5885 -1795 -2405 945 0
7426 -1795 -2405 -945 0
124 2564 1956 -878 0
5890 2564 -1956 878 0
5896 2564 -1956 -878 0
4650 -2564 1956 878 0
4681 -2564 1956 -878 0
6123 -2564 -1956 878 0
6124 -2564 -1956 -878 0
14250 -1715 0
4340 -2065 0
10450 2245 1841 -1712 0
7600 2245 -1841 1712 0
13870 2245 -1841 -1712 0
17100 -2245 1841 1712 0
18145 -2245 1841 -1712 0
17860 -2245 -1841 1712 0
18487 -2245 -1841 -1712 0
32175 895 1739 -2353 0
16302 895 -1739 2353 0
36250 895 -1739 -2353 0
36465 -895 1739 2353 0
41291 -895 1739 -2353 0
38910 -895 -1739 2353 0
41903 -895 -1739 -2353 0
21450 2072 1746 1029 -2491 0
6435 2072 1746 -1029 2491 0
24667 2072 1746 -1029 -2491 0
6435 2072 -1746 1029 2491 0
24667 2072 -1746 1029 -2491 0
11905 2072 -1746 -1029 2491 0
27402 2072 -1746 -1029 -2491 0
21450 -2072 1746 1029 2491 0
32175 -2072 1746 1029 -2491 0
24667 -2072 1746 -1029 2491 0
33784 -2072 1746 -1029 -2491 0
24667 -2072 -1746 1029 2491 0
33784 -2072 -1746 1029 -2491 0
27402 -2072 -1746 -1029 2491 0
35151 -2072 -1746 -1029 -2491 0
33930 1370 1064 -1313 0
33930 1370 -1064 1313 0
37323 1370 -1064 -1313 0
35815 -1370 1064 1313 0
37512 -1370 1064 -1313 0
37512 -1370 -1064 1313 0
37681 -1370 -1064 -1313 0
2850 1208 969 -2387 0
14250 1208 -969 2387 0
14962 1208 -969 -2387 0
16150 -1208 969 2387 0
16578 -1208 969 -2387 0
18288 -1208 -969 2387 0
18394 -1208 -969 -2387 0
535 1720 -1591 0
6955 -1720 1591 0
7142 -1720 -1591 0
5885 2191 2407 1314 -1868 0
1070 2191 2407 -1314 1868 0
6366 2191 2407 -1314 -1868 0
10165 2191 -2407 1314 1868 0
10459 2191 -2407 1314 -1868 0
10219 2191 -2407 -1314 1868 0
10483 2191 -2407 -1314 -1868 0
6955 -2191 2407 1314 1868 0
9015 -2191 2407 1314 -1868 0
7330 -2191 2407 -1314 1868 0
9183 -2191 2407 -1314 -1868 0
10513 -2191 -2407 1314 1868 0
10616 -2191 -2407 1314 -1868 0
10531 -2191 -2407 -1314 1868 0
10624 -2191 -2407 -1314 -1868 0
8580 962 -2360 0
16302 -962 2360 0
21622 -962 -2360 0
26390 1175 2093 -891 0
18850 1175 -2093 891 0
32045 1175 -2093 -891 0
1885 -1175 2093 891 0
26956 -1175 2093 -891 0
19793 -1175 -2093 891 0
32328 -1175 -2093 -891 0
744 2386 -2110 0
1550 -2386 2110 0
2108 -2386 -2110 0
2790 2639 2362 -2588 0
4340 2639 -2362 2588 0
5177 2639 -2362 -2588 0
1550 -2639 2362 2588 0
3642 -2639 2362 -2588 0
4805 -2639 -2362 2588 0
5433 -2639 -2362 -2588 0
2145 2455 -2640 0
38610 -2455 2640 0
38825 -2455 -2640 0
7540 2179 -1414 0
13195 -2179 1414 0
18096 -2179 -1414 0
35815 1590 1542 -1735 0
20735 1590 -1542 1735 0
36852 1590 -1542 -1735 0
4524 -1590 1542 1735 0
36041 -1590 1542 -1735 0
22771 -1590 -1542 1735 0
36954 -1590 -1542 -1735 0
2790 1840 -2609 0
1860 -1840 2609 0
3813 -1840 -2609 0
7600 2355 857 -1999 0
17100 2355 -857 1999 0
17860 2355 -857 -1999 0
8550 -2355 857 1999 0
12730 -2355 857 -1999 0
17955 -2355 -857 1999 0
18373 -2355 -857 -1999 0
13300 1496 -2266 0
3800 -1496 2266 0
14440 -1496 -2266 0
35815 -1620 0
38610 1174 865 1634 -2498 0
13728 1174 865 -1634 2498 0
39983 1174 865 -1634 -2498 0
19305 1174 -865 1634 2498 0
40541 1174 -865 1634 -2498 0
26855 1174 -865 -1634 2498 0
41296 1174 -865 -1634 -2498 0
2145 -1174 865 1634 2498 0
38825 -1174 865 1634 -2498 0
15187 -1174 865 -1634 2498 0
40129 -1174 865 -1634 -2498 0
20485 -1174 -865 1634 2498 0
40658 -1174 -865 1634 -2498 0
27658 -1174 -865 -1634 2498 0
41376 -1174 -865 -1634 -2498 0
13195 908 -2508 0
11310 -908 2508 0
20547 -908 -2508 0
5700 1063 1905 1236 -835 0
4750 1063 1905 -1236 835 0
9025 1063 1905 -1236 -835 0
16150 1063 -1905 1236 835 0
17005 1063 -1905 1236 -835 0
16862 1063 -1905 -1236 835 0
17504 1063 -1905 -1236 -835 0
1900 -1063 1905 1236 835 0
7030 -1063 1905 1236 -835 0
6175 -1063 1905 -1236 835 0
10023 -1063 1905 -1236 -835 0
16435 -1063 -1905 1236 835 0
17204 -1063 -1905 1236 -835 0
17076 -1063 -1905 -1236 835 0
17653 -1063 -1905 -1236 -835 0
4524 1801 2004 2561 -2345 0
12064 1801 2004 -2561 2345 0
15140 1801 2004 -2561 -2345 0
11310 1801 -2004 2561 2345 0
14477 1801 -2004 2561 -2345 0
19755 1801 -2004 -2561 2345 0
21908 1801 -2004 -2561 -2345 0
22620 -1801 2004 2561 2345 0
24430 -1801 2004 2561 -2345 0
27446 -1801 2004 -2561 2345 0
28676 -1801 2004 -2561 -2345 0
27144 -1801 -2004 2561 2345 0
28411 -1801 -2004 2561 -2345 0
30522 -1801 -2004 -2561 2345 0
31383 -1801 -2004 -2561 -2345 0
5350 905 -2207 0
4280 -905 2207 0
7490 -905 -2207 0
19305 -1828 0
35815 1282 900 -1771 0
3770 1282 -900 1771 0
36003 1282 -900 -1771 0
7540 -1282 900 1771 0
36192 -1282 900 -1771 0
10556 -1282 -900 1771 0
36343 -1282 -900 -1771 0
16150 1873 -2490 0
2280 -1873 2490 0
16492 -1873 -2490 0
4650 1931 -1925 0
3100 -1931 1925 0
5425 -1931 -1925 0
23595 995 2309 1219 -1781 0
12870 995 2309 -1219 1781 0
29387 995 2309 -1219 -1781 0
2145 995 -2309 1219 1781 0
24560 995 -2309 1219 -1781 0
14372 995 -2309 -1219 1781 0
30062 995 -2309 -1219 -1781 0
7722 -995 2309 1219 1781 0
27070 -995 2309 1219 -1781 0
18275 -995 2309 -1219 1781 0
31819 -995 2309 -1219 -1781 0
9481 -995 -2309 1219 1781 0
27861 -995 -2309 1219 -1781 0
19507 -995 -2309 -1219 1781 0
32373 -995 -2309 -1219 -1781 0
14250 1861 1797 -2556 0
17100 1861 -1797 2556 0
18525 1861 -1797 -2556 0
10450 -1861 1797 2556 0
16862 -1861 1797 -2556 0
18145 -1861 -1797 2556 0
18786 -1861 -1797 -2556 0
10450 1915 -2081 0
18050 -1915 2081 0
18572 -1915 -2081 0
620 1684 876 -1422 0
5270 1684 -876 1422 0
5363 1684 -876 -1422 0
620 -1684 876 1422 0
1178 -1684 876 -1422 0
5363 -1684 -876 1422 0
5447 -1684 -876 -1422 0
744 1036 2492 -1492 0
124 1036 -2492 1492 0
853 1036 -2492 -1492 0
4340 -1036 2492 1492 0
4563 -1036 2492 -1492 0
4377 -1036 -2492 1492 0
4596 -1036 -2492 -1492 0
5270 1094 -1941 0
744 -1094 1941 0
5382 -1094 -1941 0
5890 841 2215 -1589 0
1860 841 -2215 1589 0
5983 841 -2215 -1589 0
4650 -841 2215 1589 0
6123 -841 2215 -1589 0
5115 -841 -2215 1589 0
6146 -841 -2215 -1589 0
1605 1355 1461 1853 -1798 0
8560 1355 1461 -1853 1798 0
8881 1355 1461 -1853 -1798 0
8560 1355 -1461 1853 1798 0
8881 1355 -1461 1853 -1798 0
10272 1355 -1461 -1853 1798 0
10336 1355 -1461 -1853 -1798 0
5885 -1355 1461 1853 1798 0
6607 -1355 1461 1853 -1798 0
9737 -1355 1461 -1853 1798 0
9881 -1355 1461 -1853 -1798 0
9737 -1355 -1461 1853 1798 0
9881 -1355 -1461 1853 -1798 0
10507 -1355 -1461 -1853 1798 0
10536 -1355 -1461 -1853 -1798 0
17160 2289 -2091 0
6435 -2289 2091 0
21021 -2289 -2091 0
11310 1423 -2460 0
15080 -1423 2460 0
21866 -1423 -2460 0
10450 1400 809 1928 -1227 0
380 1400 809 -1928 1227 0
10621 1400 809 -1928 -1227 0
12350 1400 -809 1928 1227 0
16008 1400 -809 1928 -1227 0
12483 1400 -809 -1928 1227 0
16067 1400 -809 -1928 -1227 0
6650 -1400 809 1928 1227 0
13443 -1400 809 1928 -1227 0
6897 -1400 809 -1928 1227 0
13554 -1400 809 -1928 -1227 0
14678 -1400 -809 1928 1227 0
17055 -1400 -809 1928 -1227 0
14764 -1400 -809 -1928 1227 0
17094 -1400 -809 -1928 -1227 0
10725 1420 1082 2350 -1447 0
38610 1420 1082 -2350 1447 0
39683 1420 1082 -2350 -1447 0
16302 1420 -1082 2350 1447 0
22952 1420 -1082 2350 -1447 0
40240 1420 -1082 -2350 1447 0
40905 1420 -1082 -2350 -1447 0
25740 -1420 1082 2350 1447 0
30030 -1420 1082 2350 -1447 0
41184 -1420 1082 -2350 1447 0
41613 -1420 1082 -2350 -1447 0
32261 -1420 -1082 2350 1447 0
34921 -1420 -1082 2350 -1447 0
41836 -1420 -1082 -2350 1447 0
42102 -1420 -1082 -2350 -1447 0
4066 -1206 0
2790 1439 -823 0
4340 -1439 823 0
5177 -1439 -823 0
18050 883 -2132 0
950 -883 2132 0
18097 -883 -2132 0
22620 -2406 0
9500 2048 2402 -1389 0
1900 2048 -2402 1389 0
10450 2048 -2402 -1389 0
7600 -2048 2402 1389 0
13300 -2048 2402 -1389 0
8740 -2048 -2402 1389 0
13870 -2048 -2402 -1389 0
6786 1770 1483 -856 0
28275 1770 -1483 856 0
29971 1770 -1483 -856 0
30160 -1770 1483 856 0
31517 -1770 1483 -856 0
35815 -1770 -1483 856 0
36154 -1770 -1483 -856 0
38610 1549 2454 959 -2176 0
10725 1549 2454 -959 2176 0
39683 1549 2454 -959 -2176 0
8580 1549 -2454 959 2176 0
39468 1549 -2454 959 -2176 0
17160 1549 -2454 -959 2176 0
40326 1549 -2454 -959 -2176 0
40755 -1549 2454 959 2176 0
42686 -1549 2454 959 -2176 0
41291 -1549 2454 -959 2176 0
42739 -1549 2454 -959 -2176 0
41184 -1549 -2454 959 2176 0
42728 -1549 -2454 959 -2176 0
41613 -1549 -2454 -959 2176 0
42771 -1549 -2454 -959 -2176 0
32175 -2646 0
4066 1043 -904 0
3210 -1043 904 0
6056 -1043 -904 0
33930 910 -921 0
4524 -910 921 0
34382 -910 -921 0
30160 2153 -1277 0
16965 -2153 1277 0
33553 -2153 -1277 0
2280 1839 2565 -2644 0
11400 1839 -2565 2644 0
12312 1839 -2565 -2644 0
7220 -1839 2565 2644 0
8634 -1839 2565 -2644 0
14288 -1839 -2565 2644 0
14853 -1839 -2565 -2644 0
1116 2296 2630 -1004 0
4960 2296 -2630 1004 0
5183 2296 -2630 -1004 0
2790 -2296 2630 1004 0
3404 -2296 2630 -1004 0
5518 -2296 -2630 1004 0
5641 -2296 -2630 -1004 0
6435 1110 1644 -2511 0
27885 1110 -1644 2511 0
30137 1110 -1644 -2511 0
21450 -1110 1644 2511 0
24667 -1110 1644 -2511 0
35392 -1110 -1644 2511 0
36519 -1110 -1644 -2511 0
13195 -2413 0
1116 970 2475 2077 -2281 0
5580 970 2475 -2077 2281 0
5692 970 2475 -2077 -2281 0
5580 970 -2475 2077 2281 0
5692 970 -2475 2077 -2281 0
6138 970 -2475 -2077 2281 0
6149 970 -2475 -2077 -2281 0
620 -970 2475 2077 2281 0
1624 -970 2475 2077 -2281 0
5642 -970 2475 -2077 2281 0
5742 -970 2475 -2077 -2281 0
5642 -970 -2475 2077 2281 0
5742 -970 -2475 2077 -2281 0
6144 -970 -2475 -2077 2281 0
6154 -970 -2475 -2077 -2281 0
535 1893 -1142 0
2140 -1893 1142 0
2568 -1893 -1142 0
4650 1687 -2284 0
1240 -1687 2284 0
4960 -1687 -2284 0
33930 1343 1721 -974 0
13195 1343 -1721 974 0
35250 1343 -1721 -974 0
16965 -1343 1721 974 0
35627 -1343 1721 -974 0
24222 -1343 -1721 974 0
36352 -1343 -1721 -974 0
30030 1339 2385 -1491 0
6435 1339 -2385 1491 0
31961 1339 -2385 -1491 0
34320 -1339 2385 1491 0
40326 -1339 2385 -1491 0
35607 -1339 -2385 1491 0
40712 -1339 -2385 -1491 0
16302 1626 -1473 0
15015 -1626 1473 0
25611 -1626 -1473 0
6955 1772 -1815 0
5885 -1772 1815 0
9015 -1772 -1815 0
2790 2308 2489 2183 -1373 0
1116 2308 2489 -2183 1373 0
3404 2308 2489 -2183 -1373 0
3720 2308 -2489 2183 1373 0
4836 2308 -2489 2183 -1373 0
4166 2308 -2489 -2183 1373 0
5082 2308 -2489 -2183 -1373 0
1984 -2308 2489 2183 1373 0
3881 -2308 2489 2183 -1373 0
2743 -2308 2489 -2183 1373 0
4299 -2308 2489 -2183 -1373 0
4514 -2308 -2489 2183 1373 0
5272 -2308 -2489 2183 -1373 0
4817 -2308 -2489 -2183 1373 0
5439 -2308 -2489 -2183 -1373 0
7540 1360 922 -1877 0
18850 1360 -922 1877 0
22620 1360 -922 -1877 0
13195 -1360 922 1877 0
18096 -1360 922 -1877 0
25448 -1360 -922 1877 0
27898 -1360 -922 -1877 0
38610 1827 -2043 0
36465 -1827 2043 0
42256 -1827 -2043 0
1984 2634 -844 0
620 -2634 844 0
2406 -2634 -844 0
10450 885 -810 0
1900 -885 810 0
11305 -885 -810 0
5148 1992 1910 2612 -2323 0
17160 1992 1910 -2612 2323 0
20249 1992 1910 -2612 -2323 0
6435 1992 -1910 2612 2323 0
10811 1992 -1910 2612 -2323 0
21021 1992 -1910 -2612 2323 0
23646 1992 -1910 -2612 -2323 0
40755 -1992 1910 2612 2323 0
41012 -1992 1910 2612 -2323 0
41613 -1992 1910 -2612 2323 0
41767 -1992 1910 -2612 -2323 0
41077 -1992 -1910 2612 2323 0
41296 -1992 -1910 2612 -2323 0
41806 -1992 -1910 -2612 2323 0
41937 -1992 -1910 -2612 -2323 0
15015 1250 -1271 0
19305 -1250 1271 0
27563 -1250 -1271 0
1984 907 1968 2617 -2255 0
4650 907 1968 -2617 2255 0
5146 907 1968 -2617 -2255 0
930 907 -1968 2617 2255 0
2616 907 -1968 2617 -2255 0
4882 907 -1968 -2617 2255 0
5304 907 -1968 -2617 -2255 0
4960 -907 1968 2617 2255 0
5357 -907 1968 2617 -2255 0
5890 -907 1968 -2617 2255 0
5989 -907 1968 -2617 -2255 0
5146 -907 -1968 2617 2255 0
5483 -907 -1968 2617 -2255 0
5937 -907 -1968 -2617 2255 0
6021 -907 -1968 -2617 -2255 0
7600 -1454 0
2356 2366 -873 0
4650 -2366 873 0
5239 -2366 -873 0
12064 1023 1597 2642 -1754 0
3770 1023 1597 -2642 1754 0
14628 1023 1597 -2642 -1754 0
7540 1023 -1597 2642 1754 0
17191 1023 -1597 2642 -1754 0
10556 1023 -1597 -2642 1754 0
19242 1023 -1597 -2642 -1754 0
3770 -1023 1597 2642 1754 0
14628 -1023 1597 2642 -1754 0
7163 -1023 1597 -2642 1754 0
16935 -1023 1597 -2642 -1754 0
10556 -1023 -1597 2642 1754 0
19242 -1023 -1597 2642 -1754 0
13270 -1023 -1597 -2642 1754 0
21088 -1023 -1597 -2642 -1754 0
12350 2140 2527 855 -2616 0
8550 2140 2527 -855 2616 0
15343 2140 2527 -855 -2616 0
3800 2140 -2527 855 2616 0
13680 2140 -2527 855 -2616 0
10640 2140 -2527 -855 2616 0
16074 2140 -2527 -855 -2616 0
7220 -2140 2527 855 2616 0
14877 -2140 2527 855 -2616 0
12521 -2140 2527 -855 2616 0
16732 -2140 2527 -855 -2616 0
9576 -2140 -2527 855 2616 0
15702 -2140 -2527 855 -2616 0
13817 -2140 -2527 -855 2616 0
17186 -2140 -2527 -855 -2616 0
7540 1540 2112 2282 -1398 0
13195 1540 2112 -2282 1398 0
18096 1540 2112 -2282 -1398 0
32045 1540 -2112 2282 1398 0
33176 1540 -2112 2282 -1398 0
34024 1540 -2112 -2282 1398 0
34759 1540 -2112 -2282 -1398 0
1885 -1540 2112 2282 1398 0
9048 -1540 2112 2282 -1398 0
14420 -1540 2112 -2282 1398 0
19076 -1540 2112 -2282 -1398 0
32328 -1540 -2112 2282 1398 0
33402 -1540 -2112 2282 -1398 0
34208 -1540 -2112 -2282 1398 0
34906 -1540 -2112 -2282 -1398 0
4030 2398 -943 0
4960 -2398 943 0
5766 -2398 -943 0
4815 -1047 0
5350 -1435 0
32045 1885 2267 -2297 0
15080 1885 -2267 2297 0
34307 1885 -2267 -2297 0
11310 -1885 2267 2297 0
33742 -1885 2267 -2297 0
21866 -1885 -2267 2297 0
35325 -1885 -2267 -2297 0
8560 1779 -1548 0
10165 -1779 1548 0
10593 -1779 -1548 0
1984 2086 2567 881 -1096 0
5270 2086 2567 -881 1096 0
5568 2086 2567 -881 -1096 0
5890 2086 -2567 881 1096 0
5989 2086 -2567 881 -1096 0
6153 2086 -2567 -881 1096 0
6168 2086 -2567 -881 -1096 0
1860 -2086 2567 881 1096 0
3249 -2086 2567 881 -1096 0
5549 -2086 2567 -881 1096 0
5757 -2086 2567 -881 -1096 0
5983 -2086 -2567 881 1096 0
6052 -2086 -2567 881 -1096 0
6167 -2086 -2567 -881 1096 0
6178 -2086 -2567 -881 -1096 0
1070 1680 -1961 0
8560 -1680 1961 0
8774 -1680 -1961 0
2140 975 -814 0
10165 -975 814 0
10272 -975 -814 0
4066 1025 985 2150 -990 0
5885 1025 985 -2150 990 0
7715 1025 985 -2150 -990 0
1070 1025 -985 2150 990 0
4729 1025 -985 2150 -990 0
6366 1025 -985 -2150 990 0
8013 1025 -985 -2150 -990 0
8560 -1025 985 2150 990 0
9373 -1025 985 2150 -990 0
9737 -1025 985 -2150 990 0
10103 -1025 985 -2150 -990 0
8774 -1025 -985 2150 990 0
9506 -1025 -985 2150 -990 0
9833 -1025 -985 -2150 990 0
10163 -1025 -985 -2150 -990 0
9425 -1849 0
5148 1658 -1240 0
17160 -1658 1240 0
20249 -1658 -1240 0
10450 -2164 0
23595 1664 -1051 0
13728 -1664 1051 0
29773 -1664 -1051 0
14250 -2554 0
380 2410 1161 -1242 0
2850 2410 -1161 1242 0
3173 2410 -1161 -1242 0
7220 -2410 1161 1242 0
7456 -2410 1161 -1242 0
8987 -2410 -1161 1242 0
9187 -2410 -1161 -1242 0
4650 -1184 0
14326 -1843 0
2480 911 1101 1505 -1718 0
5270 911 1101 -1505 1718 0
5642 911 1101 -1505 -1718 0
1116 911 -1101 1505 1718 0
3150 911 -1101 1505 -1718 0
5437 911 -1101 -1505 1718 0
5742 911 -1101 -1505 -1718 0
124 -911 1101 1505 1718 0
2554 -911 1101 1505 -1718 0
5289 -911 1101 -1505 1718 0
5653 -911 1101 -1505 -1718 0
1218 -911 -1101 1505 1718 0
3211 -911 -1101 1505 -1718 0
5453 -911 -1101 -1505 1718 0
5752 -911 -1101 -1505 -1718 0
9500 980 -858 0
13300 -980 858 0
16150 -980 -858 0
14250 1104 -2205 0
18050 -1104 2205 0
18762 -1104 -2205 0
15015 -848 0
7540 2197 1301 1112 -1614 0
12064 2197 1301 -1112 1614 0
17191 2197 1301 -1112 -1614 0
12064 2197 -1301 1112 1614 0
17191 2197 -1301 1112 -1614 0
20268 2197 -1301 -1112 1614 0
23754 2197 -1301 -1112 -1614 0
6786 -2197 1301 1112 1614 0
12969 -2197 1301 1112 -1614 0
16678 -2197 1301 -1112 1614 0
20883 -2197 1301 -1112 -1614 0
16678 -2197 -1301 1112 1614 0
20883 -2197 -1301 1112 -1614 0
23405 -2197 -1301 -1112 1614 0
26264 -2197 -1301 -1112 -1614 0
1116 -1107 0
3770 -971 0
18050 2313 -1255 0
6080 -2313 1255 0
18354 -2313 -1255 0
11400 -2623 0
32045 1904 -1449 0
15080 -1904 1449 0
34307 -1904 -1449 0
13300 2551 -901 0
4750 -2551 901 0
14725 -2551 -901 0
2790 1304 -1245 0
5270 -1304 1245 0
5688 -1304 -1245 0
14250 2696 1383 -893 0
6080 2696 -1383 893 0
15770 2696 -1383 -893 0
5700 -2696 1383 893 0
15675 -2696 1383 -893 0
9956 -2696 -1383 893 0
16739 -2696 -1383 -893 0
28275 1033 897 -1127 0
14326 1033 -897 1127 0
31856 1033 -897 -1127 0
35815 -1033 897 1127 0
37229 -1033 897 -1127 0
36531 -1033 -897 1127 0
37408 -1033 -897 -1127 0
2356 2079 1289 -965 0
1984 2079 -1289 965 0
3586 2079 -1289 -965 0
2790 -2079 1289 965 0
4086 -2079 1289 -965 0
3881 -2079 -1289 965 0
4762 -2079 -1289 -965 0
1885 991 2227 2594 -2648 0
3770 991 2227 -2594 2648 0
5467 991 2227 -2594 -2648 0
11310 991 -2227 2594 2648 0
12630 991 -2227 2594 -2648 0
13949 991 -2227 -2594 2648 0
15137 991 -2227 -2594 -2648 0
5655 -991 2227 2594 2648 0
7257 -991 2227 2594 -2648 0
8859 -991 2227 -2594 2648 0
10302 -991 2227 -2594 -2648 0
15269 -991 -2227 2594 2648 0
16390 -991 -2227 2594 -2648 0
17512 -991 -2227 -2594 2648 0
18521 -991 -2227 -2594 -2648 0
8560 1249 -1041 0
2140 -1249 1041 0
8988 -1249 -1041 0
34320 -871 0
7600 1433 -1567 0
7600 -1433 1567 0
12160 -1433 -1567 0
1926 1134 2122 837 -2314 0
10165 1134 2122 -837 2314 0
10261 1134 2122 -837 -2314 0
8560 1134 -2122 837 2314 0
8945 1134 -2122 837 -2314 0
10593 1134 -2122 -837 2314 0
10612 1134 -2122 -837 -2314 0
1284 -1134 2122 837 2314 0
2979 -1134 2122 837 -2314 0
10229 -1134 2122 -837 2314 0
10314 -1134 2122 -837 -2314 0
8817 -1134 -2122 837 2314 0
9156 -1134 -2122 837 -2314 0
10606 -1134 -2122 -837 2314 0
10623 -1134 -2122 -837 -2314 0
2170 1947 1862 -2172 0
310 1947 -1862 2172 0
2372 1947 -1862 -2172 0
5580 -1947 1862 2172 0
5797 -1947 1862 -2172 0
5611 -1947 -1862 2172 0
5817 -1947 -1862 -2172 0
5890 2401 -2541 0
3100 -2401 2541 0
6045 -2401 -2541 0
754 -1442 0
1984 1336 1490 -1125 0
620 1336 -1490 1125 0
2406 1336 -1490 -1125 0
5270 -1336 1490 1125 0
5568 -1336 1490 -1125 0
5363 -1336 -1490 1125 0
5631 -1336 -1490 -1125 0
33930 1359 2307 -2558 0
9425 1359 -2307 2558 0
34873 1359 -2307 -2558 0
12064 -1359 2307 2558 0
35136 -1359 2307 -2558 0
18473 -1359 -2307 2558 0
35777 -1359 -2307 -2558 0
15015 2303 2196 1848 -2676 0
38610 2303 2196 -1848 2676 0
40112 2303 2196 -1848 -2676 0
34320 2303 -2196 1848 2676 0
37323 2303 -2196 1848 -2676 0
42042 2303 -2196 -1848 2676 0
42342 2303 -2196 -1848 -2676 0
7722 -2303 2196 1848 2676 0
20034 -2303 2196 1848 -2676 0
39382 -2303 2196 -1848 2676 0
40613 -2303 2196 -1848 -2676 0
35864 -2303 -2196 1848 2676 0
38327 -2303 -2196 1848 -2676 0
42196 -2303 -2196 -1848 2676 0
42443 -2303 -2196 -1848 -2676 0
7220 2124 1148 -2148 0
7220 2124 -1148 2148 0
11696 2124 -1148 -2148 0
6650 -2124 1148 2148 0
11343 -2124 1148 -2148 0
11343 -2124 -1148 2148 0
14253 -2124 -1148 -2148 0
124 1137 -2705 0
1860 -1137 2705 0
1947 -1137 -2705 0
9630 2513 -2145 0
1605 -2513 2145 0
9791 -2513 -2145 0
2356 1115 1896 2649 -2711 0
1984 1115 1896 -2649 2711 0
3586 1115 1896 -2649 -2711 0
5580 1115 -1896 2649 2711 0
5816 1115 -1896 2649 -2711 0
5778 1115 -1896 -2649 2711 0
5939 1115 -1896 -2649 -2711 0
620 -1115 1896 2649 2711 0
2740 -1115 1896 2649 -2711 0
2406 -1115 1896 -2649 2711 0
3847 -1115 1896 -2649 -2711 0
5642 -1115 -1896 2649 2711 0
5854 -1115 -1896 2649 -2711 0
5821 -1115 -1896 -2649 2711 0
5965 -1115 -1896 -2649 -2711 0
36465 -2441 0
3770 -1510 0
17160 -2603 0
1240 -1147 0
13300 2478 2288 2173 -1366 0
1900 2478 2288 -2173 1366 0
13870 2478 2288 -2173 -1366 0
10450 2478 -2288 2173 1366 0
16435 2478 -2288 2173 -1366 0
11305 2478 -2288 -2173 1366 0
16691 2478 -2288 -2173 -1366 0
15200 -2478 2288 2173 1366 0
17860 -2478 2288 2173 -1366 0
15580 -2478 2288 -2173 1366 0
17974 -2478 2288 -2173 -1366 0
17290 -2478 -2288 2173 1366 0
18487 -2478 -2288 2173 -1366 0
17461 -2478 -2288 -2173 1366 0
18538 -2478 -2288 -2173 -1366 0
6435 -2260 0
12064 2526 2683 886 -1312 0
9425 2526 2683 -886 1312 0
18473 2526 2683 -886 -1312 0
26390 2526 -2683 886 1312 0
30009 2526 -2683 886 -1312 0
29217 2526 -2683 -886 1312 0
31932 2526 -2683 -886 -1312 0
35815 -2526 2683 886 1312 0
36418 -2526 2683 886 -1312 0
36286 -2526 2683 -886 1312 0
36739 -2526 2683 -886 -1312 0
37134 -2526 -2683 886 1312 0
37315 -2526 -2683 886 -1312 0
37276 -2526 -2683 -886 1312 0
37412 -2526 -2683 -886 -1312 0
4066 2041 1347 -1273 0
1284 2041 -1347 1273 0
4862 2041 -1347 -1273 0
3745 -2041 1347 1273 0
6388 -2041 1347 -1273 0
4580 -2041 -1347 1273 0
6905 -2041 -1347 -1273 0
124 -1978 0
25740 1220 -1171 0
34320 -1220 1171 0
39468 -1220 -1171 0
9630 2542 2549 -948 0
8560 2542 -2549 948 0
10486 2542 -2549 -948 0
4280 -2542 2549 948 0
10058 -2542 2549 -948 0
9416 -2542 -2549 948 0
10572 -2542 -2549 -948 0
2356 1681 -816 0
620 -1681 816 0
2740 -1681 -816 0
5655 -1586 0
7220 2570 821 2384 -1776 0
17100 2570 821 -2384 1776 0
17822 2570 821 -2384 -1776 0
2280 2570 -821 2384 1776 0
8634 2570 -821 2384 -1776 0
17328 2570 -821 -2384 1776 0
17963 2570 -821 -2384 -1776 0
15200 -2570 821 2384 1776 0
16644 -2570 821 2384 -1776 0
18620 -2570 821 -2384 1776 0
18764 -2570 821 -2384 -1776 0
15656 -2570 -821 2384 1776 0
16927 -2570 -821 2384 -1776 0
18666 -2570 -821 -2384 1776 0
18793 -2570 -821 -2384 -1776 0
10450 1530 -976 0
18050 -1530 976 0
18572 -1530 -976 0
3720 1859 1144 -1251 0
310 1859 -1144 1251 0
3844 1859 -1144 -1251 0
2480 -1859 1144 1251 0
4712 -1859 1144 -1251 0
2666 -1859 -1144 1251 0
4786 -1859 -1144 -1251 0
11400 2182 -2679 0
16150 -2182 2679 0
17860 -2182 -2679 0
17160 1995 -1140 0
30030 -1995 1140 0
35178 -1995 -1140 0
1926 1405 935 2326 -1005 0
4066 1405 935 -2326 1005 0
5260 1405 935 -2326 -1005 0
5350 1405 -935 2326 1005 0
6313 1405 -935 2326 -1005 0
7383 1405 -935 -2326 1005 0
7980 1405 -935 -2326 -1005 0
3210 -1405 935 2326 1005 0
4558 -1405 935 2326 -1005 0
6056 -1405 935 -2326 1005 0
6892 -1405 935 -2326 -1005 0
6955 -1405 -935 2326 1005 0
7629 -1405 -935 2326 -1005 0
8378 -1405 -935 -2326 1005 0
8796 -1405 -935 -2326 -1005 0
3420 1577 2457 -2654 0
15200 1577 -2457 2654 0
15884 1577 -2457 -2654 0
18050 -1577 2457 2654 0
18221 -1577 2457 -2654 0
18810 -1577 -2457 2654 0
18844 -1577 -2457 -2654 0
1605 1647 -930 0
4066 -1647 930 0
5061 -1647 -930 0
24505 1731 2084 -2272 0
12064 1731 -2084 2272 0
28727 1731 -2084 -2272 0
22620 -1731 2084 2272 0
32422 -1731 2084 -2272 0
27446 -1731 -2084 2272 0
34111 -1731 -2084 -2272 0
5350 1656 2446 1696 -1088 0
2140 1656 2446 -1696 1088 0
6420 1656 2446 -1696 -1088 0
5350 1656 -2446 1696 1088 0
8025 1656 -2446 1696 -1088 0
6420 1656 -2446 -1696 1088 0
8560 1656 -2446 -1696 -1088 0
1605 -1656 2446 1696 1088 0
6152 -1656 2446 1696 -1088 0
3424 -1656 2446 -1696 1088 0
7062 -1656 2446 -1696 -1088 0
6152 -1656 -2446 1696 1088 0
8426 -1656 -2446 1696 -1088 0
7062 -1656 -2446 -1696 1088 0
8881 -1656 -2446 -1696 -1088 0
16150 1932 -1810 0
10450 -1932 1810 0
17718 -1932 -1810 0
5148 1677 1354 1426 -2506 0
7722 1677 1354 -1426 2506 0
11943 1677 1354 -1426 -2506 0
34320 1677 -1354 1426 2506 0
35350 1677 -1354 1426 -2506 0
35864 1677 -1354 -1426 2506 0
36709 1677 -1354 -1426 -2506 0
12870 -1677 1354 1426 2506 0
16474 -1677 1354 1426 -2506 0
18275 -1677 1354 -1426 2506 0
21230 -1677 1354 -1426 -2506 0
36894 -1677 -1354 1426 2506 0
37615 -1677 -1354 1426 -2506 0
37975 -1677 -1354 -1426 2506 0
38566 -1677 -1354 -1426 -2506 0
2140 -1480 0
27885 2181 -1298 0
5148 -2181 1298 0
29687 -2181 -1298 0
4280 -1191 0
18050 2083 1661 -1686 0
10450 2083 -1661 1686 0
18572 2083 -1661 -1686 0
15200 -2083 1661 1686 0
18810 -2083 1661 -1686 0
17290 -2083 -1661 1686 0
18915 -2083 -1661 -1686 0
8580 -2206 0
36465 -2087 0
4290 1592 1411 845 -1921 0
15015 1592 1411 -845 1921 0
17803 1592 1411 -845 -1921 0
13728 1592 -1411 845 1921 0
16645 1592 -1411 845 -1921 0
23938 1592 -1411 -845 1921 0
25834 1592 -1411 -845 -1921 0
36465 -1592 1411 845 1921 0
37108 -1592 1411 845 -1921 0
38717 -1592 1411 -845 1921 0
39136 -1592 1411 -845 -1921 0
38524 -1592 -1411 845 1921 0
38962 -1592 -1411 845 -1921 0
40056 -1592 -1411 -845 1921 0
40340 -1592 -1411 -845 -1921 0
1605 1221 2027 -2157 0
3424 1221 -2027 2157 0
4515 1221 -2027 -2157 0
7490 -1221 2027 2157 0
7972 -1221 2027 -2157 0
8517 -1221 -2027 2157 0
8845 -1221 -2027 -2157 0
10165 1163 -1745 0
4280 -1163 1745 0
10379 -1163 -1745 0
15080 2368 2003 -1936 0
12064 2368 -2003 1936 0
22318 2368 -2003 -1936 0
6786 -2368 2003 1936 0
19152 -2368 2003 -1936 0
16678 -2368 -2003 1936 0
25087 -2368 -2003 -1936 0
4030 2040 -1368 0
1984 -2040 1368 0
4724 -2040 -1368 0
1885 -1855 0
16150 2287 -1413 0
380 -2287 1413 0
16207 -2287 -1413 0
620 -2417 0
4815 1930 1130 1079 -840 0
4066 1930 1130 -1079 840 0
7051 1930 1130 -1079 -840 0
5885 1930 -1130 1079 840 0
8052 1930 -1130 1079 -840 0
7715 1930 -1130 -1079 840 0
9058 1930 -1130 -1079 -840 0
3210 -1930 1130 1079 840 0
6580 -1930 1130 1079 -840 0
6056 -1930 1130 -1079 840 0
8146 -1930 1130 -1079 -840 0
7330 -1930 -1130 1079 840 0
8846 -1930 -1130 1079 -840 0
8610 -1930 -1130 -1079 840 0
9551 -1930 -1130 -1079 -840 0
4750 1611 -2185 0
9500 -1611 2185 0
11875 -1611 -2185 0
15015 1337 1380 -1187 0
13728 1337 -1380 1187 0
23938 1337 -1380 -1187 0
25740 -1337 1380 1187 0
31746 -1337 1380 -1187 0
31231 -1337 -1380 1187 0
35315 -1337 -1380 -1187 0
8025 -2038 0
1116 1199 1605 -1970 0
5580 1199 -1605 1970 0
5692 1199 -1605 -1970 0
4030 -1199 1605 1970 0
4421 -1199 1605 -1970 0
5983 -1199 -1605 1970 0
6022 -1199 -1605 -1970 0
36465 -2376 0
1900 1154 928 -2504 0
3800 1154 -928 2504 0
5320 1154 -928 -2504 0
9500 -1154 928 2504 0
10450 -1154 928 -2504 0
11400 -1154 -928 2504 0
12160 -1154 -928 -2504 0
23595 2597 -1296 0
4290 -2597 1296 0
25525 -2597 -1296 0
3720 1352 1402 1212 -1024 0
1984 1352 1402 -1212 1024 0
4514 1352 1402 -1212 -1024 0
5890 1352 -1402 1212 1024 0
6076 1352 -1402 1212 -1024 0
5989 1352 -1402 -1212 1024 0
6116 1352 -1402 -1212 -1024 0
1116 -1352 1402 1212 1024 0
4166 -1352 1402 1212 -1024 0
2743 -1352 1402 -1212 1024 0
4817 -1352 1402 -1212 -1024 0
5946 -1352 -1402 1212 1024 0
6098 -1352 -1402 1212 -1024 0
6027 -1352 -1402 -1212 1024 0
6131 -1352 -1402 -1212 -1024 0
1116 1790 -2714 0
310 -1790 2714 0
1370 -1790 -2714 0
5270 1690 -1789 0
2480 -1690 1789 0
5642 -1690 -1789 0
3745 2089 -2432 0
9630 -2089 2432 0
10005 -2089 -2432 0
13728 1935 852 1476 -925 0
27885 1935 852 -1476 925 0
32690 1935 852 -1476 -925 0
21450 1935 -852 1476 925 0
28314 1935 -852 1476 -925 0
35392 1935 -852 -1476 925 0
37795 1935 -852 -1476 -925 0
27885 -1935 852 1476 925 0
32690 -1935 852 1476 -925 0
37645 -1935 852 -1476 925 0
39326 -1935 852 -1476 -925 0
35392 -1935 -852 1476 925 0
37795 -1935 -852 1476 -925 0
40272 -1935 -852 -1476 925 0
41113 -1935 -852 -1476 -925 0
1070 1057 1394 2039 -1364 0
1605 1057 1394 -2039 1364 0
2514 1057 1394 -2039 -1364 0
1605 1057 -1394 2039 1364 0
2514 1057 -1394 2039 -1364 0
2969 1057 -1394 -2039 1364 0
3742 1057 -1394 -2039 -1364 0
5885 -1057 1394 2039 1364 0
6366 -1057 1394 2039 -1364 0
6607 -1057 1394 -2039 1364 0
7017 -1057 1394 -2039 -1364 0
6607 -1057 -1394 2039 1364 0
7017 -1057 -1394 2039 -1364 0
7221 -1057 -1394 -2039 1364 0
7569 -1057 -1394 -2039 -1364 0
15015 1062 -2160 0
21450 -1062 2160 0
28958 -1062 -2160 0
1885 851 2678 -2715 0
11310 851 -2678 2715 0
12630 851 -2678 -2715 0
12064 -851 2678 2715 0
13346 -851 2678 -2715 0
19755 -851 -2678 2715 0
20652 -851 -2678 -2715 0
26390 2496 1937 -1412 0
16965 2496 -1937 1412 0
31479 2496 -1937 -1412 0
4524 -2496 1937 1412 0
27747 -2496 1937 -1412 0
19453 -2496 -1937 1412 0
32226 -2496 -1937 -1412 0
535 1751 -2602 0
7490 -1751 2602 0
7650 -1751 -2602 0
950 2340 -1237 0
9500 -2340 1237 0
9975 -2340 -1237 0
9425 2371 1504 -1367 0
4524 2371 -1504 1367 0
12818 2371 -1504 -1367 0
12064 -2371 1504 1367 0
18473 -2371 1504 -1367 0
15140 -2371 -1504 1367 0
20780 -2371 -1504 -1367 0
5885 -1320 0
24505 -1149 0
18050 1225 979 1030 -1213 0
3420 1225 979 -1030 1213 0
18221 1225 979 -1030 -1213 0
8550 1225 -979 1030 1213 0
18477 1225 -979 1030 -1213 0
10431 1225 -979 -1030 1213 0
18572 1225 -979 -1030 -1213 0
950 -1225 979 1030 1213 0
18097 -1225 979 1030 -1213 0
4199 -1225 979 -1030 1213 0
18260 -1225 979 -1030 -1213 0
9073 -1225 -979 1030 1213 0
18504 -1225 -979 1030 -1213 0
10859 -1225 -979 -1030 1213 0
18593 -1225 -979 -1030 -1213 0
22620 -1083 0
30030 1168 872 -2436 0
17160 1168 -872 2436 0
35178 1168 -872 -2436 0
6435 -1168 872 2436 0
31961 -1168 872 -2436 0
21021 -1168 -872 2436 0
36336 -1168 -872 -2436 0
15080 2331 1190 1944 -824 0
28275 2331 1190 -1944 824 0
32045 2331 1190 -1944 -824 0
6786 2331 -1190 1944 824 0
19152 2331 -1190 1944 -824 0
29971 2331 -1190 -1944 824 0
33063 2331 -1190 -1944 -824 0
24505 -2331 1190 1944 824 0
29783 -2331 1190 1944 -824 0
34401 -2331 1190 -1944 824 0
35721 -2331 1190 -1944 -824 0
26880 -2331 -1190 1944 824 0
31208 -2331 -1190 1944 -824 0
34995 -2331 -1190 -1944 824 0
36077 -2331 -1190 -1944 -824 0
12350 2459 -2292 0
3420 -2459 2292 0
13547 -2459 -2292 0
3745 1321 -1958 0
2140 -1321 1958 0
5136 -1321 -1958 0
5655 -2585 0
10165 2171 996 920 -2348 0
3210 2171 996 -920 2348 0
10325 2171 996 -920 -2348 0
1605 2171 -996 920 2348 0
10245 2171 -996 920 -2348 0
4334 2171 -996 -920 2348 0
10382 2171 -996 -920 -2348 0
5350 -2171 996 920 2348 0
10433 -2171 996 920 -2348 0
6955 -2171 996 -920 2348 0
10513 -2171 996 -920 -2348 0
6152 -2171 -996 920 2348 0
10473 -2171 -996 920 -2348 0
7517 -2171 -996 -920 2348 0
10541 -2171 -996 -920 -2348 0
8560 1399 2434 -2614 0
3745 1399 -2434 2614 0
9309 1399 -2434 -2614 0
1284 -1399 2434 2614 0
8817 -1399 2434 -2614 0
4580 -1399 -2434 2614 0
9476 -1399 -2434 -2614 0
26390 -2487 0
4030 -2188 0
3420 2007 1823 -1268 0
6080 2007 -1823 1268 0
8406 2007 -1823 -1268 0
1900 -2007 1823 1268 0
4978 -2007 1823 -1268 0
7372 -2007 -1823 1268 0
9465 -2007 -1823 -1268 0
380 1478 -1050 0
12350 -1478 1050 0
12483 -1478 -1050 0
12870 2033 -1284 0
15015 -2033 1284 0
23381 -2033 -1284 0
3770 2223 -1883 0
13195 -2223 1883 0
15645 -2223 -1883 0
1116 1226 2627 1009 -1774 0
2356 1226 2627 -1009 1774 0
3048 1226 2627 -1009 -1774 0
2170 1226 -2627 1009 1774 0
2895 1226 -2627 1009 -1774 0
3701 1226 -2627 -1009 1774 0
4151 1226 -2627 -1009 -1774 0
4340 -1226 2627 1009 1774 0
4675 -1226 2627 1009 -1774 0
5047 -1226 2627 -1009 1774 0
5254 -1226 2627 -1009 -1774 0
4991 -1226 -2627 1009 1774 0
5209 -1226 -2627 1009 -1774 0
5450 -1226 -2627 -1009 1774 0
5585 -1226 -2627 -1009 -1774 0
30160 1080 -2606 0
15080 -1080 2606 0
33176 -1080 -2606 0
12064 1523 2165 1001 -1722 0
22620 1523 2165 -1001 1722 0
27446 1523 2165 -1001 -1722 0
14326 1523 -2165 1001 1722 0
21806 1523 -2165 1001 -1722 0
28350 1523 -2165 -1001 1722 0
31342 1523 -2165 -1001 -1722 0
32045 -1523 2165 1001 1722 0
33855 -1523 2165 1001 -1722 0
35438 -1523 2165 -1001 1722 0
36162 -1523 2165 -1001 -1722 0
34194 -1523 -2165 1001 1722 0
35316 -1523 -2165 1001 -1722 0
36298 -1523 -2165 -1001 1722 0
36746 -1523 -2165 -1001 -1722 0
754 2319 -2415 0
24505 -2319 2415 0
24769 -2319 -2415 0
1240 2403 -1756 0
4960 -2403 1756 0
5208 -2403 -1756 0
4340 2149 1534 1073 -1195 0
4650 2149 1534 -1073 1195 0
5735 2149 1534 -1073 -1195 0
310 2149 -1534 1073 1195 0
4433 2149 -1534 1073 -1195 0
4727 2149 -1534 -1073 1195 0
5758 2149 -1534 -1073 -1195 0
124 -2149 1534 1073 1195 0
4377 -2149 1534 1073 -1195 0
4681 -2149 1534 -1073 1195 0
5744 -2149 1534 -1073 -1195 0
428 -2149 -1534 1073 1195 0
4468 -2149 -1534 1073 -1195 0
4757 -2149 -1534 -1073 1195 0
5767 -2149 -1534 -1073 -1195 0
8560 1628 1649 -2053 0
9095 1628 -1649 2053 0
10379 1628 -1649 -2053 0
3424 -1628 1649 2053 0
9245 -1628 1649 -2053 0
9609 -1628 -1649 2053 0
10482 -1628 -1649 -2053 0
25740 1306 1871 958 -1173 0
6435 1306 1871 -958 1173 0
28314 1306 1871 -958 -1173 0
15015 1306 -1871 958 1173 0
31746 1306 -1871 958 -1173 0
19198 1306 -1871 -958 1173 0
33419 1306 -1871 -958 -1173 0
17160 -1306 1871 958 1173 0
32604 -1306 1871 958 -1173 0
21021 -1306 1871 -958 1173 0
34148 -1306 1871 -958 -1173 0
26169 -1306 -1871 958 1173 0
36208 -1306 -1871 958 -1173 0
28679 -1306 -1871 -958 1173 0
37211 -1306 -1871 -958 -1173 0
17160 2601 1976 -2097 0
19305 2601 -1976 2097 0
28743 2601 -1976 -2097 0
2145 -2601 1976 2097 0
18447 -2601 1976 -2097 0
20485 -2601 -1976 2097 0
29451 -2601 -1976 -2097 0
7490 2370 -2414 0
9630 -2370 2414 0
10379 -2370 -2414 0
27885 1090 -1886 0
12870 -1090 1886 0
32389 -1090 -1886 0
