p wcnf 790 2126 1000000
1000000 82 -367 -536 -85 0
1000000 101 -367 -536 -85 0
1000000 30 -487 -501 0
1000000 102 -487 -501 0
1000000 65 -432 -545 -611 0
1000000 103 -432 -545 -611 0
1000000 56 -542 -522 0
1000000 104 -542 -522 0
1000000 49 -394 -628 -404 0
1000000 105 -394 -628 -404 0
1000000 53 -384 -423 -591 0
1000000 106 -384 -423 -591 0
1000000 95 -373 -543 -388 0
1000000 107 -373 -543 -388 0
1000000 21 -610 -515 0
1000000 108 -610 -515 0
1000000 45 -445 -477 -447 0
1000000 109 -445 -477 -447 0
1000000 3 -467 -493 -98 0
1000000 110 -467 -493 -98 0
1000000 42 -594 -566 -490 0
1000000 111 -594 -566 -490 0
1000000 16 -439 -443 -73 0
1000000 112 -439 -443 -73 0
1000000 35 -627 -382 -396 0
1000000 113 -627 -382 -396 0
1000000 77 -624 -600 -486 0
1000000 114 -624 -600 -486 0
1000000 79 -467 -372 -585 0
1000000 115 -467 -372 -585 0
1000000 57 -608 -559 0
1000000 116 -608 -559 0
1000000 10 -561 -360 -359 0
1000000 117 -561 -360 -359 0
1000000 10 -566 -362 -631 0
1000000 118 -566 -362 -631 0
1000000 28 -592 -634 -94 0
1000000 119 -592 -634 -94 0
1000000 88 -622 -548 -94 0
1000000 120 -622 -548 -94 0
1000000 31 -576 -525 -95 0
1000000 121 -576 -525 -95 0
1000000 17 -461 -597 0
1000000 122 -461 -597 0
1000000 49 -445 -473 -622 0
1000000 123 -445 -473 -622 0
1000000 37 -546 -348 -89 0
1000000 124 -546 -348 -89 0
1000000 24 -416 -471 0
1000000 125 -416 -471 0
1000000 24 -609 -628 -458 0
1000000 126 -609 -628 -458 0
1000000 77 -397 -459 -381 0
1000000 127 -397 -459 -381 0
1000000 38 -627 -615 0
1000000 128 -627 -615 0
1000000 83 -592 -383 -492 0
1000000 129 -592 -383 -492 0
1000000 13 -509 -637 0
1000000 130 -509 -637 0
1000000 44 -593 -387 -372 0
1000000 131 -593 -387 -372 0
1000000 84 -583 -631 -461 0
1000000 132 -583 -631 -461 0
1000000 98 -424 -618 0
1000000 133 -424 -618 0
1000000 81 -515 -386 -539 0
1000000 134 -515 -386 -539 0
1000000 90 -440 -379 0
1000000 135 -440 -379 0
1000000 43 -423 -518 0
1000000 136 -423 -518 0
1000000 62 -504 -422 -597 0
1000000 137 -504 -422 -597 0
1000000 86 -444 -391 0
1000000 138 -444 -391 0
1000000 76 -393 -403 -628 0
1000000 139 -393 -403 -628 0
1000000 63 -397 -588 -84 0
1000000 140 -397 -588 -84 0
1000000 52 -533 -362 -553 0
1000000 141 -533 -362 -553 0
1000000 71 -383 -516 -81 0
1000000 142 -383 -516 -81 0
1000000 45 -541 -385 0
1000000 143 -541 -385 0
1000000 9 -522 -623 0
1000000 144 -522 -623 0
1000000 10 -356 -480 -460 0
1000000 145 -356 -480 -460 0
1000000 1 -478 -73 0
1000000 146 -478 -73 0
1000000 86 -558 -446 -495 0
1000000 147 -558 -446 -495 0
1000000 72 -358 -570 -90 0
1000000 148 -358 -570 -90 0
1000000 74 -385 -480 -345 0
1000000 149 -385 -480 -345 0
1000000 51 -594 -95 0
1000000 150 -594 -95 0
1000000 67 -513 -483 0
1000000 151 -513 -483 0
1000000 14 -592 -508 -606 0
1000000 152 -592 -508 -606 0
1000000 52 -498 -451 0
1000000 153 -498 -451 0
1000000 1 -367 -463 -521 0
1000000 154 -367 -463 -521 0
1000000 35 -549 -375 0
1000000 155 -549 -375 0
1000000 58 -385 -561 -343 0
1000000 156 -385 -561 -343 0
1000000 96 -354 -517 0
1000000 157 -354 -517 0
1000000 89 -476 -401 0
1000000 158 -476 -401 0
1000000 9 -385 -478 0
1000000 159 -385 -478 0
1000000 30 -409 -501 -81 0
1000000 160 -409 -501 -81 0
1000000 55 -348 -570 -68 0
1000000 161 -348 -570 -68 0
1000000 32 -504 -362 -518 0
1000000 162 -504 -362 -518 0
1000000 91 -354 -95 0
1000000 163 -354 -95 0
1000000 26 -582 -492 -541 0
1000000 164 -582 -492 -541 0
1000000 80 -454 -508 0
1000000 165 -454 -508 0
1000000 7 -498 -614 0
1000000 166 -498 -614 0
1000000 23 -512 -374 0
1000000 167 -512 -374 0
1000000 100 -616 -389 -462 0
1000000 168 -616 -389 -462 0
1000000 57 -378 -521 0
1000000 169 -378 -521 0
1000000 28 -483 -499 -606 0
1000000 170 -483 -499 -606 0
1000000 76 -617 -583 0
1000000 171 -617 -583 0
1000000 60 -593 -441 -75 0
1000000 172 -593 -441 -75 0
1000000 58 -523 -389 0
1000000 173 -523 -389 0
1000000 33 -505 -344 0
1000000 174 -505 -344 0
1000000 36 -482 -490 0
1000000 175 -482 -490 0
1000000 83 -396 -429 0
1000000 176 -396 -429 0
1000000 32 -464 -451 0
1000000 177 -464 -451 0
1000000 75 -533 -472 -352 0
1000000 178 -533 -472 -352 0
1000000 14 -481 -388 0
1000000 179 -481 -388 0
1000000 78 -342 -632 -359 0
1000000 180 -342 -632 -359 0
1000000 14 -391 -542 -638 0
1000000 181 -391 -542 -638 0
1000000 68 -403 -530 -619 0
1000000 182 -403 -530 -619 0
1000000 89 -585 -94 0
1000000 183 -585 -94 0
1000000 2 -589 -549 0
1000000 184 -589 -549 0
1000000 27 -528 -573 -350 0
1000000 185 -528 -573 -350 0
1000000 4 -442 -422 -349 0
1000000 186 -442 -422 -349 0
1000000 19 -631 -509 -560 0
1000000 187 -631 -509 -560 0
1000000 42 -515 -350 -65 0
1000000 188 -515 -350 -65 0
1000000 44 -591 -506 0
1000000 189 -591 -506 0
1000000 48 -511 -539 -442 0
1000000 190 -511 -539 -442 0
1000000 59 -396 -454 -628 0
1000000 191 -396 -454 -628 0
1000000 72 -625 -514 -519 0
1000000 192 -625 -514 -519 0
1000000 8 -584 -383 -363 0
1000000 193 -584 -383 -363 0
1000000 44 -388 -612 0
1000000 194 -388 -612 0
1000000 41 -441 -411 -582 0
1000000 195 -441 -411 -582 0
1000000 15 -445 -528 -17 0
1000000 196 -445 -528 -17 0
1000000 12 -342 -451 0
1000000 197 -342 -451 0
1000000 100 -446 -544 0
1000000 198 -446 -544 0
1000000 69 -393 -509 0
1000000 199 -393 -509 0
1000000 63 -552 -580 0
1000000 200 -552 -580 0
1000000 37 -601 -532 0
1000000 201 -601 -532 0
1000000 58 -590 -490 0
1000000 202 -590 -490 0
1000000 78 -351 -542 0
1000000 203 -351 -542 0
1000000 47 -428 -494 -442 0
1000000 204 -428 -494 -442 0
1000000 93 -405 -560 -427 0
1000000 205 -405 -560 -427 0
1000000 5 -523 -395 -550 0
1000000 206 -523 -395 -550 0
1000000 95 -419 -504 0
1000000 207 -419 -504 0
1000000 80 -389 -446 -503 0
1000000 208 -389 -446 -503 0
1000000 11 -351 -621 0
1000000 209 -351 -621 0
1000000 40 -501 -81 0
1000000 210 -501 -81 0
1000000 47 -610 -628 -69 0
1000000 211 -610 -628 -69 0
1000000 93 -404 -634 0
1000000 212 -404 -634 0
1000000 73 -355 -456 0
1000000 213 -355 -456 0
1000000 2 -491 -588 -17 0
1000000 214 -491 -588 -17 0
1000000 36 -509 -583 0
1000000 215 -509 -583 0
1000000 15 -525 -404 0
1000000 216 -525 -404 0
1000000 67 -439 -589 -573 0
1000000 217 -439 -589 -573 0
1000000 35 -504 -84 0
1000000 218 -504 -84 0
1000000 72 -410 -518 -479 0
1000000 219 -410 -518 -479 0
1000000 30 -630 -426 -85 0
1000000 220 -630 -426 -85 0
1000000 51 -409 -383 -632 0
1000000 221 -409 -383 -632 0
1000000 59 -633 -81 0
1000000 222 -633 -81 0
1000000 24 -586 -495 -464 0
1000000 223 -586 -495 -464 0
1000000 18 -580 -519 -573 0
1000000 224 -580 -519 -573 0
1000000 61 -500 -94 0
1000000 225 -500 -94 0
1000000 8 -526 -391 0
1000000 226 -526 -391 0
1000000 11 -538 -341 -485 0
1000000 227 -538 -341 -485 0
1000000 25 -510 -525 -359 0
1000000 228 -510 -525 -359 0
1000000 97 -364 -525 -98 0
1000000 229 -364 -525 -98 0
1000000 64 -580 -563 0
1000000 230 -580 -563 0
1000000 33 -507 -402 -561 0
1000000 231 -507 -402 -561 0
1000000 54 -605 -500 0
1000000 232 -605 -500 0
1000000 8 -583 -394 0
1000000 233 -583 -394 0
1000000 25 -576 -56 0
1000000 234 -576 -56 0
1000000 99 -498 -516 -396 0
1000000 235 -498 -516 -396 0
1000000 98 -516 -629 -471 0
1000000 236 -516 -629 -471 0
1000000 59 -498 -450 -467 0
1000000 237 -498 -450 -467 0
1000000 18 -634 -502 0
1000000 238 -634 -502 0
1000000 41 -579 -585 -542 0
1000000 239 -579 -585 -542 0
1000000 41 -410 -375 -514 0
1000000 240 -410 -375 -514 0
1000000 16 -460 -387 0
1000000 241 -460 -387 0
1000000 88 -591 -427 0
1000000 242 -591 -427 0
1000000 37 -394 -595 -572 0
1000000 243 -394 -595 -572 0
1000000 64 -421 -369 -585 0
1000000 244 -421 -369 -585 0
1000000 57 -573 -590 -382 0
1000000 245 -573 -590 -382 0
1000000 71 -416 -599 -601 0
1000000 246 -416 -599 -601 0
1000000 61 -429 -523 -356 0
1000000 247 -429 -523 -356 0
1000000 11 -559 -583 0
1000000 248 -559 -583 0
1000000 70 -496 -90 0
1000000 249 -496 -90 0
1000000 25 -412 -470 -85 0
1000000 250 -412 -470 -85 0
1000000 92 -365 -498 -519 0
1000000 251 -365 -498 -519 0
1000000 38 -538 -606 -52 0
1000000 252 -538 -606 -52 0
1000000 66 -378 -554 -435 0
1000000 253 -378 -554 -435 0
1000000 13 -520 -438 -440 0
1000000 254 -520 -438 -440 0
1000000 6 -569 -414 -22 0
1000000 255 -569 -414 -22 0
1000000 21 -640 -513 0
1000000 256 -640 -513 0
1000000 63 -494 -411 0
1000000 257 -494 -411 0
1000000 60 -499 -621 0
1000000 258 -499 -621 0
1000000 96 -431 -615 -363 0
1000000 259 -431 -615 -363 0
1000000 92 -566 -452 -490 0
1000000 260 -566 -452 -490 0
1000000 80 -590 -362 -91 0
1000000 261 -590 -362 -91 0
1000000 87 -473 -619 0
1000000 262 -473 -619 0
1000000 31 -419 -524 -428 0
1000000 263 -419 -524 -428 0
1000000 46 -536 -519 -623 0
1000000 264 -536 -519 -623 0
1000000 60 -519 -81 0
1000000 265 -519 -81 0
1000000 74 -429 -375 0
1000000 266 -429 -375 0
1000000 1 -440 -500 -75 0
1000000 267 -440 -500 -75 0
1000000 13 -511 -457 -375 0
1000000 268 -511 -457 -375 0
1000000 45 -605 -65 0
1000000 269 -605 -65 0
1000000 92 -560 -351 0
1000000 270 -560 -351 0
1000000 93 -497 -536 0
1000000 271 -497 -536 0
1000000 62 -574 -555 0
1000000 272 -574 -555 0
1000000 90 -639 -98 0
1000000 273 -639 -98 0
1000000 66 -500 -376 0
1000000 274 -500 -376 0
1000000 61 -604 -384 -562 0
1000000 275 -604 -384 -562 0
1000000 94 -370 -467 0
1000000 276 -370 -467 0
1000000 22 -437 -449 -562 0
1000000 277 -437 -449 -562 0
1000000 71 -544 -479 -460 0
1000000 278 -544 -479 -460 0
1000000 48 -569 -75 0
1000000 279 -569 -75 0
1000000 5 -370 -76 0
1000000 280 -370 -76 0
1000000 46 -500 -405 0
1000000 281 -500 -405 0
1000000 54 -593 -400 -75 0
1000000 282 -593 -400 -75 0
1000000 50 -530 -487 -527 0
1000000 283 -530 -487 -527 0
1000000 49 -456 -460 -50 0
1000000 284 -456 -460 -50 0
1000000 19 -448 -505 -21 0
1000000 285 -448 -505 -21 0
1000000 87 -365 -427 0
1000000 286 -365 -427 0
1000000 73 -610 -550 0
1000000 287 -610 -550 0
1000000 88 -634 -380 0
1000000 288 -634 -380 0
1000000 99 -602 -633 0
1000000 289 -602 -633 0
1000000 2 -517 -444 0
1000000 290 -517 -444 0
1000000 19 -610 -403 0
1000000 291 -610 -403 0
1000000 77 -353 -98 0
1000000 292 -353 -98 0
1000000 62 -564 -95 0
1000000 293 -564 -95 0
1000000 12 -389 -560 -518 0
1000000 294 -389 -560 -518 0
1000000 78 -603 -459 -90 0
1000000 295 -603 -459 -90 0
1000000 79 -353 -605 0
1000000 296 -353 -605 0
1000000 85 -488 -359 0
1000000 297 -488 -359 0
1000000 6 -557 -600 0
1000000 298 -557 -600 0
1000000 86 -469 -396 -576 0
1000000 299 -469 -396 -576 0
1000000 53 -341 -562 0
1000000 300 -341 -562 0
1000000 84 -376 -588 -90 0
1000000 301 -376 -588 -90 0
1000000 39 -573 -397 0
1000000 302 -573 -397 0
1000000 29 -640 -436 -638 0
1000000 303 -640 -436 -638 0
1000000 64 -430 -490 -416 0
1000000 304 -430 -490 -416 0
1000000 96 -409 -550 -406 0
1000000 305 -409 -550 -406 0
1000000 51 -433 -345 0
1000000 306 -433 -345 0
1000000 20 -475 -480 0
1000000 307 -475 -480 0
1000000 53 -360 -523 -377 0
1000000 308 -360 -523 -377 0
1000000 15 -458 -576 0
1000000 309 -458 -576 0
1000000 7 -469 -547 0
1000000 310 -469 -547 0
1000000 91 -345 -623 -95 0
1000000 311 -345 -623 -95 0
1000000 66 -495 -346 0
1000000 312 -495 -346 0
1000000 100 -379 -494 0
1000000 313 -379 -494 0
1000000 39 -618 -608 -388 0
1000000 314 -618 -608 -388 0
1000000 46 -599 -467 -539 0
1000000 315 -599 -467 -539 0
1000000 83 -611 -441 0
1000000 316 -611 -441 0
1000000 56 -634 -402 -517 0
1000000 317 -634 -402 -517 0
1000000 16 -381 -393 -545 0
1000000 318 -381 -393 -545 0
1000000 43 -596 -581 -362 0
1000000 319 -596 -581 -362 0
1000000 32 -466 -85 0
1000000 320 -466 -85 0
1000000 97 -563 -430 -403 0
1000000 321 -563 -430 -403 0
1000000 47 -541 -465 0
1000000 322 -541 -465 0
1000000 26 -623 -536 -578 0
1000000 323 -623 -536 -578 0
1000000 7 -353 -496 0
1000000 324 -353 -496 0
1000000 65 -461 -578 0
1000000 325 -461 -578 0
1000000 67 -425 -632 0
1000000 326 -425 -632 0
1000000 79 -625 -90 0
1000000 327 -625 -90 0
1000000 99 -357 -622 -577 0
1000000 328 -357 -622 -577 0
1000000 28 -571 -585 -68 0
1000000 329 -571 -585 -68 0
1000000 74 -379 -378 -548 0
1000000 330 -379 -378 -548 0
1000000 6 -575 -473 0
1000000 331 -575 -473 0
1000000 9 -397 -395 0
1000000 332 -397 -395 0
1000000 26 -596 -415 -404 0
1000000 333 -596 -415 -404 0
1000000 34 -635 -556 -467 0
1000000 334 -635 -556 -467 0
1000000 34 -391 -432 -510 0
1000000 335 -391 -432 -510 0
1000000 97 -590 -595 -480 0
1000000 336 -590 -595 -480 0
1000000 27 -433 -591 -590 0
1000000 337 -433 -591 -590 0
1000000 12 -497 -611 -360 0
1000000 338 -497 -611 -360 0
1000000 87 -356 -528 -89 0
1000000 339 -356 -528 -89 0
1000000 36 -436 -412 0
1000000 340 -436 -412 0
1000000 341 749 0
1000000 342 741 0
1000000 343 745 0
1000000 344 727 0
1000000 345 721 0
1000000 346 709 0
1000000 347 668 0
1000000 348 665 0
1000000 349 755 0
1000000 350 717 0
1000000 351 784 0
1000000 352 752 0
1000000 353 741 0
1000000 354 742 0
1000000 355 758 0
1000000 356 769 0
1000000 357 661 0
1000000 358 723 0
1000000 359 777 0
1000000 360 731 0
1000000 361 740 0
1000000 362 654 0
1000000 363 777 0
1000000 364 679 0
1000000 365 739 0
1000000 366 655 0
1000000 367 685 0
1000000 368 659 0
1000000 369 644 0
1000000 370 744 0
1000000 371 744 0
1000000 372 686 0
1000000 373 684 0
1000000 374 752 0
1000000 375 780 0
1000000 376 650 0
1000000 377 732 0
1000000 378 760 0
1000000 379 737 0
1000000 380 647 0
1000000 381 720 0
1000000 382 694 0
1000000 383 645 0
1000000 384 720 0
1000000 385 673 0
1000000 386 698 0
1000000 387 753 0
1000000 388 744 0
1000000 389 687 0
1000000 390 699 0
1000000 391 683 0
1000000 392 728 0
1000000 393 728 0
1000000 394 768 0
1000000 395 773 0
1000000 396 769 0
1000000 397 756 0
1000000 398 663 0
1000000 399 684 0
1000000 400 762 0
1000000 401 651 0
1000000 402 756 0
1000000 403 700 0
1000000 404 659 0
1000000 405 754 0
1000000 406 747 0
1000000 407 767 0
1000000 408 664 0
1000000 409 645 0
1000000 410 748 0
1000000 411 669 0
1000000 412 656 0
1000000 413 786 0
1000000 414 732 0
1000000 415 772 0
1000000 416 730 0
1000000 417 714 0
1000000 418 722 0
1000000 419 641 0
1000000 420 770 0
1000000 421 696 0
1000000 422 738 0
1000000 423 707 0
1000000 424 783 0
1000000 425 781 0
1000000 426 718 0
1000000 427 764 0
1000000 428 763 0
1000000 429 715 0
1000000 430 681 0
1000000 431 766 0
1000000 432 783 0
1000000 433 776 0
1000000 434 690 0
1000000 435 728 0
1000000 436 741 0
1000000 437 750 0
1000000 438 716 0
1000000 439 770 0
1000000 440 769 0
1000000 441 745 0
1000000 442 701 0
1000000 443 782 0
1000000 444 680 0
1000000 445 706 0
1000000 446 712 0
1000000 447 779 0
1000000 448 739 0
1000000 449 790 0
1000000 450 663 0
1000000 451 649 0
1000000 452 787 0
1000000 453 773 0
1000000 454 652 0
1000000 455 782 0
1000000 456 730 0
1000000 457 752 0
1000000 458 673 0
1000000 459 788 0
1000000 460 687 0
1000000 461 767 0
1000000 462 690 0
1000000 463 778 0
1000000 464 697 0
1000000 465 649 0
1000000 466 667 0
1000000 467 781 0
1000000 468 726 0
1000000 469 717 0
1000000 470 689 0
1000000 471 743 0
1000000 472 702 0
1000000 473 662 0
1000000 474 707 0
1000000 475 735 0
1000000 476 707 0
1000000 477 700 0
1000000 478 657 0
1000000 479 718 0
1000000 480 710 0
1000000 481 666 0
1000000 482 727 0
1000000 483 669 0
1000000 484 670 0
1000000 485 771 0
1000000 486 672 0
1000000 487 723 0
1000000 488 736 0
1000000 489 755 0
1000000 490 703 0
1000000 491 706 0
1000000 492 747 0
1000000 493 726 0
1000000 494 653 0
1000000 495 653 0
1000000 496 765 0
1000000 497 723 0
1000000 498 710 0
1000000 499 757 0
1000000 500 712 0
1000000 501 649 0
1000000 502 780 0
1000000 503 735 0
1000000 504 676 0
1000000 505 705 0
1000000 506 721 0
1000000 507 770 0
1000000 508 660 0
1000000 509 737 0
1000000 510 787 0
1000000 511 774 0
1000000 512 697 0
1000000 513 716 0
1000000 514 768 0
1000000 515 646 0
1000000 516 716 0
1000000 517 749 0
1000000 518 766 0
1000000 519 661 0
1000000 520 742 0
1000000 521 705 0
1000000 522 734 0
1000000 523 674 0
1000000 524 645 0
1000000 525 779 0
1000000 526 701 0
1000000 527 740 0
1000000 528 688 0
1000000 529 697 0
1000000 530 675 0
1000000 531 745 0
1000000 532 714 0
1000000 533 747 0
1000000 534 763 0
1000000 535 642 0
1000000 536 765 0
1000000 537 705 0
1000000 538 780 0
1000000 539 710 0
1000000 540 696 0
1000000 541 686 0
1000000 542 738 0
1000000 543 730 0
1000000 544 642 0
1000000 545 724 0
1000000 546 667 0
1000000 547 746 0
1000000 548 713 0
1000000 549 759 0
1000000 550 685 0
1000000 551 761 0
1000000 552 729 0
1000000 553 671 0
1000000 554 665 0
1000000 555 775 0
1000000 556 704 0
1000000 557 721 0
1000000 558 678 0
1000000 559 765 0
1000000 560 709 0
1000000 561 681 0
1000000 562 655 0
1000000 563 772 0
1000000 564 746 0
1000000 565 729 0
1000000 566 682 0
1000000 567 789 0
1000000 568 785 0
1000000 569 658 0
1000000 570 648 0
1000000 571 688 0
1000000 572 720 0
1000000 573 734 0
1000000 574 708 0
1000000 575 779 0
1000000 576 690 0
1000000 577 759 0
1000000 578 677 0
1000000 579 670 0
1000000 580 742 0
1000000 581 725 0
1000000 582 736 0
1000000 583 691 0
1000000 584 699 0
1000000 585 670 0
1000000 586 704 0
1000000 587 711 0
1000000 588 704 0
1000000 589 668 0
1000000 590 689 0
1000000 591 694 0
1000000 592 771 0
1000000 593 763 0
1000000 594 788 0
1000000 595 676 0
1000000 596 667 0
1000000 597 647 0
1000000 598 682 0
1000000 599 777 0
1000000 600 692 0
1000000 601 755 0
1000000 602 674 0
1000000 603 733 0
1000000 604 695 0
1000000 605 764 0
1000000 606 734 0
1000000 607 689 0
1000000 608 758 0
1000000 609 694 0
1000000 610 715 0
1000000 611 703 0
1000000 612 665 0
1000000 613 700 0
1000000 614 668 0
1000000 615 659 0
1000000 616 643 0
1000000 617 684 0
1000000 618 672 0
1000000 619 663 0
1000000 620 760 0
1000000 621 736 0
1000000 622 688 0
1000000 623 680 0
1000000 624 701 0
1000000 625 655 0
1000000 626 683 0
1000000 627 709 0
1000000 628 764 0
1000000 629 789 0
1000000 630 773 0
1000000 631 693 0
1000000 632 719 0
1000000 633 680 0
1000000 634 711 0
1000000 635 703 0
1000000 636 751 0
1000000 637 772 0
1000000 638 784 0
1000000 639 760 0
1000000 640 766 0
1000000 -341 -749 0
1000000 -342 -741 0
1000000 -343 -745 0
1000000 -344 -727 0
1000000 -345 -721 0
1000000 -346 -709 0
1000000 -347 -668 0
1000000 -348 -665 0
1000000 -349 -755 0
1000000 -350 -717 0
1000000 -351 -784 0
1000000 -352 -752 0
1000000 -353 -741 0
1000000 -354 -742 0
1000000 -355 -758 0
1000000 -356 -769 0
1000000 -357 -661 0
1000000 -358 -723 0
1000000 -359 -777 0
1000000 -360 -731 0
1000000 -361 -740 0
1000000 -362 -654 0
1000000 -363 -777 0
1000000 -364 -679 0
1000000 -365 -739 0
1000000 -366 -655 0
1000000 -367 -685 0
1000000 -368 -659 0
1000000 -369 -644 0
1000000 -370 -744 0
1000000 -371 -744 0
1000000 -372 -686 0
1000000 -373 -684 0
1000000 -374 -752 0
1000000 -375 -780 0
1000000 -376 -650 0
1000000 -377 -732 0
1000000 -378 -760 0
1000000 -379 -737 0
1000000 -380 -647 0
1000000 -381 -720 0
1000000 -382 -694 0
1000000 -383 -645 0
1000000 -384 -720 0
1000000 -385 -673 0
1000000 -386 -698 0
1000000 -387 -753 0
1000000 -388 -744 0
1000000 -389 -687 0
1000000 -390 -699 0
1000000 -391 -683 0
1000000 -392 -728 0
1000000 -393 -728 0
1000000 -394 -768 0
1000000 -395 -773 0
1000000 -396 -769 0
1000000 -397 -756 0
1000000 -398 -663 0
1000000 -399 -684 0
1000000 -400 -762 0
1000000 -401 -651 0
1000000 -402 -756 0
1000000 -403 -700 0
1000000 -404 -659 0
1000000 -405 -754 0
1000000 -406 -747 0
1000000 -407 -767 0
1000000 -408 -664 0
1000000 -409 -645 0
1000000 -410 -748 0
1000000 -411 -669 0
1000000 -412 -656 0
1000000 -413 -786 0
1000000 -414 -732 0
1000000 -415 -772 0
1000000 -416 -730 0
1000000 -417 -714 0
1000000 -418 -722 0
1000000 -419 -641 0
1000000 -420 -770 0
1000000 -421 -696 0
1000000 -422 -738 0
1000000 -423 -707 0
1000000 -424 -783 0
1000000 -425 -781 0
1000000 -426 -718 0
1000000 -427 -764 0
1000000 -428 -763 0
1000000 -429 -715 0
1000000 -430 -681 0
1000000 -431 -766 0
1000000 -432 -783 0
1000000 -433 -776 0
1000000 -434 -690 0
1000000 -435 -728 0
1000000 -436 -741 0
1000000 -437 -750 0
1000000 -438 -716 0
1000000 -439 -770 0
1000000 -440 -769 0
1000000 -441 -745 0
1000000 -442 -701 0
1000000 -443 -782 0
1000000 -444 -680 0
1000000 -445 -706 0
1000000 -446 -712 0
1000000 -447 -779 0
1000000 -448 -739 0
1000000 -449 -790 0
1000000 -450 -663 0
1000000 -451 -649 0
1000000 -452 -787 0
1000000 -453 -773 0
1000000 -454 -652 0
1000000 -455 -782 0
1000000 -456 -730 0
1000000 -457 -752 0
1000000 -458 -673 0
1000000 -459 -788 0
1000000 -460 -687 0
1000000 -461 -767 0
1000000 -462 -690 0
1000000 -463 -778 0
1000000 -464 -697 0
1000000 -465 -649 0
1000000 -466 -667 0
1000000 -467 -781 0
1000000 -468 -726 0
1000000 -469 -717 0
1000000 -470 -689 0
1000000 -471 -743 0
1000000 -472 -702 0
1000000 -473 -662 0
1000000 -474 -707 0
1000000 -475 -735 0
1000000 -476 -707 0
1000000 -477 -700 0
1000000 -478 -657 0
1000000 -479 -718 0
1000000 -480 -710 0
1000000 -481 -666 0
1000000 -482 -727 0
1000000 -483 -669 0
1000000 -484 -670 0
1000000 -485 -771 0
1000000 -486 -672 0
1000000 -487 -723 0
1000000 -488 -736 0
1000000 -489 -755 0
1000000 -490 -703 0
1000000 -491 -706 0
1000000 -492 -747 0
1000000 -493 -726 0
1000000 -494 -653 0
1000000 -495 -653 0
1000000 -496 -765 0
1000000 -497 -723 0
1000000 -498 -710 0
1000000 -499 -757 0
1000000 -500 -712 0
1000000 -501 -649 0
1000000 -502 -780 0
1000000 -503 -735 0
1000000 -504 -676 0
1000000 -505 -705 0
1000000 -506 -721 0
1000000 -507 -770 0
1000000 -508 -660 0
1000000 -509 -737 0
1000000 -510 -787 0
1000000 -511 -774 0
1000000 -512 -697 0
1000000 -513 -716 0
1000000 -514 -768 0
1000000 -515 -646 0
1000000 -516 -716 0
1000000 -517 -749 0
1000000 -518 -766 0
1000000 -519 -661 0
1000000 -520 -742 0
1000000 -521 -705 0
1000000 -522 -734 0
1000000 -523 -674 0
1000000 -524 -645 0
1000000 -525 -779 0
1000000 -526 -701 0
1000000 -527 -740 0
1000000 -528 -688 0
1000000 -529 -697 0
1000000 -530 -675 0
1000000 -531 -745 0
1000000 -532 -714 0
1000000 -533 -747 0
1000000 -534 -763 0
1000000 -535 -642 0
1000000 -536 -765 0
1000000 -537 -705 0
1000000 -538 -780 0
1000000 -539 -710 0
1000000 -540 -696 0
1000000 -541 -686 0
1000000 -542 -738 0
1000000 -543 -730 0
1000000 -544 -642 0
1000000 -545 -724 0
1000000 -546 -667 0
1000000 -547 -746 0
1000000 -548 -713 0
1000000 -549 -759 0
1000000 -550 -685 0
1000000 -551 -761 0
1000000 -552 -729 0
1000000 -553 -671 0
1000000 -554 -665 0
1000000 -555 -775 0
1000000 -556 -704 0
1000000 -557 -721 0
1000000 -558 -678 0
1000000 -559 -765 0
1000000 -560 -709 0
1000000 -561 -681 0
1000000 -562 -655 0
1000000 -563 -772 0
1000000 -564 -746 0
1000000 -565 -729 0
1000000 -566 -682 0
1000000 -567 -789 0
1000000 -568 -785 0
1000000 -569 -658 0
1000000 -570 -648 0
1000000 -571 -688 0
1000000 -572 -720 0
1000000 -573 -734 0
1000000 -574 -708 0
1000000 -575 -779 0
1000000 -576 -690 0
1000000 -577 -759 0
1000000 -578 -677 0
1000000 -579 -670 0
1000000 -580 -742 0
1000000 -581 -725 0
1000000 -582 -736 0
1000000 -583 -691 0
1000000 -584 -699 0
1000000 -585 -670 0
1000000 -586 -704 0
1000000 -587 -711 0
1000000 -588 -704 0
1000000 -589 -668 0
1000000 -590 -689 0
1000000 -591 -694 0
1000000 -592 -771 0
1000000 -593 -763 0
1000000 -594 -788 0
1000000 -595 -676 0
1000000 -596 -667 0
1000000 -597 -647 0
1000000 -598 -682 0
1000000 -599 -777 0
1000000 -600 -692 0
1000000 -601 -755 0
1000000 -602 -674 0
1000000 -603 -733 0
1000000 -604 -695 0
1000000 -605 -764 0
1000000 -606 -734 0
1000000 -607 -689 0
1000000 -608 -758 0
1000000 -609 -694 0
1000000 -610 -715 0
1000000 -611 -703 0
1000000 -612 -665 0
1000000 -613 -700 0
1000000 -614 -668 0
1000000 -615 -659 0
1000000 -616 -643 0
1000000 -617 -684 0
1000000 -618 -672 0
1000000 -619 -663 0
1000000 -620 -760 0
1000000 -621 -736 0
1000000 -622 -688 0
1000000 -623 -680 0
1000000 -624 -701 0
1000000 -625 -655 0
1000000 -626 -683 0
1000000 -627 -709 0
1000000 -628 -764 0
1000000 -629 -789 0
1000000 -630 -773 0
1000000 -631 -693 0
1000000 -632 -719 0
1000000 -633 -680 0
1000000 -634 -711 0
1000000 -635 -703 0
1000000 -636 -751 0
1000000 -637 -772 0
1000000 -638 -784 0
1000000 -639 -760 0
1000000 -640 -766 0
7700 -641 0
5100 -642 0
5500 -643 0
5100 -644 0
8700 -645 0
5500 -646 0
8700 -647 0
5200 -648 0
5200 -649 0
5100 -650 0
8700 -651 0
5200 -652 0
5200 -653 0
5200 -654 0
5500 -655 0
5500 -656 0
7700 -657 0
8700 -658 0
5200 -659 0
8700 -660 0
7700 -661 0
5100 -662 0
7700 -663 0
5200 -664 0
5100 -665 0
5100 -666 0
7700 -667 0
5200 -668 0
5100 -669 0
7700 -670 0
7700 -671 0
5200 -672 0
7700 -673 0
7700 -674 0
7700 -675 0
8700 -676 0
5500 -677 0
8700 -678 0
7700 -679 0
5500 -680 0
5100 -681 0
8700 -682 0
8700 -683 0
8700 -684 0
5200 -685 0
7700 -686 0
5100 -687 0
5100 -688 0
5100 -689 0
7700 -690 0
5500 -691 0
8700 -692 0
7700 -693 0
8700 -694 0
7700 -695 0
8700 -696 0
7700 -697 0
5500 -698 0
5100 -699 0
8700 -700 0
7700 -701 0
5500 -702 0
5500 -703 0
5100 -704 0
7700 -705 0
8700 -706 0
5200 -707 0
5500 -708 0
5500 -709 0
5100 -710 0
7700 -711 0
5200 -712 0
5200 -713 0
5200 -714 0
7700 -715 0
8700 -716 0
5500 -717 0
7700 -718 0
5200 -719 0
5500 -720 0
5500 -721 0
5200 -722 0
5200 -723 0
5500 -724 0
5100 -725 0
5500 -726 0
8700 -727 0
8700 -728 0
5100 -729 0
7700 -730 0
5500 -731 0
8700 -732 0
5500 -733 0
5100 -734 0
5200 -735 0
5100 -736 0
5100 -737 0
5100 -738 0
8700 -739 0
5100 -740 0
5200 -741 0
5200 -742 0
5200 -743 0
7700 -744 0
5100 -745 0
5200 -746 0
7700 -747 0
5100 -748 0
5100 -749 0
5500 -750 0
5100 -751 0
5500 -752 0
8700 -753 0
8700 -754 0
7700 -755 0
5500 -756 0
8700 -757 0
8700 -758 0
8700 -759 0
5100 -760 0
5500 -761 0
8700 -762 0
5500 -763 0
5200 -764 0
5200 -765 0
5100 -766 0
5200 -767 0
7700 -768 0
5500 -769 0
8700 -770 0
7700 -771 0
7700 -772 0
5200 -773 0
5500 -774 0
8700 -775 0
7700 -776 0
5100 -777 0
8700 -778 0
5200 -779 0
5500 -780 0
5100 -781 0
8700 -782 0
8700 -783 0
7700 -784 0
8700 -785 0
5500 -786 0
5500 -787 0
8700 -788 0
7700 -789 0
5100 -790 0
1600 341 0
4400 342 0
1800 343 0
2500 344 0
2500 345 0
1800 346 0
2400 347 0
4400 348 0
1800 349 0
2500 350 0
2500 351 0
4400 352 0
1600 353 0
1800 354 0
1800 355 0
1600 356 0
4400 357 0
4400 358 0
2500 359 0
1600 360 0
4400 361 0
2400 362 0
1800 363 0
2500 364 0
1600 365 0
2500 366 0
4400 367 0
4400 368 0
2400 369 0
1800 370 0
1600 371 0
2500 372 0
1800 373 0
4400 374 0
1800 375 0
2500 376 0
1800 377 0
4400 378 0
1800 379 0
1600 380 0
1800 381 0
1600 382 0
1800 383 0
4400 384 0
2400 385 0
2400 386 0
1600 387 0
1600 388 0
2400 389 0
4400 390 0
4400 391 0
1800 392 0
1600 393 0
4400 394 0
2500 395 0
1800 396 0
1800 397 0
2400 398 0
1600 399 0
4400 400 0
4400 401 0
1800 402 0
1600 403 0
1600 404 0
1600 405 0
2400 406 0
4400 407 0
1600 408 0
2400 409 0
2500 410 0
1800 411 0
4400 412 0
4400 413 0
1800 414 0
2500 415 0
2400 416 0
1800 417 0
2400 418 0
2400 419 0
2400 420 0
2500 421 0
2500 422 0
2400 423 0
1600 424 0
4400 425 0
2500 426 0
1600 427 0
1600 428 0
4400 429 0
2400 430 0
1600 431 0
1600 432 0
1600 433 0
2400 434 0
2400 435 0
2500 436 0
2500 437 0
1600 438 0
2400 439 0
2400 440 0
4400 441 0
1600 442 0
2500 443 0
4400 444 0
2400 445 0
2500 446 0
1600 447 0
2400 448 0
1600 449 0
4400 450 0
4400 451 0
4400 452 0
1800 453 0
1600 454 0
4400 455 0
4400 456 0
1600 457 0
4400 458 0
1600 459 0
2400 460 0
1600 461 0
1600 462 0
1800 463 0
2400 464 0
1800 465 0
4400 466 0
1600 467 0
2400 468 0
1800 469 0
1600 470 0
2500 471 0
1800 472 0
2400 473 0
1800 474 0
1800 475 0
1800 476 0
4400 477 0
2500 478 0
2400 479 0
2400 480 0
2400 481 0
1600 482 0
2400 483 0
2400 484 0
2500 485 0
1600 486 0
1600 487 0
1800 488 0
4400 489 0
1600 490 0
1600 491 0
2500 492 0
2400 493 0
1600 494 0
1600 495 0
4400 496 0
2500 497 0
4400 498 0
1600 499 0
1600 500 0
2500 501 0
1800 502 0
1800 503 0
1600 504 0
1600 505 0
4400 506 0
4400 507 0
4400 508 0
2400 509 0
1600 510 0
2400 511 0
1800 512 0
1600 513 0
1600 514 0
2500 515 0
1600 516 0
1800 517 0
1600 518 0
2400 519 0
1600 520 0
2400 521 0
4400 522 0
4400 523 0
2500 524 0
1600 525 0
4400 526 0
4400 527 0
2500 528 0
2500 529 0
1600 530 0
2400 531 0
1600 532 0
2400 533 0
2500 534 0
1800 535 0
1600 536 0
1800 537 0
2400 538 0
1600 539 0
1800 540 0
1800 541 0
1600 542 0
1800 543 0
1600 544 0
1800 545 0
2500 546 0
1600 547 0
2500 548 0
4400 549 0
2500 550 0
1800 551 0
2400 552 0
2500 553 0
2500 554 0
2500 555 0
2400 556 0
2400 557 0
2500 558 0
4400 559 0
2400 560 0
2400 561 0
2400 562 0
1600 563 0
2500 564 0
4400 565 0
2400 566 0
1600 567 0
1800 568 0
1800 569 0
2400 570 0
4400 571 0
4400 572 0
2500 573 0
2400 574 0
1800 575 0
2500 576 0
4400 577 0
2500 578 0
1800 579 0
4400 580 0
1600 581 0
1600 582 0
2400 583 0
2500 584 0
4400 585 0
2400 586 0
2500 587 0
1800 588 0
4400 589 0
2500 590 0
4400 591 0
2500 592 0
1800 593 0
4400 594 0
1600 595 0
1800 596 0
2500 597 0
4400 598 0
1800 599 0
2500 600 0
1600 601 0
1600 602 0
2500 603 0
1600 604 0
1800 605 0
1600 606 0
2400 607 0
1600 608 0
2400 609 0
4400 610 0
1800 611 0
4400 612 0
4400 613 0
1600 614 0
1600 615 0
1600 616 0
4400 617 0
1800 618 0
1800 619 0
2400 620 0
2500 621 0
1800 622 0
1600 623 0
2400 624 0
1600 625 0
4400 626 0
4400 627 0
1600 628 0
1800 629 0
2500 630 0
1600 631 0
1800 632 0
2400 633 0
1600 634 0
2400 635 0
1800 636 0
1800 637 0
1800 638 0
1800 639 0
4400 640 0
24505 154 267 -146 0
11310 154 -267 146 0
28463 154 -267 -146 0
1885 -154 267 146 0
25165 -154 267 -146 0
12630 -154 -267 146 0
28925 -154 -267 -146 0
7220 184 214 -290 0
3800 184 -214 290 0
9576 184 -214 -290 0
14250 -184 214 290 0
16055 -184 214 -290 0
15200 -184 -214 290 0
16644 -184 -214 -290 0
3800 -110 0
8550 -186 0
4290 280 -206 0
27885 -280 206 0
29387 -280 -206 0
14326 331 255 -298 0
20735 331 -255 298 0
27182 331 -255 -298 0
32045 -331 255 298 0
34194 -331 255 -298 0
35155 -331 -255 298 0
36122 -331 -255 -298 0
2140 310 166 -324 0
6420 310 -166 324 0
7276 310 -166 -324 0
10165 -310 166 324 0
10272 -310 166 -324 0
10486 -310 -166 324 0
10529 -310 -166 -324 0
4030 226 193 -233 0
1240 226 -193 233 0
4464 226 -193 -233 0
5580 -226 193 233 0
5983 -226 193 -233 0
5704 -226 -193 233 0
6026 -226 -193 -233 0
2140 159 144 -332 0
9630 159 -144 332 0
9844 159 -144 -332 0
10165 -159 144 332 0
10272 -159 144 -332 0
10647 -159 -144 332 0
10657 -159 -144 -332 0
3100 118 145 -117 0
5890 118 -145 117 0
6045 118 -145 -117 0
1550 -118 145 117 0
3875 -118 145 -117 0
5967 -118 -145 117 0
6084 -118 -145 -117 0
13728 248 209 -227 0
32175 248 -209 227 0
35607 248 -209 -227 0
38610 -248 209 227 0
39983 -248 209 -227 0
41827 -248 -209 227 0
42171 -248 -209 -227 0
1550 338 294 -197 0
5270 338 -294 197 0
5502 338 -294 -197 0
2356 -338 294 197 0
3317 -338 294 -197 0
5623 -338 -294 197 0
5768 -338 -294 -197 0
6786 130 254 -268 0
22620 130 -254 268 0
25334 130 -254 -268 0
16965 -130 254 268 0
20697 -130 254 -268 0
29406 -130 -254 268 0
30899 -130 -254 -268 0
6080 179 181 -152 0
13300 179 -181 152 0
15124 179 -181 -152 0
13300 -179 181 152 0
15124 -179 181 -152 0
17290 -179 -181 152 0
17837 -179 -181 -152 0
7722 216 196 -309 0
15015 216 -196 309 0
20034 216 -196 -309 0
12870 -216 196 309 0
18275 -216 196 -309 0
23381 -216 -196 309 0
26894 -216 -196 -309 0
5890 112 318 -241 0
5580 112 -318 241 0
6169 112 -318 -241 0
3100 -112 318 241 0
6045 -112 318 -241 0
5890 -112 -318 241 0
6185 -112 -318 -241 0
2280 -122 0
3100 238 -224 0
1860 -238 224 0
4030 -238 -224 0
1885 187 285 -291 0
5655 187 -285 291 0
7257 187 -285 -291 0
32045 -187 285 291 0
32328 -187 285 -291 0
32893 -187 -285 291 0
33134 -187 -285 -291 0
4815 -307 0
9425 256 -108 0
11310 -256 108 0
17908 -256 -108 0
3770 -277 0
7722 -167 0
1116 125 126 -223 0
124 125 -126 223 0
1218 125 -126 -223 0
4030 -125 126 223 0
4421 -125 126 -223 0
4073 -125 -126 223 0
4456 -125 -126 -223 0
4650 250 234 -228 0
1984 250 -234 228 0
5146 250 -234 -228 0
1240 -250 234 228 0
4960 -250 234 -228 0
2827 -250 -234 228 0
5357 -250 -234 -228 0
3410 333 323 -164 0
1550 333 -323 164 0
4108 333 -323 -164 0
2480 -333 323 164 0
4526 -333 323 -164 0
3410 -333 -323 164 0
4945 -333 -323 -164 0
3770 337 -185 0
11310 -337 185 0
13949 -337 -185 0
1070 170 329 -119 0
2675 170 -329 119 0
3477 170 -329 -119 0
1070 -170 329 119 0
2033 -170 329 -119 0
3477 -170 -329 119 0
4200 -170 -329 -119 0
1605 -303 0
15015 220 102 -160 0
5148 220 -102 160 0
18361 220 -102 -160 0
10725 -220 102 160 0
21986 -220 102 -160 0
14586 -220 -102 160 0
24496 -220 -102 -160 0
380 121 -263 0
12350 -121 263 0
12483 -121 -263 0
2480 177 162 -320 0
310 177 -162 320 0
2666 177 -162 -320 0
2480 -177 162 320 0
3968 -177 162 -320 0
2666 -177 -162 320 0
4080 -177 -162 -320 0
3770 231 -174 0
754 -231 174 0
4449 -231 -174 0
13195 335 -334 0
11310 -335 334 0
20547 -335 -334 0
30030 113 218 -155 0
16302 113 -218 155 0
34921 113 -218 -155 0
6435 -113 218 155 0
31961 -113 218 -155 0
20292 -113 -218 155 0
36118 -113 -218 -155 0
9095 340 215 -175 0
6420 340 -215 175 0
10058 340 -215 -175 0
6420 -340 215 175 0
10058 -340 215 -175 0
8988 -340 -215 175 0
10443 -340 -215 -175 0
16150 243 124 -201 0
15200 243 -124 201 0
18430 243 -124 -201 0
2850 -243 124 201 0
16578 -243 124 -201 0
15770 -243 -124 201 0
18516 -243 -124 -201 0
4960 128 -252 0
1550 -128 252 0
5270 -128 -252 0
40755 314 -302 0
40755 -314 302 0
42793 -314 -302 0
30030 -210 0
1284 195 240 -239 0
1284 195 -240 239 0
2414 195 -240 -239 0
9630 -195 240 239 0
9758 -195 240 -239 0
9758 -195 -240 239 0
9871 -195 -240 -239 0
12350 188 -111 0
13300 -188 111 0
17005 -188 -111 0
2280 136 -319 0
3420 -136 319 0
5290 -136 -319 0
16150 189 131 -194 0
10450 189 -131 194 0
17718 189 -131 -194 0
13300 -189 131 194 0
18145 -189 131 -194 0
16435 -189 -131 194 0
18615 -189 -131 -194 0
10165 109 143 -269 0
4815 109 -143 269 0
10406 109 -143 -269 0
2140 -109 143 269 0
10272 -109 143 -269 0
5992 -109 -143 269 0
10465 -109 -143 -269 0
535 264 315 -281 0
2675 264 -315 281 0
3076 264 -315 -281 0
3745 -264 315 281 0
4093 -264 315 -281 0
5484 -264 -315 281 0
5745 -264 -315 -281 0
20735 211 204 -322 0
18850 211 -204 322 0
29218 211 -204 -322 0
4524 -211 204 322 0
22771 -211 204 -322 0
21112 -211 -204 322 0
30235 -211 -204 -322 0
5655 190 -279 0
22620 -190 279 0
24882 -190 -279 0
535 284 105 -123 0
10165 284 -105 123 0
10192 284 -105 -123 0
6955 -284 105 123 0
7142 -284 105 -123 0
10513 -284 -105 123 0
10522 -284 -105 -123 0
30030 -283 0
16302 306 150 -221 0
6435 306 -150 221 0
20292 306 -150 -221 0
7722 -306 150 221 0
21090 -306 150 -221 0
12999 -306 -150 221 0
24361 -306 -150 -221 0
8580 141 -153 0
21450 -141 153 0
25740 -141 -153 0
6650 300 308 -106 0
380 300 -308 106 0
6897 300 -308 -106 0
8550 -300 308 106 0
12207 -300 308 -106 0
8759 -300 -308 106 0
12343 -300 -308 -106 0
14326 232 -282 0
32045 -232 282 0
34194 -232 -282 0
1885 -161 0
3420 104 -317 0
7600 -104 317 0
9652 -104 -317 0
3720 116 245 -169 0
1984 116 -245 169 0
4514 116 -245 -169 0
1860 -116 245 169 0
4464 -116 245 -169 0
3249 -116 -245 169 0
5020 -116 -245 -169 0
34320 156 173 -202 0
32175 156 -173 202 0
40755 156 -173 -202 0
40755 -156 173 202 0
42471 -156 173 -202 0
42364 -156 -173 202 0
42793 -156 -173 -202 0
13195 237 222 -191 0
12064 237 -222 191 0
21037 237 -222 -191 0
5655 -237 222 191 0
16871 -237 222 -191 0
15909 -237 -222 191 0
23536 -237 -222 -191 0
620 258 265 -172 0
930 258 -265 172 0
1457 258 -265 -172 0
620 -258 265 172 0
1178 -258 265 -172 0
1457 -258 -265 172 0
1931 -258 -265 -172 0
214 225 247 -275 0
2140 225 -247 275 0
2311 225 -247 -275 0
6955 -225 247 275 0
7030 -225 247 -275 0
7704 -225 -247 275 0
7764 -225 -247 -275 0
33930 293 137 -272 0
15080 293 -137 272 0
35438 293 -137 -272 0
7540 -293 137 272 0
34684 -293 137 -272 0
19604 -293 -137 272 0
35890 -293 -137 -272 0
930 257 140 -200 0
1860 257 -140 200 0
2511 257 -140 -200 0
310 -257 140 200 0
1194 -257 140 -200 0
2077 -257 -140 200 0
2695 -257 -140 -200 0
5700 304 230 -244 0
11400 304 -230 244 0
13680 304 -230 -244 0
4750 -304 230 244 0
9025 -304 230 -244 0
13300 -304 -230 244 0
15010 -304 -230 -244 0
5350 103 -325 0
535 -103 325 0
5618 -103 -325 0
3210 312 274 -253 0
6955 312 -274 253 0
8078 312 -274 -253 0
4815 -312 274 253 0
6580 -312 274 -253 0
8640 -312 -274 253 0
9258 -312 -274 -253 0
2850 151 326 -217 0
7220 151 -326 217 0
8987 151 -326 -217 0
3800 -151 326 217 0
6080 -151 326 -217 0
9576 -151 -326 217 0
10990 -151 -326 -217 0
14250 -182 0
15080 -199 0
2170 -249 0
4650 278 142 -246 0
1984 278 -142 246 0
5146 278 -142 -246 0
5580 -278 142 246 0
6045 -278 142 -246 0
5778 -278 -142 246 0
6095 -278 -142 -246 0
3210 219 148 -192 0
9630 219 -148 192 0
9951 219 -148 -192 0
1070 -219 148 192 0
3959 -219 148 -192 0
9737 -219 -148 192 0
10026 -219 -148 -192 0
24505 287 -213 0
5655 -287 213 0
26484 -287 -213 0
34320 330 149 -266 0
23595 330 -149 266 0
39039 330 -149 -266 0
858 -330 149 266 0
34492 -330 149 -266 0
23981 -330 -149 266 0
39116 -330 -149 -266 0
2280 -178 0
4280 171 -139 0
1926 -171 139 0
5436 -171 -139 0
8550 127 292 -114 0
7220 127 -292 114 0
12521 127 -292 -114 0
1900 -127 292 114 0
9595 -127 292 -114 0
8398 -127 -292 114 0
13169 -127 -292 -114 0
6080 295 180 -203 0
4750 295 -180 203 0
9310 295 -180 -203 0
4750 -295 180 203 0
9310 -295 180 -203 0
8312 -295 -180 203 0
11733 -295 -180 -203 0
36465 327 115 -296 0
7722 327 -115 296 0
37623 327 -115 -296 0
13728 -327 115 296 0
38524 -327 115 -296 0
18979 -327 -115 296 0
39312 -327 -115 -296 0
11400 208 261 -165 0
5700 208 -261 165 0
13680 208 -261 -165 0
9500 -208 261 165 0
15200 -208 261 -165 0
12350 -208 -261 165 0
16340 -208 -261 -165 0
4280 -134 0
34320 -101 0
1116 316 176 -129 0
1550 316 -176 129 0
2387 316 -176 -129 0
1860 -316 176 129 0
2641 -316 176 -129 0
2945 -316 -176 129 0
3531 -316 -176 -129 0
14250 132 -301 0
10450 -132 301 0
16862 -132 -301 0
1284 -297 0
4030 138 147 -299 0
5270 138 -147 299 0
5874 138 -147 -299 0
124 -138 147 299 0
4073 -138 147 -299 0
5289 -138 -147 299 0
5881 -138 -147 -299 0
8550 262 339 -286 0
15200 262 -339 286 0
16910 262 -339 -286 0
950 -262 339 286 0
9073 -262 339 -286 0
15390 -262 -339 286 0
17014 -262 -339 -286 0
6955 288 120 -242 0
5350 288 -120 242 0
8827 288 -120 -242 0
535 -288 120 242 0
7142 -288 120 -242 0
5618 -288 -120 242 0
8921 -288 -120 -242 0
1885 158 -183 0
1885 -158 183 0
3676 -158 -183 0
16965 135 -273 0
1885 -135 273 0
18002 -135 -273 0
26390 311 -163 0
13195 -311 163 0
30348 -311 -163 0
3100 251 260 -270 0
2790 251 -260 270 0
4495 251 -260 -270 0
5270 -251 260 270 0
5735 -251 260 -270 0
5688 -251 -260 270 0
5944 -251 -260 -270 0
3745 212 271 -205 0
6955 212 -271 205 0
8266 212 -271 -205 0
1070 -212 271 205 0
4440 -212 271 -205 0
7330 -212 -271 205 0
8509 -212 -271 -205 0
2280 -276 0
214 107 -207 0
1284 -107 207 0
1472 -107 -207 0
34320 305 157 -259 0
27885 305 -157 259 0
39897 305 -157 -259 0
7722 -305 157 259 0
35864 -305 157 -259 0
30588 -305 -157 259 0
40438 -305 -157 -259 0
1885 229 336 -321 0
3770 229 -336 321 0
5467 229 -336 -321 0
30160 -229 336 321 0
30537 -229 336 -321 0
30914 -229 -336 321 0
31253 -229 -336 -321 0
1240 236 -133 0
744 -236 133 0
1835 -236 -133 0
13728 235 328 -289 0
10725 235 -328 289 0
21021 235 -328 -289 0
36465 -235 328 289 0
38524 -235 328 -289 0
38074 -235 -328 289 0
39618 -235 -328 -289 0
11310 168 313 -198 0
32045 168 -313 198 0
33742 168 -313 -198 0
1885 -168 313 198 0
12630 -168 313 -198 0
32328 -168 -313 198 0
33939 -168 -313 -198 0
